<?xml version="1.0"?>
<VTKFile type="UnstructuredGrid" version="0.1" byte_order="LittleEndian">
<UnstructuredGrid>
<Piece NumberOfPoints="29309" NumberOfCells="10224">
<Points>
<DataArray type="Float64" NumberOfComponents="3" format="ascii">
-0.49999999999999911 -0.49532622771744478 0 -0.48615541693063252 -0.5 0 -0.49999999999999911 -0.49532622771744478 0 -0.5 -0.5 0 -0.48615541693063252 -0.5 0 -0.49999999999999911 -0.49532622771744478 0 -0.48520599427574013 -0.48580804396970712 0 -0.48615541693063252 -0.5 0 -0.48520599427574013 -0.48580804396970712 0 -0.48615541693063252 -0.5 0 -0.48191894400668528 -0.50000000000000244 0 -0.48520599427574013 -0.48580804396970712 0 -0.5 -0.46989090573171949 0 -0.48011350871725877 -0.46780705049992172 0 -0.49999999999999911 -0.49532622771744478 0 -0.48520599427574013 -0.48580804396970712 0 -0.5 -0.46989090573171949 0 -0.48520599427574013 -0.48580804396970712 0 -0.46978046352871933 -0.4828496742093798 0 -0.48011350871725877 -0.46780705049992172 0 -0.46978046352871933 -0.4828496742093798 0 -0.45764198305075432 -0.46569934841875638 0 -0.48011350871725877 -0.46780705049992172 0 -0.48520599427574013 -0.48580804396970712 0 -0.46978046352871933 -0.4828496742093798 0 -0.48191894400668528 -0.50000000000000244 0 -0.46978046352871933 -0.4828496742093798 0 -0.48191894400668528 -0.50000000000000244 0 -0.46978046352871933 -0.4828496742093798 0 -0.4538757231698809 -0.5 0 -0.4510667084392157 -0.48327163927400429 0 -0.46978046352871933 -0.4828496742093798 0 -0.48191894400668528 -0.50000000000000244 0 -0.4538757231698809 -0.5 0 -0.46978046352871933 -0.4828496742093798 0 -0.45764198305075432 -0.46569934841875638 0 -0.46978046352871933 -0.4828496742093798 0 -0.4510667084392157 -0.48327163927400429 0 -0.45764198305075432 -0.46569934841875638 0 -0.4510667084392157 -0.48327163927400429 0 -0.43984629167316908 -0.47211939879000658 0 -0.43418908077355522 -0.49568977495187833 0 -0.4510667084392157 -0.48327163927400429 0 -0.43984629167316908 -0.47211939879000658 0 -0.45764198305075432 -0.46569934841875638 0 -0.4538757231698809 -0.5 0 -0.42583250233307651 -0.5 0 -0.43418908077355522 -0.49568977495187833 0 -0.4538757231698809 -0.5 0 -0.4510667084392157 -0.48327163927400429 0 -0.43418908077355522 -0.49568977495187833 0 -0.43984629167316908 -0.47211939879000658 0 -0.44550350257278581 -0.44854902262813562 0 -0.45764198305075432 -0.46569934841875638 0 -0.43984629167316908 -0.47211939879000658 0 -0.44550350257278581 -0.44854902262813562 0 -0.42918026569216838 -0.45870374125566138 0 -0.44550350257278581 -0.44854902262813562 0 -0.45764198305075432 -0.46569934841875638 0 -0.43984629167316908 -0.47211939879000658 0 -0.44550350257278581 -0.44854902262813562 0 -0.44550350257278581 -0.44854902262813562 0 -0.45764198305075432 -0.46569934841875638 0 -0.46006326994291141 -0.44835485634661137 0 -0.45764198305075432 -0.46569934841875638 0 -0.46006326994291141 -0.44835485634661137 0 -0.47547070664579311 -0.4494059160538344 0 -0.44550350257278581 -0.44854902262813562 0 -0.46006326994291141 -0.44835485634661137 0 -0.46017397261349868 -0.43165762058906387 0 -0.46006326994291141 -0.44835485634661137 0 -0.47547070664579311 -0.4494059160538344 0 -0.46017397261349868 -0.43165762058906387 0 -0.45764198305075432 -0.46569934841875638 0 -0.47547070664579311 -0.4494059160538344 0 -0.48011350871725877 -0.46780705049992172 0 -0.47547070664579311 -0.4494059160538344 0 -0.48011350871725877 -0.46780705049992172 0 -0.5 -0.44445558374599431 0 -0.5 -0.46989090573171949 0 -0.48011350871725877 -0.46780705049992172 0 -0.5 -0.44445558374599431 0 -0.47547070664579311 -0.4494059160538344 0 -0.5 -0.44445558374599431 0 -0.48039016628270881 -0.42888933741111901 0 -0.5 -0.44445558374599431 0 -0.5 -0.41902026176026907 0 -0.48039016628270881 -0.42888933741111901 0 -0.5 -0.41902026176026907 0 -0.47950130143004399 -0.41160388182976632 0 -0.48746864446835469 -0.40064741743319232 0 -0.5 -0.41902026176026907 0 -0.47950130143004399 -0.41160388182976632 0 -0.48039016628270881 -0.42888933741111901 0 -0.47950130143004399 -0.41160388182976632 0 -0.48039016628270881 -0.42888933741111901 0 -0.46643743848989261 -0.41758077542317329 0 -0.47950130143004399 -0.41160388182976632 0 -0.46903330510697933 -0.4063542943137825 0 -0.46643743848989261 -0.41758077542317329 0 -0.47950130143004399 -0.41160388182976632 0 -0.46903330510697933 -0.4063542943137825 0 -0.47623606316038591 -0.40121060678393572 0 -0.47547070664579311 -0.4494059160538344 0 -0.48039016628270881 -0.42888933741111901 0 -0.46017397261349868 -0.43165762058906387 0 -0.48039016628270881 -0.42888933741111901 0 -0.46017397261349868 -0.43165762058906387 0 -0.46643743848989261 -0.41758077542317329 0 -0.50000000000000022 -0.39186333439717241 0 -0.49509224694774079 -0.37005158701295748 0 -0.50000000000000022 -0.39186333439717241 0 -0.50000000000000133 -0.3935849397745439 0 -0.48159491317046837 -0.38422256161601631 0 -0.49039945445104022 -0.37987346372960218 0 -0.50000000000000022 -0.39186333439717241 0 -0.49509224694774079 -0.37005158701295748 0 -0.50000000000000133 -0.3935849397745439 0 -0.49323870232452249 -0.39259526696436209 0 -0.48159491317046837 -0.38422256161601631 0 -0.49039945445104022 -0.37987346372960218 0 -0.50000000000000022 -0.39186333439717241 0 -0.48159491317046837 -0.38422256161601631 0 -0.50000000000000133 -0.3935849397745439 0 -0.48159491317046837 -0.38422256161601631 0 -0.49039945445104022 -0.37987346372960218 0 -0.48159491317046837 -0.38422256161601631 0 -0.48491065768595137 -0.37335637189226278 0 -0.49323870232452249 -0.39259526696436209 0 -0.48746864446835469 -0.40064741743319232 0 -0.47684869752946668 -0.38941726441995073 0 -0.5 -0.41902026176026907 0 -0.50000000000000133 -0.3935849397745439 0 -0.48746864446835469 -0.40064741743319232 0 -0.49323870232452249 -0.39259526696436209 0 -0.47684869752946668 -0.38941726441995073 0 -0.50000000000000133 -0.3935849397745439 0 -0.49323870232452249 -0.39259526696436209 0 -0.48746864446835469 -0.40064741743319232 0 -0.47950130143004399 -0.41160388182976632 0 -0.48746864446835469 -0.40064741743319232 0 -0.47623606316038591 -0.40121060678393572 0 -0.46903330510697933 -0.4063542943137825 0 -0.47623606316038591 -0.40121060678393572 0 -0.46682973909756759 -0.39723500456206268 0 -0.47623606316038591 -0.40121060678393572 0 -0.47684869752946668 -0.38941726441995073 0 -0.46682973909756759 -0.39723500456206268 0 -0.48746864446835469 -0.40064741743319232 0 -0.47623606316038591 -0.40121060678393572 0 -0.47684869752946668 -0.38941726441995073 0 -0.49323870232452249 -0.39259526696436209 0 -0.47684869752946668 -0.38941726441995073 0 -0.48159491317046837 -0.38422256161601631 0 -0.47684869752946668 -0.38941726441995073 0 -0.48159491317046837 -0.38422256161601631 0 -0.46318982634093547 -0.37486018345748873 0 -0.48159491317046837 -0.38422256161601631 0 -0.46318982634093547 -0.37486018345748873 0 -0.48159491317046837 -0.38422256161601631 0 -0.47541868980982199 -0.37121554065115991 0 -0.46318982634093547 -0.37486018345748873 0 -0.48159491317046837 -0.38422256161601631 0 -0.48491065768595137 -0.37335637189226278 0 -0.47541868980982199 -0.37121554065115991 0 -0.47684869752946668 -0.38941726441995073 0 -0.46045869273441098 -0.38623926187553942 0 -0.46318982634093547 -0.37486018345748873 0 -0.47684869752946668 -0.38941726441995073 0 -0.46045869273441098 -0.38623926187553942 0 -0.46045869273441098 -0.38623926187553942 0 -0.4484166608936313 -0.37603761414193632 0 -0.46318982634093547 -0.37486018345748873 0 -0.46045869273441098 -0.38623926187553942 0 -0.46318982634093547 -0.37486018345748873 0 -0.47684869752946668 -0.38941726441995073 0 -0.46045869273441098 -0.38623926187553942 0 -0.46682973909756759 -0.39723500456206268 0 -0.46045869273441098 -0.38623926187553942 0 -0.46682973909756759 -0.39723500456206268 0 -0.45616198335700658 -0.40414120296997458 0 -0.46045869273441098 -0.38623926187553942 0 -0.45616198335700658 -0.40414120296997458 0 -0.46903330510697933 -0.4063542943137825 0 -0.46682973909756759 -0.39723500456206268 0 -0.45616198335700658 -0.40414120296997458 0 -0.45616198335700658 -0.40414120296997458 0 -0.44214758509232022 -0.38268875976128069 0 -0.43616488300048672 -0.40387531211529432 0 -0.46045869273441098 -0.38623926187553942 0 -0.45616198335700658 -0.40414120296997458 0 -0.44214758509232022 -0.38268875976128069 0 -0.46045869273441098 -0.38623926187553942 0 -0.44214758509232022 -0.38268875976128069 0 -0.4484166608936313 -0.37603761414193632 0 -0.46045869273441098 -0.38623926187553942 0 -0.44214758509232022 -0.38268875976128069 0 -0.44214758509232022 -0.38268875976128069 0 -0.4484166608936313 -0.37603761414193632 0 -0.43758707977579769 -0.37399721028401112 0 -0.46017397261349868 -0.43165762058906387 0 -0.46643743848989261 -0.41758077542317329 0 -0.45186527397959902 -0.42204314406440901 0 -0.46017397261349868 -0.43165762058906387 0 -0.45186527397959902 -0.42204314406440901 0 -0.45616198335700658 -0.40414120296997458 0 -0.45186527397959902 -0.42204314406440901 0 -0.45616198335700658 -0.40414120296997458 0 -0.46643743848989261 -0.41758077542317329 0 -0.45186527397959902 -0.42204314406440901 0 -0.46903330510697933 -0.4063542943137825 0 -0.45616198335700658 -0.40414120296997458 0 -0.46643743848989261 -0.41758077542317329 0 -0.45186527397959902 -0.42204314406440901 0 -0.43616488300048672 -0.40387531211529432 0 -0.45616198335700658 -0.40414120296997458 0 -0.45186527397959902 -0.42204314406440901 0 -0.43616488300048672 -0.40387531211529432 0 -0.45186527397959902 -0.42204314406440901 0 -0.42889835840991791 -0.42508779675966579 0 -0.43616488300048672 -0.40387531211529432 0 -0.44550350257278581 -0.44854902262813562 0 -0.45186527397959902 -0.42204314406440901 0 -0.42889835840991791 -0.42508779675966579 0 -0.44550350257278581 -0.44854902262813562 0 -0.46017397261349868 -0.43165762058906387 0 -0.45186527397959902 -0.42204314406440901 0 -0.44550350257278581 -0.44854902262813562 0 -0.45186527397959902 -0.42204314406440901 0 -0.44550350257278581 -0.44854902262813562 0 -0.42889835840991791 -0.42508779675966579 0 -0.42889835840991791 -0.42508779675966579 0 -0.43616488300048672 -0.40387531211529432 0 -0.42875153843867581 -0.40112161876200558 0 -0.42889835840991791 -0.42508779675966579 0 -0.42875153843867581 -0.40112161876200558 0 -0.41229321424704662 -0.40162657089119858 0 -0.40693228068349852 -0.41207061527762828 0 -0.41459994835563641 -0.42311664135267801 0 -0.41229321424704662 -0.40162657089119858 0 -0.42889835840991791 -0.42508779675966579 0 -0.41459994835563641 -0.42311664135267801 0 -0.41229321424704662 -0.40162657089119858 0 -0.42889835840991791 -0.42508779675966579 0 -0.41229321424704662 -0.40162657089119858 0 -0.40693228068349852 -0.41207061527762828 0 -0.41229321424704662 -0.40162657089119858 0 -0.42889835840991791 -0.42508779675966579 0 -0.41459994835563641 -0.42311664135267801 0 -0.42050909550830678 -0.44282883913093579 0 -0.40693228068349852 -0.41207061527762828 0 -0.41459994835563641 -0.42311664135267801 0 -0.40436679292941158 -0.43396938470396113 0 -0.41459994835563641 -0.42311664135267801 0 -0.40436679292941158 -0.43396938470396113 0 -0.42050909550830678 -0.44282883913093579 0 -0.44214758509232022 -0.38268875976128069 0 -0.42383647745022951 -0.37913825764702141 0 -0.43758707977579769 -0.37399721028401112 0 -0.44214758509232022 -0.38268875976128069 0 -0.42383647745022951 -0.37913825764702141 0 -0.43174449222022798 -0.38734747807419578 0 -0.44214758509232022 -0.38268875976128069 0 -0.42383647745022951 -0.37913825764702141 0 -0.42383647745022951 -0.37913825764702141 0 -0.42046449202137381 -0.38570748016617978 0 -0.42383647745022951 -0.37913825764702141 0 -0.43174449222022798 -0.38734747807419578 0 -0.42046449202137381 -0.38570748016617978 0 -0.44214758509232022 -0.38268875976128069 0 -0.43174449222022798 -0.38734747807419578 0 -0.43616488300048672 -0.40387531211529432 0 -0.43174449222022798 -0.38734747807419578 0 -0.43616488300048672 -0.40387531211529432 0 -0.42046449202137381 -0.38570748016617978 0 -0.43616488300048672 -0.40387531211529432 0 -0.42875153843867581 -0.40112161876200558 0 -0.42046449202137381 -0.38570748016617978 0 -0.43616488300048672 -0.40387531211529432 0 -0.42046449202137381 -0.38570748016617978 0 -0.42875153843867581 -0.40112161876200558 0 -0.41511247784728939 -0.39613414800832708 0 -0.42875153843867581 -0.40112161876200558 0 -0.41229321424704662 -0.40162657089119858 0 -0.41511247784728939 -0.39613414800832708 0 -0.40693228068349852 -0.41207061527762828 0 -0.41125442418652808 -0.40015887582028009 0 -0.40905861736450277 -0.39392039934855322 0 -0.40693228068349852 -0.41207061527762828 0 -0.40905861736450277 -0.39392039934855322 0 -0.40693228068349852 -0.41207061527762828 0 -0.41125442418652808 -0.40015887582028009 0 -0.41229321424704662 -0.40162657089119858 0 -0.41229321424704662 -0.40162657089119858 0 -0.41511247784728939 -0.39613414800832708 0 -0.41125442418652808 -0.40015887582028009 0 -0.41229321424704662 -0.40162657089119858 0 -0.41511247784728939 -0.39613414800832708 0 -0.41125442418652808 -0.40015887582028009 0 -0.41229321424704662 -0.40162657089119858 0 -0.41125442418652808 -0.40015887582028009 0 -0.40905861736450277 -0.39392039934855322 0 -0.41511247784728939 -0.39613414800832708 0 -0.40905861736450277 -0.39392039934855322 0 -0.41511247784728939 -0.39613414800832708 0 -0.40905861736450277 -0.39392039934855322 0 -0.41511247784728939 -0.39613414800832708 0 -0.41373633496857981 -0.38589146423884252 0 -0.42875153843867581 -0.40112161876200558 0 -0.41511247784728939 -0.39613414800832708 0 -0.42046449202137381 -0.38570748016617978 0 -0.41511247784728939 -0.39613414800832708 0 -0.42046449202137381 -0.38570748016617978 0 -0.40905861736450277 -0.39392039934855322 0 -0.4072696312735643 -0.37592596576787651 0 -0.41108014545796512 -0.37666481996132961 0 -0.40905861736450277 -0.39392039934855322 0 -0.41108014545796512 -0.37666481996132961 0 -0.40905861736450277 -0.39392039934855322 0 -0.41373633496857981 -0.38589146423884252 0 -0.41108014545796512 -0.37666481996132961 0 -0.42046449202137381 -0.38570748016617978 0 -0.41373633496857981 -0.38589146423884252 0 -0.41296594215176807 -0.37703047370982268 0 -0.41511247784728939 -0.39613414800832708 0 -0.42046449202137381 -0.38570748016617978 0 -0.41373633496857981 -0.38589146423884252 0 -0.41373633496857981 -0.38589146423884252 0 -0.41108014545796512 -0.37666481996132961 0 -0.41296594215176807 -0.37703047370982268 0 -0.4072696312735643 -0.37592596576787651 0 -0.41108014545796512 -0.37666481996132961 0 -0.41126754856870251 -0.3750651641043723 0 -0.4072696312735643 -0.37592596576787651 0 -0.41108014545796512 -0.37666481996132961 0 -0.41108014545796512 -0.37666481996132961 0 -0.41126754856870251 -0.3750651641043723 0 -0.41296594215176807 -0.37703047370982268 0 -0.41108014545796512 -0.37666481996132961 0 -0.41296594215176807 -0.37703047370982268 0 -0.41108014545796512 -0.37666481996132961 0 -0.41126754856870251 -0.3750651641043723 0 -0.41126754856870251 -0.3750651641043723 0 -0.41296594215176807 -0.37703047370982268 0 -0.42383647745022951 -0.37913825764702141 0 -0.42046449202137381 -0.38570748016617978 0 -0.41296594215176807 -0.37703047370982268 0 -0.42383647745022951 -0.37913825764702141 0 -0.41296594215176807 -0.37703047370982268 0 -0.42046449202137381 -0.38570748016617978 0 -0.41296594215176807 -0.37703047370982268 0 -0.42383647745022951 -0.37913825764702141 0 -0.41296594215176807 -0.37703047370982268 0 -0.42120701055000309 -0.37213698908984072 0 -0.38763058041797888 -0.38608469051336852 0 -0.40981429952192377 -0.37338352544344477 0 -0.39566232343660102 -0.37101069383993979 0 -0.4072696312735643 -0.37592596576787651 0 -0.38763058041797888 -0.38608469051336852 0 -0.40981429952192377 -0.37338352544344477 0 -0.40905861736450277 -0.39392039934855322 0 -0.38763058041797888 -0.38608469051336852 0 -0.40905861736450277 -0.39392039934855322 0 -0.4072696312735643 -0.37592596576787651 0 -0.38763058041797888 -0.38608469051336852 0 -0.38763058041797888 -0.38608469051336852 0 -0.40981429952192377 -0.37338352544344477 0 -0.40905861736450277 -0.39392039934855322 0 -0.39630713250688021 -0.4016261959921319 0 -0.38763058041797888 -0.38608469051336852 0 -0.40693228068349852 -0.41207061527762828 0 -0.40905861736450277 -0.39392039934855322 0 -0.39630713250688021 -0.4016261959921319 0 -0.39630713250688021 -0.4016261959921319 0 -0.38396818888554929 -0.39979864776837032 0 -0.38630266083370168 -0.41141850543845632 0 -0.38396818888554929 -0.39979864776837032 0 -0.37512769530458118 -0.4062457854902578 0 -0.38630266083370168 -0.41141850543845632 0 -0.38396818888554929 -0.39979864776837032 0 -0.37512769530458118 -0.4062457854902578 0 -0.3744728753646045 -0.39361806140763672 0 -0.38396818888554929 -0.39979864776837032 0 -0.38763058041797888 -0.38608469051336852 0 -0.3744728753646045 -0.39361806140763672 0 -0.39630713250688021 -0.4016261959921319 0 -0.38396818888554929 -0.39979864776837032 0 -0.38763058041797888 -0.38608469051336852 0 -0.38763058041797888 -0.38608469051336852 0 -0.38675848510619087 -0.37403121394135219 0 -0.3688461688659439 -0.37921569080381268 0 -0.38763058041797888 -0.38608469051336852 0 -0.3688461688659439 -0.37921569080381268 0 -0.38763058041797888 -0.38608469051336852 0 -0.3688461688659439 -0.37921569080381268 0 -0.3744728753646045 -0.39361806140763672 0 -0.38763058041797888 -0.38608469051336852 0 -0.3744728753646045 -0.39361806140763672 0 -0.38763058041797888 -0.38608469051336852 0 -0.39566232343660102 -0.37101069383993979 0 -0.38675848510619087 -0.37403121394135219 0 -0.40693228068349852 -0.41207061527762828 0 -0.40436679292941158 -0.43396938470396113 0 -0.39782053195988848 -0.42982190933477948 0 -0.39782053195988848 -0.42982190933477948 0 -0.38643861044177519 -0.42610764612766849 0 -0.388708783236278 -0.44757320339193041 0 -0.40436679292941158 -0.43396938470396113 0 -0.39782053195988848 -0.42982190933477948 0 -0.388708783236278 -0.44757320339193041 0 -0.40693228068349852 -0.41207061527762828 0 -0.40436679292941158 -0.43396938470396113 0 -0.39782053195988848 -0.42982190933477948 0 -0.39498823285348422 -0.41594338178467982 0 -0.38643861044177519 -0.42610764612766849 0 -0.40693228068349852 -0.41207061527762828 0 -0.39782053195988848 -0.42982190933477948 0 -0.39498823285348422 -0.41594338178467982 0 -0.40693228068349852 -0.41207061527762828 0 -0.39782053195988848 -0.42982190933477948 0 -0.40693228068349852 -0.41207061527762828 0 -0.39630713250688021 -0.4016261959921319 0 -0.39498823285348422 -0.41594338178467982 0 -0.39630713250688021 -0.4016261959921319 0 -0.39498823285348422 -0.41594338178467982 0 -0.38630266083370168 -0.41141850543845632 0 -0.38630266083370168 -0.41141850543845632 0 -0.37598397969694147 -0.41918093281251601 0 -0.38643861044177519 -0.42610764612766849 0 -0.39498823285348422 -0.41594338178467982 0 -0.38630266083370168 -0.41141850543845632 0 -0.38643861044177519 -0.42610764612766849 0 -0.37512769530458118 -0.4062457854902578 0 -0.38630266083370168 -0.41141850543845632 0 -0.37598397969694147 -0.41918093281251601 0 -0.38643861044177519 -0.42610764612766849 0 -0.388708783236278 -0.44757320339193041 0 -0.37441429701011503 -0.43281772285011472 0 -0.37598397969694147 -0.41918093281251601 0 -0.38643861044177519 -0.42610764612766849 0 -0.37441429701011503 -0.43281772285011472 0 -0.388708783236278 -0.44757320339193041 0 -0.36902153858596082 -0.44840178465177699 0 -0.37441429701011503 -0.43281772285011472 0 -0.39782053195988848 -0.42982190933477948 0 -0.388708783236278 -0.44757320339193041 0 -0.40436679292941158 -0.43396938470396113 0 -0.388708783236278 -0.44757320339193041 0 -0.40386468831178279 -0.44920456395816599 0 -0.39340918905447242 -0.46520952930629472 0 -0.40280606246679512 -0.47909897056770429 0 -0.41274671626350051 -0.46110833457502393 0 -0.40386468831178279 -0.44920456395816599 0 -0.39340918905447242 -0.46520952930629472 0 -0.41274671626350051 -0.46110833457502393 0 -0.388708783236278 -0.44757320339193041 0 -0.40386468831178279 -0.44920456395816599 0 -0.39340918905447242 -0.46520952930629472 0 -0.388708783236278 -0.44757320339193041 0 -0.37093562395134061 -0.4689170394434482 0 -0.36902153858596082 -0.44840178465177699 0 -0.388708783236278 -0.44757320339193041 0 -0.39340918905447242 -0.46520952930629472 0 -0.37093562395134061 -0.4689170394434482 0 -0.38693724352566961 -0.48264510786348952 0 -0.36974606065946769 -0.5 0 -0.37093562395134061 -0.4689170394434482 0 -0.39340918905447242 -0.46520952930629472 0 -0.38693724352566961 -0.48264510786348952 0 -0.37093562395134061 -0.4689170394434482 0 -0.38693724352566961 -0.48264510786348952 0 -0.39778928149627207 -0.5 0 -0.36974606065946769 -0.5 0 -0.38693724352566961 -0.48264510786348952 0 -0.39778928149627207 -0.5 0 -0.40280606246679512 -0.47909897056770429 0 -0.39778928149627207 -0.5 0 -0.40280606246679512 -0.47909897056770429 0 -0.41440923495103932 -0.48813650146072879 0 -0.39340918905447242 -0.46520952930629472 0 -0.38693724352566961 -0.48264510786348952 0 -0.40280606246679512 -0.47909897056770429 0 -0.40280606246679512 -0.47909897056770429 0 -0.41962792344503758 -0.47479317822831019 0 -0.41440923495103932 -0.48813650146072879 0 -0.40280606246679512 -0.47909897056770429 0 -0.41962792344503758 -0.47479317822831019 0 -0.41274671626350051 -0.46110833457502393 0 -0.41962792344503758 -0.47479317822831019 0 -0.41440923495103932 -0.48813650146072879 0 -0.42599040501401531 -0.48679035850763003 0 -0.39778928149627207 -0.5 0 -0.41440923495103932 -0.48813650146072879 0 -0.42583250233307651 -0.5 0 -0.43984629167316908 -0.47211939879000658 0 -0.42599040501401531 -0.48679035850763003 0 -0.43418908077355522 -0.49568977495187833 0 -0.42583250233307651 -0.5 0 -0.42599040501401531 -0.48679035850763003 0 -0.43418908077355522 -0.49568977495187833 0 -0.41440923495103932 -0.48813650146072879 0 -0.42583250233307651 -0.5 0 -0.42599040501401531 -0.48679035850763003 0 -0.43984629167316908 -0.47211939879000658 0 -0.41962792344503758 -0.47479317822831019 0 -0.42599040501401531 -0.48679035850763003 0 -0.43984629167316908 -0.47211939879000658 0 -0.43418908077355522 -0.49568977495187833 0 -0.43984629167316908 -0.47211939879000658 0 -0.41962792344503758 -0.47479317822831019 0 -0.42918026569216838 -0.45870374125566138 0 -0.44550350257278581 -0.44854902262813562 0 -0.42918026569216838 -0.45870374125566138 0 -0.42050909550830678 -0.44282883913093579 0 -0.44550350257278581 -0.44854902262813562 0 -0.42889835840991791 -0.42508779675966579 0 -0.42050909550830678 -0.44282883913093579 0 -0.40436679292941158 -0.43396938470396113 0 -0.40386468831178279 -0.44920456395816599 0 -0.42050909550830678 -0.44282883913093579 0 -0.40386468831178279 -0.44920456395816599 0 -0.42050909550830678 -0.44282883913093579 0 -0.41274671626350051 -0.46110833457502393 0 -0.42918026569216838 -0.45870374125566138 0 -0.42050909550830678 -0.44282883913093579 0 -0.41274671626350051 -0.46110833457502393 0 -0.41962792344503758 -0.47479317822831019 0 -0.42918026569216838 -0.45870374125566138 0 -0.41274671626350051 -0.46110833457502393 0 -0.44728620197534102 -0.27065214491736361 0 -0.45457930907554273 -0.25368028092202127 0 -0.43236998789552678 -0.25452055740584512 0 -0.44728620197534102 -0.27065214491736361 0 -0.43706027366371808 -0.2903868741680547 0 -0.42916354957484032 -0.271922358458205 0 -0.44728620197534102 -0.27065214491736361 0 -0.47541394804602732 -0.26808047816724229 0 -0.45740394963347591 -0.28617298876259278 0 -0.45457930907554273 -0.25368028092202127 0 -0.47541394804602732 -0.26808047816724229 0 -0.47321964036710051 -0.24693873317905721 0 -0.44728620197534102 -0.27065214491736361 0 -0.45457930907554273 -0.25368028092202127 0 -0.47541394804602732 -0.26808047816724229 0 -0.47541394804602732 -0.26808047816724229 0 -0.5 -0.244735536176657 0 -0.47321964036710051 -0.24693873317905721 0 -0.5 -0.27416109582076009 0 -0.47541394804602732 -0.26808047816724229 0 -0.5 -0.244735536176657 0 -0.5 -0.27416109582076009 0 -0.47541394804602732 -0.26808047816724229 0 -0.4764563839955851 -0.29772083783048958 0 -0.47541394804602732 -0.26808047816724229 0 -0.4764563839955851 -0.29772083783048958 0 -0.45740394963347591 -0.28617298876259278 0 -0.5 -0.27416109582076009 0 -0.5 -0.30358665546486319 0 -0.4764563839955851 -0.29772083783048958 0 -0.5 -0.30358665546486319 0 -0.48118984637655737 -0.31130993199397011 0 -0.4764563839955851 -0.29772083783048958 0 -0.48118984637655737 -0.31130993199397011 0 -0.4764563839955851 -0.29772083783048958 0 -0.46302626066742281 -0.31750414243599978 0 -0.4764563839955851 -0.29772083783048958 0 -0.45063418043222442 -0.3032846188205624 0 -0.46302626066742281 -0.31750414243599978 0 -0.4764563839955851 -0.29772083783048958 0 -0.45740394963347591 -0.28617298876259278 0 -0.45063418043222442 -0.3032846188205624 0 -0.44728620197534102 -0.27065214491736361 0 -0.45740394963347591 -0.28617298876259278 0 -0.43706027366371808 -0.2903868741680547 0 -0.45740394963347591 -0.28617298876259278 0 -0.45063418043222442 -0.3032846188205624 0 -0.43706027366371808 -0.2903868741680547 0 -0.45063418043222442 -0.3032846188205624 0 -0.44035123916544688 -0.31893274589652287 0 -0.43447557003253767 -0.30514749517224921 0 -0.45063418043222442 -0.3032846188205624 0 -0.43447557003253767 -0.30514749517224921 0 -0.43706027366371808 -0.2903868741680547 0 -0.45063418043222442 -0.3032846188205624 0 -0.44035123916544688 -0.31893274589652287 0 -0.46302626066742281 -0.31750414243599978 0 -0.44035123916544688 -0.31893274589652287 0 -0.46302626066742281 -0.31750414243599978 0 -0.44035123916544688 -0.31893274589652287 0 -0.44573850403421272 -0.3409036824681439 0 -0.43133529921925429 -0.33850911205166112 0 -0.44035123916544688 -0.31893274589652287 0 -0.44573850403421272 -0.3409036824681439 0 -0.45738832064225149 -0.33142472232976028 0 -0.45738832064225149 -0.33142472232976028 0 -0.46302626066742281 -0.31750414243599978 0 -0.46924099647251838 -0.3366017043567997 0 -0.44573850403421272 -0.3409036824681439 0 -0.45738832064225149 -0.33142472232976028 0 -0.45753141475268122 -0.34978234595416191 0 -0.45738832064225149 -0.33142472232976028 0 -0.46924099647251838 -0.3366017043567997 0 -0.45753141475268122 -0.34978234595416191 0 -0.44035123916544688 -0.31893274589652287 0 -0.45738832064225149 -0.33142472232976028 0 -0.46302626066742281 -0.31750414243599978 0 -0.46302626066742281 -0.31750414243599978 0 -0.4852767408432217 -0.32642809224452779 0 -0.46924099647251838 -0.3366017043567997 0 -0.48118984637655737 -0.31130993199397011 0 -0.46302626066742281 -0.31750414243599978 0 -0.4852767408432217 -0.32642809224452779 0 -0.5 -0.30358665546486319 0 -0.4852767408432217 -0.32642809224452779 0 -0.5 -0.33301221510896628 0 -0.5 -0.30358665546486319 0 -0.48118984637655737 -0.31130993199397011 0 -0.4852767408432217 -0.32642809224452779 0 -0.4852767408432217 -0.32642809224452779 0 -0.47954371870308521 -0.34061875194023639 0 -0.49018449389548119 -0.34823983962874261 0 -0.4852767408432217 -0.32642809224452779 0 -0.5 -0.33301221510896628 0 -0.49018449389548119 -0.34823983962874261 0 -0.4852767408432217 -0.32642809224452779 0 -0.49018449389548119 -0.34823983962874261 0 -0.4852767408432217 -0.32642809224452779 0 -0.47954371870308521 -0.34061875194023639 0 -0.46924099647251838 -0.3366017043567997 0 -0.47954371870308521 -0.34061875194023639 0 -0.46924099647251838 -0.3366017043567997 0 -0.47347264360111951 -0.35120537153087589 0 -0.47954371870308521 -0.34061875194023639 0 -0.47347264360111951 -0.35120537153087589 0 -0.49018449389548119 -0.34823983962874261 0 -0.47347264360111951 -0.35120537153087589 0 -0.49018449389548119 -0.34823983962874261 0 -0.48148037027576412 -0.36165631956932143 0 -0.47347264360111951 -0.35120537153087589 0 -0.48148037027576412 -0.36165631956932143 0 -0.46571465056894629 -0.36434067873108411 0 -0.49018449389548119 -0.34823983962874261 0 -0.49509224694774079 -0.37005158701295748 0 -0.5 -0.33301221510896628 0 -0.49018449389548119 -0.34823983962874261 0 -0.5 -0.36243777475306932 0 -0.49018449389548119 -0.34823983962874261 0 -0.49509224694774079 -0.37005158701295748 0 -0.48148037027576412 -0.36165631956932143 0 -0.50000000000000022 -0.39186333439717241 0 -0.5 -0.36243777475306932 0 -0.49509224694774079 -0.37005158701295748 0 -0.49018449389548119 -0.34823983962874261 0 -0.5 -0.36243777475306932 0 -0.49509224694774079 -0.37005158701295748 0 -0.49039945445104022 -0.37987346372960218 0 -0.49509224694774079 -0.37005158701295748 0 -0.48491065768595137 -0.37335637189226278 0 -0.49509224694774079 -0.37005158701295748 0 -0.48491065768595137 -0.37335637189226278 0 -0.48148037027576412 -0.36165631956932143 0 -0.48148037027576412 -0.36165631956932143 0 -0.47541868980982199 -0.37121554065115991 0 -0.46571465056894629 -0.36434067873108411 0 -0.48491065768595137 -0.37335637189226278 0 -0.48148037027576412 -0.36165631956932143 0 -0.47541868980982199 -0.37121554065115991 0 -0.46318982634093547 -0.37486018345748873 0 -0.46571465056894629 -0.36434067873108411 0 -0.43870012052469209 -0.36240265533136068 0 -0.47541868980982199 -0.37121554065115991 0 -0.46318982634093547 -0.37486018345748873 0 -0.46571465056894629 -0.36434067873108411 0 -0.46318982634093547 -0.37486018345748873 0 -0.46571465056894629 -0.36434067873108411 0 -0.46571465056894629 -0.36434067873108411 0 -0.45753141475268122 -0.34978234595416191 0 -0.43870012052469209 -0.36240265533136068 0 -0.47347264360111951 -0.35120537153087589 0 -0.46571465056894629 -0.36434067873108411 0 -0.45753141475268122 -0.34978234595416191 0 -0.46924099647251838 -0.3366017043567997 0 -0.47347264360111951 -0.35120537153087589 0 -0.45753141475268122 -0.34978234595416191 0 -0.44573850403421272 -0.3409036824681439 0 -0.45753141475268122 -0.34978234595416191 0 -0.43870012052469209 -0.36240265533136068 0 -0.44573850403421272 -0.3409036824681439 0 -0.43870012052469209 -0.36240265533136068 0 -0.43133529921925429 -0.33850911205166112 0 -0.46318982634093547 -0.37486018345748873 0 -0.43870012052469209 -0.36240265533136068 0 -0.4484166608936313 -0.37603761414193632 0 -0.46318982634093547 -0.37486018345748873 0 -0.43870012052469209 -0.36240265533136068 0 -0.4484166608936313 -0.37603761414193632 0 -0.43870012052469209 -0.36240265533136068 0 -0.43758707977579769 -0.37399721028401112 0 -0.42383647745022951 -0.37913825764702141 0 -0.42866045885025622 -0.3697402908071093 0 -0.42120701055000309 -0.37213698908984072 0 -0.42383647745022951 -0.37913825764702141 0 -0.42866045885025622 -0.3697402908071093 0 -0.42898896915218798 -0.36240517492457558 0 -0.42866045885025622 -0.3697402908071093 0 -0.42120701055000309 -0.37213698908984072 0 -0.43870012052469209 -0.36240265533136068 0 -0.43758707977579769 -0.37399721028401112 0 -0.42866045885025622 -0.3697402908071093 0 -0.42383647745022951 -0.37913825764702141 0 -0.43758707977579769 -0.37399721028401112 0 -0.42866045885025622 -0.3697402908071093 0 -0.43870012052469209 -0.36240265533136068 0 -0.42898896915218798 -0.36240517492457558 0 -0.42866045885025622 -0.3697402908071093 0 -0.43870012052469209 -0.36240265533136068 0 -0.41421041470844899 -0.34994512720523208 0 -0.43133529921925429 -0.33850911205166112 0 -0.43870012052469209 -0.36240265533136068 0 -0.41421041470844899 -0.34994512720523208 0 -0.43870012052469209 -0.36240265533136068 0 -0.42898896915218798 -0.36240517492457558 0 -0.41421041470844899 -0.34994512720523208 0 -0.42898896915218798 -0.36240517492457558 0 -0.41421041470844899 -0.34994512720523208 0 -0.41158320514557478 -0.37237074836067319 0 -0.41421041470844899 -0.34994512720523208 0 -0.41158320514557478 -0.37237074836067319 0 -0.42898896915218798 -0.36240517492457558 0 -0.42120701055000309 -0.37213698908984072 0 -0.41158320514557478 -0.37237074836067319 0 -0.42898896915218798 -0.36240517492457558 0 -0.41158320514557478 -0.37237074836067319 0 -0.41421041470844899 -0.34994512720523208 0 -0.41158320514557478 -0.37237074836067319 0 -0.39599997314130958 -0.35739816810380121 0 -0.41296594215176807 -0.37703047370982268 0 -0.42120701055000309 -0.37213698908984072 0 -0.41158320514557478 -0.37237074836067319 0 -0.41126754856870251 -0.3750651641043723 0 -0.41296594215176807 -0.37703047370982268 0 -0.41158320514557478 -0.37237074836067319 0 -0.41158320514557478 -0.37237074836067319 0 -0.40981429952192377 -0.37338352544344477 0 -0.41126754856870251 -0.3750651641043723 0 -0.41158320514557478 -0.37237074836067319 0 -0.41126754856870251 -0.3750651641043723 0 -0.41158320514557478 -0.37237074836067319 0 -0.40981429952192377 -0.37338352544344477 0 -0.41126754856870251 -0.3750651641043723 0 -0.40981429952192377 -0.37338352544344477 0 -0.4072696312735643 -0.37592596576787651 0 -0.41126754856870251 -0.3750651641043723 0 -0.40981429952192377 -0.37338352544344477 0 -0.40981429952192377 -0.37338352544344477 0 -0.39566232343660102 -0.37101069383993979 0 -0.39599997314130958 -0.35739816810380121 0 -0.41158320514557478 -0.37237074836067319 0 -0.40981429952192377 -0.37338352544344477 0 -0.39599997314130958 -0.35739816810380121 0 -0.40981429952192377 -0.37338352544344477 0 -0.39599997314130958 -0.35739816810380121 0 -0.39134303310890228 -0.36352363503284169 0 -0.39566232343660102 -0.37101069383993979 0 -0.39599997314130958 -0.35739816810380121 0 -0.39134303310890228 -0.36352363503284169 0 -0.39566232343660102 -0.37101069383993979 0 -0.38675848510619087 -0.37403121394135219 0 -0.38675848510619087 -0.37403121394135219 0 -0.37809175626065272 -0.36699607646647447 0 -0.3688461688659439 -0.37921569080381268 0 -0.39134303310890228 -0.36352363503284169 0 -0.38675848510619087 -0.37403121394135219 0 -0.37809175626065272 -0.36699607646647447 0 -0.39134303310890228 -0.36352363503284169 0 -0.37809175626065272 -0.36699607646647447 0 -0.37830395189338611 -0.35516799191734882 0 -0.37830395189338611 -0.35516799191734882 0 -0.38218564676069761 -0.34141281076415569 0 -0.36500338605709481 -0.34496816717466489 0 -0.39599997314130958 -0.35739816810380121 0 -0.38218564676069761 -0.34141281076415569 0 -0.39134303310890228 -0.36352363503284169 0 -0.37830395189338611 -0.35516799191734882 0 -0.38218564676069761 -0.34141281076415569 0 -0.39134303310890228 -0.36352363503284169 0 -0.39599997314130958 -0.35739816810380121 0 -0.38218564676069761 -0.34141281076415569 0 -0.39134303310890228 -0.36352363503284169 0 -0.38218564676069761 -0.34141281076415569 0 -0.41421041470844899 -0.34994512720523208 0 -0.39599997314130958 -0.35739816810380121 0 -0.39532286798551891 -0.34033732928801891 0 -0.41421041470844899 -0.34994512720523208 0 -0.39532286798551891 -0.34033732928801891 0 -0.39599997314130958 -0.35739816810380121 0 -0.39532286798551891 -0.34033732928801891 0 -0.38218564676069761 -0.34141281076415569 0 -0.40583580704490257 -0.33309060133052382 0 -0.39532286798551891 -0.34033732928801891 0 -0.39613372782217088 -0.32171859947179832 0 -0.39532286798551891 -0.34033732928801891 0 -0.38748053206468142 -0.33117170915417021 0 -0.39613372782217088 -0.32171859947179832 0 -0.41421041470844899 -0.34994512720523208 0 -0.40583580704490257 -0.33309060133052382 0 -0.39532286798551891 -0.34033732928801891 0 -0.38218564676069761 -0.34141281076415569 0 -0.3687916680951927 -0.32591386211703999 0 -0.37459123798087079 -0.32307584958655 0 -0.38218564676069761 -0.34141281076415569 0 -0.37459123798087079 -0.32307584958655 0 -0.39532286798551891 -0.34033732928801891 0 -0.38748053206468142 -0.33117170915417021 0 -0.38218564676069761 -0.34141281076415569 0 -0.38748053206468142 -0.33117170915417021 0 -0.38218564676069761 -0.34141281076415569 0 -0.37459123798087079 -0.32307584958655 0 -0.38218564676069761 -0.34141281076415569 0 -0.3687916680951927 -0.32591386211703999 0 -0.39613372782217088 -0.32171859947179832 0 -0.37459123798087079 -0.32307584958655 0 -0.38102839330070309 -0.31303530574707672 0 -0.39613372782217088 -0.32171859947179832 0 -0.38645983304389597 -0.30277220628514662 0 -0.38748053206468142 -0.33117170915417021 0 -0.39613372782217088 -0.32171859947179832 0 -0.37459123798087079 -0.32307584958655 0 -0.38102839330070309 -0.31303530574707672 0 -0.39613372782217088 -0.32171859947179832 0 -0.37459123798087079 -0.32307584958655 0 -0.39613372782217088 -0.32171859947179832 0 -0.41767621766347113 -0.32036134935704608 0 -0.39613372782217088 -0.32171859947179832 0 -0.41767621766347113 -0.32036134935704608 0 -0.40529497586861668 -0.30849457390512719 0 -0.40583580704490257 -0.33309060133052382 0 -0.39613372782217088 -0.32171859947179832 0 -0.41767621766347113 -0.32036134935704608 0 -0.41421041470844899 -0.34994512720523208 0 -0.41767621766347113 -0.32036134935704608 0 -0.43133529921925429 -0.33850911205166112 0 -0.41421041470844899 -0.34994512720523208 0 -0.41767621766347113 -0.32036134935704608 0 -0.41421041470844899 -0.34994512720523208 0 -0.40583580704490257 -0.33309060133052382 0 -0.41767621766347113 -0.32036134935704608 0 -0.44035123916544688 -0.31893274589652287 0 -0.41767621766347113 -0.32036134935704608 0 -0.43447557003253767 -0.30514749517224921 0 -0.44035123916544688 -0.31893274589652287 0 -0.41767621766347113 -0.32036134935704608 0 -0.44035123916544688 -0.31893274589652287 0 -0.41767621766347113 -0.32036134935704608 0 -0.43133529921925429 -0.33850911205166112 0 -0.43447557003253767 -0.30514749517224921 0 -0.43706027366371808 -0.2903868741680547 0 -0.41983044130147429 -0.30197309290708302 0 -0.41767621766347113 -0.32036134935704608 0 -0.43447557003253767 -0.30514749517224921 0 -0.41983044130147429 -0.30197309290708302 0 -0.43706027366371808 -0.2903868741680547 0 -0.41832424122508649 -0.28444876490183602 0 -0.42916354957484032 -0.271922358458205 0 -0.43706027366371808 -0.2903868741680547 0 -0.41832424122508649 -0.28444876490183602 0 -0.41983044130147429 -0.30197309290708302 0 -0.41832424122508649 -0.28444876490183602 0 -0.40353717733951039 -0.29312325985308602 0 -0.4031948992353514 -0.27472027147467348 0 -0.41832424122508649 -0.28444876490183602 0 -0.41983044130147429 -0.30197309290708302 0 -0.40353717733951039 -0.29312325985308602 0 -0.41983044130147429 -0.30197309290708302 0 -0.40529497586861668 -0.30849457390512719 0 -0.40353717733951039 -0.29312325985308602 0 -0.41767621766347113 -0.32036134935704608 0 -0.41983044130147429 -0.30197309290708302 0 -0.40529497586861668 -0.30849457390512719 0 -0.41767621766347113 -0.32036134935704608 0 -0.41983044130147429 -0.30197309290708302 0 -0.39613372782217088 -0.32171859947179832 0 -0.40529497586861668 -0.30849457390512719 0 -0.38645983304389597 -0.30277220628514662 0 -0.40529497586861668 -0.30849457390512719 0 -0.38645983304389597 -0.30277220628514662 0 -0.40353717733951039 -0.29312325985308602 0 -0.38102839330070309 -0.31303530574707672 0 -0.38645983304389597 -0.30277220628514662 0 -0.36692877435587468 -0.30457456764481178 0 -0.38645983304389597 -0.30277220628514662 0 -0.38657742987436811 -0.28437881304258061 0 -0.37155377923263722 -0.29182170416634179 0 -0.38657742987436811 -0.28437881304258061 0 -0.37224670342877619 -0.27797574244273909 0 -0.37155377923263722 -0.29182170416634179 0 -0.38657742987436811 -0.28437881304258061 0 -0.40353717733951039 -0.29312325985308602 0 -0.4031948992353514 -0.27472027147467348 0 -0.38645983304389597 -0.30277220628514662 0 -0.38657742987436811 -0.28437881304258061 0 -0.40353717733951039 -0.29312325985308602 0 -0.38657742987436811 -0.28437881304258061 0 -0.4031948992353514 -0.27472027147467348 0 -0.38559306263697157 -0.26415284775593412 0 -0.38657742987436811 -0.28437881304258061 0 -0.38559306263697157 -0.26415284775593412 0 -0.37224670342877619 -0.27797574244273909 0 -0.38559306263697157 -0.26415284775593412 0 -0.3633779528215354 -0.25781581817734728 0 -0.38731903233915838 -0.23842812602661409 0 -0.38559306263697157 -0.26415284775593412 0 -0.40263167937642541 -0.25474881847894387 0 -0.38731903233915838 -0.23842812602661409 0 -0.4031948992353514 -0.27472027147467348 0 -0.38559306263697157 -0.26415284775593412 0 -0.40263167937642541 -0.25474881847894387 0 -0.40263167937642541 -0.25474881847894387 0 -0.41679820476979329 -0.2507607630774138 0 -0.416497415770337 -0.26444305356315401 0 -0.4031948992353514 -0.27472027147467348 0 -0.40263167937642541 -0.25474881847894387 0 -0.416497415770337 -0.26444305356315401 0 -0.41832424122508649 -0.28444876490183602 0 -0.416497415770337 -0.26444305356315401 0 -0.42916354957484032 -0.271922358458205 0 -0.41832424122508649 -0.28444876490183602 0 -0.4031948992353514 -0.27472027147467348 0 -0.416497415770337 -0.26444305356315401 0 -0.44728620197534102 -0.27065214491736361 0 -0.42916354957484032 -0.271922358458205 0 -0.43236998789552678 -0.25452055740584512 0 -0.416497415770337 -0.26444305356315401 0 -0.42916354957484032 -0.271922358458205 0 -0.43236998789552678 -0.25452055740584512 0 -0.41679820476979329 -0.2507607630774138 0 -0.416497415770337 -0.26444305356315401 0 -0.43236998789552678 -0.25452055740584512 0 -0.32053224806165032 -0.25325990110162788 0 -0.32151625398157541 -0.27120874171056331 0 -0.33411189979342348 -0.25865620679674789 0 -0.32053224806165032 -0.25325990110162788 0 -0.33411189979342348 -0.25865620679674789 0 -0.32807514775026009 -0.2398334552598963 0 -0.32053224806165032 -0.25325990110162788 0 -0.32151625398157541 -0.27120874171056331 0 -0.30618571126858501 -0.25346888261604072 0 -0.32151625398157541 -0.27120874171056331 0 -0.30618571126858501 -0.25346888261604072 0 -0.32151625398157541 -0.27120874171056331 0 -0.31678399046273759 -0.29077654705736888 0 -0.30777579710460701 -0.27720609143501668 0 -0.32151625398157541 -0.27120874171056331 0 -0.33684679669456602 -0.28894860080508561 0 -0.34089885113012752 -0.27622117680514502 0 -0.33411189979342348 -0.25865620679674789 0 -0.34818730965395323 -0.26622364645270419 0 -0.32151625398157541 -0.27120874171056331 0 -0.34089885113012752 -0.27622117680514502 0 -0.33411189979342348 -0.25865620679674789 0 -0.32151625398157541 -0.27120874171056331 0 -0.34089885113012752 -0.27622117680514502 0 -0.33684679669456602 -0.28894860080508561 0 -0.33411189979342348 -0.25865620679674789 0 -0.34818730965395323 -0.26622364645270419 0 -0.34508872539177032 -0.247264508647837 0 -0.3633779528215354 -0.25781581817734728 0 -0.34818730965395323 -0.26622364645270419 0 -0.34508872539177032 -0.247264508647837 0 -0.38559306263697157 -0.26415284775593412 0 -0.3633779528215354 -0.25781581817734728 0 -0.37224670342877619 -0.27797574244273909 0 -0.3633779528215354 -0.25781581817734728 0 -0.37224670342877619 -0.27797574244273909 0 -0.35938782112561218 -0.28411536582363528 0 -0.3633779528215354 -0.25781581817734728 0 -0.35938782112561218 -0.28411536582363528 0 -0.34089885113012752 -0.27622117680514502 0 -0.34818730965395323 -0.26622364645270419 0 -0.35938782112561218 -0.28411536582363528 0 -0.3633779528215354 -0.25781581817734728 0 -0.34818730965395323 -0.26622364645270419 0 -0.35938782112561218 -0.28411536582363528 0 -0.34534302553163498 -0.2881744992421334 0 -0.35539768942968908 -0.31041491346992328 0 -0.33684679669456602 -0.28894860080508561 0 -0.34089885113012752 -0.27622117680514502 0 -0.34534302553163498 -0.2881744992421334 0 -0.35938782112561218 -0.28411536582363528 0 -0.34534302553163498 -0.2881744992421334 0 -0.35909471799272202 -0.28604725188559132 0 -0.35539768942968908 -0.31041491346992328 0 -0.34534302553163498 -0.2881744992421334 0 -0.35909471799272202 -0.28604725188559132 0 -0.35938782112561218 -0.28411536582363528 0 -0.35909471799272202 -0.28604725188559132 0 -0.35938782112561218 -0.28411536582363528 0 -0.35909471799272202 -0.28604725188559132 0 -0.36561365362947568 -0.28499652453394758 0 -0.37155377923263722 -0.29182170416634179 0 -0.35909471799272202 -0.28604725188559132 0 -0.37155377923263722 -0.29182170416634179 0 -0.36692877435587468 -0.30457456764481178 0 -0.35909471799272202 -0.28604725188559132 0 -0.36692877435587468 -0.30457456764481178 0 -0.37224670342877619 -0.27797574244273909 0 -0.35938782112561218 -0.28411536582363528 0 -0.36561365362947568 -0.28499652453394758 0 -0.35909471799272202 -0.28604725188559132 0 -0.35938782112561218 -0.28411536582363528 0 -0.36561365362947568 -0.28499652453394758 0 -0.37224670342877619 -0.27797574244273909 0 -0.36561365362947568 -0.28499652453394758 0 -0.37155377923263722 -0.29182170416634179 0 -0.35909471799272202 -0.28604725188559132 0 -0.36692877435587468 -0.30457456764481178 0 -0.35539768942968908 -0.31041491346992328 0 -0.38645983304389597 -0.30277220628514662 0 -0.37155377923263722 -0.29182170416634179 0 -0.36692877435587468 -0.30457456764481178 0 -0.36692877435587468 -0.30457456764481178 0 -0.35539768942968908 -0.31041491346992328 0 -0.36707194984712882 -0.31747326665967718 0 -0.35909471799272202 -0.28604725188559132 0 -0.35539768942968908 -0.31041491346992328 0 -0.35539768942968908 -0.31041491346992328 0 -0.33684679669456602 -0.28894860080508561 0 -0.35539768942968908 -0.31041491346992328 0 -0.33132050903457633 -0.30441692891465461 0 -0.333375608224172 -0.32071372605787191 0 -0.35539768942968908 -0.31041491346992328 0 -0.33132050903457633 -0.30441692891465461 0 -0.33684679669456602 -0.28894860080508561 0 -0.33132050903457633 -0.30441692891465461 0 -0.33684679669456602 -0.28894860080508561 0 -0.31678399046273759 -0.29077654705736888 0 -0.34089885113012752 -0.27622117680514502 0 -0.34534302553163498 -0.2881744992421334 0 -0.33684679669456602 -0.28894860080508561 0 -0.34534302553163498 -0.2881744992421334 0 -0.33684679669456602 -0.28894860080508561 0 -0.33684679669456602 -0.28894860080508561 0 -0.31678399046273759 -0.29077654705736888 0 -0.32151625398157541 -0.27120874171056331 0 -0.33684679669456602 -0.28894860080508561 0 -0.31678399046273759 -0.29077654705736888 0 -0.33132050903457633 -0.30441692891465461 0 -0.31678399046273759 -0.29077654705736888 0 -0.31504839622754038 -0.30665910968376281 0 -0.33132050903457633 -0.30441692891465461 0 -0.31504839622754038 -0.30665910968376281 0 -0.333375608224172 -0.32071372605787191 0 -0.31504839622754038 -0.30665910968376281 0 -0.32223320835782959 -0.33221553221624373 0 -0.333375608224172 -0.32071372605787191 0 -0.31504839622754038 -0.30665910968376281 0 -0.333375608224172 -0.32071372605787191 0 -0.31504839622754038 -0.30665910968376281 0 -0.32223320835782959 -0.33221553221624373 0 -0.30230849457523712 -0.32662388507259071 0 -0.33994748709090827 -0.33674498269004871 0 -0.333375608224172 -0.32071372605787191 0 -0.35170282022080268 -0.33476834243198222 0 -0.32223320835782959 -0.33221553221624373 0 -0.33994748709090827 -0.33674498269004871 0 -0.33917045661945072 -0.35284774152986143 0 -0.32223320835782959 -0.33221553221624373 0 -0.33994748709090827 -0.33674498269004871 0 -0.333375608224172 -0.32071372605787191 0 -0.333375608224172 -0.32071372605787191 0 -0.35170282022080268 -0.33476834243198222 0 -0.35539768942968908 -0.31041491346992328 0 -0.333375608224172 -0.32071372605787191 0 -0.35170282022080268 -0.33476834243198222 0 -0.35539768942968908 -0.31041491346992328 0 -0.35170282022080268 -0.33476834243198222 0 -0.35539768942968908 -0.31041491346992328 0 -0.3687916680951927 -0.32591386211703999 0 -0.35170282022080268 -0.33476834243198222 0 -0.36692877435587468 -0.30457456764481178 0 -0.37459123798087079 -0.32307584958655 0 -0.35539768942968908 -0.31041491346992328 0 -0.3687916680951927 -0.32591386211703999 0 -0.38102839330070309 -0.31303530574707672 0 -0.36692877435587468 -0.30457456764481178 0 -0.37459123798087079 -0.32307584958655 0 -0.36692877435587468 -0.30457456764481178 0 -0.36707194984712882 -0.31747326665967718 0 -0.37459123798087079 -0.32307584958655 0 -0.35539768942968908 -0.31041491346992328 0 -0.36707194984712882 -0.31747326665967718 0 -0.3687916680951927 -0.32591386211703999 0 -0.36707194984712882 -0.31747326665967718 0 -0.36965037937401629 -0.32338714048006051 0 -0.3687916680951927 -0.32591386211703999 0 -0.36965037937401629 -0.32338714048006051 0 -0.3687916680951927 -0.32591386211703999 0 -0.37459123798087079 -0.32307584958655 0 -0.36707194984712882 -0.31747326665967718 0 -0.36965037937401629 -0.32338714048006051 0 -0.37459123798087079 -0.32307584958655 0 -0.36965037937401629 -0.32338714048006051 0 -0.37459123798087079 -0.32307584958655 0 -0.3687916680951927 -0.32591386211703999 0 -0.35170282022080268 -0.33476834243198222 0 -0.36500338605709481 -0.34496816717466489 0 -0.38218564676069761 -0.34141281076415569 0 -0.3687916680951927 -0.32591386211703999 0 -0.36500338605709481 -0.34496816717466489 0 -0.35170282022080268 -0.33476834243198222 0 -0.36500338605709481 -0.34496816717466489 0 -0.35170282022080268 -0.33476834243198222 0 -0.35139357562492912 -0.33680661926174849 0 -0.36500338605709481 -0.34496816717466489 0 -0.35170282022080268 -0.33476834243198222 0 -0.35139357562492912 -0.33680661926174849 0 -0.33994748709090827 -0.33674498269004871 0 -0.35170282022080268 -0.33476834243198222 0 -0.35139357562492912 -0.33680661926174849 0 -0.33994748709090827 -0.33674498269004871 0 -0.35139357562492912 -0.33680661926174849 0 -0.34575933403213338 -0.3441865505936661 0 -0.35139357562492912 -0.33680661926174849 0 -0.34575933403213338 -0.3441865505936661 0 -0.35252581679324552 -0.35034685889300587 0 -0.35252581679324552 -0.35034685889300587 0 -0.36336632139185548 -0.36241494126870899 0 -0.34758058164856559 -0.36134757844884641 0 -0.34575933403213338 -0.3441865505936661 0 -0.35252581679324552 -0.35034685889300587 0 -0.33917045661945072 -0.35284774152986143 0 -0.35252581679324552 -0.35034685889300587 0 -0.34758058164856559 -0.36134757844884641 0 -0.33917045661945072 -0.35284774152986143 0 -0.35139357562492912 -0.33680661926174849 0 -0.35252581679324552 -0.35034685889300587 0 -0.36500338605709481 -0.34496816717466489 0 -0.37830395189338611 -0.35516799191734882 0 -0.36500338605709481 -0.34496816717466489 0 -0.36336632139185548 -0.36241494126870899 0 -0.35252581679324552 -0.35034685889300587 0 -0.36500338605709481 -0.34496816717466489 0 -0.36336632139185548 -0.36241494126870899 0 -0.37830395189338611 -0.35516799191734882 0 -0.36500338605709481 -0.34496816717466489 0 -0.36336632139185548 -0.36241494126870899 0 -0.35006175731390882 -0.37234669109425678 0 -0.3688461688659439 -0.37921569080381268 0 -0.37809175626065272 -0.36699607646647447 0 -0.36336632139185548 -0.36241494126870899 0 -0.3688461688659439 -0.37921569080381268 0 -0.37809175626065272 -0.36699607646647447 0 -0.37830395189338611 -0.35516799191734882 0 -0.36336632139185548 -0.36241494126870899 0 -0.36336632139185548 -0.36241494126870899 0 -0.35006175731390882 -0.37234669109425678 0 -0.34758058164856559 -0.36134757844884641 0 -0.35006175731390882 -0.37234669109425678 0 -0.34758058164856559 -0.36134757844884641 0 -0.33277855612436752 -0.36878165945839869 0 -0.34758058164856559 -0.36134757844884641 0 -0.33277855612436752 -0.36878165945839869 0 -0.33917045661945072 -0.35284774152986143 0 -0.33994748709090827 -0.33674498269004871 0 -0.34575933403213338 -0.3441865505936661 0 -0.33917045661945072 -0.35284774152986143 0 -0.33277855612436752 -0.36878165945839869 0 -0.33917045661945072 -0.35284774152986143 0 -0.30981201213498211 -0.34907937906736553 0 -0.33917045661945072 -0.35284774152986143 0 -0.30981201213498211 -0.34907937906736553 0 -0.32223320835782959 -0.33221553221624373 0 -0.33917045661945072 -0.35284774152986143 0 -0.30981201213498211 -0.34907937906736553 0 -0.33277855612436752 -0.36878165945839869 0 -0.30934637900480422 -0.3729051973103838 0 -0.30981201213498211 -0.34907937906736553 0 -0.30934637900480422 -0.3729051973103838 0 -0.30981201213498211 -0.34907937906736553 0 -0.28568508505150358 -0.3689813020744806 0 -0.30981201213498211 -0.34907937906736553 0 -0.28045356765051338 -0.34531101660486963 0 -0.30981201213498211 -0.34907937906736553 0 -0.28568508505150358 -0.3689813020744806 0 -0.28045356765051338 -0.34531101660486963 0 -0.28568508505150358 -0.3689813020744806 0 -0.25488830083163388 -0.36685168130002832 0 -0.28045356765051338 -0.34531101660486963 0 -0.25488830083163388 -0.36685168130002832 0 -0.28045356765051338 -0.34531101660486963 0 -0.25109512316604471 -0.34154265414237361 0 -0.28045356765051338 -0.34531101660486963 0 -0.2677932133139363 -0.32977539705638748 0 -0.28189804873344498 -0.31648586055582412 0 -0.28045356765051338 -0.34531101660486963 0 -0.2677932133139363 -0.32977539705638748 0 -0.25109512316604471 -0.34154265414237361 0 -0.28045356765051338 -0.34531101660486963 0 -0.25109512316604471 -0.34154265414237361 0 -0.2677932133139363 -0.32977539705638748 0 -0.25109512316604471 -0.34154265414237361 0 -0.2552863565788695 -0.31611310254605751 0 -0.2677932133139363 -0.32977539705638748 0 -0.2552863565788695 -0.31611310254605751 0 -0.28189804873344498 -0.31648586055582412 0 -0.28189804873344498 -0.31648586055582412 0 -0.30230849457523712 -0.32662388507259071 0 -0.29899403094178301 -0.31059333715545739 0 -0.28045356765051338 -0.34531101660486963 0 -0.28189804873344498 -0.31648586055582412 0 -0.30230849457523712 -0.32662388507259071 0 -0.32223320835782959 -0.33221553221624373 0 -0.30981201213498211 -0.34907937906736553 0 -0.30230849457523712 -0.32662388507259071 0 -0.30981201213498211 -0.34907937906736553 0 -0.28045356765051338 -0.34531101660486963 0 -0.30230849457523712 -0.32662388507259071 0 -0.31504839622754038 -0.30665910968376281 0 -0.30230849457523712 -0.32662388507259071 0 -0.29899403094178301 -0.31059333715545739 0 -0.31504839622754038 -0.30665910968376281 0 -0.29672118423090937 -0.29260449330965288 0 -0.31504839622754038 -0.30665910968376281 0 -0.29899403094178301 -0.31059333715545739 0 -0.29672118423090937 -0.29260449330965288 0 -0.31678399046273759 -0.29077654705736888 0 -0.29672118423090937 -0.29260449330965288 0 -0.30777579710460701 -0.27720609143501668 0 -0.31678399046273759 -0.29077654705736888 0 -0.29672118423090937 -0.29260449330965288 0 -0.31678399046273759 -0.29077654705736888 0 -0.31504839622754038 -0.30665910968376281 0 -0.29672118423090937 -0.29260449330965288 0 -0.29672118423090937 -0.29260449330965288 0 -0.27529961538464642 -0.27617690288721941 0 -0.29672118423090937 -0.29260449330965288 0 -0.26803510638311451 -0.29521811614429833 0 -0.28189804873344498 -0.31648586055582412 0 -0.29899403094178301 -0.31059333715545739 0 -0.29672118423090937 -0.29260449330965288 0 -0.28189804873344498 -0.31648586055582412 0 -0.29672118423090937 -0.29260449330965288 0 -0.26803510638311451 -0.29521811614429833 0 -0.2552863565788695 -0.31611310254605751 0 -0.28189804873344498 -0.31648586055582412 0 -0.26803510638311451 -0.29521811614429833 0 -0.2552863565788695 -0.31611310254605751 0 -0.25213886797067592 -0.29948735812300709 0 -0.26803510638311451 -0.29521811614429833 0 -0.25213886797067592 -0.29948735812300709 0 -0.25026817800329881 -0.2848496734077437 0 -0.26803510638311451 -0.29521811614429833 0 -0.25026817800329881 -0.2848496734077437 0 -0.26803510638311451 -0.29521811614429833 0 -0.26125283212923889 -0.27620938006357743 0 -0.29672118423090937 -0.29260449330965288 0 -0.26803510638311451 -0.29521811614429833 0 -0.27529961538464642 -0.27617690288721941 0 -0.26803510638311451 -0.29521811614429833 0 -0.27529961538464642 -0.27617690288721941 0 -0.26125283212923889 -0.27620938006357743 0 -0.27529961538464642 -0.27617690288721941 0 -0.26125283212923889 -0.27620938006357743 0 -0.26640045744717161 -0.26016405429774031 0 -0.26125283212923889 -0.27620938006357743 0 -0.26640045744717161 -0.26016405429774031 0 -0.2462608034279633 -0.26463815358088549 0 -0.25026817800329881 -0.2848496734077437 0 -0.26125283212923889 -0.27620938006357743 0 -0.2462608034279633 -0.26463815358088549 0 -0.25473520772639757 -0.25111225091949058 0 -0.26640045744717161 -0.26016405429774031 0 -0.2462608034279633 -0.26463815358088549 0 -0.25473520772639757 -0.25111225091949058 0 -0.26640045744717161 -0.26016405429774031 0 -0.26712662972940088 -0.24472262477513351 0 -0.26640045744717161 -0.26016405429774031 0 -0.27539145014436323 -0.25229755620922312 0 -0.26712662972940088 -0.24472262477513351 0 -0.26640045744717161 -0.26016405429774031 0 -0.27539145014436323 -0.25229755620922312 0 -0.28413880772532518 -0.26009703549102631 0 -0.27529961538464642 -0.27617690288721941 0 -0.26640045744717161 -0.26016405429774031 0 -0.28413880772532518 -0.26009703549102631 0 -0.28413880772532518 -0.26009703549102631 0 -0.29417012804027109 -0.27215312560113769 0 -0.30618571126858501 -0.25346888261604072 0 -0.27539145014436323 -0.25229755620922312 0 -0.28413880772532518 -0.26009703549102631 0 -0.28458303065451579 -0.24802118311711149 0 -0.28413880772532518 -0.26009703549102631 0 -0.30618571126858501 -0.25346888261604072 0 -0.28458303065451579 -0.24802118311711149 0 -0.27529961538464642 -0.27617690288721941 0 -0.28413880772532518 -0.26009703549102631 0 -0.29417012804027109 -0.27215312560113769 0 -0.29672118423090937 -0.29260449330965288 0 -0.27529961538464642 -0.27617690288721941 0 -0.29417012804027109 -0.27215312560113769 0 -0.29417012804027109 -0.27215312560113769 0 -0.30777579710460701 -0.27720609143501668 0 -0.30618571126858501 -0.25346888261604072 0 -0.32151625398157541 -0.27120874171056331 0 -0.30777579710460701 -0.27720609143501668 0 -0.30618571126858501 -0.25346888261604072 0 -0.29672118423090937 -0.29260449330965288 0 -0.29417012804027109 -0.27215312560113769 0 -0.30777579710460701 -0.27720609143501668 0 -0.33106865447154582 -0.45634111031522351 0 -0.34782648375240072 -0.47598710927410981 0 -0.35130348917006671 -0.45151333935243387 0 -0.33106865447154582 -0.45634111031522351 0 -0.35130348917006671 -0.45151333935243387 0 -0.33628965587939852 -0.43403349847810369 0 -0.33106865447154582 -0.45634111031522351 0 -0.31436802859572671 -0.44091732850011012 0 -0.33628965587939852 -0.43403349847810369 0 -0.33106865447154582 -0.45634111031522351 0 -0.31436802859572671 -0.44091732850011012 0 -0.31231300704077031 -0.46010039155843951 0 -0.33106865447154582 -0.45634111031522351 0 -0.32431126239091251 -0.47549499472814433 0 -0.31231300704077031 -0.46010039155843951 0 -0.32431126239091251 -0.47549499472814433 0 -0.31365961898585898 -0.5 0 -0.30055675854594971 -0.47748962930126132 0 -0.32431126239091251 -0.47549499472814433 0 -0.31365961898585898 -0.5 0 -0.34170283982266342 -0.5 0 -0.33106865447154582 -0.45634111031522351 0 -0.32431126239091251 -0.47549499472814433 0 -0.34782648375240072 -0.47598710927410981 0 -0.32431126239091251 -0.47549499472814433 0 -0.34170283982266342 -0.5 0 -0.34782648375240072 -0.47598710927410981 0 -0.34170283982266342 -0.5 0 -0.34782648375240072 -0.47598710927410981 0 -0.36974606065946769 -0.5 0 -0.34782648375240072 -0.47598710927410981 0 -0.36974606065946769 -0.5 0 -0.37093562395134061 -0.4689170394434482 0 -0.37093562395134061 -0.4689170394434482 0 -0.35130348917006671 -0.45151333935243387 0 -0.36902153858596082 -0.44840178465177699 0 -0.34782648375240072 -0.47598710927410981 0 -0.37093562395134061 -0.4689170394434482 0 -0.35130348917006671 -0.45151333935243387 0 -0.35130348917006671 -0.45151333935243387 0 -0.36902153858596082 -0.44840178465177699 0 -0.35751525936698769 -0.43071148324375502 0 -0.35130348917006671 -0.45151333935243387 0 -0.35751525936698769 -0.43071148324375502 0 -0.33628965587939852 -0.43403349847810369 0 -0.36843781272771292 -0.4241161486559788 0 -0.36583771483680771 -0.4137544557175295 0 -0.35751525936698769 -0.43071148324375502 0 -0.37441429701011503 -0.43281772285011472 0 -0.36843781272771292 -0.4241161486559788 0 -0.35751525936698769 -0.43071148324375502 0 -0.36902153858596082 -0.44840178465177699 0 -0.37441429701011503 -0.43281772285011472 0 -0.35751525936698769 -0.43071148324375502 0 -0.37598397969694147 -0.41918093281251601 0 -0.37441429701011503 -0.43281772285011472 0 -0.36843781272771292 -0.4241161486559788 0 -0.37598397969694147 -0.41918093281251601 0 -0.36843781272771292 -0.4241161486559788 0 -0.36583771483680771 -0.4137544557175295 0 -0.37512769530458118 -0.4062457854902578 0 -0.37598397969694147 -0.41918093281251601 0 -0.36583771483680771 -0.4137544557175295 0 -0.37512769530458118 -0.4062457854902578 0 -0.36583771483680771 -0.4137544557175295 0 -0.36131517031123012 -0.40115143230190481 0 -0.36583771483680771 -0.4137544557175295 0 -0.35751525936698769 -0.43071148324375502 0 -0.33728908093810089 -0.41172873352291989 0 -0.36583771483680771 -0.4137544557175295 0 -0.34695513953618501 -0.40110895956241338 0 -0.33728908093810089 -0.41172873352291989 0 -0.36583771483680771 -0.4137544557175295 0 -0.33728908093810089 -0.41172873352291989 0 -0.35006175731390882 -0.37234669109425678 0 -0.3688461688659439 -0.37921569080381268 0 -0.35006175731390882 -0.37234669109425678 0 -0.3688461688659439 -0.37921569080381268 0 -0.35937347582598728 -0.38866841085406528 0 -0.3688461688659439 -0.37921569080381268 0 -0.3744728753646045 -0.39361806140763672 0 -0.35937347582598728 -0.38866841085406528 0 -0.3744728753646045 -0.39361806140763672 0 -0.36131517031123012 -0.40115143230190481 0 -0.35937347582598728 -0.38866841085406528 0 -0.3744728753646045 -0.39361806140763672 0 -0.36131517031123012 -0.40115143230190481 0 -0.37512769530458118 -0.4062457854902578 0 -0.3744728753646045 -0.39361806140763672 0 -0.36131517031123012 -0.40115143230190481 0 -0.36583771483680771 -0.4137544557175295 0 -0.36131517031123012 -0.40115143230190481 0 -0.34695513953618501 -0.40110895956241338 0 -0.34695513953618501 -0.40110895956241338 0 -0.35937347582598728 -0.38866841085406528 0 -0.34741894426719938 -0.38675635795276231 0 -0.36131517031123012 -0.40115143230190481 0 -0.34695513953618501 -0.40110895956241338 0 -0.35937347582598728 -0.38866841085406528 0 -0.35006175731390882 -0.37234669109425678 0 -0.35937347582598728 -0.38866841085406528 0 -0.34741894426719938 -0.38675635795276231 0 -0.34741894426719938 -0.38675635795276231 0 -0.32195839532678899 -0.3881466679681454 0 -0.35006175731390882 -0.37234669109425678 0 -0.33277855612436752 -0.36878165945839869 0 -0.34741894426719938 -0.38675635795276231 0 -0.33277855612436752 -0.36878165945839869 0 -0.34741894426719938 -0.38675635795276231 0 -0.32195839532678899 -0.3881466679681454 0 -0.34695513953618501 -0.40110895956241338 0 -0.32195839532678899 -0.3881466679681454 0 -0.33728908093810089 -0.41172873352291989 0 -0.34695513953618501 -0.40110895956241338 0 -0.34741894426719938 -0.38675635795276231 0 -0.32195839532678899 -0.3881466679681454 0 -0.32195839532678899 -0.3881466679681454 0 -0.33728908093810089 -0.41172873352291989 0 -0.30874044703939407 -0.40970301132831022 0 -0.33277855612436752 -0.36878165945839869 0 -0.30934637900480422 -0.3729051973103838 0 -0.32195839532678899 -0.3881466679681454 0 -0.35751525936698769 -0.43071148324375502 0 -0.33628965587939852 -0.43403349847810369 0 -0.33728908093810089 -0.41172873352291989 0 -0.33628965587939852 -0.43403349847810369 0 -0.33728908093810089 -0.41172873352291989 0 -0.31905137037779269 -0.42407456163089602 0 -0.33728908093810089 -0.41172873352291989 0 -0.31905137037779269 -0.42407456163089602 0 -0.30874044703939407 -0.40970301132831022 0 -0.33728908093810089 -0.41172873352291989 0 -0.30874044703939407 -0.40970301132831022 0 -0.31436802859572671 -0.44091732850011012 0 -0.33628965587939852 -0.43403349847810369 0 -0.31905137037779269 -0.42407456163089602 0 -0.31436802859572671 -0.44091732850011012 0 -0.31905137037779269 -0.42407456163089602 0 -0.29217801133065052 -0.42907251802698482 0 -0.31905137037779269 -0.42407456163089602 0 -0.30874044703939407 -0.40970301132831022 0 -0.29217801133065052 -0.42907251802698482 0 -0.30874044703939407 -0.40970301132831022 0 -0.2801918131406872 -0.4076772891337006 0 -0.30874044703939407 -0.40970301132831022 0 -0.29217801133065052 -0.42907251802698482 0 -0.2801918131406872 -0.4076772891337006 0 -0.32195839532678899 -0.3881466679681454 0 -0.29649784638637872 -0.38953697798352849 0 -0.30934637900480422 -0.3729051973103838 0 -0.32195839532678899 -0.3881466679681454 0 -0.29649784638637872 -0.38953697798352849 0 -0.30934637900480422 -0.3729051973103838 0 -0.28568508505150358 -0.3689813020744806 0 -0.29649784638637872 -0.38953697798352849 0 -0.32195839532678899 -0.3881466679681454 0 -0.30874044703939407 -0.40970301132831022 0 -0.29649784638637872 -0.38953697798352849 0 -0.29649784638637872 -0.38953697798352849 0 -0.27103729744596838 -0.39092728799891152 0 -0.2801918131406872 -0.4076772891337006 0 -0.30874044703939407 -0.40970301132831022 0 -0.29649784638637872 -0.38953697798352849 0 -0.2801918131406872 -0.4076772891337006 0 -0.29649784638637872 -0.38953697798352849 0 -0.27103729744596838 -0.39092728799891152 0 -0.28568508505150358 -0.3689813020744806 0 -0.29649784638637872 -0.38953697798352849 0 -0.27103729744596838 -0.39092728799891152 0 -0.28568508505150358 -0.3689813020744806 0 -0.25488830083163388 -0.36685168130002832 0 -0.27103729744596838 -0.39092728799891152 0 -0.27103729744596838 -0.39092728799891152 0 -0.25164317924198021 -0.40565156693909088 0 -0.2801918131406872 -0.4076772891337006 0 -0.27103729744596838 -0.39092728799891152 0 -0.25164317924198021 -0.40565156693909088 0 -0.24595991543526949 -0.38690116566415572 0 -0.25488830083163388 -0.36685168130002832 0 -0.27103729744596838 -0.39092728799891152 0 -0.24595991543526949 -0.38690116566415572 0 -0.29217801133065052 -0.42907251802698482 0 -0.26513032535793069 -0.41775807750045901 0 -0.26384754497010332 -0.43583638446770873 0 -0.29217801133065052 -0.42907251802698482 0 -0.2801918131406872 -0.4076772891337006 0 -0.26513032535793069 -0.41775807750045901 0 -0.25164317924198021 -0.40565156693909088 0 -0.2801918131406872 -0.4076772891337006 0 -0.26513032535793069 -0.41775807750045901 0 -0.25164317924198021 -0.40565156693909088 0 -0.2801918131406872 -0.4076772891337006 0 -0.25164317924198021 -0.40565156693909088 0 -0.26513032535793069 -0.41775807750045901 0 -0.2475929601149178 -0.4304769916774086 0 -0.26513032535793069 -0.41775807750045901 0 -0.26384754497010332 -0.43583638446770873 0 -0.2475929601149178 -0.4304769916774086 0 -0.26384754497010332 -0.43583638446770873 0 -0.24935483431473821 -0.45387541306151041 0 -0.2475929601149178 -0.4304769916774086 0 -0.26384754497010332 -0.43583638446770873 0 -0.27257305708738239 -0.4529212580396057 0 -0.24935483431473821 -0.45387541306151041 0 -0.26120983142490839 -0.46722330273960078 0 -0.2475118771518067 -0.48168785313146562 0 -0.24935483431473821 -0.45387541306151041 0 -0.26120983142490839 -0.46722330273960078 0 -0.27257305708738239 -0.4529212580396057 0 -0.24935483431473821 -0.45387541306151041 0 -0.26120983142490839 -0.46722330273960078 0 -0.27257305708738239 -0.4529212580396057 0 -0.2778168751627802 -0.47922253879846438 0 -0.27257305708738239 -0.4529212580396057 0 -0.29129752730849851 -0.4533454741551694 0 -0.2778168751627802 -0.47922253879846438 0 -0.29217801133065052 -0.42907251802698482 0 -0.26384754497010332 -0.43583638446770873 0 -0.27257305708738239 -0.4529212580396057 0 -0.29217801133065052 -0.42907251802698482 0 -0.27257305708738239 -0.4529212580396057 0 -0.29129752730849851 -0.4533454741551694 0 -0.29129752730849851 -0.4533454741551694 0 -0.31231300704077031 -0.46010039155843951 0 -0.30055675854594971 -0.47748962930126132 0 -0.31436802859572671 -0.44091732850011012 0 -0.29129752730849851 -0.4533454741551694 0 -0.31231300704077031 -0.46010039155843951 0 -0.31436802859572671 -0.44091732850011012 0 -0.29217801133065052 -0.42907251802698482 0 -0.29129752730849851 -0.4533454741551694 0 -0.31365961898585898 -0.5 0 -0.30055675854594971 -0.47748962930126132 0 -0.28561639814905471 -0.5 0 -0.32431126239091251 -0.47549499472814433 0 -0.31231300704077031 -0.46010039155843951 0 -0.30055675854594971 -0.47748962930126132 0 -0.29129752730849851 -0.4533454741551694 0 -0.30055675854594971 -0.47748962930126132 0 -0.2778168751627802 -0.47922253879846438 0 -0.30055675854594971 -0.47748962930126132 0 -0.28561639814905471 -0.5 0 -0.2778168751627802 -0.47922253879846438 0 -0.28561639814905471 -0.5 0 -0.2778168751627802 -0.47922253879846438 0 -0.25757317731225032 -0.5 0 -0.26120983142490839 -0.46722330273960078 0 -0.2778168751627802 -0.47922253879846438 0 -0.2475118771518067 -0.48168785313146562 0 -0.2778168751627802 -0.47922253879846438 0 -0.25757317731225032 -0.5 0 -0.2475118771518067 -0.48168785313146562 0 -0.25757317731225032 -0.5 0 -0.2475118771518067 -0.48168785313146562 0 -0.22952995647544591 -0.5 0 -0.2475118771518067 -0.48168785313146562 0 -0.2255425825150349 -0.47301295195920029 0 -0.24935483431473821 -0.45387541306151041 0 -0.2475118771518067 -0.48168785313146562 0 -0.2255425825150349 -0.47301295195920029 0 -0.22952995647544591 -0.5 0 -0.2255425825150349 -0.47301295195920029 0 -0.22952995647544591 -0.5 0 -0.20148673563864161 -0.5 0 -0.24935483431473821 -0.45387541306151041 0 -0.23045675744100211 -0.44876414682368793 0 -0.2475929601149178 -0.4304769916774086 0 -0.2255425825150349 -0.47301295195920029 0 -0.24935483431473821 -0.45387541306151041 0 -0.23045675744100211 -0.44876414682368793 0 -0.2255425825150349 -0.47301295195920029 0 -0.23045675744100211 -0.44876414682368793 0 -0.21318353933801501 -0.45366858538994748 0 -0.21318353933801501 -0.45366858538994748 0 -0.1940942005471725 -0.44965953273186993 0 -0.21003731717059809 -0.4373070525132674 0 -0.23045675744100211 -0.44876414682368793 0 -0.21318353933801501 -0.45366858538994748 0 -0.21003731717059809 -0.4373070525132674 0 -0.2255425825150349 -0.47301295195920029 0 -0.21318353933801501 -0.45366858538994748 0 -0.2029742060631442 -0.46799489493667368 0 -0.21318353933801501 -0.45366858538994748 0 -0.2029742060631442 -0.46799489493667368 0 -0.1940942005471725 -0.44965953273186993 0 -0.2029742060631442 -0.46799489493667368 0 -0.1940942005471725 -0.44965953273186993 0 -0.1725716987963648 -0.4693314476804869 0 -0.1940942005471725 -0.44965953273186993 0 -0.1896813722004122 -0.43044146412770001 0 -0.21003731717059809 -0.4373070525132674 0 -0.2029742060631442 -0.46799489493667368 0 -0.20148673563864161 -0.5 0 -0.1843826478535929 -0.48654112135233868 0 -0.2255425825150349 -0.47301295195920029 0 -0.2029742060631442 -0.46799489493667368 0 -0.20148673563864161 -0.5 0 -0.20148673563864161 -0.5 0 -0.1843826478535929 -0.48654112135233868 0 -0.1734435148018372 -0.50000000000000011 0 -0.1843826478535929 -0.48654112135233868 0 -0.1734435148018372 -0.50000000000000011 0 -0.17143708396797649 -0.49537926414453298 0 -0.1734435148018372 -0.50000000000000011 0 -0.143684532447788 -0.5 0 -0.1523252619271605 -0.48385358432763409 0 -0.1734435148018372 -0.50000000000000011 0 -0.17143708396797649 -0.49537926414453298 0 -0.1523252619271605 -0.48385358432763409 0 -0.1734435148018372 -0.50000000000000011 0 -0.1523252619271605 -0.48385358432763409 0 -0.1725716987963648 -0.4693314476804869 0 -0.14732597182070459 -0.45927456449764659 0 -0.1523252619271605 -0.48385358432763409 0 -0.17143708396797649 -0.49537926414453298 0 -0.1725716987963648 -0.4693314476804869 0 -0.1523252619271605 -0.48385358432763409 0 -0.17143708396797649 -0.49537926414453298 0 -0.1725716987963648 -0.4693314476804869 0 -0.2029742060631442 -0.46799489493667368 0 -0.1843826478535929 -0.48654112135233868 0 -0.1725716987963648 -0.4693314476804869 0 -0.1843826478535929 -0.48654112135233868 0 -0.17143708396797649 -0.49537926414453298 0 -0.1725716987963648 -0.4693314476804869 0 -0.1725716987963648 -0.4693314476804869 0 -0.17370631362475311 -0.44328363121644082 0 -0.1940942005471725 -0.44965953273186993 0 -0.1725716987963648 -0.4693314476804869 0 -0.17370631362475311 -0.44328363121644082 0 -0.1940942005471725 -0.44965953273186993 0 -0.17370631362475311 -0.44328363121644082 0 -0.1896813722004122 -0.43044146412770001 0 -0.1725716987963648 -0.4693314476804869 0 -0.17370631362475311 -0.44328363121644082 0 -0.15824767014061841 -0.44474376746187549 0 -0.17370631362475311 -0.44328363121644082 0 -0.15824767014061841 -0.44474376746187549 0 -0.16436640470530339 -0.43073052758936781 0 -0.1725716987963648 -0.4693314476804869 0 -0.15824767014061841 -0.44474376746187549 0 -0.14732597182070459 -0.45927456449764659 0 -0.15824767014061841 -0.44474376746187549 0 -0.14732597182070459 -0.45927456449764659 0 -0.14243959689631239 -0.4407734403369889 0 -0.14243959689631239 -0.4407734403369889 0 -0.12750507033415631 -0.44988850150804383 0 -0.1233111415474024 -0.43290217214824839 0 -0.14732597182070459 -0.45927456449764659 0 -0.14243959689631239 -0.4407734403369889 0 -0.12750507033415631 -0.44988850150804383 0 -0.14732597182070459 -0.45927456449764659 0 -0.12750507033415631 -0.44988850150804383 0 -0.13120700905248381 -0.46770716865526812 0 -0.13120700905248381 -0.46770716865526812 0 -0.13087027772794541 -0.48508543112596131 0 -0.1132090351185559 -0.47386640264690399 0 -0.13120700905248381 -0.46770716865526812 0 -0.13087027772794541 -0.48508543112596131 0 -0.1523252619271605 -0.48385358432763409 0 -0.13087027772794541 -0.48508543112596131 0 -0.143684532447788 -0.5 0 -0.11392555009373879 -0.5 0 -0.13087027772794541 -0.48508543112596131 0 -0.143684532447788 -0.5 0 -0.1523252619271605 -0.48385358432763409 0 -0.13120700905248381 -0.46770716865526812 0 -0.1523252619271605 -0.48385358432763409 0 -0.14732597182070459 -0.45927456449764659 0 -0.13120700905248381 -0.46770716865526812 0 -0.1523252619271605 -0.48385358432763409 0 -0.1486563318063446 -0.39606989669257742 0 -0.14037703711346999 -0.38330045648048888 0 -0.13440122508289731 -0.39934357213894822 0 -0.1486563318063446 -0.39606989669257742 0 -0.1398860144490226 -0.41026832019552201 0 -0.15476461600332289 -0.40941708528366549 0 -0.1486563318063446 -0.39606989669257742 0 -0.13440122508289731 -0.39934357213894822 0 -0.1398860144490226 -0.41026832019552201 0 -0.1486563318063446 -0.39606989669257742 0 -0.15476461600332289 -0.40941708528366549 0 -0.16361966238721101 -0.39816223525796718 0 -0.14037703711346999 -0.38330045648048888 0 -0.15888943580214379 -0.37592771079887299 0 -0.14350339700977829 -0.36988746465782912 0 -0.1486563318063446 -0.39606989669257742 0 -0.14037703711346999 -0.38330045648048888 0 -0.15888943580214379 -0.37592771079887299 0 -0.14037703711346999 -0.38330045648048888 0 -0.1176470443896992 -0.39744712592041681 0 -0.1229729419482984 -0.38896607702568009 0 -0.1312901557849786 -0.3781160501614082 0 -0.12378043572137661 -0.36788844558584788 0 -0.1229729419482984 -0.38896607702568009 0 -0.14037703711346999 -0.38330045648048888 0 -0.1176470443896992 -0.39744712592041681 0 -0.14037703711346999 -0.38330045648048888 0 -0.1312901557849786 -0.3781160501614082 0 -0.1229729419482984 -0.38896607702568009 0 -0.14037703711346999 -0.38330045648048888 0 -0.1312901557849786 -0.3781160501614082 0 -0.14350339700977829 -0.36988746465782912 0 -0.14037703711346999 -0.38330045648048888 0 -0.13440122508289731 -0.39934357213894822 0 -0.1176470443896992 -0.39744712592041681 0 -0.13440122508289731 -0.39934357213894822 0 -0.1249886909415846 -0.41044930346258102 0 -0.1176470443896992 -0.39744712592041681 0 -0.13115924457646219 -0.41981911781351028 0 -0.1398860144490226 -0.41026832019552201 0 -0.1490760350002725 -0.42506899345032201 0 -0.13115924457646219 -0.41981911781351028 0 -0.1398860144490226 -0.41026832019552201 0 -0.1249886909415846 -0.41044930346258102 0 -0.13115924457646219 -0.41981911781351028 0 -0.1193516847202129 -0.42054645645416622 0 -0.1249886909415846 -0.41044930346258102 0 -0.13440122508289731 -0.39934357213894822 0 -0.1398860144490226 -0.41026832019552201 0 -0.1249886909415846 -0.41044930346258102 0 -0.1490760350002725 -0.42506899345032201 0 -0.1233111415474024 -0.43290217214824839 0 -0.14243959689631239 -0.4407734403369889 0 -0.1490760350002725 -0.42506899345032201 0 -0.1233111415474024 -0.43290217214824839 0 -0.13115924457646219 -0.41981911781351028 0 -0.1490760350002725 -0.42506899345032201 0 -0.1233111415474024 -0.43290217214824839 0 -0.14243959689631239 -0.4407734403369889 0 -0.1233111415474024 -0.43290217214824839 0 -0.15824767014061841 -0.44474376746187549 0 -0.14243959689631239 -0.4407734403369889 0 -0.1490760350002725 -0.42506899345032201 0 -0.1398860144490226 -0.41026832019552201 0 -0.1490760350002725 -0.42506899345032201 0 -0.15476461600332289 -0.40941708528366549 0 -0.1490760350002725 -0.42506899345032201 0 -0.17484624731220419 -0.41711370753045801 0 -0.1490760350002725 -0.42506899345032201 0 -0.15476461600332289 -0.40941708528366549 0 -0.17484624731220419 -0.41711370753045801 0 -0.15476461600332289 -0.40941708528366549 0 -0.17484624731220419 -0.41711370753045801 0 -0.16361966238721101 -0.39816223525796718 0 -0.1490760350002725 -0.42506899345032201 0 -0.16436640470530339 -0.43073052758936781 0 -0.17484624731220419 -0.41711370753045801 0 -0.15824767014061841 -0.44474376746187549 0 -0.1490760350002725 -0.42506899345032201 0 -0.16436640470530339 -0.43073052758936781 0 -0.17370631362475311 -0.44328363121644082 0 -0.16436640470530339 -0.43073052758936781 0 -0.17484624731220419 -0.41711370753045801 0 -0.17370631362475311 -0.44328363121644082 0 -0.17484624731220419 -0.41711370753045801 0 -0.1896813722004122 -0.43044146412770001 0 -0.17370631362475311 -0.44328363121644082 0 -0.17484624731220419 -0.41711370753045801 0 -0.17484624731220419 -0.41711370753045801 0 -0.19158334154275611 -0.41214569808626977 0 -0.17484624731220419 -0.41711370753045801 0 -0.18207190789633909 -0.39621419269092351 0 -0.19158334154275611 -0.41214569808626977 0 -0.17484624731220419 -0.41711370753045801 0 -0.1896813722004122 -0.43044146412770001 0 -0.19158334154275611 -0.41214569808626977 0 -0.17484624731220419 -0.41711370753045801 0 -0.18207190789633909 -0.39621419269092351 0 -0.16361966238721101 -0.39816223525796718 0 -0.18207190789633909 -0.39621419269092351 0 -0.16361966238721101 -0.39816223525796718 0 -0.17451238462272561 -0.38296624542026392 0 -0.16361966238721101 -0.39816223525796718 0 -0.15888943580214379 -0.37592771079887299 0 -0.17451238462272561 -0.38296624542026392 0 -0.1486563318063446 -0.39606989669257742 0 -0.16361966238721101 -0.39816223525796718 0 -0.15888943580214379 -0.37592771079887299 0 -0.16361966238721101 -0.39816223525796718 0 -0.15888943580214379 -0.37592771079887299 0 -0.18207190789633909 -0.39621419269092351 0 -0.17451238462272561 -0.38296624542026392 0 -0.19096945708337351 -0.38058061793758402 0 -0.17451238462272561 -0.38296624542026392 0 -0.19096945708337351 -0.38058061793758402 0 -0.17701145994456069 -0.36394647041597178 0 -0.19096945708337351 -0.38058061793758402 0 -0.20976095733471581 -0.38787638358047333 0 -0.20399020156669759 -0.36466238354839731 0 -0.19096945708337351 -0.38058061793758402 0 -0.19653451022960319 -0.39677685807388258 0 -0.20976095733471581 -0.38787638358047333 0 -0.19653451022960319 -0.39677685807388258 0 -0.19158334154275611 -0.41214569808626977 0 -0.20828688729083181 -0.40706739807416248 0 -0.18207190789633909 -0.39621419269092351 0 -0.19096945708337351 -0.38058061793758402 0 -0.19653451022960319 -0.39677685807388258 0 -0.18207190789633909 -0.39621419269092351 0 -0.19653451022960319 -0.39677685807388258 0 -0.19158334154275611 -0.41214569808626977 0 -0.20976095733471581 -0.38787638358047333 0 -0.20828688729083181 -0.40706739807416248 0 -0.2282915975756116 -0.3974001385121132 0 -0.19653451022960319 -0.39677685807388258 0 -0.20976095733471581 -0.38787638358047333 0 -0.20828688729083181 -0.40706739807416248 0 -0.20976095733471581 -0.38787638358047333 0 -0.22842994999047311 -0.37634712235092649 0 -0.20399020156669759 -0.36466238354839731 0 -0.1896813722004122 -0.43044146412770001 0 -0.204996063911147 -0.42179721141703969 0 -0.21003731717059809 -0.4373070525132674 0 -0.19158334154275611 -0.41214569808626977 0 -0.204996063911147 -0.42179721141703969 0 -0.20828688729083181 -0.40706739807416248 0 -0.1896813722004122 -0.43044146412770001 0 -0.19158334154275611 -0.41214569808626977 0 -0.204996063911147 -0.42179721141703969 0 -0.19158334154275611 -0.41214569808626977 0 -0.20828688729083181 -0.40706739807416248 0 -0.204996063911147 -0.42179721141703969 0 -0.20828688729083181 -0.40706739807416248 0 -0.22539140135113669 -0.4220244442837992 0 -0.204996063911147 -0.42179721141703969 0 -0.21003731717059809 -0.4373070525132674 0 -0.22539140135113669 -0.4220244442837992 0 -0.23045675744100211 -0.44876414682368793 0 -0.21003731717059809 -0.4373070525132674 0 -0.22539140135113669 -0.4220244442837992 0 -0.20828688729083181 -0.40706739807416248 0 -0.22539140135113669 -0.4220244442837992 0 -0.2282915975756116 -0.3974001385121132 0 -0.25164317924198021 -0.40565156693909088 0 -0.22539140135113669 -0.4220244442837992 0 -0.2475929601149178 -0.4304769916774086 0 -0.25164317924198021 -0.40565156693909088 0 -0.22539140135113669 -0.4220244442837992 0 -0.2282915975756116 -0.3974001385121132 0 -0.23045675744100211 -0.44876414682368793 0 -0.22539140135113669 -0.4220244442837992 0 -0.2475929601149178 -0.4304769916774086 0 -0.22842994999047311 -0.37634712235092649 0 -0.2282915975756116 -0.3974001385121132 0 -0.24595991543526949 -0.38690116566415572 0 -0.20976095733471581 -0.38787638358047333 0 -0.22842994999047311 -0.37634712235092649 0 -0.2282915975756116 -0.3974001385121132 0 -0.25164317924198021 -0.40565156693909088 0 -0.2282915975756116 -0.3974001385121132 0 -0.24595991543526949 -0.38690116566415572 0 -0.25488830083163388 -0.36685168130002832 0 -0.22842994999047311 -0.37634712235092649 0 -0.24595991543526949 -0.38690116566415572 0 -0.25488830083163388 -0.36685168130002832 0 -0.22842994999047311 -0.37634712235092649 0 -0.2274278617890988 -0.35270627511692432 0 -0.22842994999047311 -0.37634712235092649 0 -0.2274278617890988 -0.35270627511692432 0 -0.20399020156669759 -0.36466238354839731 0 -0.25488830083163388 -0.36685168130002832 0 -0.25109512316604471 -0.34154265414237361 0 -0.2274278617890988 -0.35270627511692432 0 -0.25109512316604471 -0.34154265414237361 0 -0.2552863565788695 -0.31611310254605751 0 -0.22829156877198389 -0.32840251352123367 0 -0.25109512316604471 -0.34154265414237361 0 -0.2274278617890988 -0.35270627511692432 0 -0.22829156877198389 -0.32840251352123367 0 -0.2552863565788695 -0.31611310254605751 0 -0.22829156877198389 -0.32840251352123367 0 -0.23667204647731341 -0.30221565890671759 0 -0.22829156877198389 -0.32840251352123367 0 -0.21774226054262011 -0.31317721232648882 0 -0.23667204647731341 -0.30221565890671759 0 -0.2274278617890988 -0.35270627511692432 0 -0.22829156877198389 -0.32840251352123367 0 -0.20923089243350271 -0.34483103666732812 0 -0.22829156877198389 -0.32840251352123367 0 -0.20272361033433889 -0.32741812117506608 0 -0.20923089243350271 -0.34483103666732812 0 -0.21774226054262011 -0.31317721232648882 0 -0.20272361033433889 -0.32741812117506608 0 -0.20407462950215899 -0.31127066373729012 0 -0.22829156877198389 -0.32840251352123367 0 -0.21774226054262011 -0.31317721232648882 0 -0.20272361033433889 -0.32741812117506608 0 -0.20272361033433889 -0.32741812117506608 0 -0.18771392466332379 -0.31064426929533778 0 -0.18343194628517531 -0.32989386597559972 0 -0.20272361033433889 -0.32741812117506608 0 -0.20407462950215899 -0.31127066373729012 0 -0.18771392466332379 -0.31064426929533778 0 -0.20272361033433889 -0.32741812117506608 0 -0.19123714131727601 -0.34563485206223971 0 -0.18343194628517531 -0.32989386597559972 0 -0.20272361033433889 -0.32741812117506608 0 -0.19123714131727601 -0.34563485206223971 0 -0.20923089243350271 -0.34483103666732812 0 -0.19123714131727601 -0.34563485206223971 0 -0.20399020156669759 -0.36466238354839731 0 -0.20923089243350271 -0.34483103666732812 0 -0.19123714131727601 -0.34563485206223971 0 -0.20399020156669759 -0.36466238354839731 0 -0.17701145994456069 -0.36394647041597178 0 -0.19096945708337351 -0.38058061793758402 0 -0.20399020156669759 -0.36466238354839731 0 -0.17701145994456069 -0.36394647041597178 0 -0.2274278617890988 -0.35270627511692432 0 -0.20399020156669759 -0.36466238354839731 0 -0.20923089243350271 -0.34483103666732812 0 -0.22047858705676329 -0.26374954356560298 0 -0.2462608034279633 -0.26463815358088549 0 -0.22939152313381031 -0.24359072022062511 0 -0.25473520772639757 -0.25111225091949058 0 -0.2462608034279633 -0.26463815358088549 0 -0.22939152313381031 -0.24359072022062511 0 -0.25026817800329881 -0.2848496734077437 0 -0.2462608034279633 -0.26463815358088549 0 -0.2313760309501057 -0.28066529612940738 0 -0.22047858705676329 -0.26374954356560298 0 -0.2462608034279633 -0.26463815358088549 0 -0.2313760309501057 -0.28066529612940738 0 -0.22047858705676329 -0.26374954356560298 0 -0.2313760309501057 -0.28066529612940738 0 -0.21079289637397511 -0.27800098956781277 0 -0.2313760309501057 -0.28066529612940738 0 -0.23667204647731341 -0.30221565890671759 0 -0.21694944762730539 -0.29657910429213641 0 -0.2313760309501057 -0.28066529612940738 0 -0.21694944762730539 -0.29657910429213641 0 -0.21079289637397511 -0.27800098956781277 0 -0.25026817800329881 -0.2848496734077437 0 -0.2313760309501057 -0.28066529612940738 0 -0.23667204647731341 -0.30221565890671759 0 -0.25213886797067592 -0.29948735812300709 0 -0.25026817800329881 -0.2848496734077437 0 -0.23667204647731341 -0.30221565890671759 0 -0.2552863565788695 -0.31611310254605751 0 -0.25213886797067592 -0.29948735812300709 0 -0.23667204647731341 -0.30221565890671759 0 -0.21774226054262011 -0.31317721232648882 0 -0.23667204647731341 -0.30221565890671759 0 -0.21694944762730539 -0.29657910429213641 0 -0.20407462950215899 -0.31127066373729012 0 -0.1991139005232383 -0.29493206579628328 0 -0.21694944762730539 -0.29657910429213641 0 -0.21774226054262011 -0.31317721232648882 0 -0.20407462950215899 -0.31127066373729012 0 -0.21694944762730539 -0.29657910429213641 0 -0.20407462950215899 -0.31127066373729012 0 -0.18771392466332379 -0.31064426929533778 0 -0.1991139005232383 -0.29493206579628328 0 -0.18771392466332379 -0.31064426929533778 0 -0.1991139005232383 -0.29493206579628328 0 -0.18341480972230481 -0.29398984851303678 0 -0.1991139005232383 -0.29493206579628328 0 -0.19173769525036191 -0.27910751937208661 0 -0.18341480972230481 -0.29398984851303678 0 -0.1991139005232383 -0.29493206579628328 0 -0.21079289637397511 -0.27800098956781277 0 -0.19173769525036191 -0.27910751937208661 0 -0.1991139005232383 -0.29493206579628328 0 -0.21694944762730539 -0.29657910429213641 0 -0.21079289637397511 -0.27800098956781277 0 -0.22047858705676329 -0.26374954356560298 0 -0.21079289637397511 -0.27800098956781277 0 -0.2005130271852644 -0.26559967346429009 0 -0.19173769525036191 -0.27910751937208661 0 -0.2005130271852644 -0.26559967346429009 0 -0.17968295940511231 -0.25641413664057061 0 -0.21079289637397511 -0.27800098956781277 0 -0.19173769525036191 -0.27910751937208661 0 -0.21079289637397511 -0.27800098956781277 0 -0.19173769525036191 -0.27910751937208661 0 -0.2005130271852644 -0.26559967346429009 0 -0.20453724126946121 -0.25000242843059739 0 -0.17968295940511231 -0.25641413664057061 0 -0.2005130271852644 -0.26559967346429009 0 -0.20453724126946121 -0.25000242843059739 0 -0.17968295940511231 -0.25641413664057061 0 -0.22047858705676329 -0.26374954356560298 0 -0.2005130271852644 -0.26559967346429009 0 -0.20453724126946121 -0.25000242843059739 0 -0.22047858705676329 -0.26374954356560298 0 -0.20453724126946121 -0.25000242843059739 0 -0.22939152313381031 -0.24359072022062511 0 -0.15868149439502019 -0.26183192607265171 0 -0.17968295940511231 -0.25641413664057061 0 -0.15868149439502019 -0.26183192607265171 0 -0.17968295940511231 -0.25641413664057061 0 -0.1647284344901889 -0.2418583948049611 0 -0.15868149439502019 -0.26183192607265171 0 -0.17968295940511231 -0.25641413664057061 0 -0.16153907740307649 -0.27417849787147269 0 -0.19173769525036191 -0.27910751937208661 0 -0.17268249412674899 -0.28021404917636228 0 -0.17968295940511231 -0.25641413664057061 0 -0.17268249412674899 -0.28021404917636228 0 -0.19173769525036191 -0.27910751937208661 0 -0.17968295940511231 -0.25641413664057061 0 -0.17268249412674899 -0.28021404917636228 0 -0.17968295940511231 -0.25641413664057061 0 -0.17268249412674899 -0.28021404917636228 0 -0.16153907740307649 -0.27417849787147269 0 -0.17268249412674899 -0.28021404917636228 0 -0.1511691708437477 -0.28146332139590791 0 -0.17268249412674899 -0.28021404917636228 0 -0.16153907740307649 -0.27417849787147269 0 -0.1511691708437477 -0.28146332139590791 0 -0.15868149439502019 -0.26183192607265171 0 -0.16153907740307649 -0.27417849787147269 0 -0.14988723707240059 -0.2712373606254958 0 -0.17268249412674899 -0.28021404917636228 0 -0.1602033354931483 -0.28250744839945852 0 -0.16598406695729481 -0.30298710416930841 0 -0.1602033354931483 -0.28250744839945852 0 -0.16598406695729481 -0.30298710416930841 0 -0.15540042715953351 -0.29534531177471163 0 -0.17268249412674899 -0.28021404917636228 0 -0.1602033354931483 -0.28250744839945852 0 -0.1511691708437477 -0.28146332139590791 0 -0.17268249412674899 -0.28021404917636228 0 -0.16598406695729481 -0.30298710416930841 0 -0.17268249412674899 -0.28021404917636228 0 -0.18341480972230481 -0.29398984851303678 0 -0.16598406695729481 -0.30298710416930841 0 -0.19173769525036191 -0.27910751937208661 0 -0.17268249412674899 -0.28021404917636228 0 -0.18341480972230481 -0.29398984851303678 0 -0.18771392466332379 -0.31064426929533778 0 -0.16598406695729481 -0.30298710416930841 0 -0.17363798392206939 -0.31819332873149597 0 -0.18771392466332379 -0.31064426929533778 0 -0.18341480972230481 -0.29398984851303678 0 -0.16598406695729481 -0.30298710416930841 0 -0.16598406695729481 -0.30298710416930841 0 -0.14469875604694199 -0.30922413742159027 0 -0.15540042715953351 -0.29534531177471163 0 -0.14469875604694199 -0.30922413742159027 0 -0.1432012252225659 -0.29363112190148022 0 -0.15540042715953351 -0.29534531177471163 0 -0.14469875604694199 -0.30922413742159027 0 -0.12619911495198419 -0.30475479540350309 0 -0.13337854816676861 -0.31555927879821688 0 -0.14469875604694199 -0.30922413742159027 0 -0.12619911495198419 -0.30475479540350309 0 -0.1432012252225659 -0.29363112190148022 0 -0.12619911495198419 -0.30475479540350309 0 -0.1432012252225659 -0.29363112190148022 0 -0.12619911495198419 -0.30475479540350309 0 -0.12679419190480831 -0.28922178065079068 0 -0.12965584756074661 -0.28271259361545531 0 -0.1511691708437477 -0.28146332139590791 0 -0.1354971132119572 -0.28979355612951369 0 -0.12965584756074661 -0.28271259361545531 0 -0.1511691708437477 -0.28146332139590791 0 -0.12619911495198419 -0.30475479540350309 0 -0.1354971132119572 -0.28979355612951369 0 -0.1432012252225659 -0.29363112190148022 0 -0.12619911495198419 -0.30475479540350309 0 -0.1354971132119572 -0.28979355612951369 0 -0.12679419190480831 -0.28922178065079068 0 -0.1354971132119572 -0.28979355612951369 0 -0.12679419190480831 -0.28922178065079068 0 -0.12965584756074661 -0.28271259361545531 0 -0.1354971132119572 -0.28979355612951369 0 -0.1432012252225659 -0.29363112190148022 0 -0.1511691708437477 -0.28146332139590791 0 -0.1602033354931483 -0.28250744839945852 0 -0.1432012252225659 -0.29363112190148022 0 -0.1511691708437477 -0.28146332139590791 0 -0.1602033354931483 -0.28250744839945852 0 -0.1432012252225659 -0.29363112190148022 0 -0.15540042715953351 -0.29534531177471163 0 -0.1602033354931483 -0.28250744839945852 0 -0.1432012252225659 -0.29363112190148022 0 -0.15868149439502019 -0.26183192607265171 0 -0.14988723707240059 -0.2712373606254958 0 -0.1387871995286013 -0.26508072539534622 0 -0.16153907740307649 -0.27417849787147269 0 -0.1511691708437477 -0.28146332139590791 0 -0.14988723707240059 -0.2712373606254958 0 -0.14988723707240059 -0.2712373606254958 0 -0.13964187995783961 -0.27475837972640049 0 -0.1387871995286013 -0.26508072539534622 0 -0.1511691708437477 -0.28146332139590791 0 -0.14988723707240059 -0.2712373606254958 0 -0.13964187995783961 -0.27475837972640049 0 -0.12870994478370179 -0.27329789759979722 0 -0.1387871995286013 -0.26508072539534622 0 -0.12007816384016071 -0.26567787080003191 0 -0.12965584756074661 -0.28271259361545531 0 -0.1511691708437477 -0.28146332139590791 0 -0.13964187995783961 -0.27475837972640049 0 -0.12965584756074661 -0.28271259361545531 0 -0.12870994478370179 -0.27329789759979722 0 -0.11789137402516341 -0.27716271070769422 0 -0.12965584756074661 -0.28271259361545531 0 -0.13964187995783961 -0.27475837972640049 0 -0.12870994478370179 -0.27329789759979722 0 -0.13964187995783961 -0.27475837972640049 0 -0.12870994478370179 -0.27329789759979722 0 -0.1387871995286013 -0.26508072539534622 0 -0.1387871995286013 -0.26508072539534622 0 -0.12160584249772299 -0.25215775347966563 0 -0.140756153879736 -0.24256588416855229 0 -0.1387871995286013 -0.26508072539534622 0 -0.12160584249772299 -0.25215775347966563 0 -0.12007816384016071 -0.26567787080003191 0 -0.15868149439502019 -0.26183192607265171 0 -0.1387871995286013 -0.26508072539534622 0 -0.140756153879736 -0.24256588416855229 0 -0.17701145994456069 -0.36394647041597178 0 -0.1710347373393809 -0.34305723459107529 0 -0.15415920921707649 -0.35369318633977892 0 -0.1710347373393809 -0.34305723459107529 0 -0.16098955164015569 -0.3367442280687038 0 -0.15415920921707649 -0.35369318633977892 0 -0.15888943580214379 -0.37592771079887299 0 -0.15415920921707649 -0.35369318633977892 0 -0.15888943580214379 -0.37592771079887299 0 -0.17451238462272561 -0.38296624542026392 0 -0.17701145994456069 -0.36394647041597178 0 -0.15888943580214379 -0.37592771079887299 0 -0.17701145994456069 -0.36394647041597178 0 -0.15415920921707649 -0.35369318633977892 0 -0.19123714131727601 -0.34563485206223971 0 -0.17701145994456069 -0.36394647041597178 0 -0.1710347373393809 -0.34305723459107529 0 -0.19123714131727601 -0.34563485206223971 0 -0.18343194628517531 -0.32989386597559972 0 -0.1710347373393809 -0.34305723459107529 0 -0.18343194628517531 -0.32989386597559972 0 -0.1710347373393809 -0.34305723459107529 0 -0.1705423898696804 -0.33010826314235697 0 -0.18771392466332379 -0.31064426929533778 0 -0.18343194628517531 -0.32989386597559972 0 -0.17363798392206939 -0.31819332873149597 0 -0.18343194628517531 -0.32989386597559972 0 -0.17363798392206939 -0.31819332873149597 0 -0.1705423898696804 -0.33010826314235697 0 -0.16598406695729481 -0.30298710416930841 0 -0.15928563978784011 -0.3257601591622542 0 -0.16598406695729481 -0.30298710416930841 0 -0.17363798392206939 -0.31819332873149597 0 -0.15928563978784011 -0.3257601591622542 0 -0.16598406695729481 -0.30298710416930841 0 -0.14469875604694199 -0.30922413742159027 0 -0.15928563978784011 -0.3257601591622542 0 -0.17363798392206939 -0.31819332873149597 0 -0.15928563978784011 -0.3257601591622542 0 -0.1705423898696804 -0.33010826314235697 0 -0.1710347373393809 -0.34305723459107529 0 -0.1705423898696804 -0.33010826314235697 0 -0.16098955164015569 -0.3367442280687038 0 -0.15928563978784011 -0.3257601591622542 0 -0.16098955164015569 -0.3367442280687038 0 -0.14942898263200929 -0.33145866188068462 0 -0.15928563978784011 -0.3257601591622542 0 -0.1705423898696804 -0.33010826314235697 0 -0.16098955164015569 -0.3367442280687038 0 -0.14942898263200929 -0.33145866188068462 0 -0.15415920921707649 -0.35369318633977892 0 -0.14942898263200929 -0.33145866188068462 0 -0.13796481287087339 -0.34163008730672101 0 -0.1436929398422524 -0.34923888267326852 0 -0.16098955164015569 -0.3367442280687038 0 -0.14942898263200929 -0.33145866188068462 0 -0.15415920921707649 -0.35369318633977892 0 -0.14942898263200929 -0.33145866188068462 0 -0.13796481287087339 -0.34163008730672101 0 -0.13680362358538989 -0.3294830112483631 0 -0.14469875604694199 -0.30922413742159027 0 -0.15928563978784011 -0.3257601591622542 0 -0.14942898263200929 -0.33145866188068462 0 -0.14469875604694199 -0.30922413742159027 0 -0.14942898263200929 -0.33145866188068462 0 -0.14469875604694199 -0.30922413742159027 0 -0.14942898263200929 -0.33145866188068462 0 -0.13680362358538989 -0.3294830112483631 0 -0.14469875604694199 -0.30922413742159027 0 -0.13337854816676861 -0.31555927879821688 0 -0.13680362358538989 -0.3294830112483631 0 -0.12619911495198419 -0.30475479540350309 0 -0.13337854816676861 -0.31555927879821688 0 -0.12539352222321989 -0.32578280477475952 0 -0.12619911495198419 -0.30475479540350309 0 -0.12539352222321989 -0.32578280477475952 0 -0.13337854816676861 -0.31555927879821688 0 -0.12539352222321989 -0.32578280477475952 0 -0.13680362358538989 -0.3294830112483631 0 -0.12539352222321989 -0.32578280477475952 0 -0.13680362358538989 -0.3294830112483631 0 -0.12458792949445489 -0.34681081414601578 0 -0.13796481287087339 -0.34163008730672101 0 -0.13680362358538989 -0.3294830112483631 0 -0.12458792949445489 -0.34681081414601578 0 -0.12572918590040449 -0.34943160115698341 0 -0.13343869132058531 -0.35068317160642398 0 -0.12458792949445489 -0.34681081414601578 0 -0.13796481287087339 -0.34163008730672101 0 -0.13343869132058531 -0.35068317160642398 0 -0.12458792949445489 -0.34681081414601578 0 -0.12572918590040449 -0.34943160115698341 0 -0.12962749105629509 -0.3579525820837795 0 -0.12378043572137661 -0.36788844558584788 0 -0.12572918590040449 -0.34943160115698341 0 -0.12458792949445489 -0.34681081414601578 0 -0.12572918590040449 -0.34943160115698341 0 -0.12962749105629509 -0.3579525820837795 0 -0.13343869132058531 -0.35068317160642398 0 -0.12962749105629509 -0.3579525820837795 0 -0.13869338548761689 -0.35830109467933557 0 -0.13343869132058531 -0.35068317160642398 0 -0.13869338548761689 -0.35830109467933557 0 -0.13343869132058531 -0.35068317160642398 0 -0.1436929398422524 -0.34923888267326852 0 -0.13796481287087339 -0.34163008730672101 0 -0.13343869132058531 -0.35068317160642398 0 -0.1436929398422524 -0.34923888267326852 0 -0.14942898263200929 -0.33145866188068462 0 -0.1436929398422524 -0.34923888267326852 0 -0.15415920921707649 -0.35369318633977892 0 -0.13869338548761689 -0.35830109467933557 0 -0.1436929398422524 -0.34923888267326852 0 -0.15415920921707649 -0.35369318633977892 0 -0.15888943580214379 -0.37592771079887299 0 -0.15415920921707649 -0.35369318633977892 0 -0.14350339700977829 -0.36988746465782912 0 -0.13869338548761689 -0.35830109467933557 0 -0.15415920921707649 -0.35369318633977892 0 -0.14350339700977829 -0.36988746465782912 0 -0.13869338548761689 -0.35830109467933557 0 -0.14350339700977829 -0.36988746465782912 0 -0.12378043572137661 -0.36788844558584788 0 -0.1312901557849786 -0.3781160501614082 0 -0.14350339700977829 -0.36988746465782912 0 -0.12378043572137661 -0.36788844558584788 0 -0.12962749105629509 -0.3579525820837795 0 -0.13869338548761689 -0.35830109467933557 0 -0.12378043572137661 -0.36788844558584788 0 -0.12378043572137661 -0.36788844558584788 0 -0.1071998511793521 -0.362181041159304 0 -0.1135281488998206 -0.37886122845980819 0 -0.1071998511793521 -0.362181041159304 0 -0.1010584514226411 -0.38688741825982492 0 -0.1071998511793521 -0.362181041159304 0 -0.097038030514342094 -0.36455698261834629 0 -0.097426847072590028 -0.35182221484521059 0 -0.097038030514342094 -0.36455698261834629 0 -0.097426847072590028 -0.35182221484521059 0 -0.08835891427165754 -0.36277448715792082 0 -0.1071998511793521 -0.362181041159304 0 -0.097038030514342094 -0.36455698261834629 0 -0.09633712716268375 -0.37610668925234869 0 -0.097038030514342094 -0.36455698261834629 0 -0.08835891427165754 -0.36277448715792082 0 -0.09633712716268375 -0.37610668925234869 0 -0.097426847072590028 -0.35182221484521059 0 -0.10406688098121319 -0.34675429806874791 0 -0.098299574736847709 -0.33553927221169377 0 -0.1071998511793521 -0.362181041159304 0 -0.10406688098121319 -0.34675429806874791 0 -0.11334125093606311 -0.33747466405878312 0 -0.1071998511793521 -0.362181041159304 0 -0.097426847072590028 -0.35182221484521059 0 -0.10406688098121319 -0.34675429806874791 0 -0.12378043572137661 -0.36788844558584788 0 -0.1071998511793521 -0.362181041159304 0 -0.12458792949445489 -0.34681081414601578 0 -0.12378043572137661 -0.36788844558584788 0 -0.12458792949445489 -0.34681081414601578 0 -0.1071998511793521 -0.362181041159304 0 -0.12458792949445489 -0.34681081414601578 0 -0.11334125093606311 -0.33747466405878312 0 -0.1071998511793521 -0.362181041159304 0 -0.11334125093606311 -0.33747466405878312 0 -0.12572918590040449 -0.34943160115698341 0 -0.12378043572137661 -0.36788844558584788 0 -0.12458792949445489 -0.34681081414601578 0 -0.12539352222321989 -0.32578280477475952 0 -0.12458792949445489 -0.34681081414601578 0 -0.12539352222321989 -0.32578280477475952 0 -0.12458792949445489 -0.34681081414601578 0 -0.11304185601617139 -0.32029635232848341 0 -0.12458792949445489 -0.34681081414601578 0 -0.11304185601617139 -0.32029635232848341 0 -0.12458792949445489 -0.34681081414601578 0 -0.11334125093606311 -0.33747466405878312 0 -0.11304185601617139 -0.32029635232848341 0 -0.12619911495198419 -0.30475479540350309 0 -0.12539352222321989 -0.32578280477475952 0 -0.1173980217163524 -0.31579225397981198 0 -0.12539352222321989 -0.32578280477475952 0 -0.1173980217163524 -0.31579225397981198 0 -0.11304185601617139 -0.32029635232848341 0 -0.1173980217163524 -0.31579225397981198 0 -0.11304185601617139 -0.32029635232848341 0 -0.1106920791077485 -0.31490031269342561 0 -0.1173980217163524 -0.31579225397981198 0 -0.11304185601617139 -0.32029635232848341 0 -0.11304185601617139 -0.32029635232848341 0 -0.1106920791077485 -0.31490031269342561 0 -0.11304185601617139 -0.32029635232848341 0 -0.1106920791077485 -0.31490031269342561 0 -0.095701642485047603 -0.3247078436404649 0 -0.11304185601617139 -0.32029635232848341 0 -0.095701642485047603 -0.3247078436404649 0 -0.098299574736847709 -0.33553927221169377 0 -0.1106920791077485 -0.31490031269342561 0 -0.095701642485047603 -0.3247078436404649 0 -0.098528883647027499 -0.31266925330717948 0 -0.1106920791077485 -0.31490031269342561 0 -0.095701642485047603 -0.3247078436404649 0 -0.11304185601617139 -0.32029635232848341 0 -0.098299574736847709 -0.33553927221169377 0 -0.11334125093606311 -0.33747466405878312 0 -0.11304185601617139 -0.32029635232848341 0 -0.098299574736847709 -0.33553927221169377 0 -0.10406688098121319 -0.34675429806874791 0 -0.11334125093606311 -0.33747466405878312 0 -0.098299574736847709 -0.33553927221169377 0 -0.098299574736847709 -0.33553927221169377 0 -0.083557293457524093 -0.35078219209490408 0 -0.098299574736847709 -0.33553927221169377 0 -0.081969356375131169 -0.33307335892500489 0 -0.083557293457524093 -0.35078219209490408 0 -0.095701642485047603 -0.3247078436404649 0 -0.098299574736847709 -0.33553927221169377 0 -0.081969356375131169 -0.33307335892500489 0 -0.081969356375131169 -0.33307335892500489 0 -0.071134806611751644 -0.33972804002015872 0 -0.083557293457524093 -0.35078219209490408 0 -0.095701642485047603 -0.3247078436404649 0 -0.098528883647027499 -0.31266925330717948 0 -0.08527965166099169 -0.3175299519688628 0 -0.095701642485047603 -0.3247078436404649 0 -0.081969356375131169 -0.33307335892500489 0 -0.08527965166099169 -0.3175299519688628 0 -0.081969356375131169 -0.33307335892500489 0 -0.08527965166099169 -0.3175299519688628 0 -0.07290018194923005 -0.32023671894014483 0 -0.08527965166099169 -0.3175299519688628 0 -0.07290018194923005 -0.32023671894014483 0 -0.076736858100049501 -0.30862307501708708 0 -0.07290018194923005 -0.32023671894014483 0 -0.065424813229146978 -0.31194404641596568 0 -0.055938037814750437 -0.32202892947626399 0 -0.07290018194923005 -0.32023671894014483 0 -0.066355503522586567 -0.32977592421742158 0 -0.055938037814750437 -0.32202892947626399 0 -0.07290018194923005 -0.32023671894014483 0 -0.076736858100049501 -0.30862307501708708 0 -0.065424813229146978 -0.31194404641596568 0 -0.081969356375131169 -0.33307335892500489 0 -0.07290018194923005 -0.32023671894014483 0 -0.066355503522586567 -0.32977592421742158 0 -0.081969356375131169 -0.33307335892500489 0 -0.071134806611751644 -0.33972804002015872 0 -0.066355503522586567 -0.32977592421742158 0 -0.071134806611751644 -0.33972804002015872 0 -0.066384054622172214 -0.3486398746901927 0 -0.057702481325320423 -0.33948968153668951 0 -0.071134806611751644 -0.33972804002015872 0 -0.066355503522586567 -0.32977592421742158 0 -0.057702481325320423 -0.33948968153668951 0 -0.068217965567002825 -0.3576020375347676 0 -0.067654587367833696 -0.36722494408549061 0 -0.083557293457524093 -0.35078219209490408 0 -0.066384054622172214 -0.3486398746901927 0 -0.068217965567002825 -0.3576020375347676 0 -0.083557293457524093 -0.35078219209490408 0 -0.071134806611751644 -0.33972804002015872 0 -0.066384054622172214 -0.3486398746901927 0 -0.083557293457524093 -0.35078219209490408 0 -0.067654587367833696 -0.36722494408549061 0 -0.083557293457524093 -0.35078219209490408 0 -0.066384054622172214 -0.3486398746901927 0 -0.068217965567002825 -0.3576020375347676 0 -0.060615864364976457 -0.35532775234677361 0 -0.068217965567002825 -0.3576020375347676 0 -0.062807596475487337 -0.36020730986154348 0 -0.060615864364976457 -0.35532775234677361 0 -0.067654587367833696 -0.36722494408549061 0 -0.071257135564174137 -0.36607892319519703 0 -0.083557293457524093 -0.35078219209490408 0 -0.068217965567002825 -0.3576020375347676 0 -0.062807596475487337 -0.36020730986154348 0 -0.065842007527218499 -0.36293845286049048 0 -0.068217965567002825 -0.3576020375347676 0 -0.065842007527218499 -0.36293845286049048 0 -0.067654587367833696 -0.36722494408549061 0 -0.062807596475487337 -0.36020730986154348 0 -0.065842007527218499 -0.36293845286049048 0 -0.063394132625410965 -0.36590566505414202 0 -0.065842007527218499 -0.36293845286049048 0 -0.063394132625410965 -0.36590566505414202 0 -0.067654587367833696 -0.36722494408549061 0 -0.063394132625410965 -0.36590566505414202 0 -0.067654587367833696 -0.36722494408549061 0 -0.067654587367833696 -0.36722494408549061 0 -0.071257135564174137 -0.36607892319519703 0 -0.071257135564174137 -0.36607892319519703 0 -0.08835891427165754 -0.36277448715792082 0 -0.083557293457524093 -0.35078219209490408 0 -0.067654587367833696 -0.36722494408549061 0 -0.071257135564174137 -0.36607892319519703 0 -0.09633712716268375 -0.37610668925234869 0 -0.071257135564174137 -0.36607892319519703 0 -0.08835891427165754 -0.36277448715792082 0 -0.09633712716268375 -0.37610668925234869 0 -0.067654587367833696 -0.36722494408549061 0 -0.09633712716268375 -0.37610668925234869 0 -0.067654587367833696 -0.36722494408549061 0 -0.09633712716268375 -0.37610668925234869 0 -0.076193967929479189 -0.37730602523993412 0 -0.097426847072590028 -0.35182221484521059 0 -0.08835891427165754 -0.36277448715792082 0 -0.083557293457524093 -0.35078219209490408 0 -0.097426847072590028 -0.35182221484521059 0 -0.098299574736847709 -0.33553927221169377 0 -0.083557293457524093 -0.35078219209490408 0 -0.10725790169565889 -0.2598324477265071 0 -0.098145561125637798 -0.27575963805146819 0 -0.091873906359618035 -0.26080001004073111 0 -0.10725790169565889 -0.2598324477265071 0 -0.091873906359618035 -0.26080001004073111 0 -0.10273856262009171 -0.24839411363350219 0 -0.10725790169565889 -0.2598324477265071 0 -0.12160584249772299 -0.25215775347966563 0 -0.10273856262009171 -0.24839411363350219 0 -0.10725790169565889 -0.2598324477265071 0 -0.12160584249772299 -0.25215775347966563 0 -0.12007816384016071 -0.26567787080003191 0 -0.12007816384016071 -0.26567787080003191 0 -0.11789137402516341 -0.27716271070769422 0 -0.098145561125637798 -0.27575963805146819 0 -0.12870994478370179 -0.27329789759979722 0 -0.12007816384016071 -0.26567787080003191 0 -0.11789137402516341 -0.27716271070769422 0 -0.11789137402516341 -0.27716271070769422 0 -0.098145561125637798 -0.27575963805146819 0 -0.1081425242777454 -0.28396186583500282 0 -0.12007816384016071 -0.26567787080003191 0 -0.098145561125637798 -0.27575963805146819 0 -0.10725790169565889 -0.2598324477265071 0 -0.12007816384016071 -0.26567787080003191 0 -0.098145561125637798 -0.27575963805146819 0 -0.098145561125637798 -0.27575963805146819 0 -0.095239629588959124 -0.27941522908263022 0 -0.1081425242777454 -0.28396186583500282 0 -0.095239629588959124 -0.27941522908263022 0 -0.1029658543483537 -0.29715777088802803 0 -0.089289220458481172 -0.29353992654553562 0 -0.095239629588959124 -0.27941522908263022 0 -0.1081425242777454 -0.28396186583500282 0 -0.1029658543483537 -0.29715777088802803 0 -0.095239629588959124 -0.27941522908263022 0 -0.1029658543483537 -0.29715777088802803 0 -0.1081425242777454 -0.28396186583500282 0 -0.1152094871892962 -0.29475979085292592 0 -0.1029658543483537 -0.29715777088802803 0 -0.12965584756074661 -0.28271259361545531 0 -0.1081425242777454 -0.28396186583500282 0 -0.12679419190480831 -0.28922178065079068 0 -0.12965584756074661 -0.28271259361545531 0 -0.1081425242777454 -0.28396186583500282 0 -0.12679419190480831 -0.28922178065079068 0 -0.1081425242777454 -0.28396186583500282 0 -0.1152094871892962 -0.29475979085292592 0 -0.12965584756074661 -0.28271259361545531 0 -0.11789137402516341 -0.27716271070769422 0 -0.1081425242777454 -0.28396186583500282 0 -0.12619911495198419 -0.30475479540350309 0 -0.12679419190480831 -0.28922178065079068 0 -0.1152094871892962 -0.29475979085292592 0 -0.1152094871892962 -0.29475979085292592 0 -0.11298430814847189 -0.30326663450919877 0 -0.1029658543483537 -0.29715777088802803 0 -0.12619911495198419 -0.30475479540350309 0 -0.1152094871892962 -0.29475979085292592 0 -0.11298430814847189 -0.30326663450919877 0 -0.12619911495198419 -0.30475479540350309 0 -0.1173980217163524 -0.31579225397981198 0 -0.1106920791077485 -0.31490031269342561 0 -0.12619911495198419 -0.30475479540350309 0 -0.1106920791077485 -0.31490031269342561 0 -0.12619911495198419 -0.30475479540350309 0 -0.1106920791077485 -0.31490031269342561 0 -0.11298430814847189 -0.30326663450919877 0 -0.1106920791077485 -0.31490031269342561 0 -0.11298430814847189 -0.30326663450919877 0 -0.1029658543483537 -0.29715777088802803 0 -0.1106920791077485 -0.31490031269342561 0 -0.098528883647027499 -0.31266925330717948 0 -0.1029658543483537 -0.29715777088802803 0 -0.1106920791077485 -0.31490031269342561 0 -0.1029658543483537 -0.29715777088802803 0 -0.1029658543483537 -0.29715777088802803 0 -0.094518343720110976 -0.30232807028284031 0 -0.089289220458481172 -0.29353992654553562 0 -0.098528883647027499 -0.31266925330717948 0 -0.1029658543483537 -0.29715777088802803 0 -0.094518343720110976 -0.30232807028284031 0 -0.098528883647027499 -0.31266925330717948 0 -0.08527965166099169 -0.3175299519688628 0 -0.087289416426581529 -0.30594533039061822 0 -0.098528883647027499 -0.31266925330717948 0 -0.094518343720110976 -0.30232807028284031 0 -0.087289416426581529 -0.30594533039061822 0 -0.094518343720110976 -0.30232807028284031 0 -0.087289416426581529 -0.30594533039061822 0 -0.089289220458481172 -0.29353992654553562 0 -0.087289416426581529 -0.30594533039061822 0 -0.079781392326616213 -0.29824383775450042 0 -0.089289220458481172 -0.29353992654553562 0 -0.087289416426581529 -0.30594533039061822 0 -0.079781392326616213 -0.29824383775450042 0 -0.076736858100049501 -0.30862307501708708 0 -0.08527965166099169 -0.3175299519688628 0 -0.087289416426581529 -0.30594533039061822 0 -0.076736858100049501 -0.30862307501708708 0 -0.076736858100049501 -0.30862307501708708 0 -0.065424813229146978 -0.31194404641596568 0 -0.069378508236853903 -0.29726945151635648 0 -0.065424813229146978 -0.31194404641596568 0 -0.069378508236853903 -0.29726945151635648 0 -0.055908647324345882 -0.31238255574332768 0 -0.079781392326616213 -0.29824383775450042 0 -0.076736858100049501 -0.30862307501708708 0 -0.069378508236853903 -0.29726945151635648 0 -0.076212958411114987 -0.28584140530290442 0 -0.054280355696592238 -0.29592317255434059 0 -0.061383576921693439 -0.28193902719851421 0 -0.069378508236853903 -0.29726945151635648 0 -0.076212958411114987 -0.28584140530290442 0 -0.054280355696592238 -0.29592317255434059 0 -0.076212958411114987 -0.28584140530290442 0 -0.054280355696592238 -0.29592317255434059 0 -0.079781392326616213 -0.29824383775450042 0 -0.069378508236853903 -0.29726945151635648 0 -0.076212958411114987 -0.28584140530290442 0 -0.095239629588959124 -0.27941522908263022 0 -0.076212958411114987 -0.28584140530290442 0 -0.089289220458481172 -0.29353992654553562 0 -0.079781392326616213 -0.29824383775450042 0 -0.076212958411114987 -0.28584140530290442 0 -0.089289220458481172 -0.29353992654553562 0 -0.098145561125637798 -0.27575963805146819 0 -0.076212958411114987 -0.28584140530290442 0 -0.082880277429810967 -0.27142569690380081 0 -0.098145561125637798 -0.27575963805146819 0 -0.095239629588959124 -0.27941522908263022 0 -0.076212958411114987 -0.28584140530290442 0 -0.098145561125637798 -0.27575963805146819 0 -0.076212958411114987 -0.28584140530290442 0 -0.098145561125637798 -0.27575963805146819 0 -0.082880277429810967 -0.27142569690380081 0 -0.091873906359618035 -0.26080001004073111 0 -0.076212958411114987 -0.28584140530290442 0 -0.082880277429810967 -0.27142569690380081 0 -0.069555065359491935 -0.27047241122135762 0 -0.069555065359491935 -0.27047241122135762 0 -0.056678216200532303 -0.27018647006176522 0 -0.061383576921693439 -0.28193902719851421 0 -0.076212958411114987 -0.28584140530290442 0 -0.069555065359491935 -0.27047241122135762 0 -0.061383576921693439 -0.28193902719851421 0 -0.082880277429810967 -0.27142569690380081 0 -0.069555065359491935 -0.27047241122135762 0 -0.078048035401092605 -0.26083776026435129 0 -0.078048035401092605 -0.26083776026435129 0 -0.062127327792707368 -0.25260410759681001 0 -0.079354248621226114 -0.2415659165720673 0 -0.069555065359491935 -0.27047241122135762 0 -0.062127327792707368 -0.25260410759681001 0 -0.056678216200532303 -0.27018647006176522 0 -0.069555065359491935 -0.27047241122135762 0 -0.078048035401092605 -0.26083776026435129 0 -0.062127327792707368 -0.25260410759681001 0 -0.078048035401092605 -0.26083776026435129 0 -0.091873906359618035 -0.26080001004073111 0 -0.079354248621226114 -0.2415659165720673 0 -0.091873906359618035 -0.26080001004073111 0 -0.079354248621226114 -0.2415659165720673 0 -0.10273856262009171 -0.24839411363350219 0 -0.082880277429810967 -0.27142569690380081 0 -0.078048035401092605 -0.26083776026435129 0 -0.091873906359618035 -0.26080001004073111 0 -0.039766414684223789 -0.25612946500436229 0 -0.062127327792707368 -0.25260410759681001 0 -0.056678216200532303 -0.27018647006176522 0 -0.039766414684223789 -0.25612946500436229 0 -0.056678216200532303 -0.27018647006176522 0 -0.045671759383192581 -0.27975370330637328 0 -0.056678216200532303 -0.27018647006176522 0 -0.045671759383192581 -0.27975370330637328 0 -0.061383576921693439 -0.28193902719851421 0 -0.039766414684223789 -0.25612946500436229 0 -0.045671759383192581 -0.27975370330637328 0 -0.02534768858988113 -0.27972373702727948 0 -0.039766414684223789 -0.25612946500436229 0 -0.02534768858988113 -0.27972373702727948 0 -0.045671759383192581 -0.27975370330637328 0 -0.036574304206232582 -0.29462034799197812 0 -0.054280355696592238 -0.29592317255434059 0 -0.045671759383192581 -0.27975370330637328 0 -0.036574304206232582 -0.29462034799197812 0 -0.02534768858988113 -0.27972373702727948 0 -0.045671759383192581 -0.27975370330637328 0 -0.054280355696592238 -0.29592317255434059 0 -0.061383576921693439 -0.28193902719851421 0 -0.069378508236853903 -0.29726945151635648 0 -0.055908647324345882 -0.31238255574332768 0 -0.044362343127309897 -0.30794466793977687 0 -0.069378508236853903 -0.29726945151635648 0 -0.054280355696592238 -0.29592317255434059 0 -0.044362343127309897 -0.30794466793977687 0 -0.069378508236853903 -0.29726945151635648 0 -0.044362343127309897 -0.30794466793977687 0 -0.044362343127309897 -0.30794466793977687 0 -0.032347752982069447 -0.30600493980577681 0 -0.019346178017765898 -0.31861988436319733 0 -0.054280355696592238 -0.29592317255434059 0 -0.032347752982069447 -0.30600493980577681 0 -0.054280355696592238 -0.29592317255434059 0 -0.044362343127309897 -0.30794466793977687 0 -0.032347752982069447 -0.30600493980577681 0 -0.036574304206232582 -0.29462034799197812 0 -0.054280355696592238 -0.29592317255434059 0 -0.032347752982069447 -0.30600493980577681 0 -0.036574304206232582 -0.29462034799197812 0 -0.032347752982069447 -0.30600493980577681 0 -0.024908977258297511 -0.30045738364768559 0 -0.032347752982069447 -0.30600493980577681 0 -0.024908977258297511 -0.30045738364768559 0 -0.019346178017765898 -0.31861988436319733 0 -0.024908977258297511 -0.30045738364768559 0 -0.010928962495538491 -0.30331800905019668 0 -0.019346178017765898 -0.31861988436319733 0 -0.010928962495538491 -0.30331800905019668 0 -0.019346178017765898 -0.31861988436319733 0 -0.00085300724567920162 -0.3134600792683459 0 -0.010928962495538491 -0.30331800905019668 0 -0.00085300724567920162 -0.3134600792683459 0 0.002263828681637008 -0.29971307659348662 0 -0.010928962495538491 -0.30331800905019668 0 -0.0086068970976947087 -0.28569610947311452 0 0.002263828681637008 -0.29971307659348662 0 -0.010928962495538491 -0.30331800905019668 0 -0.0086068970976947087 -0.28569610947311452 0 -0.02534768858988113 -0.27972373702727948 0 -0.010928962495538491 -0.30331800905019668 0 -0.02534768858988113 -0.27972373702727948 0 -0.024908977258297511 -0.30045738364768559 0 -0.010928962495538491 -0.30331800905019668 0 -0.02534768858988113 -0.27972373702727948 0 -0.036574304206232582 -0.29462034799197812 0 -0.024908977258297511 -0.30045738364768559 0 -0.02534768858988113 -0.27972373702727948 0 -0.0086068970976947087 -0.28569610947311452 0 -0.02534768858988113 -0.27972373702727948 0 -0.0001076141968513938 -0.26993945428185911 0 -0.02534768858988113 -0.27972373702727948 0 -0.0001076141968513938 -0.26993945428185911 0 -0.017469828598401758 -0.25688663138693307 0 -0.017469828598401758 -0.25688663138693307 0 -0.01075693259031375 -0.24228488697704789 0 0.0022157039987719608 -0.25103517629298772 0 -0.0001076141968513938 -0.26993945428185911 0 -0.017469828598401758 -0.25688663138693307 0 0.0022157039987719608 -0.25103517629298772 0 -0.039766414684223789 -0.25612946500436229 0 -0.02534768858988113 -0.27972373702727948 0 -0.017469828598401758 -0.25688663138693307 0 -0.039766414684223789 -0.25612946500436229 0 -0.017469828598401758 -0.25688663138693307 0 -0.03122802391732607 -0.24207170577204351 0 -0.039347352009563998 -0.35845941451144692 0 -0.045151923891276653 -0.35164392704791347 0 -0.039598810066825932 -0.35060202423722192 0 -0.039347352009563998 -0.35845941451144692 0 -0.045151923891276653 -0.35164392704791347 0 -0.052718166547218531 -0.35473273780361009 0 -0.045151923891276653 -0.35164392704791347 0 -0.043970211352181612 -0.34446683051801369 0 -0.051352665073146231 -0.34884579725161308 0 -0.045151923891276653 -0.35164392704791347 0 -0.043970211352181612 -0.34446683051801369 0 -0.039598810066825932 -0.35060202423722192 0 -0.043970211352181612 -0.34446683051801369 0 -0.039598810066825932 -0.35060202423722192 0 -0.031632573392842991 -0.34751394815392928 0 -0.039347352009563998 -0.35845941451144692 0 -0.039598810066825932 -0.35060202423722192 0 -0.031632573392842991 -0.34751394815392928 0 -0.039347352009563998 -0.35845941451144692 0 -0.038546149698533261 -0.36535814963739388 0 -0.02658066793947601 -0.36005917831336182 0 -0.038546149698533261 -0.36535814963739388 0 -0.025946650388053129 -0.37304949364746259 0 -0.039878636675221381 -0.37792841910806801 0 -0.038546149698533261 -0.36535814963739388 0 -0.051908649603689551 -0.37236482759840839 0 -0.039878636675221381 -0.37792841910806801 0 -0.063394132625410965 -0.36590566505414202 0 -0.038546149698533261 -0.36535814963739388 0 -0.051908649603689551 -0.37236482759840839 0 -0.063394132625410965 -0.36590566505414202 0 -0.039347352009563998 -0.35845941451144692 0 -0.038546149698533261 -0.36535814963739388 0 -0.063394132625410965 -0.36590566505414202 0 -0.039347352009563998 -0.35845941451144692 0 -0.063394132625410965 -0.36590566505414202 0 -0.039347352009563998 -0.35845941451144692 0 -0.055968012292828231 -0.35926264151154302 0 -0.063394132625410965 -0.36590566505414202 0 -0.038546149698533261 -0.36535814963739388 0 -0.063394132625410965 -0.36590566505414202 0 -0.067654587367833696 -0.36722494408549061 0 -0.051908649603689551 -0.37236482759840839 0 -0.067654587367833696 -0.36722494408549061 0 -0.051908649603689551 -0.37236482759840839 0 -0.050069741651448618 -0.38540696010694731 0 -0.062807596475487337 -0.36020730986154348 0 -0.063394132625410965 -0.36590566505414202 0 -0.055968012292828231 -0.35926264151154302 0 -0.039347352009563998 -0.35845941451144692 0 -0.055968012292828231 -0.35926264151154302 0 -0.052718166547218531 -0.35473273780361009 0 -0.060615864364976457 -0.35532775234677361 0 -0.055968012292828231 -0.35926264151154302 0 -0.052718166547218531 -0.35473273780361009 0 -0.060615864364976457 -0.35532775234677361 0 -0.052718166547218531 -0.35473273780361009 0 -0.057992491958304061 -0.34952615109981588 0 -0.062807596475487337 -0.36020730986154348 0 -0.060615864364976457 -0.35532775234677361 0 -0.055968012292828231 -0.35926264151154302 0 -0.045151923891276653 -0.35164392704791347 0 -0.052718166547218531 -0.35473273780361009 0 -0.051352665073146231 -0.34884579725161308 0 -0.043970211352181612 -0.34446683051801369 0 -0.051352665073146231 -0.34884579725161308 0 -0.057702481325320423 -0.33948968153668951 0 -0.052718166547218531 -0.35473273780361009 0 -0.051352665073146231 -0.34884579725161308 0 -0.057992491958304061 -0.34952615109981588 0 -0.066384054622172214 -0.3486398746901927 0 -0.060615864364976457 -0.35532775234677361 0 -0.057992491958304061 -0.34952615109981588 0 -0.051352665073146231 -0.34884579725161308 0 -0.057992491958304061 -0.34952615109981588 0 -0.057702481325320423 -0.33948968153668951 0 -0.066384054622172214 -0.3486398746901927 0 -0.057992491958304061 -0.34952615109981588 0 -0.057702481325320423 -0.33948968153668951 0 -0.066355503522586567 -0.32977592421742158 0 -0.057702481325320423 -0.33948968153668951 0 -0.055938037814750437 -0.32202892947626399 0 -0.057702481325320423 -0.33948968153668951 0 -0.047569462750085938 -0.33283002131474843 0 -0.055938037814750437 -0.32202892947626399 0 -0.043970211352181612 -0.34446683051801369 0 -0.057702481325320423 -0.33948968153668951 0 -0.047569462750085938 -0.33283002131474843 0 -0.065424813229146978 -0.31194404641596568 0 -0.055908647324345882 -0.31238255574332768 0 -0.055938037814750437 -0.32202892947626399 0 -0.047569462750085938 -0.33283002131474843 0 -0.055938037814750437 -0.32202892947626399 0 -0.044439534213668148 -0.32272568336827501 0 -0.055908647324345882 -0.31238255574332768 0 -0.044362343127309897 -0.30794466793977687 0 -0.044439534213668148 -0.32272568336827501 0 -0.055908647324345882 -0.31238255574332768 0 -0.055938037814750437 -0.32202892947626399 0 -0.044439534213668148 -0.32272568336827501 0 -0.044362343127309897 -0.30794466793977687 0 -0.019346178017765898 -0.31861988436319733 0 -0.044362343127309897 -0.30794466793977687 0 -0.044439534213668148 -0.32272568336827501 0 -0.033371113682783539 -0.32417083199984159 0 -0.044362343127309897 -0.30794466793977687 0 -0.033371113682783539 -0.32417083199984159 0 -0.019346178017765898 -0.31861988436319733 0 -0.044439534213668148 -0.32272568336827501 0 -0.033371113682783539 -0.32417083199984159 0 -0.03579704904450913 -0.33543898167449948 0 -0.043970211352181612 -0.34446683051801369 0 -0.047569462750085938 -0.33283002131474843 0 -0.03579704904450913 -0.33543898167449948 0 -0.047569462750085938 -0.33283002131474843 0 -0.044439534213668148 -0.32272568336827501 0 -0.03579704904450913 -0.33543898167449948 0 -0.043970211352181612 -0.34446683051801369 0 -0.031632573392842991 -0.34751394815392928 0 -0.03579704904450913 -0.33543898167449948 0 -0.02291046401066461 -0.33612494265345938 0 -0.019346178017765898 -0.31861988436319733 0 -0.0075089357889968006 -0.33877962972729592 0 -0.031632573392842991 -0.34751394815392928 0 -0.03579704904450913 -0.33543898167449948 0 -0.02291046401066461 -0.33612494265345938 0 -0.033371113682783539 -0.32417083199984159 0 -0.03579704904450913 -0.33543898167449948 0 -0.02291046401066461 -0.33612494265345938 0 -0.033371113682783539 -0.32417083199984159 0 -0.02291046401066461 -0.33612494265345938 0 -0.019346178017765898 -0.31861988436319733 0 -0.019346178017765898 -0.31861988436319733 0 0.0056699870917780899 -0.32929510078661778 0 -0.019346178017765898 -0.31861988436319733 0 -0.00085300724567920162 -0.3134600792683459 0 0.0056699870917780899 -0.32929510078661778 0 -0.019346178017765898 -0.31861988436319733 0 -0.0075089357889968006 -0.33877962972729592 0 0.0056699870917780899 -0.32929510078661778 0 -0.02291046401066461 -0.33612494265345938 0 -0.0075089357889968006 -0.33877962972729592 0 -0.0153005713937174 -0.35101316396875087 0 -0.0075089357889968006 -0.33877962972729592 0 -0.0028297137070933099 -0.35279292629653702 0 0.01002462915729488 -0.34647941110618691 0 -0.0028297137070933099 -0.35279292629653702 0 -0.0153005713937174 -0.35101316396875087 0 -0.01369816677165556 -0.36481063422064669 0 -0.0075089357889968006 -0.33877962972729592 0 -0.0028297137070933099 -0.35279292629653702 0 -0.0153005713937174 -0.35101316396875087 0 -0.039347352009563998 -0.35845941451144692 0 -0.0153005713937174 -0.35101316396875087 0 -0.02658066793947601 -0.36005917831336182 0 -0.031632573392842991 -0.34751394815392928 0 -0.02291046401066461 -0.33612494265345938 0 -0.0153005713937174 -0.35101316396875087 0 -0.039347352009563998 -0.35845941451144692 0 -0.031632573392842991 -0.34751394815392928 0 -0.0153005713937174 -0.35101316396875087 0 -0.039347352009563998 -0.35845941451144692 0 -0.0153005713937174 -0.35101316396875087 0 -0.0153005713937174 -0.35101316396875087 0 -0.02658066793947601 -0.36005917831336182 0 -0.01369816677165556 -0.36481063422064669 0 -0.038546149698533261 -0.36535814963739388 0 -0.025946650388053129 -0.37304949364746259 0 -0.01369816677165556 -0.36481063422064669 0 -0.038546149698533261 -0.36535814963739388 0 -0.01369816677165556 -0.36481063422064669 0 -0.038546149698533261 -0.36535814963739388 0 -0.02658066793947601 -0.36005917831336182 0 -0.01369816677165556 -0.36481063422064669 0 -0.025946650388053129 -0.37304949364746259 0 -0.01369816677165556 -0.36481063422064669 0 -0.01694873353745464 -0.37755637363288341 0 -0.01369816677165556 -0.36481063422064669 0 -0.0042880474431544443 -0.38143749126606391 0 0.011149816155222141 -0.3642631188038995 0 -0.0028297137070933099 -0.35279292629653702 0 -0.01369816677165556 -0.36481063422064669 0 0.011149816155222141 -0.3642631188038995 0 -0.01369816677165556 -0.36481063422064669 0 0.011149816155222141 -0.3642631188038995 0 -0.01369816677165556 -0.36481063422064669 0 -0.0042880474431544443 -0.38143749126606391 0 -0.01694873353745464 -0.37755637363288341 0 -0.0042880474431544443 -0.38143749126606391 0 -0.02095194952202754 -0.39078185258672637 0 -0.01694873353745464 -0.37755637363288341 0 -0.0042880474431544443 -0.38143749126606391 0 -0.009087554253817921 -0.39655601123361878 0 -0.02095194952202754 -0.39078185258672637 0 -0.009087554253817921 -0.39655601123361878 0 -0.0070445583114871384 -0.41363436916954233 0 0.0059412400519459289 -0.39827433823653918 0 -0.009087554253817921 -0.39655601123361878 0 -0.026374354460180612 -0.40557476739402581 0 -0.0070445583114871384 -0.41363436916954233 0 -0.0042880474431544443 -0.38143749126606391 0 -0.009087554253817921 -0.39655601123361878 0 0.0059412400519459289 -0.39827433823653918 0 -0.026374354460180612 -0.40557476739402581 0 -0.02095194952202754 -0.39078185258672637 0 -0.042503980599766483 -0.39965041063444129 0 -0.009087554253817921 -0.39655601123361878 0 -0.026374354460180612 -0.40557476739402581 0 -0.02095194952202754 -0.39078185258672637 0 -0.02095194952202754 -0.39078185258672637 0 -0.02889589701524017 -0.38199009353337898 0 -0.03813528074304888 -0.38817309320675342 0 -0.02095194952202754 -0.39078185258672637 0 -0.01694873353745464 -0.37755637363288341 0 -0.02889589701524017 -0.38199009353337898 0 -0.025946650388053129 -0.37304949364746259 0 -0.01694873353745464 -0.37755637363288341 0 -0.02889589701524017 -0.38199009353337898 0 -0.02889589701524017 -0.38199009353337898 0 -0.039878636675221381 -0.37792841910806801 0 -0.03813528074304888 -0.38817309320675342 0 -0.025946650388053129 -0.37304949364746259 0 -0.02889589701524017 -0.38199009353337898 0 -0.039878636675221381 -0.37792841910806801 0 -0.039878636675221381 -0.37792841910806801 0 -0.03813528074304888 -0.38817309320675342 0 -0.050069741651448618 -0.38540696010694731 0 -0.02095194952202754 -0.39078185258672637 0 -0.03813528074304888 -0.38817309320675342 0 -0.042503980599766483 -0.39965041063444129 0 -0.02095194952202754 -0.39078185258672637 0 -0.042503980599766483 -0.39965041063444129 0 -0.03813528074304888 -0.38817309320675342 0 -0.042503980599766483 -0.39965041063444129 0 -0.050069741651448618 -0.38540696010694731 0 -0.042503980599766483 -0.39965041063444129 0 -0.061808672072140948 -0.39406674996092722 0 -0.064056011677505298 -0.40851896868215631 0 -0.042503980599766483 -0.39965041063444129 0 -0.061808672072140948 -0.39406674996092722 0 -0.050069741651448618 -0.38540696010694731 0 -0.042503980599766483 -0.39965041063444129 0 -0.064056011677505298 -0.40851896868215631 0 -0.067654587367833696 -0.36722494408549061 0 -0.050069741651448618 -0.38540696010694731 0 -0.066034410415989148 -0.38261550152579732 0 -0.061808672072140948 -0.39406674996092722 0 -0.050069741651448618 -0.38540696010694731 0 -0.066034410415989148 -0.38261550152579732 0 -0.067654587367833696 -0.36722494408549061 0 -0.050069741651448618 -0.38540696010694731 0 -0.051908649603689551 -0.37236482759840839 0 -0.039878636675221381 -0.37792841910806801 0 -0.050069741651448618 -0.38540696010694731 0 -0.060844704671374442 -0.43279970755891711 0 -0.04308202525635442 -0.4209789856293274 0 -0.064056011677505298 -0.40851896868215631 0 -0.042503980599766483 -0.39965041063444129 0 -0.04308202525635442 -0.4209789856293274 0 -0.064056011677505298 -0.40851896868215631 0 -0.026374354460180612 -0.40557476739402581 0 -0.042503980599766483 -0.39965041063444129 0 -0.04308202525635442 -0.4209789856293274 0 -0.060844704671374442 -0.43279970755891711 0 -0.04308202525635442 -0.4209789856293274 0 -0.036081366587504667 -0.44821188838796422 0 -0.04308202525635442 -0.4209789856293274 0 -0.02258801128604453 -0.42079262796251321 0 -0.036081366587504667 -0.44821188838796422 0 -0.02258801128604453 -0.42079262796251321 0 -0.01093901682269725 -0.43953332273650902 0 -0.036081366587504667 -0.44821188838796422 0 -0.026374354460180612 -0.40557476739402581 0 -0.04308202525635442 -0.4209789856293274 0 -0.02258801128604453 -0.42079262796251321 0 -0.026374354460180612 -0.40557476739402581 0 -0.02258801128604453 -0.42079262796251321 0 -0.0070445583114871384 -0.41363436916954233 0 -0.02258801128604453 -0.42079262796251321 0 -0.0070445583114871384 -0.41363436916954233 0 -0.01093901682269725 -0.43953332273650902 0 -0.0070445583114871384 -0.41363436916954233 0 -0.01093901682269725 -0.43953332273650902 0 0.0044685336387176736 -0.42549483916402359 0 -0.01093901682269725 -0.43953332273650902 0 -0.0017589576795830029 -0.4612804419831531 0 0.0095097002263758116 -0.44187517972810342 0 -0.01093901682269725 -0.43953332273650902 0 -0.0017589576795830029 -0.4612804419831531 0 -0.02315218425453907 -0.46540151305333438 0 -0.01093901682269725 -0.43953332273650902 0 -0.02315218425453907 -0.46540151305333438 0 -0.036081366587504667 -0.44821188838796422 0 -0.02315218425453907 -0.46540151305333438 0 -0.0080881070218758316 -0.48101002315979358 0 -0.024648603031591221 -0.5 0 -0.0080881070218758316 -0.48101002315979358 0 -0.024648603031591221 -0.5 0 0.0051103793224578486 -0.5 0 -0.0017589576795830029 -0.4612804419831531 0 -0.02315218425453907 -0.46540151305333438 0 -0.0080881070218758316 -0.48101002315979358 0 -0.0017589576795830029 -0.4612804419831531 0 -0.0080881070218758316 -0.48101002315979358 0 0.0074432789513676602 -0.47835213141926042 0 -0.02315218425453907 -0.46540151305333438 0 -0.024648603031591221 -0.5 0 -0.046330757606104729 -0.4742687574542489 0 -0.024648603031591221 -0.5 0 -0.046330757606104729 -0.4742687574542489 0 -0.054407585385640278 -0.5 0 -0.046330757606104729 -0.4742687574542489 0 -0.054407585385640278 -0.5 0 -0.074747428167778462 -0.47527942338553669 0 -0.02315218425453907 -0.46540151305333438 0 -0.046330757606104729 -0.4742687574542489 0 -0.036081366587504667 -0.44821188838796422 0 -0.046330757606104729 -0.4742687574542489 0 -0.036081366587504667 -0.44821188838796422 0 -0.062075821013604322 -0.45393888098839119 0 -0.046330757606104729 -0.4742687574542489 0 -0.062075821013604322 -0.45393888098839119 0 -0.074747428167778462 -0.47527942338553669 0 -0.060844704671374442 -0.43279970755891711 0 -0.036081366587504667 -0.44821188838796422 0 -0.062075821013604322 -0.45393888098839119 0 -0.060844704671374442 -0.43279970755891711 0 -0.036081366587504667 -0.44821188838796422 0 -0.060844704671374442 -0.43279970755891711 0 -0.062075821013604322 -0.45393888098839119 0 -0.074489826837349199 -0.44104081783575799 0 -0.062075821013604322 -0.45393888098839119 0 -0.074489826837349199 -0.44104081783575799 0 -0.079975627950060732 -0.45294177642491329 0 -0.062075821013604322 -0.45393888098839119 0 -0.079975627950060732 -0.45294177642491329 0 -0.074747428167778462 -0.47527942338553669 0 -0.079975627950060732 -0.45294177642491329 0 -0.074747428167778462 -0.47527942338553669 0 -0.094942505704960184 -0.46165232131560491 0 -0.091843909380614708 -0.44991165830199592 0 -0.079975627950060732 -0.45294177642491329 0 -0.094942505704960184 -0.46165232131560491 0 -0.091843909380614708 -0.44991165830199592 0 -0.08740265335112174 -0.4418236396635607 0 -0.079975627950060732 -0.45294177642491329 0 -0.091843909380614708 -0.44991165830199592 0 -0.08740265335112174 -0.4418236396635607 0 -0.095614682884608185 -0.44132259548134739 0 -0.08740265335112174 -0.4418236396635607 0 -0.095614682884608185 -0.44132259548134739 0 -0.09713369496256663 -0.43092516601685349 0 -0.074489826837349199 -0.44104081783575799 0 -0.08740265335112174 -0.4418236396635607 0 -0.084699501207830097 -0.42973820624899811 0 -0.074489826837349199 -0.44104081783575799 0 -0.08740265335112174 -0.4418236396635607 0 -0.079975627950060732 -0.45294177642491329 0 -0.054407585385640278 -0.5 0 -0.074747428167778462 -0.47527942338553669 0 -0.084166567739689502 -0.5 0 -0.074747428167778462 -0.47527942338553669 0 -0.096198217364944563 -0.48215962946960911 0 -0.094942505704960184 -0.46165232131560491 0 -0.074747428167778462 -0.47527942338553669 0 -0.084166567739689502 -0.5 0 -0.096198217364944563 -0.48215962946960911 0 -0.096198217364944563 -0.48215962946960911 0 -0.1132090351185559 -0.47386640264690399 0 -0.11392555009373879 -0.5 0 -0.084166567739689502 -0.5 0 -0.096198217364944563 -0.48215962946960911 0 -0.11392555009373879 -0.5 0 -0.096198217364944563 -0.48215962946960911 0 -0.1132090351185559 -0.47386640264690399 0 -0.094942505704960184 -0.46165232131560491 0 -0.13087027772794541 -0.48508543112596131 0 -0.1132090351185559 -0.47386640264690399 0 -0.11392555009373879 -0.5 0 -0.10219231269041711 -0.44812101259322512 0 -0.095614682884608185 -0.44132259548134739 0 -0.1233111415474024 -0.43290217214824839 0 -0.091843909380614708 -0.44991165830199592 0 -0.10219231269041711 -0.44812101259322512 0 -0.095614682884608185 -0.44132259548134739 0 -0.1132090351185559 -0.47386640264690399 0 -0.094942505704960184 -0.46165232131560491 0 -0.110088756177807 -0.45156075298290188 0 -0.091843909380614708 -0.44991165830199592 0 -0.10219231269041711 -0.44812101259322512 0 -0.094942505704960184 -0.46165232131560491 0 -0.10219231269041711 -0.44812101259322512 0 -0.094942505704960184 -0.46165232131560491 0 -0.110088756177807 -0.45156075298290188 0 -0.13120700905248381 -0.46770716865526812 0 -0.110088756177807 -0.45156075298290188 0 -0.12750507033415631 -0.44988850150804383 0 -0.13120700905248381 -0.46770716865526812 0 -0.110088756177807 -0.45156075298290188 0 -0.13120700905248381 -0.46770716865526812 0 -0.1132090351185559 -0.47386640264690399 0 -0.110088756177807 -0.45156075298290188 0 -0.12750507033415631 -0.44988850150804383 0 -0.110088756177807 -0.45156075298290188 0 -0.1233111415474024 -0.43290217214824839 0 -0.10219231269041711 -0.44812101259322512 0 -0.110088756177807 -0.45156075298290188 0 -0.1233111415474024 -0.43290217214824839 0 -0.095614682884608185 -0.44132259548134739 0 -0.1233111415474024 -0.43290217214824839 0 -0.13115924457646219 -0.41981911781351028 0 -0.1233111415474024 -0.43290217214824839 0 -0.1193516847202129 -0.42054645645416622 0 -0.1233111415474024 -0.43290217214824839 0 -0.1080289097693504 -0.42661360662357001 0 -0.1193516847202129 -0.42054645645416622 0 -0.1233111415474024 -0.43290217214824839 0 -0.1080289097693504 -0.42661360662357001 0 -0.095614682884608185 -0.44132259548134739 0 -0.1233111415474024 -0.43290217214824839 0 -0.1080289097693504 -0.42661360662357001 0 -0.1080289097693504 -0.42661360662357001 0 -0.092746677991298876 -0.42032504109889052 0 -0.1080289097693504 -0.42661360662357001 0 -0.09713369496256663 -0.43092516601685349 0 -0.092746677991298876 -0.42032504109889052 0 -0.095614682884608185 -0.44132259548134739 0 -0.1080289097693504 -0.42661360662357001 0 -0.09713369496256663 -0.43092516601685349 0 -0.094917051665929203 -0.41159379536034568 0 -0.11090512431863229 -0.41322739550949777 0 -0.1176470443896992 -0.39744712592041681 0 -0.094917051665929203 -0.41159379536034568 0 -0.10258295589499571 -0.41813472496631149 0 -0.11090512431863229 -0.41322739550949777 0 -0.1080289097693504 -0.42661360662357001 0 -0.10258295589499571 -0.41813472496631149 0 -0.092746677991298876 -0.42032504109889052 0 -0.094917051665929203 -0.41159379536034568 0 -0.092746677991298876 -0.42032504109889052 0 -0.094917051665929203 -0.41159379536034568 0 -0.10258295589499571 -0.41813472496631149 0 -0.092746677991298876 -0.42032504109889052 0 -0.1080289097693504 -0.42661360662357001 0 -0.10258295589499571 -0.41813472496631149 0 -0.11090512431863229 -0.41322739550949777 0 -0.11090512431863229 -0.41322739550949777 0 -0.1249886909415846 -0.41044930346258102 0 -0.1176470443896992 -0.39744712592041681 0 -0.1080289097693504 -0.42661360662357001 0 -0.11090512431863229 -0.41322739550949777 0 -0.1193516847202129 -0.42054645645416622 0 -0.11090512431863229 -0.41322739550949777 0 -0.1193516847202129 -0.42054645645416622 0 -0.1249886909415846 -0.41044930346258102 0 -0.1176470443896992 -0.39744712592041681 0 -0.1229729419482984 -0.38896607702568009 0 -0.1121351700468099 -0.39008596307011473 0 -0.1176470443896992 -0.39744712592041681 0 -0.1121351700468099 -0.39008596307011473 0 -0.1064394293812701 -0.39650357565267558 0 -0.12378043572137661 -0.36788844558584788 0 -0.1229729419482984 -0.38896607702568009 0 -0.12378043572137661 -0.36788844558584788 0 -0.1229729419482984 -0.38896607702568009 0 -0.1135281488998206 -0.37886122845980819 0 -0.1229729419482984 -0.38896607702568009 0 -0.1121351700468099 -0.39008596307011473 0 -0.1135281488998206 -0.37886122845980819 0 -0.1071998511793521 -0.362181041159304 0 -0.1135281488998206 -0.37886122845980819 0 -0.1010584514226411 -0.38688741825982492 0 -0.1071998511793521 -0.362181041159304 0 -0.1010584514226411 -0.38688741825982492 0 -0.09633712716268375 -0.37610668925234869 0 -0.1121351700468099 -0.39008596307011473 0 -0.1135281488998206 -0.37886122845980819 0 -0.1010584514226411 -0.38688741825982492 0 -0.1010584514226411 -0.38688741825982492 0 -0.089159495755501486 -0.39148719011007121 0 -0.093510688448870963 -0.38376869837637662 0 -0.1010584514226411 -0.38688741825982492 0 -0.09633712716268375 -0.37610668925234869 0 -0.093510688448870963 -0.38376869837637662 0 -0.094917051665929203 -0.41159379536034568 0 -0.1176470443896992 -0.39744712592041681 0 -0.094917051665929203 -0.41159379536034568 0 -0.1010584514226411 -0.38688741825982492 0 -0.1064394293812701 -0.39650357565267558 0 -0.094917051665929203 -0.41159379536034568 0 -0.1176470443896992 -0.39744712592041681 0 -0.1064394293812701 -0.39650357565267558 0 -0.094917051665929203 -0.41159379536034568 0 -0.1010584514226411 -0.38688741825982492 0 -0.090957825981947904 -0.40006704340132349 0 -0.094917051665929203 -0.41159379536034568 0 -0.1010584514226411 -0.38688741825982492 0 -0.1121351700468099 -0.39008596307011473 0 -0.1010584514226411 -0.38688741825982492 0 -0.1064394293812701 -0.39650357565267558 0 -0.090957825981947904 -0.40006704340132349 0 -0.081018492408455975 -0.40229401207222859 0 -0.088635638657210886 -0.40807280120414691 0 -0.090957825981947904 -0.40006704340132349 0 -0.089159495755501486 -0.39148719011007121 0 -0.081018492408455975 -0.40229401207222859 0 -0.1010584514226411 -0.38688741825982492 0 -0.090957825981947904 -0.40006704340132349 0 -0.089159495755501486 -0.39148719011007121 0 -0.089159495755501486 -0.39148719011007121 0 -0.081018492408455975 -0.40229401207222859 0 -0.07668526712561656 -0.38881573598689351 0 -0.09633712716268375 -0.37610668925234869 0 -0.086377309284430381 -0.38349686779312481 0 -0.076193967929479189 -0.37730602523993412 0 -0.09633712716268375 -0.37610668925234869 0 -0.093510688448870963 -0.38376869837637662 0 -0.086377309284430381 -0.38349686779312481 0 -0.089159495755501486 -0.39148719011007121 0 -0.093510688448870963 -0.38376869837637662 0 -0.086377309284430381 -0.38349686779312481 0 -0.089159495755501486 -0.39148719011007121 0 -0.086377309284430381 -0.38349686779312481 0 -0.07668526712561656 -0.38881573598689351 0 -0.086377309284430381 -0.38349686779312481 0 -0.076193967929479189 -0.37730602523993412 0 -0.07668526712561656 -0.38881573598689351 0 -0.076193967929479189 -0.37730602523993412 0 -0.07668526712561656 -0.38881573598689351 0 -0.066034410415989148 -0.38261550152579732 0 -0.061808672072140948 -0.39406674996092722 0 -0.07668526712561656 -0.38881573598689351 0 -0.066034410415989148 -0.38261550152579732 0 -0.067654587367833696 -0.36722494408549061 0 -0.076193967929479189 -0.37730602523993412 0 -0.066034410415989148 -0.38261550152579732 0 -0.081018492408455975 -0.40229401207222859 0 -0.070892110820929707 -0.39842386667555141 0 -0.064056011677505298 -0.40851896868215631 0 -0.081018492408455975 -0.40229401207222859 0 -0.07668526712561656 -0.38881573598689351 0 -0.070892110820929707 -0.39842386667555141 0 -0.061808672072140948 -0.39406674996092722 0 -0.07668526712561656 -0.38881573598689351 0 -0.070892110820929707 -0.39842386667555141 0 -0.061808672072140948 -0.39406674996092722 0 -0.070892110820929707 -0.39842386667555141 0 -0.064056011677505298 -0.40851896868215631 0 -0.064056011677505298 -0.40851896868215631 0 -0.085608042755244501 -0.41738752672987028 0 -0.060844704671374442 -0.43279970755891711 0 -0.064056011677505298 -0.40851896868215631 0 -0.085608042755244501 -0.41738752672987028 0 -0.081018492408455975 -0.40229401207222859 0 -0.064056011677505298 -0.40851896868215631 0 -0.085608042755244501 -0.41738752672987028 0 -0.060844704671374442 -0.43279970755891711 0 -0.074489826837349199 -0.44104081783575799 0 -0.084699501207830097 -0.42973820624899811 0 -0.060844704671374442 -0.43279970755891711 0 -0.085608042755244501 -0.41738752672987028 0 -0.060844704671374442 -0.43279970755891711 0 -0.084699501207830097 -0.42973820624899811 0 -0.085608042755244501 -0.41738752672987028 0 -0.08740265335112174 -0.4418236396635607 0 -0.092746677991298876 -0.42032504109889052 0 -0.08740265335112174 -0.4418236396635607 0 -0.09713369496256663 -0.43092516601685349 0 -0.092746677991298876 -0.42032504109889052 0 -0.08740265335112174 -0.4418236396635607 0 -0.084699501207830097 -0.42973820624899811 0 -0.092746677991298876 -0.42032504109889052 0 -0.084699501207830097 -0.42973820624899811 0 -0.092746677991298876 -0.42032504109889052 0 -0.085608042755244501 -0.41738752672987028 0 -0.094917051665929203 -0.41159379536034568 0 -0.092746677991298876 -0.42032504109889052 0 -0.085608042755244501 -0.41738752672987028 0 -0.094917051665929203 -0.41159379536034568 0 -0.085608042755244501 -0.41738752672987028 0 -0.092746677991298876 -0.42032504109889052 0 -0.085608042755244501 -0.41738752672987028 0 -0.094917051665929203 -0.41159379536034568 0 -0.090957825981947904 -0.40006704340132349 0 -0.088635638657210886 -0.40807280120414691 0 -0.094917051665929203 -0.41159379536034568 0 -0.088635638657210886 -0.40807280120414691 0 -0.085608042755244501 -0.41738752672987028 0 -0.081018492408455975 -0.40229401207222859 0 -0.088635638657210886 -0.40807280120414691 0 -0.085608042755244501 -0.41738752672987028 0 -0.087734056568116198 -0.084654121948130268 0 -0.096494436482843907 -0.094553565132889178 0 -0.095940840408108435 -0.078886015079822513 0 -0.07857339548233315 -0.082284965709307489 0 -0.087734056568116198 -0.084654121948130268 0 -0.086269170674161136 -0.074897195855827658 0 -0.07857339548233315 -0.082284965709307489 0 -0.081752758009062287 -0.092460103186890213 0 -0.087734056568116198 -0.084654121948130268 0 -0.081752758009062287 -0.092460103186890213 0 -0.087734056568116198 -0.084654121948130268 0 -0.096494436482843907 -0.094553565132889178 0 -0.087734056568116198 -0.084654121948130268 0 -0.086269170674161136 -0.074897195855827658 0 -0.095940840408108435 -0.078886015079822513 0 -0.086269170674161136 -0.074897195855827658 0 -0.095940840408108435 -0.078886015079822513 0 -0.094154728809931254 -0.069247502290238169 0 -0.086269170674161136 -0.074897195855827658 0 -0.084005990504289044 -0.064481143661694315 0 -0.094154728809931254 -0.069247502290238169 0 -0.084005990504289044 -0.064481143661694315 0 -0.094154728809931254 -0.069247502290238169 0 -0.097417497817844839 -0.054569218923424777 0 -0.086269170674161136 -0.074897195855827658 0 -0.084005990504289044 -0.064481143661694315 0 -0.071472277272935439 -0.071456549610906639 0 -0.07857339548233315 -0.082284965709307489 0 -0.086269170674161136 -0.074897195855827658 0 -0.071472277272935439 -0.071456549610906639 0 -0.084005990504289044 -0.064481143661694315 0 -0.071472277272935439 -0.071456549610906639 0 -0.072184806028199336 -0.052773960720582727 0 -0.071472277272935439 -0.071456549610906639 0 -0.068780689730281938 -0.086310829098810715 0 -0.051553557496938442 -0.075465307600037834 0 -0.07857339548233315 -0.082284965709307489 0 -0.071472277272935439 -0.071456549610906639 0 -0.068780689730281938 -0.086310829098810715 0 -0.081752758009062287 -0.092460103186890213 0 -0.068780689730281938 -0.086310829098810715 0 -0.067375175556756137 -0.096926251389634052 0 -0.07857339548233315 -0.082284965709307489 0 -0.081752758009062287 -0.092460103186890213 0 -0.068780689730281938 -0.086310829098810715 0 -0.068780689730281938 -0.086310829098810715 0 -0.067375175556756137 -0.096926251389634052 0 -0.05725184503287295 -0.093436145430108059 0 -0.068780689730281938 -0.086310829098810715 0 -0.05725184503287295 -0.093436145430108059 0 -0.074192364188274337 -0.1029751933975956 0 -0.072961581770924641 -0.1094390247814436 0 -0.061842069196435007 -0.1079124549401073 0 -0.067375175556756137 -0.096926251389634052 0 -0.074192364188274337 -0.1029751933975956 0 -0.061842069196435007 -0.1079124549401073 0 -0.081752758009062287 -0.092460103186890213 0 -0.067375175556756137 -0.096926251389634052 0 -0.074192364188274337 -0.1029751933975956 0 -0.06643229336000292 -0.1223887644501047 0 -0.089379600338988952 -0.104479686337966 0 -0.06643229336000292 -0.1223887644501047 0 -0.072961581770924641 -0.1094390247814436 0 -0.089379600338988952 -0.104479686337966 0 -0.06643229336000292 -0.1223887644501047 0 -0.0861511705747985 -0.1143885697709555 0 -0.068738321639515529 -0.12966134590223791 0 -0.06643229336000292 -0.1223887644501047 0 -0.062375254211023988 -0.12555505455506771 0 -0.06643229336000292 -0.1223887644501047 0 -0.05976647898593606 -0.1180300387568318 0 -0.062375254211023988 -0.12555505455506771 0 -0.06643229336000292 -0.1223887644501047 0 -0.05976647898593606 -0.1180300387568318 0 -0.061842069196435007 -0.1079124549401073 0 -0.06643229336000292 -0.1223887644501047 0 -0.061842069196435007 -0.1079124549401073 0 -0.06643229336000292 -0.1223887644501047 0 -0.072961581770924641 -0.1094390247814436 0 -0.061842069196435007 -0.1079124549401073 0 -0.0861511705747985 -0.1143885697709555 0 -0.07580790466675319 -0.134223574409022 0 -0.06643229336000292 -0.1223887644501047 0 -0.0861511705747985 -0.1143885697709555 0 -0.089379600338988952 -0.104479686337966 0 -0.0861511705747985 -0.1143885697709555 0 -0.085657367727213191 -0.12719165871186591 0 -0.096473753305982804 -0.12558014194108899 0 -0.0861511705747985 -0.1143885697709555 0 -0.096494436482843907 -0.094553565132889178 0 -0.074192364188274337 -0.1029751933975956 0 -0.072961581770924641 -0.1094390247814436 0 -0.089379600338988952 -0.104479686337966 0 -0.0861511705747985 -0.1143885697709555 0 -0.089379600338988952 -0.104479686337966 0 -0.096494436482843907 -0.094553565132889178 0 -0.081752758009062287 -0.092460103186890213 0 -0.074192364188274337 -0.1029751933975956 0 -0.089379600338988952 -0.104479686337966 0 -0.081752758009062287 -0.092460103186890213 0 -0.089379600338988952 -0.104479686337966 0 -0.096494436482843907 -0.094553565132889178 0 -0.096494436482843907 -0.094553565132889178 0 -0.10827082545605719 -0.1012860141266152 0 -0.10095328517692601 -0.11031905602455321 0 -0.0861511705747985 -0.1143885697709555 0 -0.096494436482843907 -0.094553565132889178 0 -0.10095328517692601 -0.11031905602455321 0 -0.096494436482843907 -0.094553565132889178 0 -0.10827082545605719 -0.1012860141266152 0 -0.1056637291545101 -0.088147373483323022 0 -0.10095328517692601 -0.11031905602455321 0 -0.11467896899858961 -0.1174452021670632 0 -0.096473753305982804 -0.12558014194108899 0 -0.10827082545605719 -0.1012860141266152 0 -0.10095328517692601 -0.11031905602455321 0 -0.11467896899858961 -0.1174452021670632 0 -0.0861511705747985 -0.1143885697709555 0 -0.10095328517692601 -0.11031905602455321 0 -0.096473753305982804 -0.12558014194108899 0 -0.11467896899858961 -0.1174452021670632 0 -0.1220765994143196 -0.1008984570322134 0 -0.13285598427751799 -0.111430357147086 0 -0.10827082545605719 -0.1012860141266152 0 -0.11467896899858961 -0.1174452021670632 0 -0.1220765994143196 -0.1008984570322134 0 -0.10827082545605719 -0.1012860141266152 0 -0.1220765994143196 -0.1008984570322134 0 -0.1056637291545101 -0.088147373483323022 0 -0.1220765994143196 -0.1008984570322134 0 -0.1097470486160822 -0.077733837977819104 0 -0.12812466965229469 -0.084559942915758746 0 -0.1220765994143196 -0.1008984570322134 0 -0.1056637291545101 -0.088147373483323022 0 -0.1097470486160822 -0.077733837977819104 0 -0.1097470486160822 -0.077733837977819104 0 -0.1206116997250966 -0.075029136049232573 0 -0.12812466965229469 -0.084559942915758746 0 -0.1220765994143196 -0.1008984570322134 0 -0.1097470486160822 -0.077733837977819104 0 -0.096494436482843907 -0.094553565132889178 0 -0.1068377023908893 -0.074718560494822783 0 -0.096494436482843907 -0.094553565132889178 0 -0.095940840408108435 -0.078886015079822513 0 -0.1068377023908893 -0.074718560494822783 0 -0.096494436482843907 -0.094553565132889178 0 -0.1056637291545101 -0.088147373483323022 0 -0.1068377023908893 -0.074718560494822783 0 -0.1056637291545101 -0.088147373483323022 0 -0.1068377023908893 -0.074718560494822783 0 -0.1097470486160822 -0.077733837977819104 0 -0.094154728809931254 -0.069247502290238169 0 -0.1068377023908893 -0.074718560494822783 0 -0.097417497817844839 -0.054569218923424777 0 -0.1068377023908893 -0.074718560494822783 0 -0.1097470486160822 -0.077733837977819104 0 -0.097417497817844839 -0.054569218923424777 0 -0.1097470486160822 -0.077733837977819104 0 -0.097417497817844839 -0.054569218923424777 0 -0.1146554349822661 -0.064549548185460673 0 -0.1097470486160822 -0.077733837977819104 0 -0.097417497817844839 -0.054569218923424777 0 -0.095940840408108435 -0.078886015079822513 0 -0.094154728809931254 -0.069247502290238169 0 -0.1068377023908893 -0.074718560494822783 0 -0.1146554349822661 -0.064549548185460673 0 -0.1245952765854583 -0.053991827278248722 0 -0.12804580984603489 -0.069899659586637866 0 -0.1146554349822661 -0.064549548185460673 0 -0.1097470486160822 -0.077733837977819104 0 -0.1206116997250966 -0.075029136049232573 0 -0.1146554349822661 -0.064549548185460673 0 -0.1206116997250966 -0.075029136049232573 0 -0.12804580984603489 -0.069899659586637866 0 -0.1146554349822661 -0.064549548185460673 0 -0.1117956783605495 -0.0523029075526701 0 -0.1245952765854583 -0.053991827278248722 0 -0.1117956783605495 -0.0523029075526701 0 -0.1245952765854583 -0.053991827278248722 0 -0.1126696841781334 -0.034048309071617981 0 -0.1126696841781334 -0.034048309071617981 0 -0.097417497817844839 -0.054569218923424777 0 -0.085087947019607368 -0.031404599869030367 0 -0.1117956783605495 -0.0523029075526701 0 -0.1126696841781334 -0.034048309071617981 0 -0.097417497817844839 -0.054569218923424777 0 -0.1146554349822661 -0.064549548185460673 0 -0.1117956783605495 -0.0523029075526701 0 -0.097417497817844839 -0.054569218923424777 0 -0.1126696841781334 -0.034048309071617981 0 -0.1136104046283796 -0.012726262184012779 0 -0.1344870760500517 -0.011503851261303469 0 -0.1126696841781334 -0.034048309071617981 0 -0.1136104046283796 -0.012726262184012779 0 -0.095238350791709683 -0.01369776429763649 0 -0.1126696841781334 -0.034048309071617981 0 -0.095238350791709683 -0.01369776429763649 0 -0.085087947019607368 -0.031404599869030367 0 -0.095238350791709683 -0.01369776429763649 0 -0.10150418330331321 0.0025078213068508211 0 -0.085799489399454615 0.001724744846627279 0 -0.1136104046283796 -0.012726262184012779 0 -0.095238350791709683 -0.01369776429763649 0 -0.10150418330331321 0.0025078213068508211 0 -0.095238350791709683 -0.01369776429763649 0 -0.072758396221369898 -0.0082399808146359013 0 -0.085799489399454615 0.001724744846627279 0 -0.072758396221369898 -0.0082399808146359013 0 -0.085087947019607368 -0.031404599869030367 0 -0.095238350791709683 -0.01369776429763649 0 -0.072758396221369898 -0.0082399808146359013 0 -0.085087947019607368 -0.031404599869030367 0 -0.085087947019607368 -0.031404599869030367 0 -0.057884570861055917 -0.035836074736374027 0 -0.061520992456001032 -0.020431754555094071 0 -0.072758396221369898 -0.0082399808146359013 0 -0.085087947019607368 -0.031404599869030367 0 -0.061520992456001032 -0.020431754555094071 0 -0.084005990504289044 -0.064481143661694315 0 -0.097417497817844839 -0.054569218923424777 0 -0.072184806028199336 -0.052773960720582727 0 -0.097417497817844839 -0.054569218923424777 0 -0.085087947019607368 -0.031404599869030367 0 -0.072184806028199336 -0.052773960720582727 0 -0.097417497817844839 -0.054569218923424777 0 -0.085087947019607368 -0.031404599869030367 0 -0.085087947019607368 -0.031404599869030367 0 -0.072184806028199336 -0.052773960720582727 0 -0.057884570861055917 -0.035836074736374027 0 -0.071472277272935439 -0.071456549610906639 0 -0.072184806028199336 -0.052773960720582727 0 -0.058152321353328262 -0.060731359465292303 0 -0.072184806028199336 -0.052773960720582727 0 -0.058152321353328262 -0.060731359465292303 0 -0.052612197151131447 -0.049472434604510229 0 -0.058152321353328262 -0.060731359465292303 0 -0.052612197151131447 -0.049472434604510229 0 -0.04585526996100716 -0.057494469769966583 0 -0.072184806028199336 -0.052773960720582727 0 -0.052612197151131447 -0.049472434604510229 0 -0.057884570861055917 -0.035836074736374027 0 -0.052612197151131447 -0.049472434604510229 0 -0.057884570861055917 -0.035836074736374027 0 -0.042666266780929087 -0.040018803409649313 0 -0.057884570861055917 -0.035836074736374027 0 -0.042666266780929087 -0.040018803409649313 0 -0.040031376072549717 -0.022169137522868799 0 -0.042666266780929087 -0.040018803409649313 0 -0.040031376072549717 -0.022169137522868799 0 -0.03109000455167105 -0.039373637688818887 0 -0.052612197151131447 -0.049472434604510229 0 -0.042666266780929087 -0.040018803409649313 0 -0.038929947922268983 -0.049979939525196457 0 -0.042666266780929087 -0.040018803409649313 0 -0.038929947922268983 -0.049979939525196457 0 -0.02739267337791389 -0.046487840990173987 0 -0.042666266780929087 -0.040018803409649313 0 -0.02739267337791389 -0.046487840990173987 0 -0.03109000455167105 -0.039373637688818887 0 -0.038929947922268983 -0.049979939525196457 0 -0.02739267337791389 -0.046487840990173987 0 -0.03193389910011292 -0.063490403517630398 0 -0.038929947922268983 -0.049979939525196457 0 -0.04585526996100716 -0.057494469769966583 0 -0.03193389910011292 -0.063490403517630398 0 -0.052612197151131447 -0.049472434604510229 0 -0.038929947922268983 -0.049979939525196457 0 -0.04585526996100716 -0.057494469769966583 0 -0.072758396221369898 -0.0082399808146359013 0 -0.051842672105422212 -0.004508979832561268 0 -0.061520992456001032 -0.020431754555094071 0 -0.051842672105422212 -0.004508979832561268 0 -0.061520992456001032 -0.020431754555094071 0 -0.040031376072549717 -0.022169137522868799 0 -0.057884570861055917 -0.035836074736374027 0 -0.061520992456001032 -0.020431754555094071 0 -0.040031376072549717 -0.022169137522868799 0 -0.040031376072549717 -0.022169137522868799 0 -0.03109000455167105 -0.039373637688818887 0 -0.051842672105422212 -0.004508979832561268 0 -0.040031376072549717 -0.022169137522868799 0 -0.031740632205187157 0.0039567194184075994 0 -0.040031376072549717 -0.022169137522868799 0 -0.019176072344730209 -0.01387280406012348 0 -0.031740632205187157 0.0039567194184075994 0 -0.019176072344730209 -0.01387280406012348 0 -0.01941734266895 -0.037529385297350532 0 -0.009421053939786388 -0.035778929000125123 0 -0.019176072344730209 -0.01387280406012348 0 -0.03109000455167105 -0.039373637688818887 0 -0.01941734266895 -0.037529385297350532 0 -0.019176072344730209 -0.01387280406012348 0 -0.03109000455167105 -0.039373637688818887 0 -0.040031376072549717 -0.022169137522868799 0 -0.019176072344730209 -0.01387280406012348 0 -0.03109000455167105 -0.039373637688818887 0 -0.019176072344730209 -0.01387280406012348 0 -0.0027135244406232498 -0.02502109825273589 0 -0.009421053939786388 -0.035778929000125123 0 -0.019176072344730209 -0.01387280406012348 0 -0.0027135244406232498 -0.02502109825273589 0 0.001149502097097669 -0.011866962428013821 0 -0.019176072344730209 -0.01387280406012348 0 -0.0078299177893015933 0.0113329491608615 0 0.001149502097097669 -0.011866962428013821 0 -0.019176072344730209 -0.01387280406012348 0 -0.0078299177893015933 0.0113329491608615 0 -0.02739267337791389 -0.046487840990173987 0 -0.010574686782160701 -0.0524287951552216 0 -0.014753970683278061 -0.070806544457479179 0 -0.02739267337791389 -0.046487840990173987 0 -0.014753970683278061 -0.070806544457479179 0 -0.03193389910011292 -0.063490403517630398 0 -0.02739267337791389 -0.046487840990173987 0 -0.014753970683278061 -0.070806544457479179 0 -0.02739267337791389 -0.046487840990173987 0 -0.03109000455167105 -0.039373637688818887 0 -0.01941734266895 -0.037529385297350532 0 -0.02739267337791389 -0.046487840990173987 0 -0.01941734266895 -0.037529385297350532 0 -0.010574686782160701 -0.0524287951552216 0 -0.02739267337791389 -0.046487840990173987 0 -0.03109000455167105 -0.039373637688818887 0 -0.01941734266895 -0.037529385297350532 0 -0.009421053939786388 -0.035778929000125123 0 -0.010574686782160701 -0.0524287951552216 0 -0.009421053939786388 -0.035778929000125123 0 -0.0034884269796278751 -0.044449411372668432 0 -0.010574686782160701 -0.0524287951552216 0 -0.0027135244406232498 -0.02502109825273589 0 -0.009421053939786388 -0.035778929000125123 0 0.0038410275856185232 -0.037567189316250527 0 -0.009421053939786388 -0.035778929000125123 0 -0.0034884269796278751 -0.044449411372668432 0 0.0038410275856185232 -0.037567189316250527 0 -0.0034884269796278751 -0.044449411372668432 0 -0.010574686782160701 -0.0524287951552216 0 0.0070985228527581648 -0.053506951691642553 0 -0.010574686782160701 -0.0524287951552216 0 0.0016561558194555801 -0.070702517229202691 0 0.0070985228527581648 -0.053506951691642553 0 -0.010574686782160701 -0.0524287951552216 0 -0.014753970683278061 -0.070806544457479179 0 0.0016561558194555801 -0.070702517229202691 0 -0.014753970683278061 -0.070806544457479179 0 -0.02093712496682739 -0.094471857741580512 0 -0.0021152679886422242 -0.095125247924784342 0 -0.014753970683278061 -0.070806544457479179 0 -0.0021152679886422242 -0.095125247924784342 0 -0.014753970683278061 -0.070806544457479179 0 -0.0021152679886422242 -0.095125247924784342 0 0.0016561558194555801 -0.070702517229202691 0 -0.014753970683278061 -0.070806544457479179 0 -0.034834664691955522 -0.08414359838390402 0 -0.02093712496682739 -0.094471857741580512 0 -0.014753970683278061 -0.070806544457479179 0 -0.03193389910011292 -0.063490403517630398 0 -0.034834664691955522 -0.08414359838390402 0 -0.03193389910011292 -0.063490403517630398 0 -0.034834664691955522 -0.08414359838390402 0 -0.051553557496938442 -0.075465307600037834 0 -0.04585526996100716 -0.057494469769966583 0 -0.03193389910011292 -0.063490403517630398 0 -0.051553557496938442 -0.075465307600037834 0 -0.034834664691955522 -0.08414359838390402 0 -0.05725184503287295 -0.093436145430108059 0 -0.051553557496938442 -0.075465307600037834 0 -0.05725184503287295 -0.093436145430108059 0 -0.051553557496938442 -0.075465307600037834 0 -0.068780689730281938 -0.086310829098810715 0 -0.05725184503287295 -0.093436145430108059 0 -0.051553557496938442 -0.075465307600037834 0 -0.071472277272935439 -0.071456549610906639 0 -0.058152321353328262 -0.060731359465292303 0 -0.051553557496938442 -0.075465307600037834 0 -0.058152321353328262 -0.060731359465292303 0 -0.04585526996100716 -0.057494469769966583 0 -0.051553557496938442 -0.075465307600037834 0 -0.04585526996100716 -0.057494469769966583 0 -0.051553557496938442 -0.075465307600037834 0 -0.051834972677183837 -0.11875307306649691 0 -0.061842069196435007 -0.1079124549401073 0 -0.034595343088444183 -0.1074388271863314 0 -0.051834972677183837 -0.11875307306649691 0 -0.062375254211023988 -0.12555505455506771 0 -0.051834972677183837 -0.11875307306649691 0 -0.05976647898593606 -0.1180300387568318 0 -0.062375254211023988 -0.12555505455506771 0 -0.051834972677183837 -0.11875307306649691 0 -0.05976647898593606 -0.1180300387568318 0 -0.061842069196435007 -0.1079124549401073 0 -0.05725184503287295 -0.093436145430108059 0 -0.061842069196435007 -0.1079124549401073 0 -0.034595343088444183 -0.1074388271863314 0 -0.067375175556756137 -0.096926251389634052 0 -0.05725184503287295 -0.093436145430108059 0 -0.061842069196435007 -0.1079124549401073 0 -0.05725184503287295 -0.093436145430108059 0 -0.061842069196435007 -0.1079124549401073 0 -0.034834664691955522 -0.08414359838390402 0 -0.05725184503287295 -0.093436145430108059 0 -0.034595343088444183 -0.1074388271863314 0 -0.05725184503287295 -0.093436145430108059 0 -0.034595343088444183 -0.1074388271863314 0 -0.051834972677183837 -0.11875307306649691 0 -0.034595343088444183 -0.1074388271863314 0 -0.032577545341562583 -0.125543479754603 0 -0.034595343088444183 -0.1074388271863314 0 -0.01193884114401514 -0.121441508942554 0 -0.032577545341562583 -0.125543479754603 0 -0.034595343088444183 -0.1074388271863314 0 -0.01193884114401514 -0.121441508942554 0 -0.034834664691955522 -0.08414359838390402 0 -0.034595343088444183 -0.1074388271863314 0 -0.02093712496682739 -0.094471857741580512 0 -0.034595343088444183 -0.1074388271863314 0 -0.02093712496682739 -0.094471857741580512 0 -0.01193884114401514 -0.121441508942554 0 -0.02093712496682739 -0.094471857741580512 0 -0.0021152679886422242 -0.095125247924784342 0 -0.01193884114401514 -0.121441508942554 0 -0.0021152679886422242 -0.095125247924784342 0 -0.01193884114401514 -0.121441508942554 0 0.01205822537398484 -0.11017830551008739 0 -0.01193884114401514 -0.121441508942554 0 -0.022669311626688581 -0.1384877732401881 0 -0.0054802260051036583 -0.14638053372790891 0 -0.01193884114401514 -0.121441508942554 0 0.01071766080041377 -0.13544419069877681 0 -0.01193884114401514 -0.121441508942554 0 -0.0054802260051036583 -0.14638053372790891 0 0.01071766080041377 -0.13544419069877681 0 -0.01193884114401514 -0.121441508942554 0 -0.022669311626688581 -0.1384877732401881 0 -0.032577545341562583 -0.125543479754603 0 -0.022669311626688581 -0.1384877732401881 0 -0.0054802260051036583 -0.14638053372790891 0 -0.0216781128106227 -0.1573168767570387 0 -0.022669311626688581 -0.1384877732401881 0 -0.0216781128106227 -0.1573168767570387 0 -0.042026683510823018 -0.14143596565605279 0 -0.0054802260051036583 -0.14638053372790891 0 -0.0035093935166591859 -0.15804738012971131 0 -0.0216781128106227 -0.1573168767570387 0 -0.0054802260051036583 -0.14638053372790891 0 -0.0216781128106227 -0.1573168767570387 0 -0.0035093935166591859 -0.15804738012971131 0 -0.0084496614679015463 -0.16764093650907691 0 -0.0216781128106227 -0.1573168767570387 0 -0.0035093935166591859 -0.15804738012971131 0 -0.0084496614679015463 -0.16764093650907691 0 0.0032866020401578198 -0.16633692148475179 0 -0.0084496614679015463 -0.16764093650907691 0 0.0032866020401578198 -0.16633692148475179 0 0.004778789874819174 -0.17796499626111559 0 -0.0084496614679015463 -0.16764093650907691 0 -0.0216781128106227 -0.1573168767570387 0 -0.014460729452918991 -0.18160855319159641 0 0.0080627702558309297 -0.1896718368080367 0 -0.0025172076975426079 -0.17922158069245639 0 -0.014460729452918991 -0.18160855319159641 0 0.0080627702558309297 -0.1896718368080367 0 -0.014460729452918991 -0.18160855319159641 0 -0.005179268052130895 -0.19117181568058519 0 0.0080627702558309297 -0.1896718368080367 0 -0.0084496614679015463 -0.16764093650907691 0 -0.0025172076975426079 -0.17922158069245639 0 0.004778789874819174 -0.17796499626111559 0 -0.0084496614679015463 -0.16764093650907691 0 0.004778789874819174 -0.17796499626111559 0 -0.0084496614679015463 -0.16764093650907691 0 -0.014460729452918991 -0.18160855319159641 0 -0.020148532547769441 -0.16747745333395389 0 -0.0084496614679015463 -0.16764093650907691 0 -0.0025172076975426079 -0.17922158069245639 0 -0.014460729452918991 -0.18160855319159641 0 -0.014460729452918991 -0.18160855319159641 0 -0.036984229161668922 -0.17354526957515609 0 -0.014460729452918991 -0.18160855319159641 0 -0.036984229161668922 -0.17354526957515609 0 -0.027900395575099778 -0.187529757834586 0 -0.014460729452918991 -0.18160855319159641 0 -0.02705306386589448 -0.1695142494874641 0 -0.036984229161668922 -0.17354526957515609 0 -0.014460729452918991 -0.18160855319159641 0 -0.020148532547769441 -0.16747745333395389 0 -0.02705306386589448 -0.1695142494874641 0 -0.0216781128106227 -0.1573168767570387 0 -0.027211829180675981 -0.16105308143456831 0 -0.037591772648669822 -0.1562819144040595 0 -0.0216781128106227 -0.1573168767570387 0 -0.020148532547769441 -0.16747745333395389 0 -0.027211829180675981 -0.16105308143456831 0 -0.0084496614679015463 -0.16764093650907691 0 -0.0216781128106227 -0.1573168767570387 0 -0.020148532547769441 -0.16747745333395389 0 -0.020148532547769441 -0.16747745333395389 0 -0.02705306386589448 -0.1695142494874641 0 -0.027211829180675981 -0.16105308143456831 0 -0.02705306386589448 -0.1695142494874641 0 -0.027211829180675981 -0.16105308143456831 0 -0.036459998986439091 -0.16388688990204561 0 -0.0216781128106227 -0.1573168767570387 0 -0.027211829180675981 -0.16105308143456831 0 -0.027211829180675981 -0.16105308143456831 0 -0.036459998986439091 -0.16388688990204561 0 -0.037591772648669822 -0.1562819144040595 0 -0.02705306386589448 -0.1695142494874641 0 -0.036459998986439091 -0.16388688990204561 0 -0.036984229161668922 -0.17354526957515609 0 -0.036459998986439091 -0.16388688990204561 0 -0.045350341710537569 -0.16166731286843769 0 -0.036984229161668922 -0.17354526957515609 0 -0.036459998986439091 -0.16388688990204561 0 -0.037591772648669822 -0.1562819144040595 0 -0.045350341710537569 -0.16166731286843769 0 -0.037591772648669822 -0.1562819144040595 0 -0.045350341710537569 -0.16166731286843769 0 -0.052823669692921002 -0.15233135980621451 0 -0.036984229161668922 -0.17354526957515609 0 -0.027900395575099778 -0.187529757834586 0 -0.038389369917689153 -0.1876345084375235 0 -0.036984229161668922 -0.17354526957515609 0 -0.049802618476840921 -0.18322137154871909 0 -0.038389369917689153 -0.1876345084375235 0 -0.049802618476840921 -0.18322137154871909 0 -0.06574004843675775 -0.18520540287681109 0 -0.064281283695554761 -0.17249080603792 0 -0.036984229161668922 -0.17354526957515609 0 -0.049802618476840921 -0.18322137154871909 0 -0.057583671202881402 -0.1691716999328883 0 -0.049802618476840921 -0.18322137154871909 0 -0.057583671202881402 -0.1691716999328883 0 -0.064281283695554761 -0.17249080603792 0 -0.036984229161668922 -0.17354526957515609 0 -0.059507728870418601 -0.16548198595871549 0 -0.045350341710537569 -0.16166731286843769 0 -0.036984229161668922 -0.17354526957515609 0 -0.059507728870418601 -0.16548198595871549 0 -0.036984229161668922 -0.17354526957515609 0 -0.057583671202881402 -0.1691716999328883 0 -0.059507728870418601 -0.16548198595871549 0 -0.045350341710537569 -0.16166731286843769 0 -0.059507728870418601 -0.16548198595871549 0 -0.052823669692921002 -0.15233135980621451 0 -0.057583671202881402 -0.1691716999328883 0 -0.059507728870418601 -0.16548198595871549 0 -0.059507728870418601 -0.16548198595871549 0 -0.052823669692921002 -0.15233135980621451 0 -0.067657816768585718 -0.14985278018386861 0 -0.052823669692921002 -0.15233135980621451 0 -0.057217669755238808 -0.139399466852175 0 -0.042026683510823018 -0.14143596565605279 0 -0.052823669692921002 -0.15233135980621451 0 -0.057217669755238808 -0.139399466852175 0 -0.067657816768585718 -0.14985278018386861 0 -0.062375254211023988 -0.12555505455506771 0 -0.042026683510823018 -0.14143596565605279 0 -0.057217669755238808 -0.139399466852175 0 -0.062375254211023988 -0.12555505455506771 0 -0.042026683510823018 -0.14143596565605279 0 -0.051834972677183837 -0.11875307306649691 0 -0.062375254211023988 -0.12555505455506771 0 -0.042026683510823018 -0.14143596565605279 0 -0.057217669755238808 -0.139399466852175 0 -0.062375254211023988 -0.12555505455506771 0 -0.065479484344907329 -0.13335680924431989 0 -0.022669311626688581 -0.1384877732401881 0 -0.032577545341562583 -0.125543479754603 0 -0.042026683510823018 -0.14143596565605279 0 -0.051834972677183837 -0.11875307306649691 0 -0.032577545341562583 -0.125543479754603 0 -0.042026683510823018 -0.14143596565605279 0 -0.0216781128106227 -0.1573168767570387 0 -0.042026683510823018 -0.14143596565605279 0 -0.0216781128106227 -0.1573168767570387 0 -0.037591772648669822 -0.1562819144040595 0 -0.042026683510823018 -0.14143596565605279 0 -0.037591772648669822 -0.1562819144040595 0 -0.052823669692921002 -0.15233135980621451 0 -0.042026683510823018 -0.14143596565605279 0 -0.017469828598401758 -0.25688663138693307 0 -0.03122802391732607 -0.24207170577204351 0 -0.01075693259031375 -0.24228488697704789 0 -0.03122802391732607 -0.24207170577204351 0 -0.01075693259031375 -0.24228488697704789 0 -0.020691655366887721 -0.23164971503225959 0 -0.01075693259031375 -0.24228488697704789 0 0.0022157039987719608 -0.25103517629298772 0 0.0020586593896541501 -0.23538806153735661 0 -0.01075693259031375 -0.24228488697704789 0 -0.0098928821955848525 -0.23008105229597681 0 0.0020586593896541501 -0.23538806153735661 0 -0.01075693259031375 -0.24228488697704789 0 -0.0098928821955848525 -0.23008105229597681 0 -0.020691655366887721 -0.23164971503225959 0 -0.0098928821955848525 -0.23008105229597681 0 -0.001152381567331534 -0.2211555327351723 0 -0.018561965392139501 -0.22018438702458809 0 -0.0098928821955848525 -0.23008105229597681 0 -0.001152381567331534 -0.2211555327351723 0 0.0020586593896541501 -0.23538806153735661 0 -0.018561965392139501 -0.22018438702458809 0 -0.020691655366887721 -0.23164971503225959 0 -0.03095470244597422 -0.22698724252025509 0 -0.0098928821955848525 -0.23008105229597681 0 -0.018561965392139501 -0.22018438702458809 0 -0.020691655366887721 -0.23164971503225959 0 -0.03122802391732607 -0.24207170577204351 0 -0.020691655366887721 -0.23164971503225959 0 -0.03095470244597422 -0.22698724252025509 0 -0.018561965392139501 -0.22018438702458809 0 -0.03095470244597422 -0.22698724252025509 0 -0.031355769419989313 -0.2162346106028622 0 -0.018561965392139501 -0.22018438702458809 0 -0.02394386061028916 -0.20776443922509641 0 -0.031355769419989313 -0.2162346106028622 0 -0.02394386061028916 -0.20776443922509641 0 -0.035029814618555311 -0.20631898734460469 0 -0.031355769419989313 -0.2162346106028622 0 -0.02394386061028916 -0.20776443922509641 0 -0.031586381902810393 -0.196835207495905 0 -0.035029814618555311 -0.20631898734460469 0 -0.02394386061028916 -0.20776443922509641 0 -0.010707126097519009 -0.2094932368204149 0 -0.01810525766068392 -0.19732652756082111 0 -0.018561965392139501 -0.22018438702458809 0 -0.02394386061028916 -0.20776443922509641 0 -0.010707126097519009 -0.2094932368204149 0 -0.001152381567331534 -0.2211555327351723 0 -0.018561965392139501 -0.22018438702458809 0 -0.010707126097519009 -0.2094932368204149 0 -0.001152381567331534 -0.2211555327351723 0 -0.010707126097519009 -0.2094932368204149 0 0.0022390454428899008 -0.21166184794823081 0 -0.010707126097519009 -0.2094932368204149 0 -0.0074540719097852693 -0.19959137524155821 0 0.0007592833362599264 -0.20298356516784949 0 -0.010707126097519009 -0.2094932368204149 0 0.0007592833362599264 -0.20298356516784949 0 0.0022390454428899008 -0.21166184794823081 0 -0.0074540719097852693 -0.19959137524155821 0 -0.005179268052130895 -0.19117181568058519 0 -0.01810525766068392 -0.19732652756082111 0 -0.014460729452918991 -0.18160855319159641 0 -0.005179268052130895 -0.19117181568058519 0 -0.01810525766068392 -0.19732652756082111 0 -0.010707126097519009 -0.2094932368204149 0 -0.0074540719097852693 -0.19959137524155821 0 -0.01810525766068392 -0.19732652756082111 0 -0.0074540719097852693 -0.19959137524155821 0 0.00072783491096226538 -0.19632658387055249 0 0.0007592833362599264 -0.20298356516784949 0 -0.0074540719097852693 -0.19959137524155821 0 -0.005179268052130895 -0.19117181568058519 0 0.00072783491096226538 -0.19632658387055249 0 -0.014460729452918991 -0.18160855319159641 0 -0.01810525766068392 -0.19732652756082111 0 -0.027900395575099778 -0.187529757834586 0 -0.02394386061028916 -0.20776443922509641 0 -0.01810525766068392 -0.19732652756082111 0 -0.031586381902810393 -0.196835207495905 0 -0.01810525766068392 -0.19732652756082111 0 -0.027900395575099778 -0.187529757834586 0 -0.031586381902810393 -0.196835207495905 0 -0.027900395575099778 -0.187529757834586 0 -0.038389369917689153 -0.1876345084375235 0 -0.031586381902810393 -0.196835207495905 0 -0.038389369917689153 -0.1876345084375235 0 -0.031586381902810393 -0.196835207495905 0 -0.04567322447202575 -0.19704093573325121 0 -0.031586381902810393 -0.196835207495905 0 -0.04567322447202575 -0.19704093573325121 0 -0.035029814618555311 -0.20631898734460469 0 -0.049802618476840921 -0.18322137154871909 0 -0.038389369917689153 -0.1876345084375235 0 -0.04567322447202575 -0.19704093573325121 0 -0.04567322447202575 -0.19704093573325121 0 -0.054623955337210227 -0.20677130111350539 0 -0.06574004843675775 -0.18520540287681109 0 -0.049802618476840921 -0.18322137154871909 0 -0.04567322447202575 -0.19704093573325121 0 -0.06574004843675775 -0.18520540287681109 0 -0.054623955337210227 -0.20677130111350539 0 -0.06574004843675775 -0.18520540287681109 0 -0.04567322447202575 -0.19704093573325121 0 -0.054623955337210227 -0.20677130111350539 0 -0.042589836687661947 -0.21371974366590901 0 -0.054623955337210227 -0.20677130111350539 0 -0.054185140778566399 -0.23253519298144509 0 -0.068603866872908981 -0.20894092095852809 0 -0.054623955337210227 -0.20677130111350539 0 -0.042589836687661947 -0.21371974366590901 0 -0.043507862237662717 -0.22833719935019961 0 -0.054623955337210227 -0.20677130111350539 0 -0.043507862237662717 -0.22833719935019961 0 -0.04567322447202575 -0.19704093573325121 0 -0.042589836687661947 -0.21371974366590901 0 -0.035029814618555311 -0.20631898734460469 0 -0.042589836687661947 -0.21371974366590901 0 -0.035029814618555311 -0.20631898734460469 0 -0.031355769419989313 -0.2162346106028622 0 -0.042589836687661947 -0.21371974366590901 0 -0.031355769419989313 -0.2162346106028622 0 -0.037102042697822038 -0.2213196990348065 0 -0.03122802391732607 -0.24207170577204351 0 -0.043507862237662717 -0.22833719935019961 0 -0.054185140778566399 -0.23253519298144509 0 -0.03095470244597422 -0.22698724252025509 0 -0.031355769419989313 -0.2162346106028622 0 -0.037102042697822038 -0.2213196990348065 0 -0.03095470244597422 -0.22698724252025509 0 -0.037102042697822038 -0.2213196990348065 0 -0.043507862237662717 -0.22833719935019961 0 -0.03122802391732607 -0.24207170577204351 0 -0.03095470244597422 -0.22698724252025509 0 -0.043507862237662717 -0.22833719935019961 0 -0.042589836687661947 -0.21371974366590901 0 -0.037102042697822038 -0.2213196990348065 0 -0.043507862237662717 -0.22833719935019961 0 -0.054185140778566399 -0.23253519298144509 0 -0.068603866872908981 -0.20894092095852809 0 -0.054623955337210227 -0.20677130111350539 0 -0.043507862237662717 -0.22833719935019961 0 -0.054185140778566399 -0.23253519298144509 0 -0.039766414684223789 -0.25612946500436229 0 -0.054185140778566399 -0.23253519298144509 0 -0.039766414684223789 -0.25612946500436229 0 -0.062127327792707368 -0.25260410759681001 0 -0.054185140778566399 -0.23253519298144509 0 -0.062127327792707368 -0.25260410759681001 0 -0.054185140778566399 -0.23253519298144509 0 -0.066572666480736453 -0.2386320145602267 0 -0.039766414684223789 -0.25612946500436229 0 -0.03122802391732607 -0.24207170577204351 0 -0.054185140778566399 -0.23253519298144509 0 -0.062127327792707368 -0.25260410759681001 0 -0.079354248621226114 -0.2415659165720673 0 -0.066572666480736453 -0.2386320145602267 0 -0.079354248621226114 -0.2415659165720673 0 -0.066572666480736453 -0.2386320145602267 0 -0.07062394873044596 -0.22782284109058451 0 -0.054185140778566399 -0.23253519298144509 0 -0.07062394873044596 -0.22782284109058451 0 -0.068603866872908981 -0.20894092095852809 0 -0.054185140778566399 -0.23253519298144509 0 -0.066572666480736453 -0.2386320145602267 0 -0.07062394873044596 -0.22782284109058451 0 -0.079354248621226114 -0.2415659165720673 0 -0.07062394873044596 -0.22782284109058451 0 -0.084909297470425665 -0.21706370187972279 0 -0.079354248621226114 -0.2415659165720673 0 -0.084909297470425665 -0.21706370187972279 0 -0.1005973297319754 -0.2281032829273347 0 -0.079354248621226114 -0.2415659165720673 0 -0.084909297470425665 -0.21706370187972279 0 -0.084909297470425665 -0.21706370187972279 0 -0.090464346319625633 -0.19256148718737839 0 -0.10052671277757599 -0.20819862473257131 0 -0.084909297470425665 -0.21706370187972279 0 -0.068603866872908981 -0.20894092095852809 0 -0.083405482222637828 -0.19927693920250319 0 -0.084909297470425665 -0.21706370187972279 0 -0.090464346319625633 -0.19256148718737839 0 -0.07062394873044596 -0.22782284109058451 0 -0.084909297470425665 -0.21706370187972279 0 -0.068603866872908981 -0.20894092095852809 0 -0.054623955337210227 -0.20677130111350539 0 -0.068603866872908981 -0.20894092095852809 0 -0.06574004843675775 -0.18520540287681109 0 -0.068603866872908981 -0.20894092095852809 0 -0.06574004843675775 -0.18520540287681109 0 -0.083022592967251702 -0.18534664893561081 0 -0.068603866872908981 -0.20894092095852809 0 -0.083022592967251702 -0.18534664893561081 0 -0.083405482222637828 -0.19927693920250319 0 -0.090464346319625633 -0.19256148718737839 0 -0.083022592967251702 -0.18534664893561081 0 -0.084909297470425665 -0.21706370187972279 0 -0.083405482222637828 -0.19927693920250319 0 -0.090464346319625633 -0.19256148718737839 0 -0.068603866872908981 -0.20894092095852809 0 -0.083405482222637828 -0.19927693920250319 0 -0.083022592967251702 -0.18534664893561081 0 -0.090464346319625633 -0.19256148718737839 0 -0.1147012443135724 -0.1975276763039078 0 -0.10497992056281211 -0.18461115434973341 0 -0.090464346319625633 -0.19256148718737839 0 -0.1147012443135724 -0.1975276763039078 0 -0.090464346319625633 -0.19256148718737839 0 -0.1147012443135724 -0.1975276763039078 0 -0.10052671277757599 -0.20819862473257131 0 -0.1147012443135724 -0.1975276763039078 0 -0.11827748326350331 -0.21493246292812049 0 -0.13893814230751891 -0.20249386542043821 0 -0.1147012443135724 -0.1975276763039078 0 -0.11827748326350331 -0.21493246292812049 0 -0.10052671277757599 -0.20819862473257131 0 -0.084909297470425665 -0.21706370187972279 0 -0.10052671277757599 -0.20819862473257131 0 -0.1005973297319754 -0.2281032829273347 0 -0.11827748326350331 -0.21493246292812049 0 -0.10052671277757599 -0.20819862473257131 0 -0.1005973297319754 -0.2281032829273347 0 -0.11827748326350331 -0.21493246292812049 0 -0.1200170734220892 -0.23139547915405451 0 -0.134884397028288 -0.22187584903041729 0 -0.11827748326350331 -0.21493246292812049 0 -0.1005973297319754 -0.2281032829273347 0 -0.1200170734220892 -0.23139547915405451 0 -0.12160584249772299 -0.25215775347966563 0 -0.1200170734220892 -0.23139547915405451 0 -0.10273856262009171 -0.24839411363350219 0 -0.079354248621226114 -0.2415659165720673 0 -0.1005973297319754 -0.2281032829273347 0 -0.10273856262009171 -0.24839411363350219 0 -0.1005973297319754 -0.2281032829273347 0 -0.1200170734220892 -0.23139547915405451 0 -0.10273856262009171 -0.24839411363350219 0 -0.087972234635852478 -0.14207360640342251 0 -0.076856141536305267 -0.1636395046401169 0 -0.086436794522062155 -0.1549299988420737 0 -0.087972234635852478 -0.14207360640342251 0 -0.076856141536305267 -0.1636395046401169 0 -0.078546998746817323 -0.15254952245284581 0 -0.087972234635852478 -0.14207360640342251 0 -0.076856141536305267 -0.1636395046401169 0 -0.078546998746817323 -0.15254952245284581 0 -0.087972234635852478 -0.14207360640342251 0 -0.077496238704502174 -0.1446748708622897 0 -0.086436794522062155 -0.1549299988420737 0 -0.091992691224458828 -0.15043582904256911 0 -0.087972234635852478 -0.14207360640342251 0 -0.086436794522062155 -0.1549299988420737 0 -0.093706126644658744 -0.15531927221433811 0 -0.091992691224458828 -0.15043582904256911 0 -0.087972234635852478 -0.14207360640342251 0 -0.084790450337846865 -0.13397379079219071 0 -0.096473753305982804 -0.12558014194108899 0 -0.087972234635852478 -0.14207360640342251 0 -0.096473753305982804 -0.12558014194108899 0 -0.0861511705747985 -0.1143885697709555 0 -0.085657367727213191 -0.12719165871186591 0 -0.07580790466675319 -0.134223574409022 0 -0.085657367727213191 -0.12719165871186591 0 -0.084790450337846865 -0.13397379079219071 0 -0.096473753305982804 -0.12558014194108899 0 -0.085657367727213191 -0.12719165871186591 0 -0.084790450337846865 -0.13397379079219071 0 -0.07580790466675319 -0.134223574409022 0 -0.087972234635852478 -0.14207360640342251 0 -0.084790450337846865 -0.13397379079219071 0 -0.07580790466675319 -0.134223574409022 0 -0.087972234635852478 -0.14207360640342251 0 -0.07580790466675319 -0.134223574409022 0 -0.077496238704502174 -0.1446748708622897 0 -0.087972234635852478 -0.14207360640342251 0 -0.07580790466675319 -0.134223574409022 0 -0.07580790466675319 -0.134223574409022 0 -0.067652152213283523 -0.13977901581373839 0 -0.069484838864786069 -0.1344613553441221 0 -0.0861511705747985 -0.1143885697709555 0 -0.07580790466675319 -0.134223574409022 0 -0.068738321639515529 -0.12966134590223791 0 -0.07580790466675319 -0.134223574409022 0 -0.068738321639515529 -0.12966134590223791 0 -0.07580790466675319 -0.134223574409022 0 -0.068738321639515529 -0.12966134590223791 0 -0.069484838864786069 -0.1344613553441221 0 -0.06643229336000292 -0.1223887644501047 0 -0.068738321639515529 -0.12966134590223791 0 -0.068738321639515529 -0.12966134590223791 0 -0.069484838864786069 -0.1344613553441221 0 -0.065479484344907329 -0.13335680924431989 0 -0.062375254211023988 -0.12555505455506771 0 -0.068738321639515529 -0.12966134590223791 0 -0.065479484344907329 -0.13335680924431989 0 -0.06643229336000292 -0.1223887644501047 0 -0.062375254211023988 -0.12555505455506771 0 -0.068738321639515529 -0.12966134590223791 0 -0.062375254211023988 -0.12555505455506771 0 -0.068738321639515529 -0.12966134590223791 0 -0.057217669755238808 -0.139399466852175 0 -0.067652152213283523 -0.13977901581373839 0 -0.065479484344907329 -0.13335680924431989 0 -0.067652152213283523 -0.13977901581373839 0 -0.069484838864786069 -0.1344613553441221 0 -0.065479484344907329 -0.13335680924431989 0 -0.07580790466675319 -0.134223574409022 0 -0.077496238704502174 -0.1446748708622897 0 -0.067657816768585718 -0.14985278018386861 0 -0.07580790466675319 -0.134223574409022 0 -0.067657816768585718 -0.14985278018386861 0 -0.057217669755238808 -0.139399466852175 0 -0.067652152213283523 -0.13977901581373839 0 -0.067657816768585718 -0.14985278018386861 0 -0.07580790466675319 -0.134223574409022 0 -0.067652152213283523 -0.13977901581373839 0 -0.067657816768585718 -0.14985278018386861 0 -0.078546998746817323 -0.15254952245284581 0 -0.070598921970865883 -0.1557476346100142 0 -0.067657816768585718 -0.14985278018386861 0 -0.078546998746817323 -0.15254952245284581 0 -0.070598921970865883 -0.1557476346100142 0 -0.074382465589528698 -0.15813860108697811 0 -0.078546998746817323 -0.15254952245284581 0 -0.077496238704502174 -0.1446748708622897 0 -0.067657816768585718 -0.14985278018386861 0 -0.059507728870418601 -0.16548198595871549 0 -0.071423938824988459 -0.16121605119106441 0 -0.059507728870418601 -0.16548198595871549 0 -0.067657816768585718 -0.14985278018386861 0 -0.059507728870418601 -0.16548198595871549 0 -0.070598921970865883 -0.1557476346100142 0 -0.071423938824988459 -0.16121605119106441 0 -0.059507728870418601 -0.16548198595871549 0 -0.070598921970865883 -0.1557476346100142 0 -0.067657816768585718 -0.14985278018386861 0 -0.057583671202881402 -0.1691716999328883 0 -0.059507728870418601 -0.16548198595871549 0 -0.071423938824988459 -0.16121605119106441 0 -0.057583671202881402 -0.1691716999328883 0 -0.071423938824988459 -0.16121605119106441 0 -0.064281283695554761 -0.17249080603792 0 -0.076856141536305267 -0.1636395046401169 0 -0.071423938824988459 -0.16121605119106441 0 -0.064281283695554761 -0.17249080603792 0 -0.076856141536305267 -0.1636395046401169 0 -0.074382465589528698 -0.15813860108697811 0 -0.071423938824988459 -0.16121605119106441 0 -0.078546998746817323 -0.15254952245284581 0 -0.076856141536305267 -0.1636395046401169 0 -0.074382465589528698 -0.15813860108697811 0 -0.070598921970865883 -0.1557476346100142 0 -0.074382465589528698 -0.15813860108697811 0 -0.071423938824988459 -0.16121605119106441 0 -0.076856141536305267 -0.1636395046401169 0 -0.06574004843675775 -0.18520540287681109 0 -0.079667889497540806 -0.17459680495937291 0 -0.076856141536305267 -0.1636395046401169 0 -0.06574004843675775 -0.18520540287681109 0 -0.064281283695554761 -0.17249080603792 0 -0.06574004843675775 -0.18520540287681109 0 -0.083022592967251702 -0.18534664893561081 0 -0.079667889497540806 -0.17459680495937291 0 -0.076856141536305267 -0.1636395046401169 0 -0.06574004843675775 -0.18520540287681109 0 -0.083022592967251702 -0.18534664893561081 0 -0.097448302922758939 -0.16175664482912311 0 -0.093956324621192078 -0.17715906600825071 0 -0.083022592967251702 -0.18534664893561081 0 -0.097448302922758939 -0.16175664482912311 0 -0.083022592967251702 -0.18534664893561081 0 -0.079667889497540806 -0.17459680495937291 0 -0.085921957182659506 -0.1665237880613423 0 -0.090464346319625633 -0.19256148718737839 0 -0.083022592967251702 -0.18534664893561081 0 -0.093956324621192078 -0.17715906600825071 0 -0.090464346319625633 -0.19256148718737839 0 -0.093956324621192078 -0.17715906600825071 0 -0.083022592967251702 -0.18534664893561081 0 -0.085921957182659506 -0.1665237880613423 0 -0.097448302922758939 -0.16175664482912311 0 -0.086436794522062155 -0.1549299988420737 0 -0.076856141536305267 -0.1636395046401169 0 -0.085921957182659506 -0.1665237880613423 0 -0.076856141536305267 -0.1636395046401169 0 -0.079667889497540806 -0.17459680495937291 0 -0.085921957182659506 -0.1665237880613423 0 -0.085921957182659506 -0.1665237880613423 0 -0.090876549352743696 -0.15963135900761191 0 -0.097448302922758939 -0.16175664482912311 0 -0.086436794522062155 -0.1549299988420737 0 -0.085921957182659506 -0.1665237880613423 0 -0.090876549352743696 -0.15963135900761191 0 -0.086436794522062155 -0.1549299988420737 0 -0.093706126644658744 -0.15531927221433811 0 -0.090876549352743696 -0.15963135900761191 0 -0.093706126644658744 -0.15531927221433811 0 -0.097448302922758939 -0.16175664482912311 0 -0.1033878043145169 -0.1520217675842612 0 -0.097448302922758939 -0.16175664482912311 0 -0.10488620813027209 -0.17171364543022311 0 -0.1062985608913463 -0.15390017209269991 0 -0.093706126644658744 -0.15531927221433811 0 -0.090876549352743696 -0.15963135900761191 0 -0.097448302922758939 -0.16175664482912311 0 -0.097448302922758939 -0.16175664482912311 0 -0.1033878043145169 -0.1520217675842612 0 -0.097448302922758939 -0.16175664482912311 0 -0.093956324621192078 -0.17715906600825071 0 -0.097448302922758939 -0.16175664482912311 0 -0.10488620813027209 -0.17171364543022311 0 -0.093956324621192078 -0.17715906600825071 0 -0.090464346319625633 -0.19256148718737839 0 -0.093956324621192078 -0.17715906600825071 0 -0.10497992056281211 -0.18461115434973341 0 -0.10488620813027209 -0.17171364543022311 0 -0.093956324621192078 -0.17715906600825071 0 -0.10497992056281211 -0.18461115434973341 0 -0.10488620813027209 -0.17171364543022311 0 -0.10497992056281211 -0.18461115434973341 0 -0.12261835159943241 -0.17819701875656929 0 -0.1147012443135724 -0.1975276763039078 0 -0.10497992056281211 -0.18461115434973341 0 -0.12261835159943241 -0.17819701875656929 0 -0.12261835159943241 -0.17819701875656929 0 -0.1062985608913463 -0.15390017209269991 0 -0.1062985608913463 -0.15390017209269991 0 -0.1252999943799967 -0.15199820297137151 0 -0.1313950888414552 -0.1700957659196792 0 -0.1062985608913463 -0.15390017209269991 0 -0.1313950888414552 -0.1700957659196792 0 -0.10488620813027209 -0.17171364543022311 0 -0.12261835159943241 -0.17819701875656929 0 -0.1062985608913463 -0.15390017209269991 0 -0.12261835159943241 -0.17819701875656929 0 -0.1062985608913463 -0.15390017209269991 0 -0.1313950888414552 -0.1700957659196792 0 -0.11452187311709811 -0.1460810279626428 0 -0.1062985608913463 -0.15390017209269991 0 -0.1252999943799967 -0.15199820297137151 0 -0.11452187311709811 -0.1460810279626428 0 -0.1033878043145169 -0.1520217675842612 0 -0.1139437320853922 -0.13474843638629799 0 -0.11452187311709811 -0.1460810279626428 0 -0.12784043987596491 -0.1388455522903165 0 -0.1252999943799967 -0.15199820297137151 0 -0.1033878043145169 -0.1520217675842612 0 -0.1139437320853922 -0.13474843638629799 0 -0.097448302922758939 -0.16175664482912311 0 -0.1062985608913463 -0.15390017209269991 0 -0.1033878043145169 -0.1520217675842612 0 -0.11452187311709811 -0.1460810279626428 0 -0.1062985608913463 -0.15390017209269991 0 -0.1033878043145169 -0.1520217675842612 0 -0.1033878043145169 -0.1520217675842612 0 -0.096807636222346699 -0.1397701170260745 0 -0.1043028647808672 -0.1328026984946753 0 -0.1062985608913463 -0.15390017209269991 0 -0.1033878043145169 -0.1520217675842612 0 -0.087972234635852478 -0.14207360640342251 0 -0.1033878043145169 -0.1520217675842612 0 -0.096807636222346699 -0.1397701170260745 0 -0.087972234635852478 -0.14207360640342251 0 -0.1033878043145169 -0.1520217675842612 0 -0.091992691224458828 -0.15043582904256911 0 -0.087972234635852478 -0.14207360640342251 0 -0.1033878043145169 -0.1520217675842612 0 -0.1033878043145169 -0.1520217675842612 0 -0.096807636222346699 -0.1397701170260745 0 -0.093706126644658744 -0.15531927221433811 0 -0.091992691224458828 -0.15043582904256911 0 -0.1033878043145169 -0.1520217675842612 0 -0.087972234635852478 -0.14207360640342251 0 -0.096473753305982804 -0.12558014194108899 0 -0.096807636222346699 -0.1397701170260745 0 -0.1033878043145169 -0.1520217675842612 0 -0.1043028647808672 -0.1328026984946753 0 -0.1139437320853922 -0.13474843638629799 0 -0.11467896899858961 -0.1174452021670632 0 -0.096473753305982804 -0.12558014194108899 0 -0.1043028647808672 -0.1328026984946753 0 -0.096473753305982804 -0.12558014194108899 0 -0.096807636222346699 -0.1397701170260745 0 -0.1043028647808672 -0.1328026984946753 0 -0.1139437320853922 -0.13474843638629799 0 -0.13269474159079009 -0.12543633907749299 0 -0.12784043987596491 -0.1388455522903165 0 -0.11467896899858961 -0.1174452021670632 0 -0.1139437320853922 -0.13474843638629799 0 -0.13269474159079009 -0.12543633907749299 0 -0.11467896899858961 -0.1174452021670632 0 -0.1043028647808672 -0.1328026984946753 0 -0.1139437320853922 -0.13474843638629799 0 -0.11452187311709811 -0.1460810279626428 0 -0.1139437320853922 -0.13474843638629799 0 -0.12784043987596491 -0.1388455522903165 0 -0.13269474159079009 -0.12543633907749299 0 -0.12784043987596491 -0.1388455522903165 0 -0.1404945487064754 -0.14366098908030361 0 -0.13269474159079009 -0.12543633907749299 0 -0.1517804945288429 -0.13203373485823949 0 -0.1404945487064754 -0.14366098908030361 0 -0.1517804945288429 -0.13203373485823949 0 -0.1404945487064754 -0.14366098908030361 0 -0.1579848827330938 -0.1473374708372428 0 -0.1404945487064754 -0.14366098908030361 0 -0.14472818836263579 -0.1593052912149979 0 -0.1579848827330938 -0.1473374708372428 0 -0.1404945487064754 -0.14366098908030361 0 -0.1252999943799967 -0.15199820297137151 0 -0.13547945507264081 -0.1562650622965881 0 -0.1404945487064754 -0.14366098908030361 0 -0.13547945507264081 -0.1562650622965881 0 -0.14472818836263579 -0.1593052912149979 0 -0.12784043987596491 -0.1388455522903165 0 -0.1404945487064754 -0.14366098908030361 0 -0.1252999943799967 -0.15199820297137151 0 -0.1252999943799967 -0.15199820297137151 0 -0.1313950888414552 -0.1700957659196792 0 -0.13547945507264081 -0.1562650622965881 0 -0.1313950888414552 -0.1700957659196792 0 -0.13547945507264081 -0.1562650622965881 0 -0.14472818836263579 -0.1593052912149979 0 -0.12261835159943241 -0.17819701875656929 0 -0.1313950888414552 -0.1700957659196792 0 -0.13768002038922619 -0.18570963483563929 0 -0.1313950888414552 -0.1700957659196792 0 -0.152797277314906 -0.17188360453753329 0 -0.15649161679156459 -0.18629135974665789 0 -0.1313950888414552 -0.1700957659196792 0 -0.13768002038922619 -0.18570963483563929 0 -0.15649161679156459 -0.18629135974665789 0 -0.1313950888414552 -0.1700957659196792 0 -0.15649161679156459 -0.18629135974665789 0 -0.1313950888414552 -0.1700957659196792 0 -0.152797277314906 -0.17188360453753329 0 -0.14472818836263579 -0.1593052912149979 0 -0.152797277314906 -0.17188360453753329 0 -0.14472818836263579 -0.1593052912149979 0 -0.16318957535120171 -0.1634944506765843 0 -0.14472818836263579 -0.1593052912149979 0 -0.16318957535120171 -0.1634944506765843 0 -0.1579848827330938 -0.1473374708372428 0 -0.152797277314906 -0.17188360453753329 0 -0.16318957535120171 -0.1634944506765843 0 -0.1681819172276727 -0.1802311551297473 0 -0.16318957535120171 -0.1634944506765843 0 -0.1681819172276727 -0.1802311551297473 0 -0.1809524660020343 -0.17228826853763049 0 -0.15649161679156459 -0.18629135974665789 0 -0.1681819172276727 -0.1802311551297473 0 -0.16677033467665281 -0.19379399112570439 0 -0.152797277314906 -0.17188360453753329 0 -0.15649161679156459 -0.18629135974665789 0 -0.1681819172276727 -0.1802311551297473 0 -0.1681819172276727 -0.1802311551297473 0 -0.1809524660020343 -0.17228826853763049 0 -0.1816792585594342 -0.1927059780246391 0 -0.16318957535120171 -0.1634944506765843 0 -0.1809524660020343 -0.17228826853763049 0 -0.17806056775882759 -0.15347646270179521 0 -0.1809524660020343 -0.17228826853763049 0 -0.17806056775882759 -0.15347646270179521 0 -0.19203087901740759 -0.16362889506372269 0 -0.17806056775882759 -0.15347646270179521 0 -0.1706820701017035 -0.13675951769305761 0 -0.1881524424052512 -0.13807002477568531 0 -0.17806056775882759 -0.15347646270179521 0 -0.1881524424052512 -0.13807002477568531 0 -0.1926183790039056 -0.15235258414369721 0 -0.1706820701017035 -0.13675951769305761 0 -0.1881524424052512 -0.13807002477568531 0 -0.18276342685472879 -0.1169884598243857 0 -0.1706820701017035 -0.13675951769305761 0 -0.18276342685472879 -0.1169884598243857 0 -0.16666327681616691 -0.1216774687154121 0 -0.1517804945288429 -0.13203373485823949 0 -0.1706820701017035 -0.13675951769305761 0 -0.1579848827330938 -0.1473374708372428 0 -0.1517804945288429 -0.13203373485823949 0 -0.1706820701017035 -0.13675951769305761 0 -0.16666327681616691 -0.1216774687154121 0 -0.16318957535120171 -0.1634944506765843 0 -0.17806056775882759 -0.15347646270179521 0 -0.1579848827330938 -0.1473374708372428 0 -0.17806056775882759 -0.15347646270179521 0 -0.1706820701017035 -0.13675951769305761 0 -0.1579848827330938 -0.1473374708372428 0 -0.15868149439502019 -0.26183192607265171 0 -0.140756153879736 -0.24256588416855229 0 -0.1647284344901889 -0.2418583948049611 0 -0.140756153879736 -0.24256588416855229 0 -0.15354435673978889 -0.2242395457878151 0 -0.1647284344901889 -0.2418583948049611 0 -0.12160584249772299 -0.25215775347966563 0 -0.1200170734220892 -0.23139547915405451 0 -0.140756153879736 -0.24256588416855229 0 -0.1200170734220892 -0.23139547915405451 0 -0.140756153879736 -0.24256588416855229 0 -0.134884397028288 -0.22187584903041729 0 -0.140756153879736 -0.24256588416855229 0 -0.134884397028288 -0.22187584903041729 0 -0.15354435673978889 -0.2242395457878151 0 -0.15354435673978889 -0.2242395457878151 0 -0.15581009442850671 -0.21436313001715779 0 -0.13893814230751891 -0.20249386542043821 0 -0.134884397028288 -0.22187584903041729 0 -0.15354435673978889 -0.2242395457878151 0 -0.13893814230751891 -0.20249386542043821 0 -0.15354435673978889 -0.2242395457878151 0 -0.13893814230751891 -0.20249386542043821 0 -0.15581009442850671 -0.21436313001715779 0 -0.13893814230751891 -0.20249386542043821 0 -0.16118878756547941 -0.2070530673588796 0 -0.13893814230751891 -0.20249386542043821 0 -0.16118878756547941 -0.2070530673588796 0 -0.11827748326350331 -0.21493246292812049 0 -0.134884397028288 -0.22187584903041729 0 -0.13893814230751891 -0.20249386542043821 0 -0.12261835159943241 -0.17819701875656929 0 -0.13768002038922619 -0.18570963483563929 0 -0.13893814230751891 -0.20249386542043821 0 -0.12261835159943241 -0.17819701875656929 0 -0.13893814230751891 -0.20249386542043821 0 -0.1147012443135724 -0.1975276763039078 0 -0.12261835159943241 -0.17819701875656929 0 -0.13893814230751891 -0.20249386542043821 0 -0.1147012443135724 -0.1975276763039078 0 -0.13893814230751891 -0.20249386542043821 0 -0.13768002038922619 -0.18570963483563929 0 -0.15649161679156459 -0.18629135974665789 0 -0.15101095864621081 -0.19667921302230079 0 -0.13893814230751891 -0.20249386542043821 0 -0.15101095864621081 -0.19667921302230079 0 -0.16118878756547941 -0.2070530673588796 0 -0.13768002038922619 -0.18570963483563929 0 -0.13893814230751891 -0.20249386542043821 0 -0.15101095864621081 -0.19667921302230079 0 -0.15649161679156459 -0.18629135974665789 0 -0.15101095864621081 -0.19667921302230079 0 -0.1591962156028903 -0.19667754033807211 0 -0.1816792585594342 -0.1927059780246391 0 -0.16118878756547941 -0.2070530673588796 0 -0.16677033467665281 -0.19379399112570439 0 -0.1816792585594342 -0.1927059780246391 0 -0.16118878756547941 -0.2070530673588796 0 -0.15649161679156459 -0.18629135974665789 0 -0.1591962156028903 -0.19667754033807211 0 -0.16677033467665281 -0.19379399112570439 0 -0.15101095864621081 -0.19667921302230079 0 -0.1591962156028903 -0.19667754033807211 0 -0.16118878756547941 -0.2070530673588796 0 -0.1591962156028903 -0.19667754033807211 0 -0.16677033467665281 -0.19379399112570439 0 -0.16118878756547941 -0.2070530673588796 0 -0.1816792585594342 -0.1927059780246391 0 -0.17505033250736701 -0.2098933257799814 0 -0.1900846634821568 -0.20634222568190291 0 -0.1681819172276727 -0.1802311551297473 0 -0.16677033467665281 -0.19379399112570439 0 -0.1816792585594342 -0.1927059780246391 0 -0.1816792585594342 -0.1927059780246391 0 -0.17505033250736701 -0.2098933257799814 0 -0.16118878756547941 -0.2070530673588796 0 -0.17505033250736701 -0.2098933257799814 0 -0.171883886083294 -0.22582973563853101 0 -0.18736525771696869 -0.22003890725685579 0 -0.17505033250736701 -0.2098933257799814 0 -0.18736525771696869 -0.22003890725685579 0 -0.1900846634821568 -0.20634222568190291 0 -0.17505033250736701 -0.2098933257799814 0 -0.16335613189293149 -0.2157391179944792 0 -0.171883886083294 -0.22582973563853101 0 -0.17505033250736701 -0.2098933257799814 0 -0.16118878756547941 -0.2070530673588796 0 -0.16335613189293149 -0.2157391179944792 0 -0.17505033250736701 -0.2098933257799814 0 -0.16118878756547941 -0.2070530673588796 0 -0.15581009442850671 -0.21436313001715779 0 -0.16118878756547941 -0.2070530673588796 0 -0.16335613189293149 -0.2157391179944792 0 -0.15354435673978889 -0.2242395457878151 0 -0.15581009442850671 -0.21436313001715779 0 -0.16335613189293149 -0.2157391179944792 0 -0.15354435673978889 -0.2242395457878151 0 -0.16335613189293149 -0.2157391179944792 0 -0.171883886083294 -0.22582973563853101 0 -0.15354435673978889 -0.2242395457878151 0 -0.171883886083294 -0.22582973563853101 0 -0.1647284344901889 -0.2418583948049611 0 -0.171883886083294 -0.22582973563853101 0 -0.18601924465097899 -0.23487227782734321 0 -0.1647284344901889 -0.2418583948049611 0 -0.171883886083294 -0.22582973563853101 0 -0.18736525771696869 -0.22003890725685579 0 -0.18601924465097899 -0.23487227782734321 0 -0.17968295940511231 -0.25641413664057061 0 -0.18601924465097899 -0.23487227782734321 0 -0.1647284344901889 -0.2418583948049611 0 -0.17968295940511231 -0.25641413664057061 0 -0.18601924465097899 -0.23487227782734321 0 -0.20453724126946121 -0.25000242843059739 0 -0.22939152313381031 -0.24359072022062511 0 -0.20453724126946121 -0.25000242843059739 0 -0.19993241904129561 -0.2283893932598286 0 -0.21619737649212711 -0.2272601322511581 0 -0.20453724126946121 -0.25000242843059739 0 -0.21619737649212711 -0.2272601322511581 0 -0.22939152313381031 -0.24359072022062511 0 -0.20453724126946121 -0.25000242843059739 0 -0.18601924465097899 -0.23487227782734321 0 -0.19993241904129561 -0.2283893932598286 0 -0.20453724126946121 -0.25000242843059739 0 -0.17968295940511231 -0.25641413664057061 0 -0.18601924465097899 -0.23487227782734321 0 -0.18736525771696869 -0.22003890725685579 0 -0.19993241904129561 -0.2283893932598286 0 -0.20340179735264829 -0.21299548444737351 0 -0.18736525771696869 -0.22003890725685579 0 -0.18601924465097899 -0.23487227782734321 0 -0.19993241904129561 -0.2283893932598286 0 -0.19993241904129561 -0.2283893932598286 0 -0.21619737649212711 -0.2272601322511581 0 -0.20340179735264829 -0.21299548444737351 0 -0.20340179735264829 -0.21299548444737351 0 -0.20292667127436609 -0.19607743290066451 0 -0.22240199114192341 -0.20486396343015589 0 -0.21619737649212711 -0.2272601322511581 0 -0.20340179735264829 -0.21299548444737351 0 -0.22240199114192341 -0.20486396343015589 0 -0.20340179735264829 -0.21299548444737351 0 -0.1900846634821568 -0.20634222568190291 0 -0.20292667127436609 -0.19607743290066451 0 -0.18736525771696869 -0.22003890725685579 0 -0.20340179735264829 -0.21299548444737351 0 -0.1900846634821568 -0.20634222568190291 0 -0.1816792585594342 -0.1927059780246391 0 -0.20292667127436609 -0.19607743290066451 0 -0.2021697295533893 -0.1783588886903987 0 -0.1816792585594342 -0.1927059780246391 0 -0.1900846634821568 -0.20634222568190291 0 -0.20292667127436609 -0.19607743290066451 0 -0.20292667127436609 -0.19607743290066451 0 -0.22240199114192341 -0.20486396343015589 0 -0.220519867081548 -0.18276074138157219 0 -0.2366519888090246 -0.19054748329902479 0 -0.2417330138615848 -0.20747747701892849 0 -0.22240199114192341 -0.20486396343015589 0 -0.2366519888090246 -0.19054748329902479 0 -0.22240199114192341 -0.20486396343015589 0 -0.220519867081548 -0.18276074138157219 0 -0.2366519888090246 -0.19054748329902479 0 -0.2417330138615848 -0.20747747701892849 0 -0.25393282328321037 -0.19300403884003059 0 -0.2417330138615848 -0.20747747701892849 0 -0.25110359305318669 -0.22315728211605909 0 -0.25497842492385708 -0.21122352002450451 0 -0.2417330138615848 -0.20747747701892849 0 -0.23751928701362399 -0.22371880371836811 0 -0.25110359305318669 -0.22315728211605909 0 -0.21619737649212711 -0.2272601322511581 0 -0.22240199114192341 -0.20486396343015589 0 -0.23751928701362399 -0.22371880371836811 0 -0.2417330138615848 -0.20747747701892849 0 -0.22240199114192341 -0.20486396343015589 0 -0.23751928701362399 -0.22371880371836811 0 -0.21619737649212711 -0.2272601322511581 0 -0.23751928701362399 -0.22371880371836811 0 -0.22939152313381031 -0.24359072022062511 0 -0.23751928701362399 -0.22371880371836811 0 -0.25424580499815952 -0.23717901201065261 0 -0.25110359305318669 -0.22315728211605909 0 -0.22939152313381031 -0.24359072022062511 0 -0.25424580499815952 -0.23717901201065261 0 -0.25473520772639757 -0.25111225091949058 0 -0.22939152313381031 -0.24359072022062511 0 -0.25424580499815952 -0.23717901201065261 0 -0.23751928701362399 -0.22371880371836811 0 -0.22939152313381031 -0.24359072022062511 0 -0.25424580499815952 -0.23717901201065261 0 -0.20579160299691401 -0.1441312232590308 0 -0.21806298932826229 -0.13409207934749731 0 -0.21951925741913761 -0.15318210814925209 0 -0.20579160299691401 -0.1441312232590308 0 -0.206353252768881 -0.16166827124509181 0 -0.21951925741913761 -0.15318210814925209 0 -0.20579160299691401 -0.1441312232590308 0 -0.21806298932826229 -0.13409207934749731 0 -0.20130958720370021 -0.1253313041193764 0 -0.20130958720370021 -0.1253313041193764 0 -0.1881524424052512 -0.13807002477568531 0 -0.18276342685472879 -0.1169884598243857 0 -0.20579160299691401 -0.1441312232590308 0 -0.20130958720370021 -0.1253313041193764 0 -0.1881524424052512 -0.13807002477568531 0 -0.20579160299691401 -0.1441312232590308 0 -0.1926183790039056 -0.15235258414369721 0 -0.206353252768881 -0.16166827124509181 0 -0.20579160299691401 -0.1441312232590308 0 -0.1881524424052512 -0.13807002477568531 0 -0.1926183790039056 -0.15235258414369721 0 -0.1809524660020343 -0.17228826853763049 0 -0.19203087901740759 -0.16362889506372269 0 -0.2021697295533893 -0.1783588886903987 0 -0.17806056775882759 -0.15347646270179521 0 -0.1926183790039056 -0.15235258414369721 0 -0.19203087901740759 -0.16362889506372269 0 -0.19203087901740759 -0.16362889506372269 0 -0.2021697295533893 -0.1783588886903987 0 -0.206353252768881 -0.16166827124509181 0 -0.1926183790039056 -0.15235258414369721 0 -0.19203087901740759 -0.16362889506372269 0 -0.206353252768881 -0.16166827124509181 0 -0.1816792585594342 -0.1927059780246391 0 -0.2021697295533893 -0.1783588886903987 0 -0.1809524660020343 -0.17228826853763049 0 -0.1816792585594342 -0.1927059780246391 0 -0.2021697295533893 -0.1783588886903987 0 -0.20292667127436609 -0.19607743290066451 0 -0.2021697295533893 -0.1783588886903987 0 -0.220519867081548 -0.18276074138157219 0 -0.2021697295533893 -0.1783588886903987 0 -0.22266020054734431 -0.16401179935615839 0 -0.220519867081548 -0.18276074138157219 0 -0.2021697295533893 -0.1783588886903987 0 -0.22266020054734431 -0.16401179935615839 0 -0.2021697295533893 -0.1783588886903987 0 -0.206353252768881 -0.16166827124509181 0 -0.22266020054734431 -0.16401179935615839 0 -0.206353252768881 -0.16166827124509181 0 -0.22266020054734431 -0.16401179935615839 0 -0.21951925741913761 -0.15318210814925209 0 -0.22266020054734431 -0.16401179935615839 0 -0.23672604035117401 -0.1730930734946414 0 -0.21951925741913761 -0.15318210814925209 0 -0.2314065728079634 -0.15721684573341041 0 -0.23672604035117401 -0.1730930734946414 0 -0.21951925741913761 -0.15318210814925209 0 -0.23672604035117401 -0.1730930734946414 0 -0.21951925741913761 -0.15318210814925209 0 -0.22266020054734431 -0.16401179935615839 0 -0.22800868456319151 -0.17541663622075421 0 -0.23672604035117401 -0.1730930734946414 0 -0.22266020054734431 -0.16401179935615839 0 -0.220519867081548 -0.18276074138157219 0 -0.22800868456319151 -0.17541663622075421 0 -0.2366519888090246 -0.19054748329902479 0 -0.220519867081548 -0.18276074138157219 0 -0.23047664520123451 -0.1804544835989981 0 -0.220519867081548 -0.18276074138157219 0 -0.22800868456319151 -0.17541663622075421 0 -0.23047664520123451 -0.1804544835989981 0 -0.22800868456319151 -0.17541663622075421 0 -0.23047664520123451 -0.1804544835989981 0 -0.23672604035117401 -0.1730930734946414 0 -0.2366519888090246 -0.19054748329902479 0 -0.23047664520123451 -0.1804544835989981 0 -0.23672604035117401 -0.1730930734946414 0 -0.2366519888090246 -0.19054748329902479 0 -0.23672604035117401 -0.1730930734946414 0 -0.25393282328321037 -0.19300403884003059 0 -0.23672604035117401 -0.1730930734946414 0 -0.24416575260143589 -0.17760371941145711 0 -0.25393282328321037 -0.19300403884003059 0 -0.23672604035117401 -0.1730930734946414 0 -0.25393282328321037 -0.19300403884003059 0 -0.24416575260143589 -0.17760371941145711 0 -0.24601527248275429 -0.16578251500419569 0 -0.25439744610217901 -0.17272260323229979 0 -0.23672604035117401 -0.1730930734946414 0 -0.24416575260143589 -0.17760371941145711 0 -0.24601527248275429 -0.16578251500419569 0 -0.2314065728079634 -0.15721684573341041 0 -0.23672604035117401 -0.1730930734946414 0 -0.2375750786507636 -0.16253087349570911 0 -0.2375750786507636 -0.16253087349570911 0 -0.24601527248275429 -0.16578251500419569 0 -0.23864111136047039 -0.15404767993857421 0 -0.2314065728079634 -0.15721684573341041 0 -0.2375750786507636 -0.16253087349570911 0 -0.23864111136047039 -0.15404767993857421 0 -0.23672604035117401 -0.1730930734946414 0 -0.2375750786507636 -0.16253087349570911 0 -0.24601527248275429 -0.16578251500419569 0 -0.24601527248275429 -0.16578251500419569 0 -0.23864111136047039 -0.15404767993857421 0 -0.2504203735399923 -0.1550590829129613 0 -0.23864111136047039 -0.15404767993857421 0 -0.24498499433400001 -0.13926679191499999 0 -0.2504203735399923 -0.1550590829129613 0 -0.23864111136047039 -0.15404767993857421 0 -0.229548741056887 -0.1432637339648451 0 -0.24498499433400001 -0.13926679191499999 0 -0.21806298932826229 -0.13409207934749731 0 -0.229548741056887 -0.1432637339648451 0 -0.21951925741913761 -0.15318210814925209 0 -0.2314065728079634 -0.15721684573341041 0 -0.229548741056887 -0.1432637339648451 0 -0.21951925741913761 -0.15318210814925209 0 -0.2314065728079634 -0.15721684573341041 0 -0.23864111136047039 -0.15404767993857421 0 -0.229548741056887 -0.1432637339648451 0 -0.21806298932826229 -0.13409207934749731 0 -0.229548741056887 -0.1432637339648451 0 -0.23424310924753269 -0.1236182904788671 0 -0.24498499433400001 -0.13926679191499999 0 -0.23424310924753269 -0.1236182904788671 0 -0.25267264513587889 -0.1215588879498425 0 -0.229548741056887 -0.1432637339648451 0 -0.24498499433400001 -0.13926679191499999 0 -0.23424310924753269 -0.1236182904788671 0 -0.24392034912277019 -0.11188751890190519 0 -0.23424310924753269 -0.1236182904788671 0 -0.25267264513587889 -0.1215588879498425 0 -0.24392034912277019 -0.11188751890190519 0 -0.2336214094731085 -0.10135106749214989 0 -0.23424310924753269 -0.1236182904788671 0 -0.24392034912277019 -0.11188751890190519 0 -0.2336214094731085 -0.10135106749214989 0 -0.25838144714130901 -0.10034778712528671 0 -0.2336214094731085 -0.10135106749214989 0 -0.2440344711747133 -0.081694683756653619 0 -0.25838144714130901 -0.10034778712528671 0 -0.2336214094731085 -0.10135106749214989 0 -0.22453681937752029 -0.083374633007924456 0 -0.21189221374745049 -0.096592146535193407 0 -0.2336214094731085 -0.10135106749214989 0 -0.21696416757783499 -0.1149714046351514 0 -0.21189221374745049 -0.096592146535193407 0 -0.21806298932826229 -0.13409207934749731 0 -0.23424310924753269 -0.1236182904788671 0 -0.21696416757783499 -0.1149714046351514 0 -0.2336214094731085 -0.10135106749214989 0 -0.23424310924753269 -0.1236182904788671 0 -0.21696416757783499 -0.1149714046351514 0 -0.2440344711747133 -0.081694683756653619 0 -0.2296874952081176 -0.063041580388020491 0 -0.2440344711747133 -0.081694683756653619 0 -0.2296874952081176 -0.063041580388020491 0 -0.25005359115440562 -0.062222391408731488 0 -0.2336214094731085 -0.10135106749214989 0 -0.2440344711747133 -0.081694683756653619 0 -0.22453681937752029 -0.083374633007924456 0 -0.2440344711747133 -0.081694683756653619 0 -0.22453681937752029 -0.083374633007924456 0 -0.2296874952081176 -0.063041580388020491 0 -0.22453681937752029 -0.083374633007924456 0 -0.2296874952081176 -0.063041580388020491 0 -0.20344850728421171 -0.074193686867604844 0 -0.22453681937752029 -0.083374633007924456 0 -0.20344850728421171 -0.074193686867604844 0 -0.21189221374745049 -0.096592146535193407 0 -0.20344850728421171 -0.074193686867604844 0 -0.21189221374745049 -0.096592146535193407 0 -0.20344850728421171 -0.074193686867604844 0 -0.18951115305883981 -0.093035781067828116 0 -0.18021251353803869 -0.070590566895887719 0 -0.20344850728421171 -0.074193686867604844 0 -0.18951115305883981 -0.093035781067828116 0 -0.21189221374745049 -0.096592146535193407 0 -0.20344850728421171 -0.074193686867604844 0 -0.19500480082097291 -0.051795227200016239 0 -0.20344850728421171 -0.074193686867604844 0 -0.18021251353803869 -0.070590566895887719 0 -0.19500480082097291 -0.051795227200016239 0 -0.21806298932826229 -0.13409207934749731 0 -0.20130958720370021 -0.1253313041193764 0 -0.21696416757783499 -0.1149714046351514 0 -0.20130958720370021 -0.1253313041193764 0 -0.21696416757783499 -0.1149714046351514 0 -0.1997350239305192 -0.10917248222693671 0 -0.21696416757783499 -0.1149714046351514 0 -0.21189221374745049 -0.096592146535193407 0 -0.1997350239305192 -0.10917248222693671 0 -0.18951115305883981 -0.093035781067828116 0 -0.1997350239305192 -0.10917248222693671 0 -0.18276342685472879 -0.1169884598243857 0 -0.18951115305883981 -0.093035781067828116 0 -0.21189221374745049 -0.096592146535193407 0 -0.1997350239305192 -0.10917248222693671 0 -0.20130958720370021 -0.1253313041193764 0 -0.1997350239305192 -0.10917248222693671 0 -0.18276342685472879 -0.1169884598243857 0 -0.18276342685472879 -0.1169884598243857 0 -0.16666327681616691 -0.1216774687154121 0 -0.16734453206458619 -0.098376237775078271 0 -0.1517804945288429 -0.13203373485823949 0 -0.16666327681616691 -0.1216774687154121 0 -0.15102802700878129 -0.11631425199933761 0 -0.16666327681616691 -0.1216774687154121 0 -0.16734453206458619 -0.098376237775078271 0 -0.15102802700878129 -0.11631425199933761 0 -0.18951115305883981 -0.093035781067828116 0 -0.18276342685472879 -0.1169884598243857 0 -0.16734453206458619 -0.098376237775078271 0 -0.18951115305883981 -0.093035781067828116 0 -0.16734453206458619 -0.098376237775078271 0 -0.18021251353803869 -0.070590566895887719 0 -0.18021251353803869 -0.070590566895887719 0 -0.15829519029022071 -0.075748140275501419 0 -0.16182479270199271 -0.055088852331235977 0 -0.16734453206458619 -0.098376237775078271 0 -0.15829519029022071 -0.075748140275501419 0 -0.14380158437510909 -0.097057535459323052 0 -0.16734453206458619 -0.098376237775078271 0 -0.18021251353803869 -0.070590566895887719 0 -0.15829519029022071 -0.075748140275501419 0 -0.15829519029022071 -0.075748140275501419 0 -0.1399680700082255 -0.078644498114317229 0 -0.14380158437510909 -0.097057535459323052 0 -0.15829519029022071 -0.075748140275501419 0 -0.1399680700082255 -0.078644498114317229 0 -0.14222993503600831 -0.061213897047483777 0 -0.15829519029022071 -0.075748140275501419 0 -0.14222993503600831 -0.061213897047483777 0 -0.16182479270199271 -0.055088852331235977 0 -0.12804580984603489 -0.069899659586637866 0 -0.1399680700082255 -0.078644498114317229 0 -0.14222993503600831 -0.061213897047483777 0 -0.1206116997250966 -0.075029136049232573 0 -0.12804580984603489 -0.069899659586637866 0 -0.12812466965229469 -0.084559942915758746 0 -0.12804580984603489 -0.069899659586637866 0 -0.1399680700082255 -0.078644498114317229 0 -0.12812466965229469 -0.084559942915758746 0 -0.1399680700082255 -0.078644498114317229 0 -0.12812466965229469 -0.084559942915758746 0 -0.14380158437510909 -0.097057535459323052 0 -0.1220765994143196 -0.1008984570322134 0 -0.12812466965229469 -0.084559942915758746 0 -0.14380158437510909 -0.097057535459323052 0 -0.1220765994143196 -0.1008984570322134 0 -0.13285598427751799 -0.111430357147086 0 -0.14380158437510909 -0.097057535459323052 0 -0.11467896899858961 -0.1174452021670632 0 -0.13269474159079009 -0.12543633907749299 0 -0.13285598427751799 -0.111430357147086 0 -0.13269474159079009 -0.12543633907749299 0 -0.13285598427751799 -0.111430357147086 0 -0.15102802700878129 -0.11631425199933761 0 -0.13269474159079009 -0.12543633907749299 0 -0.1517804945288429 -0.13203373485823949 0 -0.15102802700878129 -0.11631425199933761 0 -0.16734453206458619 -0.098376237775078271 0 -0.15102802700878129 -0.11631425199933761 0 -0.14380158437510909 -0.097057535459323052 0 -0.13285598427751799 -0.111430357147086 0 -0.15102802700878129 -0.11631425199933761 0 -0.14380158437510909 -0.097057535459323052 0 -0.1344870760500517 -0.011503851261303469 0 -0.1570100872168648 -0.028134032129179521 0 -0.1607188529291948 -0.01096909999765038 0 -0.1344870760500517 -0.011503851261303469 0 -0.14064867681576401 -0.040430409744931013 0 -0.1570100872168648 -0.028134032129179521 0 -0.1344870760500517 -0.011503851261303469 0 -0.1607188529291948 -0.01096909999765038 0 -0.1481698996749144 0.0056299638759261337 0 -0.1136104046283796 -0.012726262184012779 0 -0.1344870760500517 -0.011503851261303469 0 -0.12832547528433949 0.017422707222324089 0 -0.1126696841781334 -0.034048309071617981 0 -0.1344870760500517 -0.011503851261303469 0 -0.14064867681576401 -0.040430409744931013 0 -0.1344870760500517 -0.011503851261303469 0 -0.14064867681576401 -0.040430409744931013 0 -0.1245952765854583 -0.053991827278248722 0 -0.1126696841781334 -0.034048309071617981 0 -0.14064867681576401 -0.040430409744931013 0 -0.1245952765854583 -0.053991827278248722 0 -0.12804580984603489 -0.069899659586637866 0 -0.14222993503600831 -0.061213897047483777 0 -0.1245952765854583 -0.053991827278248722 0 -0.14222993503600831 -0.061213897047483777 0 -0.14064867681576401 -0.040430409744931013 0 -0.14222993503600831 -0.061213897047483777 0 -0.14064867681576401 -0.040430409744931013 0 -0.16182479270199271 -0.055088852331235977 0 -0.14064867681576401 -0.040430409744931013 0 -0.1645928121484817 -0.04003133093480464 0 -0.1570100872168648 -0.028134032129179521 0 -0.14064867681576401 -0.040430409744931013 0 -0.1645928121484817 -0.04003133093480464 0 -0.16182479270199271 -0.055088852331235977 0 -0.1645928121484817 -0.04003133093480464 0 -0.17532293818526529 -0.02901953695014407 0 -0.1570100872168648 -0.028134032129179521 0 -0.1645928121484817 -0.04003133093480464 0 -0.16182479270199271 -0.055088852331235977 0 -0.17976246783382571 -0.044928090891007702 0 -0.18021251353803869 -0.070590566895887719 0 -0.17976246783382571 -0.044928090891007702 0 -0.19500480082097291 -0.051795227200016239 0 -0.18021251353803869 -0.070590566895887719 0 -0.16182479270199271 -0.055088852331235977 0 -0.17976246783382571 -0.044928090891007702 0 -0.17976246783382571 -0.044928090891007702 0 -0.1865610943577356 -0.029396767532427249 0 -0.17532293818526529 -0.02901953695014407 0 -0.17976246783382571 -0.044928090891007702 0 -0.1865610943577356 -0.029396767532427249 0 -0.19500480082097291 -0.051795227200016239 0 -0.1645928121484817 -0.04003133093480464 0 -0.17976246783382571 -0.044928090891007702 0 -0.17532293818526529 -0.02901953695014407 0 -0.1865610943577356 -0.029396767532427249 0 -0.17532293818526529 -0.02901953695014407 0 -0.1865610943577356 -0.029396767532427249 0 -0.18258147345254069 -0.018840102787467099 0 -0.17532293818526529 -0.02901953695014407 0 -0.1865610943577356 -0.029396767532427249 0 -0.18258147345254069 -0.018840102787467099 0 -0.18258147345254069 -0.018840102787467099 0 -0.17532293818526529 -0.02901953695014407 0 -0.17111099314004621 -0.018338574043338111 0 -0.1570100872168648 -0.028134032129179521 0 -0.17111099314004621 -0.018338574043338111 0 -0.1607188529291948 -0.01096909999765038 0 -0.17532293818526529 -0.02901953695014407 0 -0.1570100872168648 -0.028134032129179521 0 -0.17111099314004621 -0.018338574043338111 0 -0.1607188529291948 -0.01096909999765038 0 -0.17657546904089599 -0.007370569383024504 0 -0.1659019020419891 0.009198472863133994 0 -0.17111099314004621 -0.018338574043338111 0 -0.1607188529291948 -0.01096909999765038 0 -0.17657546904089599 -0.007370569383024504 0 -0.18258147345254069 -0.018840102787467099 0 -0.17111099314004621 -0.018338574043338111 0 -0.17657546904089599 -0.007370569383024504 0 -0.18258147345254069 -0.018840102787467099 0 -0.17657546904089599 -0.007370569383024504 0 -0.19015943417595019 -0.0077170535763698596 0 -0.17657546904089599 -0.007370569383024504 0 -0.19015943417595019 -0.0077170535763698596 0 -0.18474352935989971 0.0058366779918899298 0 -0.18258147345254069 -0.018840102787467099 0 -0.19015943417595019 -0.0077170535763698596 0 -0.19969439421001201 -0.016562192326126931 0 -0.19015943417595019 -0.0077170535763698596 0 -0.19969439421001201 -0.016562192326126931 0 -0.2044818012513058 -4.6211528709685131e-05 0 -0.19015943417595019 -0.0077170535763698596 0 -0.2044818012513058 -4.6211528709685131e-05 0 -0.18474352935989971 0.0058366779918899298 0 -0.1865610943577356 -0.029396767532427249 0 -0.19969439421001201 -0.016562192326126931 0 -0.21570204216233779 -0.030374940156110839 0 -0.1865610943577356 -0.029396767532427249 0 -0.21570204216233779 -0.030374940156110839 0 -0.1865610943577356 -0.029396767532427249 0 -0.18258147345254069 -0.018840102787467099 0 -0.19969439421001201 -0.016562192326126931 0 -0.19969439421001201 -0.016562192326126931 0 -0.21570204216233779 -0.030374940156110839 0 -0.21742702800692021 -0.012838699474975471 0 -0.19969439421001201 -0.016562192326126931 0 -0.21742702800692021 -0.012838699474975471 0 -0.2044818012513058 -4.6211528709685131e-05 0 -0.21742702800692021 -0.012838699474975471 0 -0.2044818012513058 -4.6211528709685131e-05 0 -0.23277801048404129 8.5799091976347663e-05 0 -0.1865610943577356 -0.029396767532427249 0 -0.21570204216233779 -0.030374940156110839 0 -0.19500480082097291 -0.051795227200016239 0 -0.1865610943577356 -0.029396767532427249 0 -0.19500480082097291 -0.051795227200016239 0 -0.21570204216233779 -0.030374940156110839 0 -0.19500480082097291 -0.051795227200016239 0 -0.2147106611255743 -0.050126467978621102 0 -0.2296874952081176 -0.063041580388020491 0 -0.20344850728421171 -0.074193686867604844 0 -0.2147106611255743 -0.050126467978621102 0 -0.20344850728421171 -0.074193686867604844 0 -0.19500480082097291 -0.051795227200016239 0 -0.2147106611255743 -0.050126467978621102 0 -0.2296874952081176 -0.063041580388020491 0 -0.2147106611255743 -0.050126467978621102 0 -0.23428570316928099 -0.047206706662482008 0 -0.21570204216233779 -0.030374940156110839 0 -0.23428570316928099 -0.047206706662482008 0 -0.24484298996694009 -0.031353112779794988 0 -0.21570204216233779 -0.030374940156110839 0 -0.2147106611255743 -0.050126467978621102 0 -0.23428570316928099 -0.047206706662482008 0 -0.23428570316928099 -0.047206706662482008 0 -0.24484298996694009 -0.031353112779794988 0 -0.25071743939831093 -0.046121747263613261 0 -0.2296874952081176 -0.063041580388020491 0 -0.23428570316928099 -0.047206706662482008 0 -0.25005359115440562 -0.062222391408731488 0 -0.23428570316928099 -0.047206706662482008 0 -0.25071743939831093 -0.046121747263613261 0 -0.25005359115440562 -0.062222391408731488 0 -0.21742702800692021 -0.012838699474975471 0 -0.2344788919269041 -0.017295952455906261 0 -0.23277801048404129 8.5799091976347663e-05 0 -0.21570204216233779 -0.030374940156110839 0 -0.24484298996694009 -0.031353112779794988 0 -0.2344788919269041 -0.017295952455906261 0 -0.21570204216233779 -0.030374940156110839 0 -0.24484298996694009 -0.031353112779794988 0 -0.21570204216233779 -0.030374940156110839 0 -0.21742702800692021 -0.012838699474975471 0 -0.2344788919269041 -0.017295952455906261 0 -0.24484298996694009 -0.031353112779794988 0 -0.2344788919269041 -0.017295952455906261 0 -0.25595663102513772 -0.017137938268312509 0 -0.26096182947410212 -0.000358506717774391 0 -0.25595663102513772 -0.017137938268312509 0 -0.23277801048404129 8.5799091976347663e-05 0 -0.25595663102513772 -0.017137938268312509 0 -0.23277801048404129 8.5799091976347663e-05 0 -0.2344788919269041 -0.017295952455906261 0 -0.25595663102513772 -0.017137938268312509 0 -0.23277801048404129 8.5799091976347663e-05 0 -0.26096182947410212 -0.000358506717774391 0 -0.25595663102513772 -0.017137938268312509 0 -0.26834443959111359 -0.01188835889596739 0 -0.24484298996694009 -0.031353112779794988 0 -0.25595663102513772 -0.017137938268312509 0 -0.2739839377715424 -0.03233128540347914 0 -0.25595663102513772 -0.017137938268312509 0 -0.27664390504178349 -0.02081863846659825 0 -0.27913525156623398 -0.034361675628601263 0 -0.25595663102513772 -0.017137938268312509 0 -0.27913525156623398 -0.034361675628601263 0 -0.25595663102513772 -0.017137938268312509 0 -0.2739839377715424 -0.03233128540347914 0 -0.27913525156623398 -0.034361675628601263 0 -0.25595663102513772 -0.017137938268312509 0 -0.27664390504178349 -0.02081863846659825 0 -0.26834443959111359 -0.01188835889596739 0 -0.27664390504178349 -0.02081863846659825 0 -0.28443571007868618 -0.02727816883973401 0 -0.27913525156623398 -0.034361675628601263 0 -0.26096182947410212 -0.000358506717774391 0 -0.26834443959111359 -0.01188835889596739 0 -0.27981539282343088 -0.009238352131184414 0 -0.26096182947410212 -0.000358506717774391 0 -0.27981539282343088 -0.009238352131184414 0 -0.2767705385078354 0.0043107152141013847 0 -0.27664390504178349 -0.02081863846659825 0 -0.26834443959111359 -0.01188835889596739 0 -0.27981539282343088 -0.009238352131184414 0 -0.27981539282343088 -0.009238352131184414 0 -0.29341118398778221 -3.8928658760805153e-05 0 -0.29073054649885649 -0.020906717018067289 0 -0.27981539282343088 -0.009238352131184414 0 -0.29341118398778221 -3.8928658760805153e-05 0 -0.2767705385078354 0.0043107152141013847 0 -0.27664390504178349 -0.02081863846659825 0 -0.28443571007868618 -0.02727816883973401 0 -0.29073054649885649 -0.020906717018067289 0 -0.27664390504178349 -0.02081863846659825 0 -0.27981539282343088 -0.009238352131184414 0 -0.29073054649885649 -0.020906717018067289 0 -0.29073054649885649 -0.020906717018067289 0 -0.30500834037350127 -0.029850251878582579 0 -0.29220345446747181 -0.032821911823540779 0 -0.28443571007868618 -0.02727816883973401 0 -0.29073054649885649 -0.020906717018067289 0 -0.29220345446747181 -0.032821911823540779 0 -0.30500834037350127 -0.029850251878582579 0 -0.30770280863967042 -0.008115090768276649 0 -0.29073054649885649 -0.020906717018067289 0 -0.30500834037350127 -0.029850251878582579 0 -0.30770280863967042 -0.008115090768276649 0 -0.30500834037350127 -0.029850251878582579 0 -0.30770280863967042 -0.008115090768276649 0 -0.32189083505985461 -0.022304422783467451 0 -0.29341118398778221 -3.8928658760805153e-05 0 -0.29073054649885649 -0.020906717018067289 0 -0.30770280863967042 -0.008115090768276649 0 -0.30231387210733141 -0.051585412988888468 0 -0.30101240358280629 -0.062083821307790277 0 -0.31969419502201518 -0.064500509320389948 0 -0.30231387210733141 -0.051585412988888468 0 -0.31969419502201518 -0.064500509320389948 0 -0.30231387210733141 -0.051585412988888468 0 -0.30101240358280629 -0.062083821307790277 0 -0.29293780719175089 -0.055561828653130897 0 -0.30231387210733141 -0.051585412988888468 0 -0.30101240358280629 -0.062083821307790277 0 -0.30500834037350127 -0.029850251878582579 0 -0.30231387210733141 -0.051585412988888468 0 -0.30500834037350127 -0.029850251878582579 0 -0.30231387210733141 -0.051585412988888468 0 -0.29220345446747181 -0.032821911823540779 0 -0.30500834037350127 -0.029850251878582579 0 -0.30231387210733141 -0.051585412988888468 0 -0.32059116910516611 -0.04381933631409228 0 -0.30231387210733141 -0.051585412988888468 0 -0.27913525156623398 -0.034361675628601263 0 -0.30231387210733141 -0.051585412988888468 0 -0.29220345446747181 -0.032821911823540779 0 -0.27913525156623398 -0.034361675628601263 0 -0.30231387210733141 -0.051585412988888468 0 -0.28728997268008821 -0.048222181006610992 0 -0.27913525156623398 -0.034361675628601263 0 -0.28443571007868618 -0.02727816883973401 0 -0.29220345446747181 -0.032821911823540779 0 -0.27913525156623398 -0.034361675628601263 0 -0.28728997268008821 -0.048222181006610992 0 -0.27913525156623398 -0.034361675628601263 0 -0.27833504291222971 -0.045658950389432698 0 -0.28728997268008821 -0.048222181006610992 0 -0.28372788962289469 -0.053943037373001608 0 -0.27833504291222971 -0.045658950389432698 0 -0.28728997268008821 -0.048222181006610992 0 -0.28372788962289469 -0.053943037373001608 0 -0.29293780719175089 -0.055561828653130897 0 -0.30231387210733141 -0.051585412988888468 0 -0.28728997268008821 -0.048222181006610992 0 -0.29293780719175089 -0.055561828653130897 0 -0.30101240358280629 -0.062083821307790277 0 -0.29293780719175089 -0.055561828653130897 0 -0.28932856681541758 -0.063133613122713969 0 -0.28372788962289469 -0.053943037373001608 0 -0.29293780719175089 -0.055561828653130897 0 -0.28932856681541758 -0.063133613122713969 0 -0.28372788962289469 -0.053943037373001608 0 -0.27720747115765049 -0.064557145316117059 0 -0.28932856681541758 -0.063133613122713969 0 -0.28372788962289469 -0.053943037373001608 0 -0.27312284517995439 -0.053691649461354081 0 -0.27720747115765049 -0.064557145316117059 0 -0.27312284517995439 -0.053691649461354081 0 -0.27833504291222971 -0.045658950389432698 0 -0.27073314304862017 -0.044317464940453292 0 -0.28372788962289469 -0.053943037373001608 0 -0.27312284517995439 -0.053691649461354081 0 -0.27833504291222971 -0.045658950389432698 0 -0.27312284517995439 -0.053691649461354081 0 -0.27073314304862017 -0.044317464940453292 0 -0.26201519531392181 -0.050997558396027688 0 -0.27312284517995439 -0.053691649461354081 0 -0.2657551680549019 -0.062493685921738949 0 -0.26201519531392181 -0.050997558396027688 0 -0.27312284517995439 -0.053691649461354081 0 -0.2657551680549019 -0.062493685921738949 0 -0.27720747115765049 -0.064557145316117059 0 -0.2739839377715424 -0.03233128540347914 0 -0.27913525156623398 -0.034361675628601263 0 -0.27421213561345231 -0.039302231319563882 0 -0.27913525156623398 -0.034361675628601263 0 -0.27421213561345231 -0.039302231319563882 0 -0.27833504291222971 -0.045658950389432698 0 -0.27421213561345231 -0.039302231319563882 0 -0.27833504291222971 -0.045658950389432698 0 -0.27073314304862017 -0.044317464940453292 0 -0.27073314304862017 -0.044317464940453292 0 -0.2701595503702382 -0.038272348260942848 0 -0.26170898504733808 -0.037138411380275099 0 -0.27421213561345231 -0.039302231319563882 0 -0.27073314304862017 -0.044317464940453292 0 -0.2701595503702382 -0.038272348260942848 0 -0.2739839377715424 -0.03233128540347914 0 -0.2701595503702382 -0.038272348260942848 0 -0.26170898504733808 -0.037138411380275099 0 -0.2739839377715424 -0.03233128540347914 0 -0.27421213561345231 -0.039302231319563882 0 -0.2701595503702382 -0.038272348260942848 0 -0.24484298996694009 -0.031353112779794988 0 -0.2739839377715424 -0.03233128540347914 0 -0.24484298996694009 -0.031353112779794988 0 -0.26170898504733808 -0.037138411380275099 0 -0.25071743939831093 -0.046121747263613261 0 -0.24484298996694009 -0.031353112779794988 0 -0.2739839377715424 -0.03233128540347914 0 -0.26170898504733808 -0.037138411380275099 0 -0.26170898504733808 -0.037138411380275099 0 -0.25071743939831093 -0.046121747263613261 0 -0.26201519531392181 -0.050997558396027688 0 -0.27073314304862017 -0.044317464940453292 0 -0.26170898504733808 -0.037138411380275099 0 -0.26201519531392181 -0.050997558396027688 0 -0.25071743939831093 -0.046121747263613261 0 -0.25005359115440562 -0.062222391408731488 0 -0.26201519531392181 -0.050997558396027688 0 -0.2657551680549019 -0.062493685921738949 0 -0.25005359115440562 -0.062222391408731488 0 -0.26201519531392181 -0.050997558396027688 0 -0.2657551680549019 -0.062493685921738949 0 -0.25005359115440562 -0.062222391408731488 0 -0.26655630166618088 -0.078375629052087045 0 -0.2440344711747133 -0.081694683756653619 0 -0.25005359115440562 -0.062222391408731488 0 -0.26655630166618088 -0.078375629052087045 0 -0.2440344711747133 -0.081694683756653619 0 -0.26655630166618088 -0.078375629052087045 0 -0.25838144714130901 -0.10034778712528671 0 -0.2440344711747133 -0.081694683756653619 0 -0.25838144714130901 -0.10034778712528671 0 -0.26655630166618088 -0.078375629052087045 0 -0.25838144714130901 -0.10034778712528671 0 -0.27400829604169358 -0.095555773482706871 0 -0.26655630166618088 -0.078375629052087045 0 -0.27920268912755131 -0.084672807166719932 0 -0.28398136699463511 -0.07443087182544475 0 -0.26655630166618088 -0.078375629052087045 0 -0.27920268912755131 -0.084672807166719932 0 -0.27400829604169358 -0.095555773482706871 0 -0.26655630166618088 -0.078375629052087045 0 -0.27720747115765049 -0.064557145316117059 0 -0.28398136699463511 -0.07443087182544475 0 -0.2657551680549019 -0.062493685921738949 0 -0.26655630166618088 -0.078375629052087045 0 -0.27720747115765049 -0.064557145316117059 0 -0.25838144714130901 -0.10034778712528671 0 -0.27272842310790468 -0.1190008904939199 0 -0.25267264513587889 -0.1215588879498425 0 -0.27272842310790468 -0.1190008904939199 0 -0.25882396804111618 -0.13366597894571081 0 -0.24392034912277019 -0.11188751890190519 0 -0.25267264513587889 -0.1215588879498425 0 -0.25838144714130901 -0.10034778712528671 0 -0.25267264513587889 -0.1215588879498425 0 -0.25838144714130901 -0.10034778712528671 0 -0.27272842310790468 -0.1190008904939199 0 -0.25838144714130901 -0.10034778712528671 0 -0.27400829604169358 -0.095555773482706871 0 -0.27272842310790468 -0.1190008904939199 0 -0.27400829604169358 -0.095555773482706871 0 -0.27272842310790468 -0.1190008904939199 0 -0.28600110699883341 -0.10792408110074039 0 -0.28967909008679588 -0.1211358467321744 0 -0.28600110699883341 -0.10792408110074039 0 -0.30271004751981251 -0.11029568512647681 0 -0.27272842310790468 -0.1190008904939199 0 -0.28967909008679588 -0.1211358467321744 0 -0.28600110699883341 -0.10792408110074039 0 -0.28600110699883341 -0.10792408110074039 0 -0.30271004751981251 -0.11029568512647681 0 -0.29226479180769588 -0.090328954306641104 0 -0.27400829604169358 -0.095555773482706871 0 -0.28600110699883341 -0.10792408110074039 0 -0.29226479180769588 -0.090328954306641104 0 -0.30738254564815343 -0.095978146312310053 0 -0.30271004751981251 -0.11029568512647681 0 -0.29226479180769588 -0.090328954306641104 0 -0.30271004751981251 -0.11029568512647681 0 -0.31799769838850861 -0.1126482052453201 0 -0.31355614934586162 -0.10370443408898911 0 -0.30738254564815343 -0.095978146312310053 0 -0.30271004751981251 -0.11029568512647681 0 -0.31355614934586162 -0.10370443408898911 0 -0.30271004751981251 -0.11029568512647681 0 -0.31065752594224622 -0.1193955704219906 0 -0.30314889797602618 -0.1269137262519188 0 -0.28967909008679588 -0.1211358467321744 0 -0.30271004751981251 -0.11029568512647681 0 -0.30314889797602618 -0.1269137262519188 0 -0.30271004751981251 -0.11029568512647681 0 -0.31065752594224622 -0.1193955704219906 0 -0.31799769838850861 -0.1126482052453201 0 -0.31065752594224622 -0.1193955704219906 0 -0.30314889797602618 -0.1269137262519188 0 -0.31624287369029958 -0.1274442202940835 0 -0.2962104828419867 -0.074033539212140523 0 -0.28932856681541758 -0.063133613122713969 0 -0.28398136699463511 -0.07443087182544475 0 -0.30101240358280629 -0.062083821307790277 0 -0.2962104828419867 -0.074033539212140523 0 -0.28932856681541758 -0.063133613122713969 0 -0.27720747115765049 -0.064557145316117059 0 -0.28932856681541758 -0.063133613122713969 0 -0.28398136699463511 -0.07443087182544475 0 -0.2962104828419867 -0.074033539212140523 0 -0.28398136699463511 -0.07443087182544475 0 -0.29226479180769588 -0.090328954306641104 0 -0.27920268912755131 -0.084672807166719932 0 -0.27400829604169358 -0.095555773482706871 0 -0.29226479180769588 -0.090328954306641104 0 -0.27920268912755131 -0.084672807166719932 0 -0.28398136699463511 -0.07443087182544475 0 -0.29226479180769588 -0.090328954306641104 0 -0.2962104828419867 -0.074033539212140523 0 -0.29226479180769588 -0.090328954306641104 0 -0.30432995925917711 -0.083003415264053179 0 -0.30738254564815343 -0.095978146312310053 0 -0.29226479180769588 -0.090328954306641104 0 -0.30432995925917711 -0.083003415264053179 0 -0.30738254564815343 -0.095978146312310053 0 -0.30432995925917711 -0.083003415264053179 0 -0.31939880719935693 -0.084696566706163004 0 -0.30432995925917711 -0.083003415264053179 0 -0.30725568664773939 -0.072466993586969064 0 -0.31939880719935693 -0.084696566706163004 0 -0.30101240358280629 -0.062083821307790277 0 -0.30725568664773939 -0.072466993586969064 0 -0.31969419502201518 -0.064500509320389948 0 -0.2962104828419867 -0.074033539212140523 0 -0.30432995925917711 -0.083003415264053179 0 -0.30725568664773939 -0.072466993586969064 0 -0.30101240358280629 -0.062083821307790277 0 -0.2962104828419867 -0.074033539212140523 0 -0.30725568664773939 -0.072466993586969064 0 -0.31969419502201518 -0.064500509320389948 0 -0.31939880719935693 -0.084696566706163004 0 -0.33242754071108782 -0.080421644080621815 0 -0.30725568664773939 -0.072466993586969064 0 -0.31969419502201518 -0.064500509320389948 0 -0.31939880719935693 -0.084696566706163004 0 -0.30738254564815343 -0.095978146312310053 0 -0.31939880719935693 -0.084696566706163004 0 -0.32059120538208069 -0.097687084313600125 0 -0.31939880719935693 -0.084696566706163004 0 -0.32059120538208069 -0.097687084313600125 0 -0.332850606010412 -0.09831538571399967 0 -0.31939880719935693 -0.084696566706163004 0 -0.33242754071108782 -0.080421644080621815 0 -0.332850606010412 -0.09831538571399967 0 -0.33242754071108782 -0.080421644080621815 0 -0.34260963442855957 -0.086534940740640234 0 -0.332850606010412 -0.09831538571399967 0 -0.33242754071108782 -0.080421644080621815 0 -0.34260963442855957 -0.086534940740640234 0 -0.34649422983786882 -0.070951685268953193 0 -0.31969419502201518 -0.064500509320389948 0 -0.33242754071108782 -0.080421644080621815 0 -0.33362395615735879 -0.06782643622297671 0 -0.33242754071108782 -0.080421644080621815 0 -0.33362395615735879 -0.06782643622297671 0 -0.34649422983786882 -0.070951685268953193 0 -0.31969419502201518 -0.064500509320389948 0 -0.33362395615735879 -0.06782643622297671 0 -0.33587985905846379 -0.055431906221941857 0 -0.33362395615735879 -0.06782643622297671 0 -0.34649422983786882 -0.070951685268953193 0 -0.33587985905846379 -0.055431906221941857 0 -0.32057327510607508 -0.1204362369815784 0 -0.32550806041687508 -0.11396543568465869 0 -0.33062075496055998 -0.1196119238244602 0 -0.32057327510607508 -0.1204362369815784 0 -0.32574439139689643 -0.12708692906384639 0 -0.31624287369029958 -0.1274442202940835 0 -0.32057327510607508 -0.1204362369815784 0 -0.33062075496055998 -0.1196119238244602 0 -0.32574439139689643 -0.12708692906384639 0 -0.31065752594224622 -0.1193955704219906 0 -0.32057327510607508 -0.1204362369815784 0 -0.31799769838850861 -0.1126482052453201 0 -0.31065752594224622 -0.1193955704219906 0 -0.32057327510607508 -0.1204362369815784 0 -0.31624287369029958 -0.1274442202940835 0 -0.31799769838850861 -0.1126482052453201 0 -0.32550806041687508 -0.11396543568465869 0 -0.32443184443728929 -0.10589941874564079 0 -0.32550806041687508 -0.11396543568465869 0 -0.32443184443728929 -0.10589941874564079 0 -0.33212006218198947 -0.1107770507344344 0 -0.32057327510607508 -0.1204362369815784 0 -0.31799769838850861 -0.1126482052453201 0 -0.32550806041687508 -0.11396543568465869 0 -0.32443184443728929 -0.10589941874564079 0 -0.31355614934586162 -0.10370443408898911 0 -0.32059120538208069 -0.097687084313600125 0 -0.31799769838850861 -0.1126482052453201 0 -0.32443184443728929 -0.10589941874564079 0 -0.31355614934586162 -0.10370443408898911 0 -0.30738254564815343 -0.095978146312310053 0 -0.31355614934586162 -0.10370443408898911 0 -0.32059120538208069 -0.097687084313600125 0 -0.32443184443728929 -0.10589941874564079 0 -0.32059120538208069 -0.097687084313600125 0 -0.332850606010412 -0.09831538571399967 0 -0.34260963442855957 -0.086534940740640234 0 -0.332850606010412 -0.09831538571399967 0 -0.34512557663409599 -0.097516745466498578 0 -0.332850606010412 -0.09831538571399967 0 -0.33995301844758929 -0.10751588409234961 0 -0.34512557663409599 -0.097516745466498578 0 -0.32443184443728929 -0.10589941874564079 0 -0.332850606010412 -0.09831538571399967 0 -0.33212006218198947 -0.1107770507344344 0 -0.332850606010412 -0.09831538571399967 0 -0.33995301844758929 -0.10751588409234961 0 -0.33212006218198947 -0.1107770507344344 0 -0.33212006218198947 -0.1107770507344344 0 -0.33753300898620459 -0.1156399962018064 0 -0.33062075496055998 -0.1196119238244602 0 -0.32550806041687508 -0.11396543568465869 0 -0.33212006218198947 -0.1107770507344344 0 -0.33062075496055998 -0.1196119238244602 0 -0.33995301844758929 -0.10751588409234961 0 -0.33212006218198947 -0.1107770507344344 0 -0.33753300898620459 -0.1156399962018064 0 -0.33995301844758929 -0.10751588409234961 0 -0.34285352773915939 -0.1144242840759131 0 -0.33753300898620459 -0.1156399962018064 0 -0.34285352773915939 -0.1144242840759131 0 -0.33753300898620459 -0.1156399962018064 0 -0.3412558374196184 -0.11899700506688821 0 -0.34207789646947578 -0.1235890023748014 0 -0.33663721539785862 -0.1213718268559543 0 -0.33359360987340408 -0.1264366553301487 0 -0.33753300898620459 -0.1156399962018064 0 -0.3412558374196184 -0.11899700506688821 0 -0.33663721539785862 -0.1213718268559543 0 -0.3412558374196184 -0.11899700506688821 0 -0.34207789646947578 -0.1235890023748014 0 -0.3461902440589707 -0.1197114208601076 0 -0.34285352773915939 -0.1144242840759131 0 -0.3412558374196184 -0.11899700506688821 0 -0.3461902440589707 -0.1197114208601076 0 -0.3412558374196184 -0.11899700506688821 0 -0.34207789646947578 -0.1235890023748014 0 -0.33663721539785862 -0.1213718268559543 0 -0.33062075496055998 -0.1196119238244602 0 -0.32574439139689643 -0.12708692906384639 0 -0.33359360987340408 -0.1264366553301487 0 -0.33663721539785862 -0.1213718268559543 0 -0.33062075496055998 -0.1196119238244602 0 -0.33359360987340408 -0.1264366553301487 0 -0.33753300898620459 -0.1156399962018064 0 -0.33663721539785862 -0.1213718268559543 0 -0.33062075496055998 -0.1196119238244602 0 -0.3461902440589707 -0.1197114208601076 0 -0.34923532913367461 -0.10842184236144529 0 -0.36356016976794192 -0.1107413706499813 0 -0.35874604557721962 -0.1231792152068535 0 -0.36356016976794192 -0.1107413706499813 0 -0.34736967540495078 -0.12522581123200011 0 -0.36356016976794192 -0.1107413706499813 0 -0.34736967540495078 -0.12522581123200011 0 -0.3461902440589707 -0.1197114208601076 0 -0.36356016976794192 -0.1107413706499813 0 -0.34736967540495078 -0.12522581123200011 0 -0.34285352773915939 -0.1144242840759131 0 -0.3461902440589707 -0.1197114208601076 0 -0.34923532913367461 -0.10842184236144529 0 -0.33995301844758929 -0.10751588409234961 0 -0.34285352773915939 -0.1144242840759131 0 -0.34923532913367461 -0.10842184236144529 0 -0.34923532913367461 -0.10842184236144529 0 -0.35646544760704918 -0.099603593945912144 0 -0.36356016976794192 -0.1107413706499813 0 -0.33995301844758929 -0.10751588409234961 0 -0.34923532913367461 -0.10842184236144529 0 -0.34512557663409599 -0.097516745466498578 0 -0.34923532913367461 -0.10842184236144529 0 -0.34512557663409599 -0.097516745466498578 0 -0.35646544760704918 -0.099603593945912144 0 -0.34512557663409599 -0.097516745466498578 0 -0.35646544760704918 -0.099603593945912144 0 -0.35615021894933319 -0.085469243173127929 0 -0.35646544760704918 -0.099603593945912144 0 -0.36356016976794192 -0.1107413706499813 0 -0.36629685303288162 -0.091825359721530816 0 -0.36356016976794192 -0.1107413706499813 0 -0.379750664130933 -0.096256930067962557 0 -0.36356016976794192 -0.1107413706499813 0 -0.36629685303288162 -0.091825359721530816 0 -0.379750664130933 -0.096256930067962557 0 -0.36356016976794192 -0.1107413706499813 0 -0.37856024804895327 -0.1018724666267241 0 -0.379750664130933 -0.096256930067962557 0 -0.36356016976794192 -0.1107413706499813 0 -0.37390116709331889 -0.1127885289638334 0 -0.37856024804895327 -0.1018724666267241 0 -0.36356016976794192 -0.1107413706499813 0 -0.37390116709331889 -0.1127885289638334 0 -0.36800375731069912 -0.1238998734332004 0 -0.37390116709331889 -0.1127885289638334 0 -0.36800375731069912 -0.1238998734332004 0 -0.37767647089691508 -0.12560686433188781 0 -0.35874604557721962 -0.1231792152068535 0 -0.36356016976794192 -0.1107413706499813 0 -0.36800375731069912 -0.1238998734332004 0 -0.34649422983786882 -0.070951685268953193 0 -0.36539552622304361 -0.069693691280915737 0 -0.36020672333593318 -0.048639626009838483 0 -0.34649422983786882 -0.070951685268953193 0 -0.35615021894933319 -0.085469243173127929 0 -0.36539552622304361 -0.069693691280915737 0 -0.34260963442855957 -0.086534940740640234 0 -0.34649422983786882 -0.070951685268953193 0 -0.35615021894933319 -0.085469243173127929 0 -0.34260963442855957 -0.086534940740640234 0 -0.34512557663409599 -0.097516745466498578 0 -0.35615021894933319 -0.085469243173127929 0 -0.35615021894933319 -0.085469243173127929 0 -0.37065313006040251 -0.081540442075944658 0 -0.36539552622304361 -0.069693691280915737 0 -0.35646544760704918 -0.099603593945912144 0 -0.35615021894933319 -0.085469243173127929 0 -0.36629685303288162 -0.091825359721530816 0 -0.35615021894933319 -0.085469243173127929 0 -0.36629685303288162 -0.091825359721530816 0 -0.37065313006040251 -0.081540442075944658 0 -0.36629685303288162 -0.091825359721530816 0 -0.37065313006040251 -0.081540442075944658 0 -0.38111900576340269 -0.08679892460373731 0 -0.36629685303288162 -0.091825359721530816 0 -0.38111900576340269 -0.08679892460373731 0 -0.37065313006040251 -0.081540442075944658 0 -0.36539552622304361 -0.069693691280915737 0 -0.38283367116001998 -0.072051919072457823 0 -0.36539552622304361 -0.069693691280915737 0 -0.37557305412645259 -0.058789206703612477 0 -0.38283367116001998 -0.072051919072457823 0 -0.36539552622304361 -0.069693691280915737 0 -0.36020672333593318 -0.048639626009838483 0 -0.37557305412645259 -0.058789206703612477 0 -0.36020672333593318 -0.048639626009838483 0 -0.38768267790402122 -0.038155544533734799 0 -0.37557305412645259 -0.058789206703612477 0 -0.34649422983786882 -0.070951685268953193 0 -0.36020672333593318 -0.048639626009838483 0 -0.33587985905846379 -0.055431906221941857 0 -0.36020672333593318 -0.048639626009838483 0 -0.35329718623978601 -0.02469219624504896 0 -0.33789297541277002 -0.036350012054751871 0 -0.36020672333593318 -0.048639626009838483 0 -0.33587985905846379 -0.055431906221941857 0 -0.33789297541277002 -0.036350012054751871 0 -0.36020672333593318 -0.048639626009838483 0 -0.37180473327973929 -0.030574317145678969 0 -0.35329718623978601 -0.02469219624504896 0 -0.36020672333593318 -0.048639626009838483 0 -0.37180473327973929 -0.030574317145678969 0 -0.38768267790402122 -0.038155544533734799 0 -0.37180473327973929 -0.030574317145678969 0 -0.361580774771527 -0.0043495437186238384 0 -0.37180473327973929 -0.030574317145678969 0 -0.361580774771527 -0.0043495437186238384 0 -0.35329718623978601 -0.02469219624504896 0 -0.37180473327973929 -0.030574317145678969 0 -0.361580774771527 -0.0043495437186238384 0 -0.37671714276837348 -0.0020527700837410161 0 -0.361580774771527 -0.0043495437186238384 0 -0.33878825992396772 -0.014544543532055121 0 -0.33911095629693389 0.00085089756377999598 0 -0.361580774771527 -0.0043495437186238384 0 -0.35329718623978601 -0.02469219624504896 0 -0.33878825992396772 -0.014544543532055121 0 -0.35329718623978601 -0.02469219624504896 0 -0.33878825992396772 -0.014544543532055121 0 -0.33789297541277002 -0.036350012054751871 0 -0.33878825992396772 -0.014544543532055121 0 -0.32189083505985461 -0.022304422783467451 0 -0.33789297541277002 -0.036350012054751871 0 -0.33878825992396772 -0.014544543532055121 0 -0.3243273320705421 -0.002975739998295202 0 -0.32189083505985461 -0.022304422783467451 0 -0.33878825992396772 -0.014544543532055121 0 -0.3243273320705421 -0.002975739998295202 0 -0.33911095629693389 0.00085089756377999598 0 -0.30770280863967042 -0.008115090768276649 0 -0.3243273320705421 -0.002975739998295202 0 -0.32189083505985461 -0.022304422783467451 0 -0.30500834037350127 -0.029850251878582579 0 -0.32189083505985461 -0.022304422783467451 0 -0.32059116910516611 -0.04381933631409228 0 -0.32189083505985461 -0.022304422783467451 0 -0.32059116910516611 -0.04381933631409228 0 -0.33789297541277002 -0.036350012054751871 0 -0.30231387210733141 -0.051585412988888468 0 -0.31969419502201518 -0.064500509320389948 0 -0.32059116910516611 -0.04381933631409228 0 -0.31969419502201518 -0.064500509320389948 0 -0.32059116910516611 -0.04381933631409228 0 -0.33587985905846379 -0.055431906221941857 0 -0.32059116910516611 -0.04381933631409228 0 -0.33587985905846379 -0.055431906221941857 0 -0.33789297541277002 -0.036350012054751871 0 -0.30618571126858501 -0.25346888261604072 0 -0.29085516855559562 -0.23572902352151739 0 -0.30618571126858501 -0.25346888261604072 0 -0.3036336784240482 -0.23604414271263591 0 -0.29085516855559562 -0.23572902352151739 0 -0.30618571126858501 -0.25346888261604072 0 -0.3036336784240482 -0.23604414271263591 0 -0.31277222751440781 -0.24313221912489119 0 -0.3036336784240482 -0.23604414271263591 0 -0.30565966870706912 -0.23011781534317591 0 -0.31277222751440781 -0.24313221912489119 0 -0.30565966870706912 -0.23011781534317591 0 -0.31014503401332899 -0.21699744482644659 0 -0.30565966870706912 -0.23011781534317591 0 -0.30096959082794972 -0.22228737681010999 0 -0.31014503401332899 -0.21699744482644659 0 -0.30565966870706912 -0.23011781534317591 0 -0.30096959082794972 -0.22228737681010999 0 -0.29456436015033771 -0.22677795465987671 0 -0.3036336784240482 -0.23604414271263591 0 -0.30565966870706912 -0.23011781534317591 0 -0.29085516855559562 -0.23572902352151739 0 -0.30565966870706912 -0.23011781534317591 0 -0.29456436015033771 -0.22677795465987671 0 -0.29085516855559562 -0.23572902352151739 0 -0.30565966870706912 -0.23011781534317591 0 -0.29085516855559562 -0.23572902352151739 0 -0.3036336784240482 -0.23604414271263591 0 -0.30565966870706912 -0.23011781534317591 0 -0.29456436015033771 -0.22677795465987671 0 -0.28520607490546351 -0.22919212999848851 0 -0.29085516855559562 -0.23572902352151739 0 -0.29456436015033771 -0.22677795465987671 0 -0.28520607490546351 -0.22919212999848851 0 -0.30096959082794972 -0.22228737681010999 0 -0.29456436015033771 -0.22677795465987671 0 -0.29350930044106499 -0.2152562924109416 0 -0.29456436015033771 -0.22677795465987671 0 -0.28296858539022202 -0.22660300125927851 0 -0.29350930044106499 -0.2152562924109416 0 -0.28296858539022202 -0.22660300125927851 0 -0.29350930044106499 -0.2152562924109416 0 -0.29456436015033771 -0.22677795465987671 0 -0.28520607490546351 -0.22919212999848851 0 -0.28296858539022202 -0.22660300125927851 0 -0.28520607490546351 -0.22919212999848851 0 -0.29085516855559562 -0.23572902352151739 0 -0.27910008686250848 -0.23076730380067911 0 -0.28520607490546351 -0.22919212999848851 0 -0.29085516855559562 -0.23572902352151739 0 -0.28520607490546351 -0.22919212999848851 0 -0.28296858539022202 -0.22660300125927851 0 -0.27910008686250848 -0.23076730380067911 0 -0.28520607490546351 -0.22919212999848851 0 -0.27910008686250848 -0.23076730380067911 0 -0.28520607490546351 -0.22919212999848851 0 -0.28296858539022202 -0.22660300125927851 0 -0.30618571126858501 -0.25346888261604072 0 -0.29085516855559562 -0.23572902352151739 0 -0.28458303065451579 -0.24802118311711149 0 -0.29085516855559562 -0.23572902352151739 0 -0.27261707502938121 -0.23774603791654059 0 -0.26712662972940088 -0.24472262477513351 0 -0.27261707502938121 -0.23774603791654059 0 -0.25424580499815952 -0.23717901201065261 0 -0.27910008686250848 -0.23076730380067911 0 -0.29085516855559562 -0.23572902352151739 0 -0.28458303065451579 -0.24802118311711149 0 -0.26712662972940088 -0.24472262477513351 0 -0.27539145014436323 -0.25229755620922312 0 -0.28458303065451579 -0.24802118311711149 0 -0.26712662972940088 -0.24472262477513351 0 -0.29085516855559562 -0.23572902352151739 0 -0.26712662972940088 -0.24472262477513351 0 -0.29085516855559562 -0.23572902352151739 0 -0.27261707502938121 -0.23774603791654059 0 -0.27910008686250848 -0.23076730380067911 0 -0.25473520772639757 -0.25111225091949058 0 -0.26712662972940088 -0.24472262477513351 0 -0.25424580499815952 -0.23717901201065261 0 -0.27261707502938121 -0.23774603791654059 0 -0.26712662972940088 -0.24472262477513351 0 -0.25424580499815952 -0.23717901201065261 0 -0.25424580499815952 -0.23717901201065261 0 -0.26221771071148708 -0.22324035625600461 0 -0.27910008686250848 -0.23076730380067911 0 -0.25110359305318669 -0.22315728211605909 0 -0.26221771071148708 -0.22324035625600461 0 -0.25497842492385708 -0.21122352002450451 0 -0.25424580499815952 -0.23717901201065261 0 -0.25110359305318669 -0.22315728211605909 0 -0.26221771071148708 -0.22324035625600461 0 -0.25424580499815952 -0.23717901201065261 0 -0.27910008686250848 -0.23076730380067911 0 -0.26221771071148708 -0.22324035625600461 0 -0.27910008686250848 -0.23076730380067911 0 -0.27113960621524141 -0.2129150041854245 0 -0.28296858539022202 -0.22660300125927851 0 -0.27910008686250848 -0.23076730380067911 0 -0.27113960621524141 -0.2129150041854245 0 -0.27261707502938121 -0.23774603791654059 0 -0.27910008686250848 -0.23076730380067911 0 -0.28296858539022202 -0.22660300125927851 0 -0.27910008686250848 -0.23076730380067911 0 -0.28296858539022202 -0.22660300125927851 0 -0.27113960621524141 -0.2129150041854245 0 -0.27113960621524141 -0.2129150041854245 0 -0.27955515667245689 -0.1963708483177988 0 -0.28410449073618349 -0.20605526383134851 0 -0.26221771071148708 -0.22324035625600461 0 -0.27113960621524141 -0.2129150041854245 0 -0.25497842492385708 -0.21122352002450451 0 -0.2417330138615848 -0.20747747701892849 0 -0.25497842492385708 -0.21122352002450451 0 -0.25393282328321037 -0.19300403884003059 0 -0.27113960621524141 -0.2129150041854245 0 -0.25497842492385708 -0.21122352002450451 0 -0.25393282328321037 -0.19300403884003059 0 -0.27113960621524141 -0.2129150041854245 0 -0.25497842492385708 -0.21122352002450451 0 -0.27113960621524141 -0.2129150041854245 0 -0.25393282328321037 -0.19300403884003059 0 -0.26840027521596138 -0.19586132911147119 0 -0.27113960621524141 -0.2129150041854245 0 -0.25393282328321037 -0.19300403884003059 0 -0.25393282328321037 -0.19300403884003059 0 -0.26840027521596138 -0.19586132911147119 0 -0.26897351469293163 -0.18115542510263591 0 -0.26840027521596138 -0.19586132911147119 0 -0.27955515667245689 -0.1963708483177988 0 -0.26897351469293163 -0.18115542510263591 0 -0.27113960621524141 -0.2129150041854245 0 -0.26840027521596138 -0.19586132911147119 0 -0.27955515667245689 -0.1963708483177988 0 -0.27955515667245689 -0.1963708483177988 0 -0.29221389961596578 -0.19967891041123431 0 -0.29378127678442739 -0.18470713079381479 0 -0.27955515667245689 -0.1963708483177988 0 -0.29221389961596578 -0.19967891041123431 0 -0.28410449073618349 -0.20605526383134851 0 -0.28296858539022202 -0.22660300125927851 0 -0.27113960621524141 -0.2129150041854245 0 -0.29350930044106499 -0.2152562924109416 0 -0.27113960621524141 -0.2129150041854245 0 -0.29350930044106499 -0.2152562924109416 0 -0.27113960621524141 -0.2129150041854245 0 -0.28410449073618349 -0.20605526383134851 0 -0.29350930044106499 -0.2152562924109416 0 -0.29221389961596578 -0.19967891041123431 0 -0.28410449073618349 -0.20605526383134851 0 -0.29350930044106499 -0.2152562924109416 0 -0.29350930044106499 -0.2152562924109416 0 -0.31014503401332899 -0.21699744482644659 0 -0.29350930044106499 -0.2152562924109416 0 -0.3060491696584931 -0.2017575644479658 0 -0.29221389961596578 -0.19967891041123431 0 -0.29350930044106499 -0.2152562924109416 0 -0.3060491696584931 -0.2017575644479658 0 -0.29350930044106499 -0.2152562924109416 0 -0.31014503401332899 -0.21699744482644659 0 -0.3060491696584931 -0.2017575644479658 0 -0.31014503401332899 -0.21699744482644659 0 -0.3060491696584931 -0.2017575644479658 0 -0.31623114886529441 -0.20122109694311999 0 -0.30096959082794972 -0.22228737681010999 0 -0.29350930044106499 -0.2152562924109416 0 -0.31014503401332899 -0.21699744482644659 0 -0.29221389961596578 -0.19967891041123431 0 -0.3060491696584931 -0.2017575644479658 0 -0.29378127678442739 -0.18470713079381479 0 -0.3060491696584931 -0.2017575644479658 0 -0.29378127678442739 -0.18470713079381479 0 -0.31858903887592349 -0.18825883648499231 0 -0.3060491696584931 -0.2017575644479658 0 -0.31858903887592349 -0.18825883648499231 0 -0.29378127678442739 -0.18470713079381479 0 -0.31858903887592349 -0.18825883648499231 0 -0.31145130088311479 -0.1814725814592128 0 -0.29378127678442739 -0.18470713079381479 0 -0.31858903887592349 -0.18825883648499231 0 -0.3031559290550585 -0.17392495880642869 0 -0.31145130088311479 -0.1814725814592128 0 -0.29378127678442739 -0.18470713079381479 0 -0.3031559290550585 -0.17392495880642869 0 -0.31145130088311479 -0.1814725814592128 0 -0.3165892644717106 -0.17808631878985659 0 -0.3031559290550585 -0.17392495880642869 0 -0.30350130301317663 -0.1613002280239498 0 -0.31464618494487429 -0.16245604007366149 0 -0.30350130301317663 -0.1613002280239498 0 -0.31101752771986452 -0.1551734461471794 0 -0.31464618494487429 -0.16245604007366149 0 -0.3031559290550585 -0.17392495880642869 0 -0.30350130301317663 -0.1613002280239498 0 -0.29256480670412138 -0.16639219244065259 0 -0.30350130301317663 -0.1613002280239498 0 -0.29256480670412138 -0.16639219244065259 0 -0.29192552113154657 -0.15620788517600409 0 -0.29256480670412138 -0.16639219244065259 0 -0.28356294230653928 -0.16436925787381079 0 -0.29192552113154657 -0.15620788517600409 0 -0.28356294230653928 -0.16436925787381079 0 -0.27813109396546848 -0.15470682618706519 0 -0.29192552113154657 -0.15620788517600409 0 -0.29256480670412138 -0.16639219244065259 0 -0.28356294230653928 -0.16436925787381079 0 -0.28067833801428621 -0.17615863232306939 0 -0.29378127678442739 -0.18470713079381479 0 -0.26897351469293163 -0.18115542510263591 0 -0.3031559290550585 -0.17392495880642869 0 -0.29378127678442739 -0.18470713079381479 0 -0.28067833801428621 -0.17615863232306939 0 -0.3031559290550585 -0.17392495880642869 0 -0.28067833801428621 -0.17615863232306939 0 -0.3031559290550585 -0.17392495880642869 0 -0.29256480670412138 -0.16639219244065259 0 -0.28067833801428621 -0.17615863232306939 0 -0.27955515667245689 -0.1963708483177988 0 -0.29378127678442739 -0.18470713079381479 0 -0.26897351469293163 -0.18115542510263591 0 -0.29378127678442739 -0.18470713079381479 0 -0.28067833801428621 -0.17615863232306939 0 -0.26897351469293163 -0.18115542510263591 0 -0.28067833801428621 -0.17615863232306939 0 -0.26897351469293163 -0.18115542510263591 0 -0.27261776014570349 -0.1666173931021904 0 -0.24416575260143589 -0.17760371941145711 0 -0.26897351469293163 -0.18115542510263591 0 -0.25439744610217901 -0.17272260323229979 0 -0.24416575260143589 -0.17760371941145711 0 -0.25393282328321037 -0.19300403884003059 0 -0.26897351469293163 -0.18115542510263591 0 -0.24416575260143589 -0.17760371941145711 0 -0.26897351469293163 -0.18115542510263591 0 -0.26897351469293163 -0.18115542510263591 0 -0.25439744610217901 -0.17272260323229979 0 -0.25843524463159429 -0.16634875341091049 0 -0.24601527248275429 -0.16578251500419569 0 -0.25843524463159429 -0.16634875341091049 0 -0.2504203735399923 -0.1550590829129613 0 -0.24601527248275429 -0.16578251500419569 0 -0.25439744610217901 -0.17272260323229979 0 -0.25843524463159429 -0.16634875341091049 0 -0.25843524463159429 -0.16634875341091049 0 -0.26485669812637808 -0.15667704764687129 0 -0.27261776014570349 -0.1666173931021904 0 -0.25843524463159429 -0.16634875341091049 0 -0.26485669812637808 -0.15667704764687129 0 -0.2504203735399923 -0.1550590829129613 0 -0.26485669812637808 -0.15667704764687129 0 -0.27261776014570349 -0.1666173931021904 0 -0.27813109396546848 -0.15470682618706519 0 -0.26897351469293163 -0.18115542510263591 0 -0.25843524463159429 -0.16634875341091049 0 -0.27261776014570349 -0.1666173931021904 0 -0.28356294230653928 -0.16436925787381079 0 -0.28067833801428621 -0.17615863232306939 0 -0.27261776014570349 -0.1666173931021904 0 -0.28356294230653928 -0.16436925787381079 0 -0.27261776014570349 -0.1666173931021904 0 -0.27813109396546848 -0.15470682618706519 0 -0.26485669812637808 -0.15667704764687129 0 -0.27813109396546848 -0.15470682618706519 0 -0.27107074665776409 -0.1403601570191271 0 -0.27813109396546848 -0.15470682618706519 0 -0.27107074665776409 -0.1403601570191271 0 -0.28707539907450053 -0.13765399386255309 0 -0.24498499433400001 -0.13926679191499999 0 -0.25700278284381439 -0.1459478531559083 0 -0.2504203735399923 -0.1550590829129613 0 -0.26485669812637808 -0.15667704764687129 0 -0.25700278284381439 -0.1459478531559083 0 -0.27107074665776409 -0.1403601570191271 0 -0.26485669812637808 -0.15667704764687129 0 -0.25700278284381439 -0.1459478531559083 0 -0.2504203735399923 -0.1550590829129613 0 -0.24498499433400001 -0.13926679191499999 0 -0.25267264513587889 -0.1215588879498425 0 -0.25882396804111618 -0.13366597894571081 0 -0.24498499433400001 -0.13926679191499999 0 -0.25700278284381439 -0.1459478531559083 0 -0.25882396804111618 -0.13366597894571081 0 -0.25700278284381439 -0.1459478531559083 0 -0.25882396804111618 -0.13366597894571081 0 -0.27107074665776409 -0.1403601570191271 0 -0.27272842310790468 -0.1190008904939199 0 -0.25882396804111618 -0.13366597894571081 0 -0.27107074665776409 -0.1403601570191271 0 -0.27272842310790468 -0.1190008904939199 0 -0.28707539907450053 -0.13765399386255309 0 -0.27272842310790468 -0.1190008904939199 0 -0.27107074665776409 -0.1403601570191271 0 -0.28707539907450053 -0.13765399386255309 0 -0.28967909008679588 -0.1211358467321744 0 -0.28707539907450053 -0.13765399386255309 0 -0.30314889797602618 -0.1269137262519188 0 -0.27272842310790468 -0.1190008904939199 0 -0.28967909008679588 -0.1211358467321744 0 -0.28707539907450053 -0.13765399386255309 0 -0.28707539907450053 -0.13765399386255309 0 -0.29192552113154657 -0.15620788517600409 0 -0.30228809249177702 -0.1499798586730276 0 -0.27813109396546848 -0.15470682618706519 0 -0.28707539907450053 -0.13765399386255309 0 -0.29192552113154657 -0.15620788517600409 0 -0.28707539907450053 -0.13765399386255309 0 -0.30228809249177702 -0.1499798586730276 0 -0.30389296922330289 -0.1388735675424316 0 -0.30350130301317663 -0.1613002280239498 0 -0.29192552113154657 -0.15620788517600409 0 -0.30228809249177702 -0.1499798586730276 0 -0.30228809249177702 -0.1499798586730276 0 -0.31101752771986452 -0.1551734461471794 0 -0.31180074421487203 -0.1461232077624566 0 -0.30350130301317663 -0.1613002280239498 0 -0.30228809249177702 -0.1499798586730276 0 -0.31101752771986452 -0.1551734461471794 0 -0.30228809249177702 -0.1499798586730276 0 -0.31180074421487203 -0.1461232077624566 0 -0.30389296922330289 -0.1388735675424316 0 -0.30314889797602618 -0.1269137262519188 0 -0.30389296922330289 -0.1388735675424316 0 -0.31344484832653002 -0.13617884973045491 0 -0.28707539907450053 -0.13765399386255309 0 -0.30314889797602618 -0.1269137262519188 0 -0.30389296922330289 -0.1388735675424316 0 -0.31180074421487203 -0.1461232077624566 0 -0.30389296922330289 -0.1388735675424316 0 -0.31344484832653002 -0.13617884973045491 0 -0.30314889797602618 -0.1269137262519188 0 -0.31624287369029958 -0.1274442202940835 0 -0.31344484832653002 -0.13617884973045491 0 -0.32292456406968473 -0.13488659222320071 0 -0.32208540413664688 -0.14398882217303741 0 -0.3285630124282648 -0.14015628409748171 0 -0.32292456406968473 -0.13488659222320071 0 -0.33051127068135472 -0.13370594572960701 0 -0.3285630124282648 -0.14015628409748171 0 -0.32292456406968473 -0.13488659222320071 0 -0.32574439139689643 -0.12708692906384639 0 -0.33051127068135472 -0.13370594572960701 0 -0.32292456406968473 -0.13488659222320071 0 -0.32574439139689643 -0.12708692906384639 0 -0.31624287369029958 -0.1274442202940835 0 -0.32292456406968473 -0.13488659222320071 0 -0.31624287369029958 -0.1274442202940835 0 -0.31344484832653002 -0.13617884973045491 0 -0.32292456406968473 -0.13488659222320071 0 -0.31344484832653002 -0.13617884973045491 0 -0.32208540413664688 -0.14398882217303741 0 -0.31180074421487203 -0.1461232077624566 0 -0.31807562339111112 -0.152544702308609 0 -0.32208540413664688 -0.14398882217303741 0 -0.31180074421487203 -0.1461232077624566 0 -0.31344484832653002 -0.13617884973045491 0 -0.32208540413664688 -0.14398882217303741 0 -0.31101752771986452 -0.1551734461471794 0 -0.31180074421487203 -0.1461232077624566 0 -0.31807562339111112 -0.152544702308609 0 -0.32491550064758329 -0.1505101042707703 0 -0.32730655455865593 -0.15481543200816919 0 -0.32871330173273489 -0.14606199535904821 0 -0.31807562339111112 -0.152544702308609 0 -0.32491550064758329 -0.1505101042707703 0 -0.32208540413664688 -0.14398882217303741 0 -0.31807562339111112 -0.152544702308609 0 -0.32491550064758329 -0.1505101042707703 0 -0.3234147420344784 -0.15817363128894771 0 -0.32491550064758329 -0.1505101042707703 0 -0.32730655455865593 -0.15481543200816919 0 -0.3234147420344784 -0.15817363128894771 0 -0.32491550064758329 -0.1505101042707703 0 -0.32208540413664688 -0.14398882217303741 0 -0.32871330173273489 -0.14606199535904821 0 -0.32208540413664688 -0.14398882217303741 0 -0.32871330173273489 -0.14606199535904821 0 -0.3285630124282648 -0.14015628409748171 0 -0.33115959282583513 -0.14296301500976311 0 -0.33385570828265287 -0.14764014383229371 0 -0.33255631618339759 -0.1390575383873501 0 -0.33385570828265287 -0.14764014383229371 0 -0.33675470632006371 -0.1456175988066819 0 -0.32731916858115617 -0.171523776753256 0 -0.33115959282583513 -0.14296301500976311 0 -0.32871330173273489 -0.14606199535904821 0 -0.3285630124282648 -0.14015628409748171 0 -0.33115959282583513 -0.14296301500976311 0 -0.33255631618339759 -0.1390575383873501 0 -0.3285630124282648 -0.14015628409748171 0 -0.33115959282583513 -0.14296301500976311 0 -0.32871330173273489 -0.14606199535904821 0 -0.33385570828265287 -0.14764014383229371 0 -0.32730655455865593 -0.15481543200816919 0 -0.32871330173273489 -0.14606199535904821 0 -0.33385570828265287 -0.14764014383229371 0 -0.34214539601882898 -0.15091729437367921 0 -0.33675470632006371 -0.1456175988066819 0 -0.33759067366197121 -0.1591091089344473 0 -0.34214539601882898 -0.15091729437367921 0 -0.34890008927473021 -0.15563005730786239 0 -0.33759067366197121 -0.1591091089344473 0 -0.33675470632006371 -0.1456175988066819 0 -0.34137605675171201 -0.14181612292074969 0 -0.34294819095520968 -0.13502758465579531 0 -0.34214539601882898 -0.15091729437367921 0 -0.33675470632006371 -0.1456175988066819 0 -0.34208283167352033 -0.14549416726752881 0 -0.34214539601882898 -0.15091729437367921 0 -0.34208283167352033 -0.14549416726752881 0 -0.34620247680680127 -0.14833062826910759 0 -0.33675470632006371 -0.1456175988066819 0 -0.34208283167352033 -0.14549416726752881 0 -0.34137605675171201 -0.14181612292074969 0 -0.34208283167352033 -0.14549416726752881 0 -0.34371849805805449 -0.14112514095299289 0 -0.34137605675171201 -0.14181612292074969 0 -0.34207789646947578 -0.1235890023748014 0 -0.33385570828265287 -0.14764014383229371 0 -0.33675470632006371 -0.1456175988066819 0 -0.34207789646947578 -0.1235890023748014 0 -0.33385570828265287 -0.14764014383229371 0 -0.3461902440589707 -0.1197114208601076 0 -0.33675470632006371 -0.1456175988066819 0 -0.34371849805805449 -0.14112514095299289 0 -0.34137605675171201 -0.14181612292074969 0 -0.34294819095520968 -0.13502758465579531 0 -0.3461902440589707 -0.1197114208601076 0 -0.33675470632006371 -0.1456175988066819 0 -0.34294819095520968 -0.13502758465579531 0 -0.34207789646947578 -0.1235890023748014 0 -0.3461902440589707 -0.1197114208601076 0 -0.33675470632006371 -0.1456175988066819 0 -0.34207789646947578 -0.1235890023748014 0 -0.33385570828265287 -0.14764014383229371 0 -0.3351683805975551 -0.13376135696255659 0 -0.33385570828265287 -0.14764014383229371 0 -0.33255631618339759 -0.1390575383873501 0 -0.3351683805975551 -0.13376135696255659 0 -0.33255631618339759 -0.1390575383873501 0 -0.3351683805975551 -0.13376135696255659 0 -0.33051127068135472 -0.13370594572960701 0 -0.33255631618339759 -0.1390575383873501 0 -0.33051127068135472 -0.13370594572960701 0 -0.3285630124282648 -0.14015628409748171 0 -0.32574439139689643 -0.12708692906384639 0 -0.33051127068135472 -0.13370594572960701 0 -0.33359360987340408 -0.1264366553301487 0 -0.3351683805975551 -0.13376135696255659 0 -0.33051127068135472 -0.13370594572960701 0 -0.33359360987340408 -0.1264366553301487 0 -0.34207789646947578 -0.1235890023748014 0 -0.3351683805975551 -0.13376135696255659 0 -0.33359360987340408 -0.1264366553301487 0 -0.34294819095520968 -0.13502758465579531 0 -0.34736967540495078 -0.12522581123200011 0 -0.34897228448658979 -0.13203285905000281 0 -0.3461902440589707 -0.1197114208601076 0 -0.34294819095520968 -0.13502758465579531 0 -0.34736967540495078 -0.12522581123200011 0 -0.34736967540495078 -0.12522581123200011 0 -0.34897228448658979 -0.13203285905000281 0 -0.35261516285617661 -0.12796608345369159 0 -0.34371849805805449 -0.14112514095299289 0 -0.34294819095520968 -0.13502758465579531 0 -0.34876023812405049 -0.13869648743480431 0 -0.34294819095520968 -0.13502758465579531 0 -0.34897228448658979 -0.13203285905000281 0 -0.34876023812405049 -0.13869648743480431 0 -0.34897228448658979 -0.13203285905000281 0 -0.34876023812405049 -0.13869648743480431 0 -0.35187878618866553 -0.1351832253890681 0 -0.34876023812405049 -0.13869648743480431 0 -0.35506187429618041 -0.1382005086133351 0 -0.35187878618866553 -0.1351832253890681 0 -0.34897228448658979 -0.13203285905000281 0 -0.35187878618866553 -0.1351832253890681 0 -0.35537264595594598 -0.13142644832590999 0 -0.35506187429618041 -0.1382005086133351 0 -0.35187878618866553 -0.1351832253890681 0 -0.35537264595594598 -0.13142644832590999 0 -0.35506187429618041 -0.1382005086133351 0 -0.35537264595594598 -0.13142644832590999 0 -0.36227388089114682 -0.13202976115014539 0 -0.35874604557721962 -0.1231792152068535 0 -0.35537264595594598 -0.13142644832590999 0 -0.36227388089114682 -0.13202976115014539 0 -0.35874604557721962 -0.1231792152068535 0 -0.34736967540495078 -0.12522581123200011 0 -0.35261516285617661 -0.12796608345369159 0 -0.35874604557721962 -0.1231792152068535 0 -0.35261516285617661 -0.12796608345369159 0 -0.35537264595594598 -0.13142644832590999 0 -0.34897228448658979 -0.13203285905000281 0 -0.35261516285617661 -0.12796608345369159 0 -0.35537264595594598 -0.13142644832590999 0 -0.36800375731069912 -0.1238998734332004 0 -0.36227388089114682 -0.13202976115014539 0 -0.36971254327551278 -0.13490805922041299 0 -0.35874604557721962 -0.1231792152068535 0 -0.36800375731069912 -0.1238998734332004 0 -0.36227388089114682 -0.13202976115014539 0 -0.35506187429618041 -0.1382005086133351 0 -0.36227388089114682 -0.13202976115014539 0 -0.36161187371198539 -0.13940907016974069 0 -0.36161187371198539 -0.13940907016974069 0 -0.36971254327551278 -0.13490805922041299 0 -0.36598637623674662 -0.1459169031642456 0 -0.36227388089114682 -0.13202976115014539 0 -0.36161187371198539 -0.13940907016974069 0 -0.36971254327551278 -0.13490805922041299 0 -0.36971254327551278 -0.13490805922041299 0 -0.37286342940633432 -0.14233207782336299 0 -0.3811389359611102 -0.1339080842108869 0 -0.36800375731069912 -0.1238998734332004 0 -0.36971254327551278 -0.13490805922041299 0 -0.37767647089691508 -0.12560686433188781 0 -0.36598637623674662 -0.1459169031642456 0 -0.36167084042242498 -0.1547324776079308 0 -0.37528303175864752 -0.15417168835971809 0 -0.36971254327551278 -0.13490805922041299 0 -0.37286342940633432 -0.14233207782336299 0 -0.36598637623674662 -0.1459169031642456 0 -0.37286342940633432 -0.14233207782336299 0 -0.36598637623674662 -0.1459169031642456 0 -0.37528303175864752 -0.15417168835971809 0 -0.36161187371198539 -0.13940907016974069 0 -0.36598637623674662 -0.1459169031642456 0 -0.35425314167812838 -0.14532977906571751 0 -0.36598637623674662 -0.1459169031642456 0 -0.36167084042242498 -0.1547324776079308 0 -0.35425314167812838 -0.14532977906571751 0 -0.36167084042242498 -0.1547324776079308 0 -0.35425314167812838 -0.14532977906571751 0 -0.34890008927473021 -0.15563005730786239 0 -0.35506187429618041 -0.1382005086133351 0 -0.36161187371198539 -0.13940907016974069 0 -0.35425314167812838 -0.14532977906571751 0 -0.34876023812405049 -0.13869648743480431 0 -0.35506187429618041 -0.1382005086133351 0 -0.35425314167812838 -0.14532977906571751 0 -0.35425314167812838 -0.14532977906571751 0 -0.34620247680680127 -0.14833062826910759 0 -0.34672222494439903 -0.14330662770962829 0 -0.34876023812405049 -0.13869648743480431 0 -0.35425314167812838 -0.14532977906571751 0 -0.34672222494439903 -0.14330662770962829 0 -0.34208283167352033 -0.14549416726752881 0 -0.34620247680680127 -0.14833062826910759 0 -0.34672222494439903 -0.14330662770962829 0 -0.34371849805805449 -0.14112514095299289 0 -0.34876023812405049 -0.13869648743480431 0 -0.34672222494439903 -0.14330662770962829 0 -0.34208283167352033 -0.14549416726752881 0 -0.34371849805805449 -0.14112514095299289 0 -0.34672222494439903 -0.14330662770962829 0 -0.35425314167812838 -0.14532977906571751 0 -0.34620247680680127 -0.14833062826910759 0 -0.34890008927473021 -0.15563005730786239 0 -0.34214539601882898 -0.15091729437367921 0 -0.34620247680680127 -0.14833062826910759 0 -0.34890008927473021 -0.15563005730786239 0 -0.34890008927473021 -0.15563005730786239 0 -0.35687809660383041 -0.168586407059822 0 -0.33482858052386838 -0.17077754133365231 0 -0.35687809660383041 -0.168586407059822 0 -0.33482858052386838 -0.17077754133365231 0 -0.36167084042242498 -0.1547324776079308 0 -0.34890008927473021 -0.15563005730786239 0 -0.35687809660383041 -0.168586407059822 0 -0.36167084042242498 -0.1547324776079308 0 -0.35687809660383041 -0.168586407059822 0 -0.36581477408527191 -0.1629814663840051 0 -0.36581477408527191 -0.1629814663840051 0 -0.36942712755618468 -0.17443529250854931 0 -0.37528303175864752 -0.15417168835971809 0 -0.36942712755618468 -0.17443529250854931 0 -0.37528303175864752 -0.15417168835971809 0 -0.36942712755618468 -0.17443529250854931 0 -0.37660310750009979 -0.17064686935447951 0 -0.37528303175864752 -0.15417168835971809 0 -0.35687809660383041 -0.168586407059822 0 -0.36581477408527191 -0.1629814663840051 0 -0.36942712755618468 -0.17443529250854931 0 -0.36167084042242498 -0.1547324776079308 0 -0.36581477408527191 -0.1629814663840051 0 -0.37528303175864752 -0.15417168835971809 0 -0.36942712755618468 -0.17443529250854931 0 -0.35729760952365808 -0.1817998505464333 0 -0.36357122335371722 -0.19469889665737911 0 -0.37275449283316142 -0.19601365735016421 0 -0.37660310750009979 -0.17064686935447951 0 -0.36942712755618468 -0.17443529250854931 0 -0.37275449283316142 -0.19601365735016421 0 -0.37660310750009979 -0.17064686935447951 0 -0.36942712755618468 -0.17443529250854931 0 -0.36357122335371722 -0.19469889665737911 0 -0.35687809660383041 -0.168586407059822 0 -0.36942712755618468 -0.17443529250854931 0 -0.35729760952365808 -0.1817998505464333 0 -0.35687809660383041 -0.168586407059822 0 -0.34520988401338071 -0.17908592767244369 0 -0.33482858052386838 -0.17077754133365231 0 -0.35687809660383041 -0.168586407059822 0 -0.35729760952365808 -0.1817998505464333 0 -0.34520988401338071 -0.17908592767244369 0 -0.35729760952365808 -0.1817998505464333 0 -0.34520988401338071 -0.17908592767244369 0 -0.34233228407687111 -0.19165813622014269 0 -0.34520988401338071 -0.17908592767244369 0 -0.33327746676923148 -0.18274644040594781 0 -0.34233228407687111 -0.19165813622014269 0 -0.33482858052386838 -0.17077754133365231 0 -0.32731916858115617 -0.171523776753256 0 -0.32292324043201198 -0.18359322102059289 0 -0.33482858052386838 -0.17077754133365231 0 -0.32292324043201198 -0.18359322102059289 0 -0.33327746676923148 -0.18274644040594781 0 -0.33482858052386838 -0.17077754133365231 0 -0.32292324043201198 -0.18359322102059289 0 -0.34520988401338071 -0.17908592767244369 0 -0.33327746676923148 -0.18274644040594781 0 -0.33482858052386838 -0.17077754133365231 0 -0.32730655455865593 -0.15481543200816919 0 -0.33385570828265287 -0.14764014383229371 0 -0.32563352009583069 -0.17169128528978619 0 -0.33385570828265287 -0.14764014383229371 0 -0.32563352009583069 -0.17169128528978619 0 -0.33675470632006371 -0.1456175988066819 0 -0.32731916858115617 -0.171523776753256 0 -0.33675470632006371 -0.1456175988066819 0 -0.33759067366197121 -0.1591091089344473 0 -0.32731916858115617 -0.171523776753256 0 -0.33385570828265287 -0.14764014383229371 0 -0.32731916858115617 -0.171523776753256 0 -0.32563352009583069 -0.17169128528978619 0 -0.34890008927473021 -0.15563005730786239 0 -0.33759067366197121 -0.1591091089344473 0 -0.33482858052386838 -0.17077754133365231 0 -0.34890008927473021 -0.15563005730786239 0 -0.33482858052386838 -0.17077754133365231 0 -0.33759067366197121 -0.1591091089344473 0 -0.33482858052386838 -0.17077754133365231 0 -0.32731916858115617 -0.171523776753256 0 -0.33482858052386838 -0.17077754133365231 0 -0.32731916858115617 -0.171523776753256 0 -0.32563352009583069 -0.17169128528978619 0 -0.3234147420344784 -0.15817363128894771 0 -0.31464618494487429 -0.16245604007366149 0 -0.3031559290550585 -0.17392495880642869 0 -0.32563352009583069 -0.17169128528978619 0 -0.31464618494487429 -0.16245604007366149 0 -0.32730655455865593 -0.15481543200816919 0 -0.32563352009583069 -0.17169128528978619 0 -0.3234147420344784 -0.15817363128894771 0 -0.32731916858115617 -0.171523776753256 0 -0.32563352009583069 -0.17169128528978619 0 -0.31807562339111112 -0.152544702308609 0 -0.3234147420344784 -0.15817363128894771 0 -0.31464618494487429 -0.16245604007366149 0 -0.31101752771986452 -0.1551734461471794 0 -0.31807562339111112 -0.152544702308609 0 -0.31464618494487429 -0.16245604007366149 0 -0.3031559290550585 -0.17392495880642869 0 -0.32563352009583069 -0.17169128528978619 0 -0.3165892644717106 -0.17808631878985659 0 -0.3031559290550585 -0.17392495880642869 0 -0.32563352009583069 -0.17169128528978619 0 -0.31145130088311479 -0.1814725814592128 0 -0.32077362801694209 -0.18590720314542461 0 -0.31858903887592349 -0.18825883648499231 0 -0.31145130088311479 -0.1814725814592128 0 -0.3165892644717106 -0.17808631878985659 0 -0.32077362801694209 -0.18590720314542461 0 -0.32077362801694209 -0.18590720314542461 0 -0.31858903887592349 -0.18825883648499231 0 -0.32563352009583069 -0.17169128528978619 0 -0.32292324043201198 -0.18359322102059289 0 -0.32077362801694209 -0.18590720314542461 0 -0.33327746676923148 -0.18274644040594781 0 -0.32292324043201198 -0.18359322102059289 0 -0.32109334480002483 -0.18861737578290691 0 -0.32292324043201198 -0.18359322102059289 0 -0.32109334480002483 -0.18861737578290691 0 -0.32292324043201198 -0.18359322102059289 0 -0.32077362801694209 -0.18590720314542461 0 -0.32109334480002483 -0.18861737578290691 0 -0.32077362801694209 -0.18590720314542461 0 -0.32109334480002483 -0.18861737578290691 0 -0.32292324043201198 -0.18359322102059289 0 -0.32077362801694209 -0.18590720314542461 0 -0.32563352009583069 -0.17169128528978619 0 -0.3165892644717106 -0.17808631878985659 0 -0.32077362801694209 -0.18590720314542461 0 -0.32563352009583069 -0.17169128528978619 0 -0.32077362801694209 -0.18590720314542461 0 -0.32731916858115617 -0.171523776753256 0 -0.32292324043201198 -0.18359322102059289 0 -0.32731916858115617 -0.171523776753256 0 -0.32563352009583069 -0.17169128528978619 0 -0.32292324043201198 -0.18359322102059289 0 -0.32109334480002483 -0.18861737578290691 0 -0.31623114886529441 -0.20122109694311999 0 -0.33149408263129909 -0.2016497658158671 0 -0.32109334480002483 -0.18861737578290691 0 -0.31623114886529441 -0.20122109694311999 0 -0.3060491696584931 -0.2017575644479658 0 -0.32109334480002483 -0.18861737578290691 0 -0.31858903887592349 -0.18825883648499231 0 -0.32109334480002483 -0.18861737578290691 0 -0.31858903887592349 -0.18825883648499231 0 -0.32077362801694209 -0.18590720314542461 0 -0.32109334480002483 -0.18861737578290691 0 -0.31858903887592349 -0.18825883648499231 0 -0.3060491696584931 -0.2017575644479658 0 -0.32109334480002483 -0.18861737578290691 0 -0.31623114886529441 -0.20122109694311999 0 -0.31014503401332899 -0.21699744482644659 0 -0.31623114886529441 -0.20122109694311999 0 -0.33375617095637378 -0.21946866666602891 0 -0.31623114886529441 -0.20122109694311999 0 -0.33149408263129909 -0.2016497658158671 0 -0.33375617095637378 -0.21946866666602891 0 -0.31014503401332899 -0.21699744482644659 0 -0.31623114886529441 -0.20122109694311999 0 -0.31014503401332899 -0.21699744482644659 0 -0.33375617095637378 -0.21946866666602891 0 -0.33149408263129909 -0.2016497658158671 0 -0.34607075337960769 -0.20346007969767241 0 -0.33375617095637378 -0.21946866666602891 0 -0.33327746676923148 -0.18274644040594781 0 -0.32109334480002483 -0.18861737578290691 0 -0.34233228407687111 -0.19165813622014269 0 -0.33149408263129909 -0.2016497658158671 0 -0.34233228407687111 -0.19165813622014269 0 -0.34607075337960769 -0.20346007969767241 0 -0.32109334480002483 -0.18861737578290691 0 -0.33149408263129909 -0.2016497658158671 0 -0.34233228407687111 -0.19165813622014269 0 -0.32109334480002483 -0.18861737578290691 0 -0.34233228407687111 -0.19165813622014269 0 -0.36357122335371722 -0.19469889665737911 0 -0.35920000587977918 -0.20982493312894679 0 -0.34607075337960769 -0.20346007969767241 0 -0.34233228407687111 -0.19165813622014269 0 -0.36357122335371722 -0.19469889665737911 0 -0.34607075337960769 -0.20346007969767241 0 -0.34233228407687111 -0.19165813622014269 0 -0.36357122335371722 -0.19469889665737911 0 -0.35729760952365808 -0.1817998505464333 0 -0.34233228407687111 -0.19165813622014269 0 -0.36357122335371722 -0.19469889665737911 0 -0.36942712755618468 -0.17443529250854931 0 -0.36357122335371722 -0.19469889665737911 0 -0.37275449283316142 -0.19601365735016421 0 -0.36357122335371722 -0.19469889665737911 0 -0.35920000587977918 -0.20982493312894679 0 -0.36357122335371722 -0.19469889665737911 0 -0.37275449283316142 -0.19601365735016421 0 -0.37275449283316142 -0.19601365735016421 0 -0.37135821621338427 -0.20521672288477169 0 -0.36357122335371722 -0.19469889665737911 0 -0.37275449283316142 -0.19601365735016421 0 -0.37135821621338427 -0.20521672288477169 0 -0.37135821621338427 -0.20521672288477169 0 -0.36736808451745862 -0.2315162705310593 0 -0.37135821621338427 -0.20521672288477169 0 -0.35855670613900581 -0.212050989233242 0 -0.36736808451745862 -0.2315162705310593 0 -0.36357122335371722 -0.19469889665737911 0 -0.37135821621338427 -0.20521672288477169 0 -0.35920000587977918 -0.20982493312894679 0 -0.37135821621338427 -0.20521672288477169 0 -0.35855670613900581 -0.212050989233242 0 -0.35920000587977918 -0.20982493312894679 0 -0.37135821621338427 -0.20521672288477169 0 -0.35920000587977918 -0.20982493312894679 0 -0.35855670613900581 -0.212050989233242 0 -0.35920000587977918 -0.20982493312894679 0 -0.33375617095637378 -0.21946866666602891 0 -0.35920000587977918 -0.20982493312894679 0 -0.33375617095637378 -0.21946866666602891 0 -0.35920000587977918 -0.20982493312894679 0 -0.34607075337960769 -0.20346007969767241 0 -0.33375617095637378 -0.21946866666602891 0 -0.35855670613900581 -0.212050989233242 0 -0.35087216494825912 -0.22126008476931541 0 -0.33375617095637378 -0.21946866666602891 0 -0.35855670613900581 -0.212050989233242 0 -0.35920000587977918 -0.20982493312894679 0 -0.35087216494825912 -0.22126008476931541 0 -0.35377629788439657 -0.23792667286237079 0 -0.34217456174296002 -0.23177668218629491 0 -0.35087216494825912 -0.22126008476931541 0 -0.36736808451745862 -0.2315162705310593 0 -0.35377629788439657 -0.23792667286237079 0 -0.35855670613900581 -0.212050989233242 0 -0.35087216494825912 -0.22126008476931541 0 -0.36736808451745862 -0.2315162705310593 0 -0.3633779528215354 -0.25781581817734728 0 -0.36736808451745862 -0.2315162705310593 0 -0.3633779528215354 -0.25781581817734728 0 -0.36736808451745862 -0.2315162705310593 0 -0.38731903233915838 -0.23842812602661409 0 -0.3633779528215354 -0.25781581817734728 0 -0.36736808451745862 -0.2315162705310593 0 -0.35377629788439657 -0.23792667286237079 0 -0.3633779528215354 -0.25781581817734728 0 -0.35377629788439657 -0.23792667286237079 0 -0.34508872539177032 -0.247264508647837 0 -0.35377629788439657 -0.23792667286237079 0 -0.34508872539177032 -0.247264508647837 0 -0.34217456174296002 -0.23177668218629491 0 -0.33411189979342348 -0.25865620679674789 0 -0.34508872539177032 -0.247264508647837 0 -0.32807514775026009 -0.2398334552598963 0 -0.34508872539177032 -0.247264508647837 0 -0.34217456174296002 -0.23177668218629491 0 -0.32807514775026009 -0.2398334552598963 0 -0.35087216494825912 -0.22126008476931541 0 -0.34217456174296002 -0.23177668218629491 0 -0.33375617095637378 -0.21946866666602891 0 -0.35087216494825912 -0.22126008476931541 0 -0.33375617095637378 -0.21946866666602891 0 -0.34217456174296002 -0.23177668218629491 0 -0.33375617095637378 -0.21946866666602891 0 -0.32807514775026009 -0.2398334552598963 0 -0.30565966870706912 -0.23011781534317591 0 -0.33375617095637378 -0.21946866666602891 0 -0.32807514775026009 -0.2398334552598963 0 -0.30565966870706912 -0.23011781534317591 0 -0.31014503401332899 -0.21699744482644659 0 -0.33375617095637378 -0.21946866666602891 0 -0.30565966870706912 -0.23011781534317591 0 -0.33375617095637378 -0.21946866666602891 0 -0.30565966870706912 -0.23011781534317591 0 -0.31277222751440781 -0.24313221912489119 0 -0.32807514775026009 -0.2398334552598963 0 -0.32053224806165032 -0.25325990110162788 0 -0.30618571126858501 -0.25346888261604072 0 -0.31277222751440781 -0.24313221912489119 0 -0.32053224806165032 -0.25325990110162788 0 -0.31277222751440781 -0.24313221912489119 0 -0.32807514775026009 -0.2398334552598963 0 -0.43236998789552678 -0.25452055740584512 0 -0.42352184515170987 -0.24085774664935489 0 -0.44191976938736238 -0.23655054701809791 0 -0.42352184515170987 -0.24085774664935489 0 -0.42027473402152599 -0.22873997645199731 0 -0.44191976938736238 -0.23655054701809791 0 -0.41679820476979329 -0.2507607630774138 0 -0.43236998789552678 -0.25452055740584512 0 -0.42352184515170987 -0.24085774664935489 0 -0.42926022969918232 -0.2194208131141745 0 -0.42027473402152599 -0.22873997645199731 0 -0.44191976938736238 -0.23655054701809791 0 -0.42926022969918232 -0.2194208131141745 0 -0.44191976938736238 -0.23655054701809791 0 -0.42027473402152599 -0.22873997645199731 0 -0.40314161083307648 -0.22453906749962499 0 -0.41433826622835679 -0.21695645975781419 0 -0.42027473402152599 -0.22873997645199731 0 -0.40897009565496761 -0.23923363928977129 0 -0.40314161083307648 -0.22453906749962499 0 -0.42926022969918232 -0.2194208131141745 0 -0.42027473402152599 -0.22873997645199731 0 -0.41433826622835679 -0.21695645975781419 0 -0.42352184515170987 -0.24085774664935489 0 -0.42027473402152599 -0.22873997645199731 0 -0.40897009565496761 -0.23923363928977129 0 -0.41679820476979329 -0.2507607630774138 0 -0.42352184515170987 -0.24085774664935489 0 -0.40897009565496761 -0.23923363928977129 0 -0.40263167937642541 -0.25474881847894387 0 -0.41679820476979329 -0.2507607630774138 0 -0.40897009565496761 -0.23923363928977129 0 -0.40263167937642541 -0.25474881847894387 0 -0.40897009565496761 -0.23923363928977129 0 -0.38731903233915838 -0.23842812602661409 0 -0.36736808451745862 -0.2315162705310593 0 -0.38731903233915838 -0.23842812602661409 0 -0.38671749196870991 -0.2178372963531755 0 -0.38731903233915838 -0.23842812602661409 0 -0.40314161083307648 -0.22453906749962499 0 -0.38671749196870991 -0.2178372963531755 0 -0.40897009565496761 -0.23923363928977129 0 -0.38731903233915838 -0.23842812602661409 0 -0.40314161083307648 -0.22453906749962499 0 -0.40220715525428807 -0.21192403527004591 0 -0.38671749196870991 -0.2178372963531755 0 -0.38936502787651212 -0.19839177318460921 0 -0.40314161083307648 -0.22453906749962499 0 -0.40220715525428807 -0.21192403527004591 0 -0.38671749196870991 -0.2178372963531755 0 -0.40220715525428807 -0.21192403527004591 0 -0.38936502787651212 -0.19839177318460921 0 -0.41660069001100231 -0.2022910792102508 0 -0.37135821621338427 -0.20521672288477169 0 -0.38671749196870991 -0.2178372963531755 0 -0.38936502787651212 -0.19839177318460921 0 -0.37135821621338427 -0.20521672288477169 0 -0.36736808451745862 -0.2315162705310593 0 -0.38671749196870991 -0.2178372963531755 0 -0.37275449283316142 -0.19601365735016421 0 -0.37135821621338427 -0.20521672288477169 0 -0.38936502787651212 -0.19839177318460921 0 -0.37135821621338427 -0.20521672288477169 0 -0.38936502787651212 -0.19839177318460921 0 -0.37275449283316142 -0.19601365735016421 0 -0.38936502787651212 -0.19839177318460921 0 -0.37275449283316142 -0.19601365735016421 0 -0.38936502787651212 -0.19839177318460921 0 -0.38341209647052171 -0.18501054296255889 0 -0.38936502787651212 -0.19839177318460921 0 -0.39488754681355742 -0.18621882617324251 0 -0.38341209647052171 -0.18501054296255889 0 -0.38936502787651212 -0.19839177318460921 0 -0.40838988287962058 -0.19118096424862119 0 -0.39488754681355742 -0.18621882617324251 0 -0.38936502787651212 -0.19839177318460921 0 -0.41660069001100231 -0.2022910792102508 0 -0.38936502787651212 -0.19839177318460921 0 -0.40838988287962058 -0.19118096424862119 0 -0.41660069001100231 -0.2022910792102508 0 -0.38936502787651212 -0.19839177318460921 0 -0.40838988287962058 -0.19118096424862119 0 -0.40838988287962058 -0.19118096424862119 0 -0.41660069001100231 -0.2022910792102508 0 -0.42620710851811022 -0.19470167693772181 0 -0.40838988287962058 -0.19118096424862119 0 -0.41660069001100231 -0.2022910792102508 0 -0.42926022969918232 -0.2194208131141745 0 -0.41660069001100231 -0.2022910792102508 0 -0.41433826622835679 -0.21695645975781419 0 -0.40220715525428807 -0.21192403527004591 0 -0.41660069001100231 -0.2022910792102508 0 -0.41433826622835679 -0.21695645975781419 0 -0.40314161083307648 -0.22453906749962499 0 -0.40220715525428807 -0.21192403527004591 0 -0.41433826622835679 -0.21695645975781419 0 -0.42926022969918232 -0.2194208131141745 0 -0.43249190987755443 -0.2045662113173565 0 -0.44639024606213162 -0.2210916591995665 0 -0.42926022969918232 -0.2194208131141745 0 -0.41660069001100231 -0.2022910792102508 0 -0.42926022969918232 -0.2194208131141745 0 -0.41660069001100231 -0.2022910792102508 0 -0.43249190987755443 -0.2045662113173565 0 -0.41660069001100231 -0.2022910792102508 0 -0.43249190987755443 -0.2045662113173565 0 -0.42620710851811022 -0.19470167693772181 0 -0.43129241215971692 -0.18250043749755371 0 -0.44226064766265649 -0.19296969241482731 0 -0.40838988287962058 -0.19118096424862119 0 -0.42620710851811022 -0.19470167693772181 0 -0.43129241215971692 -0.18250043749755371 0 -0.43249190987755443 -0.2045662113173565 0 -0.42620710851811022 -0.19470167693772181 0 -0.44226064766265649 -0.19296969241482731 0 -0.41660069001100231 -0.2022910792102508 0 -0.43249190987755443 -0.2045662113173565 0 -0.42620710851811022 -0.19470167693772181 0 -0.43129241215971692 -0.18250043749755371 0 -0.41576695877641717 -0.1694333077283921 0 -0.4385675898266988 -0.1671420692397203 0 -0.41576695877641717 -0.1694333077283921 0 -0.41933200961560352 -0.15149063391955081 0 -0.4385675898266988 -0.1671420692397203 0 -0.41576695877641717 -0.1694333077283921 0 -0.40297892321928491 -0.1525204641812174 0 -0.41933200961560352 -0.15149063391955081 0 -0.40838988287962058 -0.19118096424862119 0 -0.43129241215971692 -0.18250043749755371 0 -0.40838988287962058 -0.19118096424862119 0 -0.43129241215971692 -0.18250043749755371 0 -0.41576695877641717 -0.1694333077283921 0 -0.40838988287962058 -0.19118096424862119 0 -0.39488754681355742 -0.18621882617324251 0 -0.3940409349575783 -0.1717652772836889 0 -0.40838988287962058 -0.19118096424862119 0 -0.3940409349575783 -0.1717652772836889 0 -0.40838988287962058 -0.19118096424862119 0 -0.41576695877641717 -0.1694333077283921 0 -0.3940409349575783 -0.1717652772836889 0 -0.39488754681355742 -0.18621882617324251 0 -0.38546172165903708 -0.17545380845423181 0 -0.3940409349575783 -0.1717652772836889 0 -0.39488754681355742 -0.18621882617324251 0 -0.38341209647052171 -0.18501054296255889 0 -0.38546172165903708 -0.17545380845423181 0 -0.37275449283316142 -0.19601365735016421 0 -0.38341209647052171 -0.18501054296255889 0 -0.37660310750009979 -0.17064686935447951 0 -0.38546172165903708 -0.17545380845423181 0 -0.3855508649325477 -0.16924449579513989 0 -0.3940409349575783 -0.1717652772836889 0 -0.38341209647052171 -0.18501054296255889 0 -0.38546172165903708 -0.17545380845423181 0 -0.37660310750009979 -0.17064686935447951 0 -0.37660310750009979 -0.17064686935447951 0 -0.3804517221670381 -0.14528008135879469 0 -0.37660310750009979 -0.17064686935447951 0 -0.38609769561347568 -0.1591120280881595 0 -0.3804517221670381 -0.14528008135879469 0 -0.37660310750009979 -0.17064686935447951 0 -0.3804517221670381 -0.14528008135879469 0 -0.37528303175864752 -0.15417168835971809 0 -0.38546172165903708 -0.17545380845423181 0 -0.37660310750009979 -0.17064686935447951 0 -0.3855508649325477 -0.16924449579513989 0 -0.37660310750009979 -0.17064686935447951 0 -0.3855508649325477 -0.16924449579513989 0 -0.38609769561347568 -0.1591120280881595 0 -0.3855508649325477 -0.16924449579513989 0 -0.38609769561347568 -0.1591120280881595 0 -0.3940409349575783 -0.1717652772836889 0 -0.41576695877641717 -0.1694333077283921 0 -0.3940409349575783 -0.1717652772836889 0 -0.40297892321928491 -0.1525204641812174 0 -0.38609769561347568 -0.1591120280881595 0 -0.3940409349575783 -0.1717652772836889 0 -0.40297892321928491 -0.1525204641812174 0 -0.38609769561347568 -0.1591120280881595 0 -0.40297892321928491 -0.1525204641812174 0 -0.39114141026564608 -0.148358039958915 0 -0.40297892321928491 -0.1525204641812174 0 -0.39114141026564608 -0.148358039958915 0 -0.39784283890000349 -0.13595904426838479 0 -0.40297892321928491 -0.1525204641812174 0 -0.39784283890000349 -0.13595904426838479 0 -0.41702134744857761 -0.1336863998604666 0 -0.39114141026564608 -0.148358039958915 0 -0.3880677227368729 -0.1390452874093748 0 -0.39784283890000349 -0.13595904426838479 0 -0.37528303175864752 -0.15417168835971809 0 -0.3811389359611102 -0.1339080842108869 0 -0.37286342940633432 -0.14233207782336299 0 -0.37528303175864752 -0.15417168835971809 0 -0.3811389359611102 -0.1339080842108869 0 -0.38609769561347568 -0.1591120280881595 0 -0.39114141026564608 -0.148358039958915 0 -0.3804517221670381 -0.14528008135879469 0 -0.3804517221670381 -0.14528008135879469 0 -0.37528303175864752 -0.15417168835971809 0 -0.3811389359611102 -0.1339080842108869 0 -0.39114141026564608 -0.148358039958915 0 -0.3804517221670381 -0.14528008135879469 0 -0.3880677227368729 -0.1390452874093748 0 -0.36971254327551278 -0.13490805922041299 0 -0.37767647089691508 -0.12560686433188781 0 -0.3811389359611102 -0.1339080842108869 0 -0.37767647089691508 -0.12560686433188781 0 -0.3811389359611102 -0.1339080842108869 0 -0.38887582534854231 -0.1269238425870523 0 -0.3804517221670381 -0.14528008135879469 0 -0.3811389359611102 -0.1339080842108869 0 -0.3880677227368729 -0.1390452874093748 0 -0.3811389359611102 -0.1339080842108869 0 -0.3880677227368729 -0.1390452874093748 0 -0.38887582534854231 -0.1269238425870523 0 -0.39784283890000349 -0.13595904426838479 0 -0.41702134744857761 -0.1336863998604666 0 -0.39779079774876552 -0.1177794332435953 0 -0.38887582534854231 -0.1269238425870523 0 -0.39784283890000349 -0.13595904426838479 0 -0.39779079774876552 -0.1177794332435953 0 -0.3880677227368729 -0.1390452874093748 0 -0.38887582534854231 -0.1269238425870523 0 -0.39784283890000349 -0.13595904426838479 0 -0.41702134744857761 -0.1336863998604666 0 -0.39779079774876552 -0.1177794332435953 0 -0.40297892321928491 -0.1525204641812174 0 -0.41702134744857761 -0.1336863998604666 0 -0.41933200961560352 -0.15149063391955081 0 -0.41933200961560352 -0.15149063391955081 0 -0.43625189714838958 -0.14959336647733781 0 -0.4385675898266988 -0.1671420692397203 0 -0.41702134744857761 -0.1336863998604666 0 -0.41933200961560352 -0.15149063391955081 0 -0.43625189714838958 -0.14959336647733781 0 -0.41702134744857761 -0.1336863998604666 0 -0.43625189714838958 -0.14959336647733781 0 -0.41702134744857761 -0.1336863998604666 0 -0.43625189714838958 -0.14959336647733781 0 -0.44537481251130262 -0.13183034740928889 0 -0.41702134744857761 -0.1336863998604666 0 -0.44537481251130262 -0.13183034740928889 0 -0.42592089754740192 -0.1131702518453674 0 -0.43625189714838958 -0.14959336647733781 0 -0.45380470418354402 -0.14737174535523939 0 -0.45548244684820183 -0.16550033309420911 0 -0.43625189714838958 -0.14959336647733781 0 -0.44537481251130262 -0.13183034740928889 0 -0.45380470418354402 -0.14737174535523939 0 -0.45380470418354402 -0.14737174535523939 0 -0.46608313851972089 -0.15293466360813771 0 -0.45548244684820183 -0.16550033309420911 0 -0.45380470418354402 -0.14737174535523939 0 -0.46608313851972089 -0.15293466360813771 0 -0.46583122589010512 -0.13700001618722329 0 -0.44537481251130262 -0.13183034740928889 0 -0.45380470418354402 -0.14737174535523939 0 -0.46583122589010512 -0.13700001618722329 0 -0.44537481251130262 -0.13183034740928889 0 -0.46583122589010512 -0.13700001618722329 0 -0.46510782663091121 -0.1170467170076538 0 -0.46583122589010512 -0.13700001618722329 0 -0.48013977989342221 -0.12846100146184941 0 -0.46510782663091121 -0.1170467170076538 0 -0.46583122589010512 -0.13700001618722329 0 -0.48013977989342221 -0.12846100146184941 0 -0.48411017125018779 -0.14441252822313749 0 -0.48013977989342221 -0.12846100146184941 0 -0.4999999999999965 -0.12957771797013209 0 -0.48411017125018779 -0.14441252822313749 0 -0.48411017125018779 -0.14441252822313749 0 -0.47709747071990899 -0.16513938399541739 0 -0.50000000000000444 -0.1564588572443478 0 -0.4999999999999965 -0.12957771797013209 0 -0.48411017125018779 -0.14441252822313749 0 -0.50000000000000444 -0.1564588572443478 0 -0.46608313851972089 -0.15293466360813771 0 -0.46583122589010512 -0.13700001618722329 0 -0.48411017125018779 -0.14441252822313749 0 -0.46608313851972089 -0.15293466360813771 0 -0.48411017125018779 -0.14441252822313749 0 -0.47709747071990899 -0.16513938399541739 0 -0.47709747071990899 -0.16513938399541739 0 -0.50000000000000444 -0.1564588572443478 0 -0.5 -0.18588441688845089 0 -0.47709747071990899 -0.16513938399541739 0 -0.50000000000000444 -0.1564588572443478 0 -0.47709747071990899 -0.16513938399541739 0 -0.5 -0.18588441688845089 0 -0.47307849352928688 -0.18973839783579341 0 -0.45419494143981298 -0.17381991074648551 0 -0.45738558803635487 -0.19437844194596329 0 -0.47307849352928688 -0.18973839783579341 0 -0.47709747071990899 -0.16513938399541739 0 -0.45419494143981298 -0.17381991074648551 0 -0.47307849352928688 -0.18973839783579341 0 -0.46608313851972089 -0.15293466360813771 0 -0.47709747071990899 -0.16513938399541739 0 -0.45548244684820183 -0.16550033309420911 0 -0.47709747071990899 -0.16513938399541739 0 -0.45419494143981298 -0.17381991074648551 0 -0.47709747071990899 -0.16513938399541739 0 -0.45419494143981298 -0.17381991074648551 0 -0.45548244684820183 -0.16550033309420911 0 -0.43625189714838958 -0.14959336647733781 0 -0.45548244684820183 -0.16550033309420911 0 -0.4385675898266988 -0.1671420692397203 0 -0.43625189714838958 -0.14959336647733781 0 -0.45548244684820183 -0.16550033309420911 0 -0.45419494143981298 -0.17381991074648551 0 -0.45548244684820183 -0.16550033309420911 0 -0.4385675898266988 -0.1671420692397203 0 -0.43129241215971692 -0.18250043749755371 0 -0.45419494143981298 -0.17381991074648551 0 -0.4385675898266988 -0.1671420692397203 0 -0.43129241215971692 -0.18250043749755371 0 -0.45419494143981298 -0.17381991074648551 0 -0.44226064766265649 -0.19296969241482731 0 -0.45419494143981298 -0.17381991074648551 0 -0.44226064766265649 -0.19296969241482731 0 -0.45738558803635487 -0.19437844194596329 0 -0.43129241215971692 -0.18250043749755371 0 -0.45419494143981298 -0.17381991074648551 0 -0.43249190987755443 -0.2045662113173565 0 -0.44226064766265649 -0.19296969241482731 0 -0.44838312974410632 -0.20684134342446239 0 -0.44226064766265649 -0.19296969241482731 0 -0.44838312974410632 -0.20684134342446239 0 -0.45738558803635487 -0.19437844194596329 0 -0.43249190987755443 -0.2045662113173565 0 -0.44838312974410632 -0.20684134342446239 0 -0.43249190987755443 -0.2045662113173565 0 -0.44838312974410632 -0.20684134342446239 0 -0.44639024606213162 -0.2210916591995665 0 -0.44838312974410632 -0.20684134342446239 0 -0.46375498386411262 -0.20796455669053049 0 -0.44639024606213162 -0.2210916591995665 0 -0.46375498386411262 -0.20796455669053049 0 -0.47338549611760011 -0.2269928119755204 0 -0.44639024606213162 -0.2210916591995665 0 -0.46375498386411262 -0.20796455669053049 0 -0.45738558803635487 -0.19437844194596329 0 -0.47307849352928688 -0.18973839783579341 0 -0.44838312974410632 -0.20684134342446239 0 -0.46375498386411262 -0.20796455669053049 0 -0.45738558803635487 -0.19437844194596329 0 -0.46375498386411262 -0.20796455669053049 0 -0.47307849352928688 -0.18973839783579341 0 -0.48247043486867952 -0.20618584867235659 0 -0.5 -0.18588441688845089 0 -0.5 -0.21530997653255399 0 -0.48247043486867952 -0.20618584867235659 0 -0.5 -0.18588441688845089 0 -0.47307849352928688 -0.18973839783579341 0 -0.48247043486867952 -0.20618584867235659 0 -0.5 -0.21530997653255399 0 -0.48247043486867952 -0.20618584867235659 0 -0.47338549611760011 -0.2269928119755204 0 -0.46375498386411262 -0.20796455669053049 0 -0.48247043486867952 -0.20618584867235659 0 -0.47338549611760011 -0.2269928119755204 0 -0.5 -0.21530997653255399 0 -0.47338549611760011 -0.2269928119755204 0 -0.5 -0.244735536176657 0 -0.47338549611760011 -0.2269928119755204 0 -0.5 -0.244735536176657 0 -0.47321964036710051 -0.24693873317905721 0 -0.47338549611760011 -0.2269928119755204 0 -0.47321964036710051 -0.24693873317905721 0 -0.45789889220194752 -0.23705080645885271 0 -0.45457930907554273 -0.25368028092202127 0 -0.47321964036710051 -0.24693873317905721 0 -0.45789889220194752 -0.23705080645885271 0 -0.47338549611760011 -0.2269928119755204 0 -0.45789889220194752 -0.23705080645885271 0 -0.44639024606213162 -0.2210916591995665 0 -0.45789889220194752 -0.23705080645885271 0 -0.44639024606213162 -0.2210916591995665 0 -0.44191976938736238 -0.23655054701809791 0 -0.42926022969918232 -0.2194208131141745 0 -0.44639024606213162 -0.2210916591995665 0 -0.44191976938736238 -0.23655054701809791 0 -0.45457930907554273 -0.25368028092202127 0 -0.44191976938736238 -0.23655054701809791 0 -0.45457930907554273 -0.25368028092202127 0 -0.45789889220194752 -0.23705080645885271 0 -0.44191976938736238 -0.23655054701809791 0 -0.45457930907554273 -0.25368028092202127 0 -0.43236998789552678 -0.25452055740584512 0 -0.44191976938736238 -0.23655054701809791 0 -0.41831433674664931 -0.045200868151759971 0 -0.4066637312385204 -0.031096727058444171 0 -0.40304242046000149 -0.050132067877630582 0 -0.41831433674664931 -0.045200868151759971 0 -0.4243465974004062 -0.029807197055309289 0 -0.4066637312385204 -0.031096727058444171 0 -0.41831433674664931 -0.045200868151759971 0 -0.40304242046000149 -0.050132067877630582 0 -0.41589998062971578 -0.063916804117016668 0 -0.43155300244120409 -0.058234925655538103 0 -0.41589998062971578 -0.063916804117016668 0 -0.43007941505283842 -0.064046422822571156 0 -0.41831433674664931 -0.045200868151759971 0 -0.43585880276550748 -0.046061118748089533 0 -0.41589998062971578 -0.063916804117016668 0 -0.43155300244120409 -0.058234925655538103 0 -0.43585880276550748 -0.046061118748089533 0 -0.41589998062971578 -0.063916804117016668 0 -0.43585880276550748 -0.046061118748089533 0 -0.41589998062971578 -0.063916804117016668 0 -0.43155300244120409 -0.058234925655538103 0 -0.43703503179028452 -0.061186358969362323 0 -0.440266202412958 -0.055602141113773082 0 -0.43155300244120409 -0.058234925655538103 0 -0.43703503179028452 -0.061186358969362323 0 -0.43007941505283842 -0.064046422822571156 0 -0.43155300244120409 -0.058234925655538103 0 -0.43585880276550748 -0.046061118748089533 0 -0.440266202412958 -0.055602141113773082 0 -0.41831433674664931 -0.045200868151759971 0 -0.43585880276550748 -0.046061118748089533 0 -0.4243465974004062 -0.029807197055309289 0 -0.43585880276550748 -0.046061118748089533 0 -0.4243465974004062 -0.029807197055309289 0 -0.44456442111792882 -0.031181412104460311 0 -0.4243465974004062 -0.029807197055309289 0 -0.4308195675394802 -0.01261721723285365 0 -0.44456442111792882 -0.031181412104460311 0 -0.4243465974004062 -0.029807197055309289 0 -0.4308195675394802 -0.01261721723285365 0 -0.41082583077206508 -0.01351963411800217 0 -0.4308195675394802 -0.01261721723285365 0 -0.43416117075494842 0.0076872550631074546 0 -0.41300660837542441 0.0043770734228139561 0 -0.4308195675394802 -0.01261721723285365 0 -0.41082583077206508 -0.01351963411800217 0 -0.41300660837542441 0.0043770734228139561 0 -0.4243465974004062 -0.029807197055309289 0 -0.41082583077206508 -0.01351963411800217 0 -0.4066637312385204 -0.031096727058444171 0 -0.41082583077206508 -0.01351963411800217 0 -0.4066637312385204 -0.031096727058444171 0 -0.39303328819624789 -0.010300663187779681 0 -0.4066637312385204 -0.031096727058444171 0 -0.39303328819624789 -0.010300663187779681 0 -0.38768267790402122 -0.038155544533734799 0 -0.41082583077206508 -0.01351963411800217 0 -0.39303328819624789 -0.010300663187779681 0 -0.41300660837542441 0.0043770734228139561 0 -0.37180473327973929 -0.030574317145678969 0 -0.39303328819624789 -0.010300663187779681 0 -0.37671714276837348 -0.0020527700837410161 0 -0.37180473327973929 -0.030574317145678969 0 -0.39303328819624789 -0.010300663187779681 0 -0.38768267790402122 -0.038155544533734799 0 -0.4066637312385204 -0.031096727058444171 0 -0.38768267790402122 -0.038155544533734799 0 -0.40304242046000149 -0.050132067877630582 0 -0.40304242046000149 -0.050132067877630582 0 -0.3983112604852489 -0.065835037541574465 0 -0.41589998062971578 -0.063916804117016668 0 -0.40304242046000149 -0.050132067877630582 0 -0.39074349435375111 -0.057594837891610198 0 -0.3983112604852489 -0.065835037541574465 0 -0.38768267790402122 -0.038155544533734799 0 -0.40304242046000149 -0.050132067877630582 0 -0.39074349435375111 -0.057594837891610198 0 -0.38768267790402122 -0.038155544533734799 0 -0.39074349435375111 -0.057594837891610198 0 -0.37557305412645259 -0.058789206703612477 0 -0.39074349435375111 -0.057594837891610198 0 -0.37557305412645259 -0.058789206703612477 0 -0.38283367116001998 -0.072051919072457823 0 -0.39594115849392397 -0.081772489485943789 0 -0.379750664130933 -0.096256930067962557 0 -0.38758151629228521 -0.1002069097239634 0 -0.39594115849392397 -0.081772489485943789 0 -0.379750664130933 -0.096256930067962557 0 -0.37065313006040251 -0.081540442075944658 0 -0.38283367116001998 -0.072051919072457823 0 -0.38111900576340269 -0.08679892460373731 0 -0.38111900576340269 -0.08679892460373731 0 -0.39594115849392397 -0.081772489485943789 0 -0.379750664130933 -0.096256930067962557 0 -0.36629685303288162 -0.091825359721530816 0 -0.38111900576340269 -0.08679892460373731 0 -0.379750664130933 -0.096256930067962557 0 -0.38283367116001998 -0.072051919072457823 0 -0.38111900576340269 -0.08679892460373731 0 -0.39594115849392397 -0.081772489485943789 0 -0.38111900576340269 -0.08679892460373731 0 -0.39594115849392397 -0.081772489485943789 0 -0.39594115849392397 -0.081772489485943789 0 -0.39462137115851043 -0.099593867111307965 0 -0.41573879624777771 -0.093259472491883572 0 -0.39594115849392397 -0.081772489485943789 0 -0.3983112604852489 -0.065835037541574465 0 -0.41589998062971578 -0.063916804117016668 0 -0.38283367116001998 -0.072051919072457823 0 -0.39594115849392397 -0.081772489485943789 0 -0.3983112604852489 -0.065835037541574465 0 -0.39594115849392397 -0.081772489485943789 0 -0.41589998062971578 -0.063916804117016668 0 -0.39074349435375111 -0.057594837891610198 0 -0.38283367116001998 -0.072051919072457823 0 -0.3983112604852489 -0.065835037541574465 0 -0.37856024804895327 -0.1018724666267241 0 -0.39779079774876552 -0.1177794332435953 0 -0.38221049531737222 -0.1172972218527632 0 -0.37856024804895327 -0.1018724666267241 0 -0.39779079774876552 -0.1177794332435953 0 -0.37767647089691508 -0.12560686433188781 0 -0.38887582534854231 -0.1269238425870523 0 -0.38221049531737222 -0.1172972218527632 0 -0.38887582534854231 -0.1269238425870523 0 -0.38221049531737222 -0.1172972218527632 0 -0.39779079774876552 -0.1177794332435953 0 -0.37390116709331889 -0.1127885289638334 0 -0.37767647089691508 -0.12560686433188781 0 -0.38221049531737222 -0.1172972218527632 0 -0.37390116709331889 -0.1127885289638334 0 -0.38221049531737222 -0.1172972218527632 0 -0.37856024804895327 -0.1018724666267241 0 -0.37856024804895327 -0.1018724666267241 0 -0.38758151629228521 -0.1002069097239634 0 -0.39779079774876552 -0.1177794332435953 0 -0.37856024804895327 -0.1018724666267241 0 -0.379750664130933 -0.096256930067962557 0 -0.38758151629228521 -0.1002069097239634 0 -0.38758151629228521 -0.1002069097239634 0 -0.39462137115851043 -0.099593867111307965 0 -0.39779079774876552 -0.1177794332435953 0 -0.39462137115851043 -0.099593867111307965 0 -0.41573879624777771 -0.093259472491883572 0 -0.39594115849392397 -0.081772489485943789 0 -0.38758151629228521 -0.1002069097239634 0 -0.39462137115851043 -0.099593867111307965 0 -0.39462137115851043 -0.099593867111307965 0 -0.39779079774876552 -0.1177794332435953 0 -0.41021864203020658 -0.1114978849105242 0 -0.41702134744857761 -0.1336863998604666 0 -0.41021864203020658 -0.1114978849105242 0 -0.42592089754740192 -0.1131702518453674 0 -0.41702134744857761 -0.1336863998604666 0 -0.39779079774876552 -0.1177794332435953 0 -0.41021864203020658 -0.1114978849105242 0 -0.39462137115851043 -0.099593867111307965 0 -0.41021864203020658 -0.1114978849105242 0 -0.41573879624777771 -0.093259472491883572 0 -0.41021864203020658 -0.1114978849105242 0 -0.42592089754740192 -0.1131702518453674 0 -0.41573879624777771 -0.093259472491883572 0 -0.43682424355885591 -0.1022587969499032 0 -0.42592089754740192 -0.1131702518453674 0 -0.41573879624777771 -0.093259472491883572 0 -0.43682424355885591 -0.1022587969499032 0 -0.41573879624777771 -0.093259472491883572 0 -0.43685622133704488 -0.086925077872459178 0 -0.43682424355885591 -0.1022587969499032 0 -0.42592089754740192 -0.1131702518453674 0 -0.44828180765576908 -0.1134927738825304 0 -0.39594115849392397 -0.081772489485943789 0 -0.42036012033724512 -0.07349161898212099 0 -0.41589998062971578 -0.063916804117016668 0 -0.39594115849392397 -0.081772489485943789 0 -0.42036012033724512 -0.07349161898212099 0 -0.39594115849392397 -0.081772489485943789 0 -0.42036012033724512 -0.07349161898212099 0 -0.41573879624777771 -0.093259472491883572 0 -0.42036012033724512 -0.07349161898212099 0 -0.43685622133704488 -0.086925077872459178 0 -0.43999226757029231 -0.076554532146478727 0 -0.41573879624777771 -0.093259472491883572 0 -0.43685622133704488 -0.086925077872459178 0 -0.42036012033724512 -0.07349161898212099 0 -0.41573879624777771 -0.093259472491883572 0 -0.43685622133704488 -0.086925077872459178 0 -0.42036012033724512 -0.07349161898212099 0 -0.44477908218056689 -0.065210748478299996 0 -0.42036012033724512 -0.07349161898212099 0 -0.43007941505283842 -0.064046422822571156 0 -0.44477908218056689 -0.065210748478299996 0 -0.42036012033724512 -0.07349161898212099 0 -0.43999226757029231 -0.076554532146478727 0 -0.44477908218056689 -0.065210748478299996 0 -0.42036012033724512 -0.07349161898212099 0 -0.41589998062971578 -0.063916804117016668 0 -0.43007941505283842 -0.064046422822571156 0 -0.43703503179028452 -0.061186358969362323 0 -0.43007941505283842 -0.064046422822571156 0 -0.44477908218056689 -0.065210748478299996 0 -0.43703503179028452 -0.061186358969362323 0 -0.44477908218056689 -0.065210748478299996 0 -0.4417105090355069 -0.0616339380627733 0 -0.43999226757029231 -0.076554532146478727 0 -0.44477908218056689 -0.065210748478299996 0 -0.45797364642631228 -0.080590683253035506 0 -0.44477908218056689 -0.065210748478299996 0 -0.44973581302506238 -0.063529839743973651 0 -0.45797364642631228 -0.080590683253035506 0 -0.44477908218056689 -0.065210748478299996 0 -0.4417105090355069 -0.0616339380627733 0 -0.44581648523913192 -0.061844999286535057 0 -0.44477908218056689 -0.065210748478299996 0 -0.4417105090355069 -0.0616339380627733 0 -0.44477908218056689 -0.065210748478299996 0 -0.44973581302506238 -0.063529839743973651 0 -0.44477908218056689 -0.065210748478299996 0 -0.44973581302506238 -0.063529839743973651 0 -0.44581648523913192 -0.061844999286535057 0 -0.44477908218056689 -0.065210748478299996 0 -0.45797364642631228 -0.080590683253035506 0 -0.43685622133704488 -0.086925077872459178 0 -0.45797364642631228 -0.080590683253035506 0 -0.43685622133704488 -0.086925077872459178 0 -0.45797364642631228 -0.080590683253035506 0 -0.45123206726797122 -0.096483331562215904 0 -0.43685622133704488 -0.086925077872459178 0 -0.43999226757029231 -0.076554532146478727 0 -0.45797364642631228 -0.080590683253035506 0 -0.45797364642631228 -0.080590683253035506 0 -0.45123206726797122 -0.096483331562215904 0 -0.47198243095087211 -0.096919694825402414 0 -0.45797364642631228 -0.080590683253035506 0 -0.47198243095087211 -0.096919694825402414 0 -0.45797364642631228 -0.080590683253035506 0 -0.46301740709997169 -0.066475279566762913 0 -0.47898682321315578 -0.074287559012606169 0 -0.45797364642631228 -0.080590683253035506 0 -0.47898682321315578 -0.074287559012606169 0 -0.44973581302506238 -0.063529839743973651 0 -0.45797364642631228 -0.080590683253035506 0 -0.46301740709997169 -0.066475279566762913 0 -0.44537481251130262 -0.13183034740928889 0 -0.44828180765576908 -0.1134927738825304 0 -0.46510782663091121 -0.1170467170076538 0 -0.44537481251130262 -0.13183034740928889 0 -0.42592089754740192 -0.1131702518453674 0 -0.44828180765576908 -0.1134927738825304 0 -0.43682424355885591 -0.1022587969499032 0 -0.44828180765576908 -0.1134927738825304 0 -0.45123206726797122 -0.096483331562215904 0 -0.43682424355885591 -0.1022587969499032 0 -0.43685622133704488 -0.086925077872459178 0 -0.45123206726797122 -0.096483331562215904 0 -0.44828180765576908 -0.1134927738825304 0 -0.45123206726797122 -0.096483331562215904 0 -0.46510782663091121 -0.1170467170076538 0 -0.45123206726797122 -0.096483331562215904 0 -0.46510782663091121 -0.1170467170076538 0 -0.47198243095087211 -0.096919694825402414 0 -0.48013977989342221 -0.12846100146184941 0 -0.46510782663091121 -0.1170467170076538 0 -0.48599121547543328 -0.1132487063977681 0 -0.46510782663091121 -0.1170467170076538 0 -0.47198243095087211 -0.096919694825402414 0 -0.48599121547543328 -0.1132487063977681 0 -0.47198243095087211 -0.096919694825402414 0 -0.48739209392789218 -0.0964036225956173 0 -0.48599121547543328 -0.1132487063977681 0 -0.47198243095087211 -0.096919694825402414 0 -0.48599121547543328 -0.1132487063977681 0 -0.48739209392789218 -0.0964036225956173 0 -0.5 -0.109046623570814 0 -0.5 -0.088515529171495855 0 -0.48739209392789218 -0.0964036225956173 0 -0.5 -0.109046623570814 0 -0.48599121547543328 -0.1132487063977681 0 -0.4999999999999965 -0.12957771797013209 0 -0.5 -0.109046623570814 0 -0.48599121547543328 -0.1132487063977681 0 -0.4999999999999965 -0.12957771797013209 0 -0.48599121547543328 -0.1132487063977681 0 -0.48013977989342221 -0.12846100146184941 0 -0.4999999999999965 -0.12957771797013209 0 -0.48599121547543328 -0.1132487063977681 0 -0.46301740709997169 -0.066475279566762913 0 -0.47898682321315578 -0.074287559012606169 0 -0.47209129459208909 -0.057597048566794193 0 -0.47898682321315578 -0.074287559012606169 0 -0.48777907260932091 -0.062818349402251519 0 -0.47209129459208909 -0.057597048566794193 0 -0.45797364642631228 -0.080590683253035506 0 -0.47198243095087211 -0.096919694825402414 0 -0.47898682321315578 -0.074287559012606169 0 -0.47198243095087211 -0.096919694825402414 0 -0.48739209392789218 -0.0964036225956173 0 -0.47898682321315578 -0.074287559012606169 0 -0.48739209392789218 -0.0964036225956173 0 -0.47898682321315578 -0.074287559012606169 0 -0.5 -0.088515529171495855 0 -0.47898682321315578 -0.074287559012606169 0 -0.49999999999999939 -0.067984434772177735 0 -0.47898682321315578 -0.074287559012606169 0 -0.48777907260932091 -0.062818349402251519 0 -0.49999999999999939 -0.067984434772177735 0 -0.47898682321315578 -0.074287559012606169 0 -0.5 -0.088515529171495855 0 -0.49999999999999939 -0.067984434772177735 0 -0.48777907260932091 -0.062818349402251519 0 -0.49999999999999939 -0.067984434772177735 0 -0.499999999999999 -0.059154330192841227 0 -0.48777907260932091 -0.062818349402251519 0 -0.499999999999999 -0.059154330192841227 0 -0.48424455042738701 -0.053566308306322363 0 -0.499999999999999 -0.059154330192841227 0 -0.48496662750760711 -0.036864847755532698 0 -0.499999999999999 -0.059154330192841227 0 -0.48496662750760711 -0.036864847755532698 0 -0.48424455042738701 -0.053566308306322363 0 -0.499999999999999 -0.059154330192841227 0 -0.48496662750760711 -0.036864847755532698 0 -0.5 -0.032161352902661637 0 -0.48496662750760711 -0.036864847755532698 0 -0.47212866231005529 -0.043262010686486337 0 -0.48424455042738701 -0.053566308306322363 0 -0.48496662750760711 -0.036864847755532698 0 -0.47212866231005529 -0.043262010686486337 0 -0.46349551683905971 -0.029946296572678621 0 -0.48777907260932091 -0.062818349402251519 0 -0.48424455042738701 -0.053566308306322363 0 -0.47209129459208909 -0.057597048566794193 0 -0.47212866231005529 -0.043262010686486337 0 -0.48424455042738701 -0.053566308306322363 0 -0.47209129459208909 -0.057597048566794193 0 -0.46301740709997169 -0.066475279566762913 0 -0.47209129459208909 -0.057597048566794193 0 -0.45629945824323909 -0.05637126725740578 0 -0.47209129459208909 -0.057597048566794193 0 -0.45629945824323909 -0.05637126725740578 0 -0.45955301930303571 -0.042501246526317989 0 -0.44973581302506238 -0.063529839743973651 0 -0.46301740709997169 -0.066475279566762913 0 -0.45629945824323909 -0.05637126725740578 0 -0.45629945824323909 -0.05637126725740578 0 -0.45955301930303571 -0.042501246526317989 0 -0.44839933172985352 -0.049491034385781937 0 -0.47212866231005529 -0.043262010686486337 0 -0.47209129459208909 -0.057597048566794193 0 -0.45955301930303571 -0.042501246526317989 0 -0.45955301930303571 -0.042501246526317989 0 -0.44456442111792882 -0.031181412104460311 0 -0.46349551683905971 -0.029946296572678621 0 -0.47212866231005529 -0.043262010686486337 0 -0.45955301930303571 -0.042501246526317989 0 -0.46349551683905971 -0.029946296572678621 0 -0.43585880276550748 -0.046061118748089533 0 -0.44839933172985352 -0.049491034385781937 0 -0.44456442111792882 -0.031181412104460311 0 -0.45955301930303571 -0.042501246526317989 0 -0.44839933172985352 -0.049491034385781937 0 -0.44456442111792882 -0.031181412104460311 0 -0.440266202412958 -0.055602141113773082 0 -0.4470405367153914 -0.057005470861093303 0 -0.44839933172985352 -0.049491034385781937 0 -0.43585880276550748 -0.046061118748089533 0 -0.440266202412958 -0.055602141113773082 0 -0.44839933172985352 -0.049491034385781937 0 -0.43703503179028452 -0.061186358969362323 0 -0.440266202412958 -0.055602141113773082 0 -0.4417105090355069 -0.0616339380627733 0 -0.4417105090355069 -0.0616339380627733 0 -0.4470405367153914 -0.057005470861093303 0 -0.44581648523913192 -0.061844999286535057 0 -0.440266202412958 -0.055602141113773082 0 -0.4417105090355069 -0.0616339380627733 0 -0.4470405367153914 -0.057005470861093303 0 -0.44973581302506238 -0.063529839743973651 0 -0.45629945824323909 -0.05637126725740578 0 -0.4470405367153914 -0.057005470861093303 0 -0.44973581302506238 -0.063529839743973651 0 -0.4470405367153914 -0.057005470861093303 0 -0.44581648523913192 -0.061844999286535057 0 -0.45629945824323909 -0.05637126725740578 0 -0.4470405367153914 -0.057005470861093303 0 -0.44839933172985352 -0.049491034385781937 0 -0.4308195675394802 -0.01261721723285365 0 -0.44982711578051521 -0.01129289704505072 0 -0.43416117075494842 0.0076872550631074546 0 -0.44982711578051521 -0.01129289704505072 0 -0.44456442111792882 -0.031181412104460311 0 -0.46349551683905971 -0.029946296572678621 0 -0.4308195675394802 -0.01261721723285365 0 -0.44982711578051521 -0.01129289704505072 0 -0.44456442111792882 -0.031181412104460311 0 -0.44982711578051521 -0.01129289704505072 0 -0.46349551683905971 -0.029946296572678621 0 -0.46993325501521588 -0.014575365318223661 0 -0.46993325501521588 -0.014575365318223661 0 -0.45489988252282471 0.0077141171190853236 0 -0.44982711578051521 -0.01129289704505072 0 -0.46993325501521588 -0.014575365318223661 0 -0.45489988252282471 0.0077141171190853236 0 -0.46993325501521588 -0.014575365318223661 0 -0.48071054924880552 0.0038116768767204319 0 -0.45489988252282471 0.0077141171190853236 0 -0.46993325501521588 -0.014575365318223661 0 -0.48771769358170142 -0.018664864257571859 0 -0.48071054924880552 0.0038116768767204319 0 -0.48496662750760711 -0.036864847755532698 0 -0.46993325501521588 -0.014575365318223661 0 -0.48771769358170142 -0.018664864257571859 0 -0.48496662750760711 -0.036864847755532698 0 -0.46349551683905971 -0.029946296572678621 0 -0.46993325501521588 -0.014575365318223661 0 -0.48496662750760711 -0.036864847755532698 0 -0.46993325501521588 -0.014575365318223661 0 -0.48496662750760711 -0.036864847755532698 0 -0.5 -0.032161352902661637 0 -0.48771769358170142 -0.018664864257571859 0 -0.5 -0.032161352902661637 0 -0.48771769358170142 -0.018664864257571859 0 -0.5 -0.0051683756124820679 0 -0.48771769358170142 -0.018664864257571859 0 -0.5 -0.0051683756124820679 0 -0.48071054924880552 0.0038116768767204319 0 -0.5 -0.0051683756124820679 0 -0.5 0.021824601677697512 0 -0.48071054924880552 0.0038116768767204319 0 -0.5 0.021824601677697512 0 -0.47428959511627061 0.0248704995698984 0 -0.48071054924880552 0.0038116768767204319 0 -0.47428959511627061 0.0248704995698984 0 -0.48071054924880552 0.0038116768767204319 0 -0.45489988252282471 0.0077141171190853236 0 -0.5 0.048817578967877202 0 -0.46695795477329333 0.048937903245009927 0 -0.47739765385682059 0.070308510161642593 0 -0.47428959511627061 0.0248704995698984 0 -0.5 0.048817578967877202 0 -0.46695795477329333 0.048937903245009927 0 -0.5 0.021824601677697512 0 -0.47428959511627061 0.0248704995698984 0 -0.5 0.048817578967877202 0 -0.47428959511627061 0.0248704995698984 0 -0.46695795477329333 0.048937903245009927 0 -0.43986651003043348 0.03000359955639428 0 -0.46695795477329333 0.048937903245009927 0 -0.44640820659784253 0.060800671386501672 0 -0.47739765385682059 0.070308510161642593 0 -0.46695795477329333 0.048937903245009927 0 -0.44640820659784253 0.060800671386501672 0 -0.43986651003043348 0.03000359955639428 0 -0.47428959511627061 0.0248704995698984 0 -0.45489988252282471 0.0077141171190853236 0 -0.43986651003043348 0.03000359955639428 0 -0.45489988252282471 0.0077141171190853236 0 -0.43986651003043348 0.03000359955639428 0 -0.45489988252282471 0.0077141171190853236 0 -0.43986651003043348 0.03000359955639428 0 -0.43416117075494842 0.0076872550631074546 0 -0.44982711578051521 -0.01129289704505072 0 -0.45489988252282471 0.0077141171190853236 0 -0.43416117075494842 0.0076872550631074546 0 -0.43416117075494842 0.0076872550631074546 0 -0.41300660837542441 0.0043770734228139561 0 -0.41654734028101292 0.027938854558255531 0 -0.43986651003043348 0.03000359955639428 0 -0.43416117075494842 0.0076872550631074546 0 -0.41654734028101292 0.027938854558255531 0 -0.43986651003043348 0.03000359955639428 0 -0.4248331375380423 0.052293081993703347 0 -0.43986651003043348 0.03000359955639428 0 -0.41654734028101292 0.027938854558255531 0 -0.4248331375380423 0.052293081993703347 0 -0.44640820659784253 0.060800671386501672 0 -0.43986651003043348 0.03000359955639428 0 -0.4248331375380423 0.052293081993703347 0 -0.4248331375380423 0.052293081993703347 0 -0.39867185611142331 0.049303069258417487 0 -0.40979976504565102 0.074582564431012563 0 -0.41654734028101292 0.027938854558255531 0 -0.4248331375380423 0.052293081993703347 0 -0.39867185611142331 0.049303069258417487 0 -0.41654734028101292 0.027938854558255531 0 -0.39867185611142331 0.049303069258417487 0 -0.3884339313588816 0.021251925581626911 0 -0.39867185611142331 0.049303069258417487 0 -0.38282446198857562 0.070081134291422001 0 -0.37170791414445131 0.047833413394124197 0 -0.3884339313588816 0.021251925581626911 0 -0.36564136457868862 0.029822470763534389 0 -0.37170791414445131 0.047833413394124197 0 -0.39867185611142331 0.049303069258417487 0 -0.3884339313588816 0.021251925581626911 0 -0.37170791414445131 0.047833413394124197 0 -0.39303328819624789 -0.010300663187779681 0 -0.37671714276837348 -0.0020527700837410161 0 -0.3884339313588816 0.021251925581626911 0 -0.39303328819624789 -0.010300663187779681 0 -0.41300660837542441 0.0043770734228139561 0 -0.3884339313588816 0.021251925581626911 0 -0.37671714276837348 -0.0020527700837410161 0 -0.3884339313588816 0.021251925581626911 0 -0.36873298623547179 0.013708748051750491 0 -0.41300660837542441 0.0043770734228139561 0 -0.41654734028101292 0.027938854558255531 0 -0.3884339313588816 0.021251925581626911 0 -0.37779310226675261 0.096159919605369737 0 -0.40686841697469789 0.1001412582320695 0 -0.37779310226675261 0.096159919605369737 0 -0.39432143656891933 0.085241219139968447 0 -0.40686841697469789 0.1001412582320695 0 -0.40321110932650878 0.1221158237183847 0 -0.3850763322618882 0.11563577614832 0 -0.40686841697469789 0.1001412582320695 0 -0.40321110932650878 0.1221158237183847 0 -0.3850763322618882 0.11563577614832 0 -0.38628341669909089 0.133260155351516 0 -0.3850763322618882 0.11563577614832 0 -0.37779310226675261 0.096159919605369737 0 -0.36403770410201652 0.1132248559919246 0 -0.3850763322618882 0.11563577614832 0 -0.37779310226675261 0.096159919605369737 0 -0.40686841697469789 0.1001412582320695 0 -0.37779310226675261 0.096159919605369737 0 -0.38282446198857562 0.070081134291422001 0 -0.39432143656891933 0.085241219139968447 0 -0.39867185611142331 0.049303069258417487 0 -0.38282446198857562 0.070081134291422001 0 -0.40979976504565102 0.074582564431012563 0 -0.38282446198857562 0.070081134291422001 0 -0.39432143656891933 0.085241219139968447 0 -0.40979976504565102 0.074582564431012563 0 -0.39432143656891933 0.085241219139968447 0 -0.40979976504565102 0.074582564431012563 0 -0.40686841697469789 0.1001412582320695 0 -0.40979976504565102 0.074582564431012563 0 -0.43316589968784608 0.083442833654979551 0 -0.40686841697469789 0.1001412582320695 0 -0.4248331375380423 0.052293081993703347 0 -0.40979976504565102 0.074582564431012563 0 -0.44640820659784253 0.060800671386501672 0 -0.4248331375380423 0.052293081993703347 0 -0.43316589968784608 0.083442833654979551 0 -0.4248331375380423 0.052293081993703347 0 -0.40979976504565102 0.074582564431012563 0 -0.43316589968784608 0.083442833654979551 0 -0.43316589968784608 0.083442833654979551 0 -0.43073118362576118 0.1070437305128142 0 -0.40686841697469789 0.1001412582320695 0 -0.43073118362576118 0.1070437305128142 0 -0.40686841697469789 0.1001412582320695 0 -0.41930931648845199 0.1200958996229 0 -0.40321110932650878 0.1221158237183847 0 -0.40686841697469789 0.1001412582320695 0 -0.41930931648845199 0.1200958996229 0 -0.43073118362576118 0.1070437305128142 0 -0.41930931648845199 0.1200958996229 0 -0.43990370819093311 0.12796061345087159 0 -0.45307648504228809 0.10566022144910089 0 -0.43990370819093311 0.12796061345087159 0 -0.46241460868516021 0.1250849013493297 0 -0.43073118362576118 0.1070437305128142 0 -0.45307648504228809 0.10566022144910089 0 -0.43990370819093311 0.12796061345087159 0 -0.43316589968784608 0.083442833654979551 0 -0.43073118362576118 0.1070437305128142 0 -0.45307648504228809 0.10566022144910089 0 -0.45307648504228809 0.10566022144910089 0 -0.45929370725933988 0.083332064143697884 0 -0.47333601574430478 0.10289883349722299 0 -0.45307648504228809 0.10566022144910089 0 -0.47333601574430478 0.10289883349722299 0 -0.46241460868516021 0.1250849013493297 0 -0.44640820659784253 0.060800671386501672 0 -0.43316589968784608 0.083442833654979551 0 -0.45929370725933988 0.083332064143697884 0 -0.43316589968784608 0.083442833654979551 0 -0.45307648504228809 0.10566022144910089 0 -0.45929370725933988 0.083332064143697884 0 -0.44640820659784253 0.060800671386501672 0 -0.45929370725933988 0.083332064143697884 0 -0.47739765385682059 0.070308510161642593 0 -0.45929370725933988 0.083332064143697884 0 -0.48434277266059322 0.087433475811243708 0 -0.47333601574430478 0.10289883349722299 0 -0.45929370725933988 0.083332064143697884 0 -0.47739765385682059 0.070308510161642593 0 -0.48434277266059322 0.087433475811243708 0 -0.48434277266059322 0.087433475811243708 0 -0.5 0.075810556258056994 0 -0.5 0.10280353354823681 0 -0.5 0.048817578967877202 0 -0.47739765385682059 0.070308510161642593 0 -0.5 0.075810556258056994 0 -0.47739765385682059 0.070308510161642593 0 -0.48434277266059322 0.087433475811243708 0 -0.5 0.075810556258056994 0 -0.48079187806419588 0.122105683469096 0 -0.47333601574430478 0.10289883349722299 0 -0.46241460868516021 0.1250849013493297 0 -0.48434277266059322 0.087433475811243708 0 -0.47333601574430478 0.10289883349722299 0 -0.5 0.10280353354823681 0 -0.48079187806419588 0.122105683469096 0 -0.47333601574430478 0.10289883349722299 0 -0.5 0.10280353354823681 0 -0.48079187806419588 0.122105683469096 0 -0.5 0.10280353354823681 0 -0.5 0.12979651083841651 0 -0.5 0.12979651083841651 0 -0.48249426735400758 0.137191833124583 0 -0.48589763202192998 0.15036569192390919 0 -0.48079187806419588 0.122105683469096 0 -0.5 0.12979651083841651 0 -0.48249426735400758 0.137191833124583 0 -0.48079187806419588 0.122105683469096 0 -0.47367698382663792 0.1348592143507045 0 -0.46241460868516021 0.1250849013493297 0 -0.48079187806419588 0.122105683469096 0 -0.48249426735400758 0.137191833124583 0 -0.47367698382663792 0.1348592143507045 0 -0.48249426735400758 0.137191833124583 0 -0.47367698382663792 0.1348592143507045 0 -0.47679527656567627 0.1458305121372809 0 -0.47374565401080909 0.15118008417044629 0 -0.46588888846414972 0.1440831416732328 0 -0.46870839623115551 0.1554162838265363 0 -0.47374565401080909 0.15118008417044629 0 -0.47861440609786859 0.15838120170710451 0 -0.46870839623115551 0.1554162838265363 0 -0.47374565401080909 0.15118008417044629 0 -0.47679527656567627 0.1458305121372809 0 -0.47872130269519542 0.15218928150807701 0 -0.47367698382663792 0.1348592143507045 0 -0.47679527656567627 0.1458305121372809 0 -0.46588888846414972 0.1440831416732328 0 -0.47374565401080909 0.15118008417044629 0 -0.47679527656567627 0.1458305121372809 0 -0.46588888846414972 0.1440831416732328 0 -0.48249426735400758 0.137191833124583 0 -0.47679527656567627 0.1458305121372809 0 -0.48589763202192998 0.15036569192390919 0 -0.47872130269519542 0.15218928150807701 0 -0.48589763202192998 0.15036569192390919 0 -0.47861440609786859 0.15838120170710451 0 -0.47679527656567627 0.1458305121372809 0 -0.47872130269519542 0.15218928150807701 0 -0.48589763202192998 0.15036569192390919 0 -0.47374565401080909 0.15118008417044629 0 -0.47872130269519542 0.15218928150807701 0 -0.47861440609786859 0.15838120170710451 0 -0.48589763202192998 0.15036569192390919 0 -0.49999999999999939 0.1567894881285963 0 -0.47964939522448291 0.16018049705612639 0 -0.5 0.12979651083841651 0 -0.48589763202192998 0.15036569192390919 0 -0.49999999999999939 0.1567894881285963 0 -0.48982469761224162 0.17786993338971319 0 -0.47964939522448291 0.16018049705612639 0 -0.49999999999999939 0.1567894881285963 0 -0.47964939522448291 0.16018049705612639 0 -0.49999999999999939 0.1567894881285963 0 -0.49315603790368567 0.16648195852727221 0 -0.5 0.17617442892594809 0 -0.49315603790368567 0.16648195852727221 0 -0.48982469761224162 0.17786993338971319 0 -0.47964939522448291 0.16018049705612639 0 -0.49999999999999939 0.1567894881285963 0 -0.49315603790368567 0.16648195852727221 0 -0.47964939522448291 0.16018049705612639 0 -0.48982469761224162 0.17786993338971319 0 -0.50000000000000044 0.19555936972329979 0 -0.5 0.17617442892594809 0 -0.48982469761224162 0.17786993338971319 0 -0.50000000000000044 0.19555936972329979 0 -0.49315603790368567 0.16648195852727221 0 -0.5 0.17617442892594809 0 -0.48982469761224162 0.17786993338971319 0 -0.48982469761224162 0.17786993338971319 0 -0.46800517846426187 0.17751165975419 0 -0.47709934282301442 0.1946138115662073 0 -0.47964939522448291 0.16018049705612639 0 -0.45860547099883447 0.1636870333830118 0 -0.46870839623115551 0.1554162838265363 0 -0.48982469761224162 0.17786993338971319 0 -0.47964939522448291 0.16018049705612639 0 -0.46800517846426187 0.17751165975419 0 -0.47964939522448291 0.16018049705612639 0 -0.45860547099883447 0.1636870333830118 0 -0.47964939522448291 0.16018049705612639 0 -0.45860547099883447 0.1636870333830118 0 -0.46800517846426187 0.17751165975419 0 -0.48589763202192998 0.15036569192390919 0 -0.47964939522448291 0.16018049705612639 0 -0.47861440609786859 0.15838120170710451 0 -0.47964939522448291 0.16018049705612639 0 -0.47861440609786859 0.15838120170710451 0 -0.47964939522448291 0.16018049705612639 0 -0.47861440609786859 0.15838120170710451 0 -0.46870839623115551 0.1554162838265363 0 -0.45860547099883447 0.1636870333830118 0 -0.46870839623115551 0.1554162838265363 0 -0.45591432050629072 0.1519861088757293 0 -0.45860547099883447 0.1636870333830118 0 -0.4471456133185181 0.1600818381203509 0 -0.45591432050629072 0.1519861088757293 0 -0.46800517846426187 0.17751165975419 0 -0.44969874257656262 0.1746735809377071 0 -0.45062134881170618 0.1914920342132638 0 -0.45860547099883447 0.1636870333830118 0 -0.46800517846426187 0.17751165975419 0 -0.44969874257656262 0.1746735809377071 0 -0.45062134881170618 0.1914920342132638 0 -0.43333461142714891 0.17036919730891509 0 -0.44969874257656262 0.1746735809377071 0 -0.45062134881170618 0.1914920342132638 0 -0.43333461142714891 0.17036919730891509 0 -0.45860547099883447 0.1636870333830118 0 -0.44969874257656262 0.1746735809377071 0 -0.43756154677318609 0.16719356970989729 0 -0.45860547099883447 0.1636870333830118 0 -0.4471456133185181 0.1600818381203509 0 -0.43756154677318609 0.16719356970989729 0 -0.44969874257656262 0.1746735809377071 0 -0.43756154677318609 0.16719356970989729 0 -0.43333461142714891 0.17036919730891509 0 -0.45860547099883447 0.1636870333830118 0 -0.43756154677318609 0.16719356970989729 0 -0.43756154677318609 0.16719356970989729 0 -0.44028044194054938 0.16084385640995669 0 -0.43574333791661851 0.16134746455864371 0 -0.4471456133185181 0.1600818381203509 0 -0.43756154677318609 0.16719356970989729 0 -0.44028044194054938 0.16084385640995669 0 -0.4471456133185181 0.1600818381203509 0 -0.44028044194054938 0.16084385640995669 0 -0.43623527607928869 0.15524493838256481 0 -0.4471456133185181 0.1600818381203509 0 -0.44479970662629098 0.14671400078783431 0 -0.43623527607928869 0.15524493838256481 0 -0.4471456133185181 0.1600818381203509 0 -0.44479970662629098 0.14671400078783431 0 -0.45591432050629072 0.1519861088757293 0 -0.44479970662629098 0.14671400078783431 0 -0.45361025621536027 0.13747608765077629 0 -0.45591432050629072 0.1519861088757293 0 -0.44479970662629098 0.14671400078783431 0 -0.43286812696273791 0.14290302983302761 0 -0.43623527607928869 0.15524493838256481 0 -0.43990370819093311 0.12796061345087159 0 -0.46241460868516021 0.1250849013493297 0 -0.45361025621536027 0.13747608765077629 0 -0.44479970662629098 0.14671400078783431 0 -0.43990370819093311 0.12796061345087159 0 -0.45361025621536027 0.13747608765077629 0 -0.44479970662629098 0.14671400078783431 0 -0.43990370819093311 0.12796061345087159 0 -0.43286812696273791 0.14290302983302761 0 -0.47367698382663792 0.1348592143507045 0 -0.46241460868516021 0.1250849013493297 0 -0.46588888846414972 0.1440831416732328 0 -0.46241460868516021 0.1250849013493297 0 -0.45361025621536027 0.13747608765077629 0 -0.46588888846414972 0.1440831416732328 0 -0.46588888846414972 0.1440831416732328 0 -0.46870839623115551 0.1554162838265363 0 -0.45591432050629072 0.1519861088757293 0 -0.45361025621536027 0.13747608765077629 0 -0.46588888846414972 0.1440831416732328 0 -0.45591432050629072 0.1519861088757293 0 -0.46950612668954939 0.23685949832257541 0 -0.48519482358082072 0.233737708021961 0 -0.47717593892139021 0.25179324361900268 0 -0.46950612668954939 0.23685949832257541 0 -0.46342219189871742 0.2494556258641823 0 -0.47717593892139021 0.25179324361900268 0 -0.5 0.22473925687050131 0 -0.48519482358082072 0.233737708021961 0 -0.5 0.25391914401770282 0 -0.48519482358082072 0.233737708021961 0 -0.5 0.25391914401770282 0 -0.47717593892139021 0.25179324361900268 0 -0.5 0.22473925687050131 0 -0.48519482358082072 0.233737708021961 0 -0.48604045052001982 0.21225300345991641 0 -0.48519482358082072 0.233737708021961 0 -0.46790808619626351 0.2126148711176124 0 -0.46950612668954939 0.23685949832257541 0 -0.48519482358082072 0.233737708021961 0 -0.46786538881863482 0.2257617843651637 0 -0.48519482358082072 0.233737708021961 0 -0.46790808619626351 0.2126148711176124 0 -0.46786538881863482 0.2257617843651637 0 -0.48519482358082072 0.233737708021961 0 -0.48604045052001982 0.21225300345991641 0 -0.46790808619626351 0.2126148711176124 0 -0.48604045052001982 0.21225300345991641 0 -0.47709934282301442 0.1946138115662073 0 -0.46790808619626351 0.2126148711176124 0 -0.5 0.22473925687050131 0 -0.48604045052001982 0.21225300345991641 0 -0.50000000000000044 0.19555936972329979 0 -0.48604045052001982 0.21225300345991641 0 -0.50000000000000044 0.19555936972329979 0 -0.47709934282301442 0.1946138115662073 0 -0.48982469761224162 0.17786993338971319 0 -0.50000000000000044 0.19555936972329979 0 -0.47709934282301442 0.1946138115662073 0 -0.45062134881170618 0.1914920342132638 0 -0.46790808619626351 0.2126148711176124 0 -0.47709934282301442 0.1946138115662073 0 -0.45062134881170618 0.1914920342132638 0 -0.46790808619626351 0.2126148711176124 0 -0.46800517846426187 0.17751165975419 0 -0.47709934282301442 0.1946138115662073 0 -0.45062134881170618 0.1914920342132638 0 -0.45062134881170618 0.1914920342132638 0 -0.44927600106448262 0.21062476936475871 0 -0.4338543556515716 0.20335183090332151 0 -0.44927600106448262 0.21062476936475871 0 -0.45074070611215622 0.22205085117372281 0 -0.43479981521144268 0.218594308944808 0 -0.44927600106448262 0.21062476936475871 0 -0.43479981521144268 0.218594308944808 0 -0.4338543556515716 0.20335183090332151 0 -0.44927600106448262 0.21062476936475871 0 -0.45855472837510541 0.2197140460448988 0 -0.45074070611215622 0.22205085117372281 0 -0.45062134881170618 0.1914920342132638 0 -0.44927600106448262 0.21062476936475871 0 -0.46790808619626351 0.2126148711176124 0 -0.44927600106448262 0.21062476936475871 0 -0.46790808619626351 0.2126148711176124 0 -0.45855472837510541 0.2197140460448988 0 -0.46790808619626351 0.2126148711176124 0 -0.46786538881863482 0.2257617843651637 0 -0.45855472837510541 0.2197140460448988 0 -0.46786538881863482 0.2257617843651637 0 -0.4569834596839899 0.22751795420323639 0 -0.45855472837510541 0.2197140460448988 0 -0.46950612668954939 0.23685949832257541 0 -0.46786538881863482 0.2257617843651637 0 -0.4569834596839899 0.22751795420323639 0 -0.4569834596839899 0.22751795420323639 0 -0.45855472837510541 0.2197140460448988 0 -0.45074070611215622 0.22205085117372281 0 -0.45074070611215622 0.22205085117372281 0 -0.43065848058327971 0.2350861262233771 0 -0.45074070611215622 0.22205085117372281 0 -0.43065848058327971 0.2350861262233771 0 -0.43479981521144268 0.218594308944808 0 -0.4569834596839899 0.22751795420323639 0 -0.45074070611215622 0.22205085117372281 0 -0.43065848058327971 0.2350861262233771 0 -0.4569834596839899 0.22751795420323639 0 -0.43065848058327971 0.2350861262233771 0 -0.4569834596839899 0.22751795420323639 0 -0.44776935611995222 0.24423706133883999 0 -0.43065848058327971 0.2350861262233771 0 -0.44776935611995222 0.24423706133883999 0 -0.4594202835980522 0.23951753493220851 0 -0.46342219189871742 0.2494556258641823 0 -0.4569834596839899 0.22751795420323639 0 -0.44776935611995222 0.24423706133883999 0 -0.4594202835980522 0.23951753493220851 0 -0.46950612668954939 0.23685949832257541 0 -0.4594202835980522 0.23951753493220851 0 -0.46342219189871742 0.2494556258641823 0 -0.46950612668954939 0.23685949832257541 0 -0.4569834596839899 0.22751795420323639 0 -0.4594202835980522 0.23951753493220851 0 -0.41510607071126848 0.2395572907697516 0 -0.41508104439967403 0.24519736438917361 0 -0.3995536608392572 0.24402845531612569 0 -0.41510607071126848 0.2395572907697516 0 -0.4076374082001854 0.23415359849629749 0 -0.3995536608392572 0.24402845531612569 0 -0.41510607071126848 0.2395572907697516 0 -0.3995536608392572 0.24402845531612569 0 -0.41510607071126848 0.2395572907697516 0 -0.41508104439967403 0.24519736438917361 0 -0.43065848058327971 0.2350861262233771 0 -0.41508104439967403 0.24519736438917361 0 -0.43065848058327971 0.2350861262233771 0 -0.43034752120389669 0.25321385163389648 0 -0.44776935611995222 0.24423706133883999 0 -0.43065848058327971 0.2350861262233771 0 -0.43034752120389669 0.25321385163389648 0 -0.41510607071126848 0.2395572907697516 0 -0.43065848058327971 0.2350861262233771 0 -0.41508104439967403 0.24519736438917361 0 -0.43065848058327971 0.2350861262233771 0 -0.43065848058327971 0.2350861262233771 0 -0.42408470993524588 0.22346219067110529 0 -0.43479981521144268 0.218594308944808 0 -0.41510607071126848 0.2395572907697516 0 -0.43065848058327971 0.2350861262233771 0 -0.42408470993524588 0.22346219067110529 0 -0.41510607071126848 0.2395572907697516 0 -0.42408470993524588 0.22346219067110529 0 -0.41201731446462048 0.22673856953839289 0 -0.42408470993524588 0.22346219067110529 0 -0.41201731446462048 0.22673856953839289 0 -0.41569034194116439 0.21849834726160139 0 -0.41510607071126848 0.2395572907697516 0 -0.41201731446462048 0.22673856953839289 0 -0.4076374082001854 0.23415359849629749 0 -0.41201731446462048 0.22673856953839289 0 -0.4076374082001854 0.23415359849629749 0 -0.40499635850348481 0.22819292957224049 0 -0.41201731446462048 0.22673856953839289 0 -0.4083583979637796 0.22036217043822229 0 -0.40499635850348481 0.22819292957224049 0 -0.41201731446462048 0.22673856953839289 0 -0.4083583979637796 0.22036217043822229 0 -0.41569034194116439 0.21849834726160139 0 -0.4083583979637796 0.22036217043822229 0 -0.40999128523742912 0.21159856811361669 0 -0.41569034194116439 0.21849834726160139 0 -0.40999128523742912 0.21159856811361669 0 -0.41849665246571111 0.20011405782865729 0 -0.4058914666312366 0.19926526750009049 0 -0.40999128523742912 0.21159856811361669 0 -0.42288418829528929 0.21193477270311889 0 -0.41849665246571111 0.20011405782865729 0 -0.40999128523742912 0.21159856811361669 0 -0.41569034194116439 0.21849834726160139 0 -0.42288418829528929 0.21193477270311889 0 -0.42408470993524588 0.22346219067110529 0 -0.41569034194116439 0.21849834726160139 0 -0.42288418829528929 0.21193477270311889 0 -0.42408470993524588 0.22346219067110529 0 -0.42288418829528929 0.21193477270311889 0 -0.43479981521144268 0.218594308944808 0 -0.42288418829528929 0.21193477270311889 0 -0.43479981521144268 0.218594308944808 0 -0.4338543556515716 0.20335183090332151 0 -0.42288418829528929 0.21193477270311889 0 -0.4338543556515716 0.20335183090332151 0 -0.41849665246571111 0.20011405782865729 0 -0.4338543556515716 0.20335183090332151 0 -0.41849665246571111 0.20011405782865729 0 -0.42704812806079823 0.18735104236532199 0 -0.45062134881170618 0.1914920342132638 0 -0.4338543556515716 0.20335183090332151 0 -0.42704812806079823 0.18735104236532199 0 -0.41849665246571111 0.20011405782865729 0 -0.41331324445673651 0.1896170357110836 0 -0.42704812806079823 0.18735104236532199 0 -0.41849665246571111 0.20011405782865729 0 -0.41331324445673651 0.1896170357110836 0 -0.4058914666312366 0.19926526750009049 0 -0.41331324445673651 0.1896170357110836 0 -0.40252379791200582 0.19016352219916319 0 -0.4058914666312366 0.19926526750009049 0 -0.40252379791200582 0.19016352219916319 0 -0.4058914666312366 0.19926526750009049 0 -0.39460274494588948 0.197316724340522 0 -0.4058914666312366 0.19926526750009049 0 -0.39460274494588948 0.197316724340522 0 -0.39684865845690609 0.20908409295947711 0 -0.40252379791200582 0.19016352219916319 0 -0.39460274494588948 0.197316724340522 0 -0.39000065675388218 0.18631082923008399 0 -0.39460274494588948 0.197316724340522 0 -0.37835254707840432 0.2020966381718067 0 -0.39684865845690609 0.20908409295947711 0 -0.39460274494588948 0.197316724340522 0 -0.37835254707840432 0.2020966381718067 0 -0.39000065675388218 0.18631082923008399 0 -0.37835254707840432 0.2020966381718067 0 -0.39000065675388218 0.18631082923008399 0 -0.36391172255344201 0.17994551783924681 0 -0.37835254707840432 0.2020966381718067 0 -0.39684865845690609 0.20908409295947711 0 -0.39279337160336669 0.2242477585043666 0 -0.37835254707840432 0.2020966381718067 0 -0.39279337160336669 0.2242477585043666 0 -0.37835254707840432 0.2020966381718067 0 -0.39279337160336669 0.2242477585043666 0 -0.37412886577032622 0.2174879150622453 0 -0.39684865845690609 0.20908409295947711 0 -0.39966255448535981 0.21948755649480539 0 -0.39279337160336669 0.2242477585043666 0 -0.40999128523742912 0.21159856811361669 0 -0.4058914666312366 0.19926526750009049 0 -0.39684865845690609 0.20908409295947711 0 -0.40999128523742912 0.21159856811361669 0 -0.39684865845690609 0.20908409295947711 0 -0.39966255448535981 0.21948755649480539 0 -0.4083583979637796 0.22036217043822229 0 -0.40999128523742912 0.21159856811361669 0 -0.39966255448535981 0.21948755649480539 0 -0.39966255448535981 0.21948755649480539 0 -0.39279337160336669 0.2242477585043666 0 -0.3995536608392572 0.24402845531612569 0 -0.39966255448535981 0.21948755649480539 0 -0.40499635850348481 0.22819292957224049 0 -0.3995536608392572 0.24402845531612569 0 -0.39966255448535981 0.21948755649480539 0 -0.3995536608392572 0.24402845531612569 0 -0.4083583979637796 0.22036217043822229 0 -0.39966255448535981 0.21948755649480539 0 -0.40499635850348481 0.22819292957224049 0 -0.39279337160336669 0.2242477585043666 0 -0.3788154840395862 0.22847879429843729 0 -0.37412886577032622 0.2174879150622453 0 -0.39279337160336669 0.2242477585043666 0 -0.3788154840395862 0.22847879429843729 0 -0.38640486229655557 0.23646681778785569 0 -0.38640486229655557 0.23646681778785569 0 -0.38332481097124571 0.24869408969404011 0 -0.3995536608392572 0.24402845531612569 0 -0.38640486229655557 0.23646681778785569 0 -0.38332481097124571 0.24869408969404011 0 -0.37390551990050858 0.23968673785471609 0 -0.3788154840395862 0.22847879429843729 0 -0.38640486229655557 0.23646681778785569 0 -0.37390551990050858 0.23968673785471609 0 -0.38332481097124571 0.24869408969404011 0 -0.37390551990050858 0.23968673785471609 0 -0.3683119580287349 0.25512360104486692 0 -0.39279337160336669 0.2242477585043666 0 -0.38640486229655557 0.23646681778785569 0 -0.3995536608392572 0.24402845531612569 0 -0.38332481097124571 0.24869408969404011 0 -0.3995536608392572 0.24402845531612569 0 -0.39950360821606928 0.25530860255497162 0 -0.38332481097124571 0.24869408969404011 0 -0.3995536608392572 0.24402845531612569 0 -0.4076374082001854 0.23415359849629749 0 -0.40499635850348481 0.22819292957224049 0 -0.3995536608392572 0.24402845531612569 0 -0.41508104439967403 0.24519736438917361 0 -0.3995536608392572 0.24402845531612569 0 -0.39950360821606928 0.25530860255497162 0 -0.3995536608392572 0.24402845531612569 0 -0.39950360821606928 0.25530860255497162 0 -0.41285000163361452 0.14543690097292969 0 -0.42275491215196093 0.13601550944188401 0 -0.42440245543588923 0.15312052312862759 0 -0.41285000163361452 0.14543690097292969 0 -0.42440245543588923 0.15312052312862759 0 -0.41373410453973292 0.15887931586916351 0 -0.41285000163361452 0.14543690097292969 0 -0.41373410453973292 0.15887931586916351 0 -0.40174064007766752 0.15370289054601391 0 -0.40321110932650878 0.1221158237183847 0 -0.41930931648845199 0.1200958996229 0 -0.41095422902315998 0.1336513235695054 0 -0.41285000163361452 0.14543690097292969 0 -0.41095422902315998 0.1336513235695054 0 -0.40008303463905343 0.1400154312076918 0 -0.41930931648845199 0.1200958996229 0 -0.41095422902315998 0.1336513235695054 0 -0.42275491215196093 0.13601550944188401 0 -0.41285000163361452 0.14543690097292969 0 -0.41095422902315998 0.1336513235695054 0 -0.42275491215196093 0.13601550944188401 0 -0.43990370819093311 0.12796061345087159 0 -0.42275491215196093 0.13601550944188401 0 -0.43286812696273791 0.14290302983302761 0 -0.41930931648845199 0.1200958996229 0 -0.43990370819093311 0.12796061345087159 0 -0.42275491215196093 0.13601550944188401 0 -0.42275491215196093 0.13601550944188401 0 -0.43286812696273791 0.14290302983302761 0 -0.42440245543588923 0.15312052312862759 0 -0.43286812696273791 0.14290302983302761 0 -0.42440245543588923 0.15312052312862759 0 -0.43623527607928869 0.15524493838256481 0 -0.44028044194054938 0.16084385640995669 0 -0.43623527607928869 0.15524493838256481 0 -0.43574333791661851 0.16134746455864371 0 -0.43756154677318609 0.16719356970989729 0 -0.42889608687344988 0.16210749373215599 0 -0.41651762254753782 0.17070010603678279 0 -0.43756154677318609 0.16719356970989729 0 -0.43574333791661851 0.16134746455864371 0 -0.42889608687344988 0.16210749373215599 0 -0.43623527607928869 0.15524493838256481 0 -0.43574333791661851 0.16134746455864371 0 -0.42889608687344988 0.16210749373215599 0 -0.43756154677318609 0.16719356970989729 0 -0.41651762254753782 0.17070010603678279 0 -0.43756154677318609 0.16719356970989729 0 -0.43333461142714891 0.17036919730891509 0 -0.41651762254753782 0.17070010603678279 0 -0.42440245543588923 0.15312052312862759 0 -0.43623527607928869 0.15524493838256481 0 -0.42889608687344988 0.16210749373215599 0 -0.42889608687344988 0.16210749373215599 0 -0.42088756734915239 0.16120185969168249 0 -0.41651762254753782 0.17070010603678279 0 -0.42440245543588923 0.15312052312862759 0 -0.42889608687344988 0.16210749373215599 0 -0.42088756734915239 0.16120185969168249 0 -0.43333461142714891 0.17036919730891509 0 -0.42354993093388699 0.17747489809953629 0 -0.42704812806079823 0.18735104236532199 0 -0.43333461142714891 0.17036919730891509 0 -0.42354993093388699 0.17747489809953629 0 -0.41651762254753782 0.17070010603678279 0 -0.45062134881170618 0.1914920342132638 0 -0.43333461142714891 0.17036919730891509 0 -0.42704812806079823 0.18735104236532199 0 -0.42354993093388699 0.17747489809953629 0 -0.42704812806079823 0.18735104236532199 0 -0.41729936170006332 0.1814792466871254 0 -0.41331324445673651 0.1896170357110836 0 -0.42704812806079823 0.18735104236532199 0 -0.41729936170006332 0.1814792466871254 0 -0.41729936170006332 0.1814792466871254 0 -0.408810876772284 0.1783077542140355 0 -0.41651762254753782 0.17070010603678279 0 -0.42354993093388699 0.17747489809953629 0 -0.41729936170006332 0.1814792466871254 0 -0.41651762254753782 0.17070010603678279 0 -0.41331324445673651 0.1896170357110836 0 -0.41729936170006332 0.1814792466871254 0 -0.408810876772284 0.1783077542140355 0 -0.41331324445673651 0.1896170357110836 0 -0.40252379791200582 0.19016352219916319 0 -0.408810876772284 0.1783077542140355 0 -0.42088756734915239 0.16120185969168249 0 -0.41651762254753782 0.17070010603678279 0 -0.41373410453973292 0.15887931586916351 0 -0.42440245543588923 0.15312052312862759 0 -0.42088756734915239 0.16120185969168249 0 -0.41373410453973292 0.15887931586916351 0 -0.41651762254753782 0.17070010603678279 0 -0.41373410453973292 0.15887931586916351 0 -0.40435980283942108 0.16609130917364251 0 -0.408810876772284 0.1783077542140355 0 -0.41651762254753782 0.17070010603678279 0 -0.40435980283942108 0.16609130917364251 0 -0.41373410453973292 0.15887931586916351 0 -0.40435980283942108 0.16609130917364251 0 -0.40174064007766752 0.15370289054601391 0 -0.40435980283942108 0.16609130917364251 0 -0.39389969943251513 0.16001360462406269 0 -0.40174064007766752 0.15370289054601391 0 -0.408810876772284 0.1783077542140355 0 -0.40435980283942108 0.16609130917364251 0 -0.38332345433790349 0.16928827837290539 0 -0.40435980283942108 0.16609130917364251 0 -0.39389969943251513 0.16001360462406269 0 -0.38332345433790349 0.16928827837290539 0 -0.408810876772284 0.1783077542140355 0 -0.39000065675388218 0.18631082923008399 0 -0.38332345433790349 0.16928827837290539 0 -0.408810876772284 0.1783077542140355 0 -0.38332345433790349 0.16928827837290539 0 -0.40252379791200582 0.19016352219916319 0 -0.408810876772284 0.1783077542140355 0 -0.39000065675388218 0.18631082923008399 0 -0.39000065675388218 0.18631082923008399 0 -0.38332345433790349 0.16928827837290539 0 -0.36391172255344201 0.17994551783924681 0 -0.39389969943251513 0.16001360462406269 0 -0.38332345433790349 0.16928827837290539 0 -0.38617490047506853 0.1509719404036893 0 -0.38332345433790349 0.16928827837290539 0 -0.38617490047506853 0.1509719404036893 0 -0.37167558705295678 0.15422856428616191 0 -0.38617490047506853 0.1509719404036893 0 -0.37184596122581071 0.1415665508509277 0 -0.37167558705295678 0.15422856428616191 0 -0.38617490047506853 0.1509719404036893 0 -0.38628341669909089 0.133260155351516 0 -0.37184596122581071 0.1415665508509277 0 -0.39389969943251513 0.16001360462406269 0 -0.38617490047506853 0.1509719404036893 0 -0.40174064007766752 0.15370289054601391 0 -0.38617490047506853 0.1509719404036893 0 -0.40008303463905343 0.1400154312076918 0 -0.38628341669909089 0.133260155351516 0 -0.38617490047506853 0.1509719404036893 0 -0.40174064007766752 0.15370289054601391 0 -0.40008303463905343 0.1400154312076918 0 -0.41285000163361452 0.14543690097292969 0 -0.40174064007766752 0.15370289054601391 0 -0.40008303463905343 0.1400154312076918 0 -0.40321110932650878 0.1221158237183847 0 -0.40008303463905343 0.1400154312076918 0 -0.38628341669909089 0.133260155351516 0 -0.40321110932650878 0.1221158237183847 0 -0.41095422902315998 0.1336513235695054 0 -0.40008303463905343 0.1400154312076918 0 -0.3850763322618882 0.11563577614832 0 -0.38628341669909089 0.133260155351516 0 -0.37208893801186299 0.12686511546871371 0 -0.38628341669909089 0.133260155351516 0 -0.37208893801186299 0.12686511546871371 0 -0.37184596122581071 0.1415665508509277 0 -0.37208893801186299 0.12686511546871371 0 -0.35558166206678149 0.13247699391327519 0 -0.37184596122581071 0.1415665508509277 0 -0.35558166206678149 0.13247699391327519 0 -0.33790963352707659 0.13322136111861041 0 -0.34496840244600668 0.1160327498371988 0 -0.35558166206678149 0.13247699391327519 0 -0.34894052529516062 0.14583342747308331 0 -0.33790963352707659 0.13322136111861041 0 -0.35558166206678149 0.13247699391327519 0 -0.34894052529516062 0.14583342747308331 0 -0.36020695782572743 0.14793889138351829 0 -0.34894052529516062 0.14583342747308331 0 -0.36020695782572743 0.14793889138351829 0 -0.35783603190352298 0.16026880253177539 0 -0.34894052529516062 0.14583342747308331 0 -0.35783603190352298 0.16026880253177539 0 -0.3496236936293296 0.15736262451970001 0 -0.35558166206678149 0.13247699391327519 0 -0.36020695782572743 0.14793889138351829 0 -0.37184596122581071 0.1415665508509277 0 -0.36020695782572743 0.14793889138351829 0 -0.37167558705295678 0.15422856428616191 0 -0.35783603190352298 0.16026880253177539 0 -0.36020695782572743 0.14793889138351829 0 -0.37184596122581071 0.1415665508509277 0 -0.37167558705295678 0.15422856428616191 0 -0.38332345433790349 0.16928827837290539 0 -0.35783603190352298 0.16026880253177539 0 -0.38332345433790349 0.16928827837290539 0 -0.37167558705295678 0.15422856428616191 0 -0.35783603190352298 0.16026880253177539 0 -0.38332345433790349 0.16928827837290539 0 -0.36391172255344201 0.17994551783924681 0 -0.35783603190352298 0.16026880253177539 0 -0.36391172255344201 0.17994551783924681 0 -0.34528885741401277 0.17602832974413579 0 -0.34673789951674139 0.1931501901367447 0 -0.36391172255344201 0.17994551783924681 0 -0.3496236936293296 0.15736262451970001 0 -0.36391172255344201 0.17994551783924681 0 -0.34528885741401277 0.17602832974413579 0 -0.3496236936293296 0.15736262451970001 0 -0.36391172255344201 0.17994551783924681 0 -0.35783603190352298 0.16026880253177539 0 -0.3496236936293296 0.15736262451970001 0 -0.35783603190352298 0.16026880253177539 0 -0.3496236936293296 0.15736262451970001 0 -0.34528885741401277 0.17602832974413579 0 -0.3496236936293296 0.15736262451970001 0 -0.33562770438594419 0.16679517156532231 0 -0.3496236936293296 0.15736262451970001 0 -0.33562770438594419 0.16679517156532231 0 -0.33234860946914258 0.15124932669064539 0 -0.33562770438594419 0.16679517156532231 0 -0.32436010685923922 0.1617842322587239 0 -0.33234860946914258 0.15124932669064539 0 -0.33562770438594419 0.16679517156532231 0 -0.33069606258545708 0.1824563716726785 0 -0.32381901023930693 0.17186763938830579 0 -0.34528885741401277 0.17602832974413579 0 -0.33562770438594419 0.16679517156532231 0 -0.33069606258545708 0.1824563716726785 0 -0.34528885741401277 0.17602832974413579 0 -0.33069606258545708 0.1824563716726785 0 -0.34673789951674139 0.1931501901367447 0 -0.33069606258545708 0.1824563716726785 0 -0.31632019349860491 0.1796894910819028 0 -0.3151729417567361 0.19260452676140921 0 -0.33069606258545708 0.1824563716726785 0 -0.31632019349860491 0.1796894910819028 0 -0.32381901023930693 0.17186763938830579 0 -0.31632019349860491 0.1796894910819028 0 -0.32381901023930693 0.17186763938830579 0 -0.31351147959282072 0.1664735019455329 0 -0.32436010685923922 0.1617842322587239 0 -0.31608378838752321 0.15588573183824181 0 -0.33234860946914258 0.15124932669064539 0 -0.33562770438594419 0.16679517156532231 0 -0.32436010685923922 0.1617842322587239 0 -0.32381901023930693 0.17186763938830579 0 -0.32436010685923922 0.1617842322587239 0 -0.32381901023930693 0.17186763938830579 0 -0.31351147959282072 0.1664735019455329 0 -0.32436010685923922 0.1617842322587239 0 -0.31351147959282072 0.1664735019455329 0 -0.31608378838752321 0.15588573183824181 0 -0.32595973895906449 0.13915601531747329 0 -0.33234860946914258 0.15124932669064539 0 -0.30686118703476217 0.14222985084951539 0 -0.31608378838752321 0.15588573183824181 0 -0.33234860946914258 0.15124932669064539 0 -0.30686118703476217 0.14222985084951539 0 -0.33234860946914258 0.15124932669064539 0 -0.30686118703476217 0.14222985084951539 0 -0.32595973895906449 0.13915601531747329 0 -0.32280110590496308 0.1136766288347212 0 -0.32595973895906449 0.13915601531747329 0 -0.31319521497078462 0.12723917229786741 0 -0.30686118703476217 0.14222985084951539 0 -0.32595973895906449 0.13915601531747329 0 -0.31319521497078462 0.12723917229786741 0 -0.32280110590496308 0.1136766288347212 0 -0.32595973895906449 0.13915601531747329 0 -0.33790963352707659 0.13322136111861041 0 -0.32280110590496308 0.1136766288347212 0 -0.34894052529516062 0.14583342747308331 0 -0.33790963352707659 0.13322136111861041 0 -0.33234860946914258 0.15124932669064539 0 -0.34894052529516062 0.14583342747308331 0 -0.3496236936293296 0.15736262451970001 0 -0.33234860946914258 0.15124932669064539 0 -0.3496236936293296 0.15736262451970001 0 -0.33234860946914258 0.15124932669064539 0 -0.32595973895906449 0.13915601531747329 0 -0.33790963352707659 0.13322136111861041 0 -0.33234860946914258 0.15124932669064539 0 -0.34713503643075377 0.24967148756325119 0 -0.36066047318670608 0.24075503847177371 0 -0.3683119580287349 0.25512360104486692 0 -0.34713503643075377 0.24967148756325119 0 -0.36066047318670608 0.24075503847177371 0 -0.34968532661211632 0.22864106082410629 0 -0.37390551990050858 0.23968673785471609 0 -0.36066047318670608 0.24075503847177371 0 -0.3683119580287349 0.25512360104486692 0 -0.37390551990050858 0.23968673785471609 0 -0.36066047318670608 0.24075503847177371 0 -0.3663500061220139 0.22806255445221599 0 -0.3788154840395862 0.22847879429843729 0 -0.37390551990050858 0.23968673785471609 0 -0.3663500061220139 0.22806255445221599 0 -0.3788154840395862 0.22847879429843729 0 -0.3663500061220139 0.22806255445221599 0 -0.37412886577032622 0.2174879150622453 0 -0.3663500061220139 0.22806255445221599 0 -0.34968532661211632 0.22864106082410629 0 -0.35890533587147111 0.2094064987098829 0 -0.36066047318670608 0.24075503847177371 0 -0.3663500061220139 0.22806255445221599 0 -0.34968532661211632 0.22864106082410629 0 -0.34968532661211632 0.22864106082410629 0 -0.35890533587147111 0.2094064987098829 0 -0.33948054782591569 0.21290612946322671 0 -0.35890533587147111 0.2094064987098829 0 -0.34673789951674139 0.1931501901367447 0 -0.33948054782591569 0.21290612946322671 0 -0.3663500061220139 0.22806255445221599 0 -0.35890533587147111 0.2094064987098829 0 -0.37412886577032622 0.2174879150622453 0 -0.37835254707840432 0.2020966381718067 0 -0.35890533587147111 0.2094064987098829 0 -0.37412886577032622 0.2174879150622453 0 -0.37835254707840432 0.2020966381718067 0 -0.36391172255344201 0.17994551783924681 0 -0.37835254707840432 0.2020966381718067 0 -0.36391172255344201 0.17994551783924681 0 -0.35890533587147111 0.2094064987098829 0 -0.36391172255344201 0.17994551783924681 0 -0.35890533587147111 0.2094064987098829 0 -0.34673789951674139 0.1931501901367447 0 -0.34673789951674139 0.1931501901367447 0 -0.32718201240795719 0.20116992182651619 0 -0.33948054782591569 0.21290612946322671 0 -0.33069606258545708 0.1824563716726785 0 -0.34673789951674139 0.1931501901367447 0 -0.32718201240795719 0.20116992182651619 0 -0.32718201240795719 0.20116992182651619 0 -0.3151729417567361 0.19260452676140921 0 -0.30798069947201312 0.20935836464516239 0 -0.33069606258545708 0.1824563716726785 0 -0.32718201240795719 0.20116992182651619 0 -0.3151729417567361 0.19260452676140921 0 -0.32302392329088009 0.21654394827987561 0 -0.31236512788907578 0.2263907750667957 0 -0.30798069947201312 0.20935836464516239 0 -0.32718201240795719 0.20116992182651619 0 -0.32302392329088009 0.21654394827987561 0 -0.30798069947201312 0.20935836464516239 0 -0.32718201240795719 0.20116992182651619 0 -0.32302392329088009 0.21654394827987561 0 -0.33948054782591569 0.21290612946322671 0 -0.32302392329088009 0.21654394827987561 0 -0.33948054782591569 0.21290612946322671 0 -0.32919828209255297 0.23228248034877291 0 -0.34968532661211632 0.22864106082410629 0 -0.33948054782591569 0.21290612946322671 0 -0.32919828209255297 0.23228248034877291 0 -0.32919828209255297 0.23228248034877291 0 -0.30949841977280068 0.24163267491042209 0 -0.31236512788907578 0.2263907750667957 0 -0.32302392329088009 0.21654394827987561 0 -0.32919828209255297 0.23228248034877291 0 -0.31236512788907578 0.2263907750667957 0 -0.32919828209255297 0.23228248034877291 0 -0.30949841977280068 0.24163267491042209 0 -0.32877515114103262 0.25241493566753948 0 -0.34713503643075377 0.24967148756325119 0 -0.32919828209255297 0.23228248034877291 0 -0.32877515114103262 0.25241493566753948 0 -0.34713503643075377 0.24967148756325119 0 -0.34968532661211632 0.22864106082410629 0 -0.32919828209255297 0.23228248034877291 0 -0.28343699201108957 0.24494826123210689 0 -0.29212431481713241 0.23213640714974559 0 -0.2952209642644027 0.25782377508588661 0 -0.29212431481713241 0.23213640714974559 0 -0.2952209642644027 0.25782377508588661 0 -0.28343699201108957 0.24494826123210689 0 -0.29212431481713241 0.23213640714974559 0 -0.27253016419202281 0.23598340453657579 0 -0.30949841977280068 0.24163267491042209 0 -0.29212431481713241 0.23213640714974559 0 -0.2952209642644027 0.25782377508588661 0 -0.30949841977280068 0.24163267491042209 0 -0.31236512788907578 0.2263907750667957 0 -0.29212431481713241 0.23213640714974559 0 -0.31236512788907578 0.2263907750667957 0 -0.29212431481713241 0.23213640714974559 0 -0.30798069947201312 0.20935836464516239 0 -0.29212431481713241 0.23213640714974559 0 -0.28902766536986207 0.20644903921360461 0 -0.2733780820165278 0.21833304049898999 0 -0.29212431481713241 0.23213640714974559 0 -0.28902766536986207 0.20644903921360461 0 -0.29212431481713241 0.23213640714974559 0 -0.28902766536986207 0.20644903921360461 0 -0.30798069947201312 0.20935836464516239 0 -0.28902766536986207 0.20644903921360461 0 -0.30798069947201312 0.20935836464516239 0 -0.29911172118146911 0.18397570143290359 0 -0.3151729417567361 0.19260452676140921 0 -0.30798069947201312 0.20935836464516239 0 -0.29911172118146911 0.18397570143290359 0 -0.30798069947201312 0.20935836464516239 0 -0.29911172118146911 0.18397570143290359 0 -0.28902766536986207 0.20644903921360461 0 -0.28593101592259179 0.18076167127746351 0 -0.28902766536986207 0.20644903921360461 0 -0.27809701324461661 0.19334106701142609 0 -0.28593101592259179 0.18076167127746351 0 -0.28902766536986207 0.20644903921360461 0 -0.29911172118146911 0.18397570143290359 0 -0.28593101592259179 0.18076167127746351 0 -0.27809701324461661 0.19334106701142609 0 -0.26853014014394849 0.20207466576736791 0 -0.26889923154206369 0.18407889178726841 0 -0.28902766536986207 0.20644903921360461 0 -0.27809701324461661 0.19334106701142609 0 -0.26853014014394849 0.20207466576736791 0 -0.25732419851712929 0.19588902305044339 0 -0.26889923154206369 0.18407889178726841 0 -0.25449388519764998 0.1844284315031727 0 -0.26853014014394849 0.20207466576736791 0 -0.25732419851712929 0.19588902305044339 0 -0.26889923154206369 0.18407889178726841 0 -0.25732419851712929 0.19588902305044339 0 -0.25449388519764998 0.1844284315031727 0 -0.24655002503873369 0.19394753918537411 0 -0.25732419851712929 0.19588902305044339 0 -0.24636878037834131 0.2052805006327261 0 -0.24655002503873369 0.19394753918537411 0 -0.26853014014394849 0.20207466576736791 0 -0.25732419851712929 0.19588902305044339 0 -0.25788245103474039 0.21047150988724461 0 -0.25732419851712929 0.19588902305044339 0 -0.25788245103474039 0.21047150988724461 0 -0.24636878037834131 0.2052805006327261 0 -0.25788245103474039 0.21047150988724461 0 -0.24667485751449911 0.21894349547531761 0 -0.24636878037834131 0.2052805006327261 0 -0.25788245103474039 0.21047150988724461 0 -0.26049495513229559 0.2229190355589297 0 -0.24667485751449911 0.21894349547531761 0 -0.25788245103474039 0.21047150988724461 0 -0.2733780820165278 0.21833304049898999 0 -0.26049495513229559 0.2229190355589297 0 -0.28902766536986207 0.20644903921360461 0 -0.26853014014394849 0.20207466576736791 0 -0.2733780820165278 0.21833304049898999 0 -0.26853014014394849 0.20207466576736791 0 -0.25788245103474039 0.21047150988724461 0 -0.2733780820165278 0.21833304049898999 0 -0.29212431481713241 0.23213640714974559 0 -0.2733780820165278 0.21833304049898999 0 -0.27253016419202281 0.23598340453657579 0 -0.2733780820165278 0.21833304049898999 0 -0.26049495513229559 0.2229190355589297 0 -0.27253016419202281 0.23598340453657579 0 -0.26049495513229559 0.2229190355589297 0 -0.24741806503572619 0.2329767179432283 0 -0.24667485751449911 0.21894349547531761 0 -0.26049495513229559 0.2229190355589297 0 -0.25818398661920128 0.23487409093766501 0 -0.24741806503572619 0.2329767179432283 0 -0.26049495513229559 0.2229190355589297 0 -0.25818398661920128 0.23487409093766501 0 -0.27253016419202281 0.23598340453657579 0 -0.25818398661920128 0.23487409093766501 0 -0.26034797442575353 0.24604855555731669 0 -0.27253016419202281 0.23598340453657579 0 -0.25818398661920128 0.23487409093766501 0 -0.26034797442575353 0.24604855555731669 0 -0.24548244335966471 0.24286857053810521 0 -0.25818398661920128 0.23487409093766501 0 -0.24548244335966471 0.24286857053810521 0 -0.24741806503572619 0.2329767179432283 0 -0.26034797442575353 0.24604855555731669 0 -0.24759739790112481 0.25315441603119782 0 -0.24548244335966471 0.24286857053810521 0 -0.26034797442575353 0.24604855555731669 0 -0.27253016419202281 0.23598340453657579 0 -0.27387252477080049 0.25384945815621962 0 -0.28343699201108957 0.24494826123210689 0 -0.27253016419202281 0.23598340453657579 0 -0.27387252477080049 0.25384945815621962 0 -0.28137376460038149 0.1332103750083862 0 -0.30686118703476217 0.14222985084951539 0 -0.29024274289092511 0.15859303822064499 0 -0.28137376460038149 0.1332103750083862 0 -0.29024274289092511 0.15859303822064499 0 -0.28137376460038149 0.1332103750083862 0 -0.29024274289092511 0.15859303822064499 0 -0.27717328478901931 0.1452021838577936 0 -0.28137376460038149 0.1332103750083862 0 -0.29076314000174791 0.12908645867656821 0 -0.30686118703476217 0.14222985084951539 0 -0.28137376460038149 0.1332103750083862 0 -0.30686118703476217 0.14222985084951539 0 -0.28137376460038149 0.1332103750083862 0 -0.28408838181682022 0.12810872525283201 0 -0.29076314000174791 0.12908645867656821 0 -0.28408838181682022 0.12810872525283201 0 -0.27971977538919068 0.12847672365317719 0 -0.28449684727596058 0.12166134367319641 0 -0.28137376460038149 0.1332103750083862 0 -0.28408838181682022 0.12810872525283201 0 -0.27971977538919068 0.12847672365317719 0 -0.28408838181682022 0.12810872525283201 0 -0.29076314000174791 0.12908645867656821 0 -0.28449684727596058 0.12166134367319641 0 -0.31319521497078462 0.12723917229786741 0 -0.30686118703476217 0.14222985084951539 0 -0.29925309279529949 0.12216381251203549 0 -0.29076314000174791 0.12908645867656821 0 -0.30686118703476217 0.14222985084951539 0 -0.29925309279529949 0.12216381251203549 0 -0.31608378838752321 0.15588573183824181 0 -0.30686118703476217 0.14222985084951539 0 -0.30381252379731338 0.15866525260364681 0 -0.30686118703476217 0.14222985084951539 0 -0.30381252379731338 0.15866525260364681 0 -0.29024274289092511 0.15859303822064499 0 -0.31351147959282072 0.1664735019455329 0 -0.30381252379731338 0.15866525260364681 0 -0.29911172118146911 0.18397570143290359 0 -0.31351147959282072 0.1664735019455329 0 -0.31608378838752321 0.15588573183824181 0 -0.30381252379731338 0.15866525260364681 0 -0.30381252379731338 0.15866525260364681 0 -0.29911172118146911 0.18397570143290359 0 -0.29024274289092511 0.15859303822064499 0 -0.31632019349860491 0.1796894910819028 0 -0.31351147959282072 0.1664735019455329 0 -0.29911172118146911 0.18397570143290359 0 -0.31632019349860491 0.1796894910819028 0 -0.3151729417567361 0.19260452676140921 0 -0.29911172118146911 0.18397570143290359 0 -0.29911172118146911 0.18397570143290359 0 -0.28593101592259179 0.18076167127746351 0 -0.29024274289092511 0.15859303822064499 0 -0.29911172118146911 0.18397570143290359 0 -0.29024274289092511 0.15859303822064499 0 -0.28593101592259179 0.18076167127746351 0 -0.29024274289092511 0.15859303822064499 0 -0.27653231093628511 0.1757446013880743 0 -0.29024274289092511 0.15859303822064499 0 -0.27195885552753468 0.16649314816681951 0 -0.27653231093628511 0.1757446013880743 0 -0.29024274289092511 0.15859303822064499 0 -0.27195885552753468 0.16649314816681951 0 -0.27125434808953658 0.1515973993714313 0 -0.27195885552753468 0.16649314816681951 0 -0.26452393155726539 0.15937872534638739 0 -0.27125434808953658 0.1515973993714313 0 -0.27809701324461661 0.19334106701142609 0 -0.28593101592259179 0.18076167127746351 0 -0.26889923154206369 0.18407889178726841 0 -0.27195885552753468 0.16649314816681951 0 -0.27653231093628511 0.1757446013880743 0 -0.26889923154206369 0.18407889178726841 0 -0.27195885552753468 0.16649314816681951 0 -0.26889923154206369 0.18407889178726841 0 -0.25984499909027431 0.16903879761626961 0 -0.28593101592259179 0.18076167127746351 0 -0.27653231093628511 0.1757446013880743 0 -0.26889923154206369 0.18407889178726841 0 -0.25449388519764998 0.1844284315031727 0 -0.25984499909027431 0.16903879761626961 0 -0.2443225216379746 0.1685707376049525 0 -0.26889923154206369 0.18407889178726841 0 -0.25449388519764998 0.1844284315031727 0 -0.25984499909027431 0.16903879761626961 0 -0.25984499909027431 0.16903879761626961 0 -0.25459497834155942 0.15277834305232979 0 -0.2443225216379746 0.1685707376049525 0 -0.26452393155726539 0.15937872534638739 0 -0.25984499909027431 0.16903879761626961 0 -0.25459497834155942 0.15277834305232979 0 -0.27195885552753468 0.16649314816681951 0 -0.26452393155726539 0.15937872534638739 0 -0.25984499909027431 0.16903879761626961 0 -0.26452393155726539 0.15937872534638739 0 -0.25459497834155942 0.15277834305232979 0 -0.27125434808953658 0.1515973993714313 0 -0.25459497834155942 0.15277834305232979 0 -0.27125434808953658 0.1515973993714313 0 -0.26582228357523358 0.13740792283071199 0 -0.25459497834155942 0.15277834305232979 0 -0.26582228357523358 0.13740792283071199 0 -0.2515550936227457 0.13766665608924619 0 -0.29024274289092511 0.15859303822064499 0 -0.27125434808953658 0.1515973993714313 0 -0.27717328478901931 0.1452021838577936 0 -0.27125434808953658 0.1515973993714313 0 -0.27717328478901931 0.1452021838577936 0 -0.26582228357523358 0.13740792283071199 0 -0.28137376460038149 0.1332103750083862 0 -0.25619864571567158 0.1243014169855481 0 -0.28137376460038149 0.1332103750083862 0 -0.26582228357523358 0.13740792283071199 0 -0.25619864571567158 0.1243014169855481 0 -0.28137376460038149 0.1332103750083862 0 -0.27971977538919068 0.12847672365317719 0 -0.25619864571567158 0.1243014169855481 0 -0.28137376460038149 0.1332103750083862 0 -0.27971977538919068 0.12847672365317719 0 -0.28137376460038149 0.1332103750083862 0 -0.27717328478901931 0.1452021838577936 0 -0.26582228357523358 0.13740792283071199 0 -0.26582228357523358 0.13740792283071199 0 -0.2515550936227457 0.13766665608924619 0 -0.25619864571567158 0.1243014169855481 0 -0.25619864571567158 0.1243014169855481 0 -0.25801695806766872 0.1088815318780445 0 -0.24121356983117201 0.1082096431468671 0 -0.25619864571567158 0.1243014169855481 0 -0.25801695806766872 0.1088815318780445 0 -0.27286236340199133 0.11692158117250891 0 -0.25801695806766872 0.1088815318780445 0 -0.26483067543804722 0.097532450822340522 0 -0.2466704649685986 0.094137763570239424 0 -0.25801695806766872 0.1088815318780445 0 -0.26483067543804722 0.097532450822340522 0 -0.27265379736780732 0.1062347073291294 0 -0.26483067543804722 0.097532450822340522 0 -0.27265379736780732 0.1062347073291294 0 -0.27996000085461109 0.097551088578271189 0 -0.27265379736780732 0.1062347073291294 0 -0.27996000085461109 0.097551088578271189 0 -0.28674627542721792 0.1117355278443541 0 -0.27971977538919068 0.12847672365317719 0 -0.25619864571567158 0.1243014169855481 0 -0.27286236340199133 0.11692158117250891 0 -0.25801695806766872 0.1088815318780445 0 -0.27265379736780732 0.1062347073291294 0 -0.27286236340199133 0.11692158117250891 0 -0.27265379736780732 0.1062347073291294 0 -0.27286236340199133 0.11692158117250891 0 -0.28674627542721792 0.1117355278443541 0 -0.27971977538919068 0.12847672365317719 0 -0.27286236340199133 0.11692158117250891 0 -0.28449684727596058 0.12166134367319641 0 -0.28674627542721792 0.1117355278443541 0 -0.30327519711975842 0.10532666695681631 0 -0.29925309279529949 0.12216381251203549 0 -0.28449684727596058 0.12166134367319641 0 -0.28674627542721792 0.1117355278443541 0 -0.29925309279529949 0.12216381251203549 0 -0.29076314000174791 0.12908645867656821 0 -0.28449684727596058 0.12166134367319641 0 -0.29925309279529949 0.12216381251203549 0 -0.27286236340199133 0.11692158117250891 0 -0.28449684727596058 0.12166134367319641 0 -0.28674627542721792 0.1117355278443541 0 -0.27996000085461109 0.097551088578271189 0 -0.28674627542721792 0.1117355278443541 0 -0.30327519711975842 0.10532666695681631 0 -0.27996000085461109 0.097551088578271189 0 -0.30327519711975842 0.10532666695681631 0 -0.29063217754189918 0.084224806956319037 0 -0.30327519711975842 0.10532666695681631 0 -0.30963115269770142 0.1171015701503601 0 -0.29925309279529949 0.12216381251203549 0 -0.30327519711975842 0.10532666695681631 0 -0.30963115269770142 0.1171015701503601 0 -0.32280110590496308 0.1136766288347212 0 -0.31319521497078462 0.12723917229786741 0 -0.30963115269770142 0.1171015701503601 0 -0.29925309279529949 0.12216381251203549 0 -0.29063217754189918 0.084224806956319037 0 -0.29631519845445692 0.054543039961245723 0 -0.31656074086918762 0.063338185015322429 0 -0.29063217754189918 0.084224806956319037 0 -0.3196424728508615 0.088197242351969102 0 -0.29063217754189918 0.084224806956319037 0 -0.3196424728508615 0.088197242351969102 0 -0.31656074086918762 0.063338185015322429 0 -0.30327519711975842 0.10532666695681631 0 -0.29063217754189918 0.084224806956319037 0 -0.3196424728508615 0.088197242351969102 0 -0.29063217754189918 0.084224806956319037 0 -0.27691946452080812 0.066747243369380968 0 -0.29631519845445692 0.054543039961245723 0 -0.29063217754189918 0.084224806956319037 0 -0.27691946452080812 0.066747243369380968 0 -0.26162188223293692 0.080252371560667904 0 -0.29063217754189918 0.084224806956319037 0 -0.26162188223293692 0.080252371560667904 0 -0.27996000085461109 0.097551088578271189 0 -0.29063217754189918 0.084224806956319037 0 -0.26162188223293692 0.080252371560667904 0 -0.26483067543804722 0.097532450822340522 0 -0.27996000085461109 0.097551088578271189 0 -0.26162188223293692 0.080252371560667904 0 -0.26483067543804722 0.097532450822340522 0 -0.26162188223293692 0.080252371560667904 0 -0.2466704649685986 0.094137763570239424 0 -0.27691946452080812 0.066747243369380968 0 -0.26162188223293692 0.080252371560667904 0 -0.25420852008430622 0.057242051200783052 0 -0.25420852008430622 0.057242051200783052 0 -0.2574641548598442 0.035133979252333067 0 -0.27666223066809242 0.048556765709316413 0 -0.2574641548598442 0.035133979252333067 0 -0.27666223066809242 0.048556765709316413 0 -0.27557432804337789 0.028962327297865052 0 -0.27691946452080812 0.066747243369380968 0 -0.25420852008430622 0.057242051200783052 0 -0.27666223066809242 0.048556765709316413 0 -0.26096182947410212 -0.000358506717774391 0 -0.26297709853396151 0.0162528856048073 0 -0.24442310393583619 0.018904397669626871 0 -0.2574641548598442 0.035133979252333067 0 -0.26297709853396151 0.0162528856048073 0 -0.27557432804337789 0.028962327297865052 0 -0.2574641548598442 0.035133979252333067 0 -0.26297709853396151 0.0162528856048073 0 -0.24442310393583619 0.018904397669626871 0 -0.26297709853396151 0.0162528856048073 0 -0.27557432804337789 0.028962327297865052 0 -0.28668718771990043 0.014936477973419231 0 -0.26297709853396151 0.0162528856048073 0 -0.2767705385078354 0.0043107152141013847 0 -0.28668718771990043 0.014936477973419231 0 -0.26096182947410212 -0.000358506717774391 0 -0.26297709853396151 0.0162528856048073 0 -0.2767705385078354 0.0043107152141013847 0 -0.26297709853396151 0.0162528856048073 0 -0.28668718771990043 0.014936477973419231 0 -0.29341118398778221 -3.8928658760805153e-05 0 -0.28668718771990043 0.014936477973419231 0 -0.31039727690583918 0.013620070342029229 0 -0.29341118398778221 -3.8928658760805153e-05 0 -0.2767705385078354 0.0043107152141013847 0 -0.28668718771990043 0.014936477973419231 0 -0.27557432804337789 0.028962327297865052 0 -0.28668718771990043 0.014936477973419231 0 -0.29617216736891361 0.030457488595155541 0 -0.28668718771990043 0.014936477973419231 0 -0.29617216736891361 0.030457488595155541 0 -0.31039727690583918 0.013620070342029229 0 -0.29617216736891361 0.030457488595155541 0 -0.31039727690583918 0.013620070342029229 0 -0.31347900888751351 0.038479127678675812 0 -0.31039727690583918 0.013620070342029229 0 -0.31347900888751351 0.038479127678675812 0 -0.28668718771990043 0.014936477973419231 0 -0.31039727690583918 0.013620070342029229 0 -0.29341118398778221 -3.8928658760805153e-05 0 -0.30770280863967042 -0.008115090768276649 0 -0.31039727690583918 0.013620070342029229 0 -0.30770280863967042 -0.008115090768276649 0 -0.31039727690583918 0.013620070342029229 0 -0.27691946452080812 0.066747243369380968 0 -0.27666223066809242 0.048556765709316413 0 -0.29631519845445692 0.054543039961245723 0 -0.27666223066809242 0.048556765709316413 0 -0.29617216736891361 0.030457488595155541 0 -0.29631519845445692 0.054543039961245723 0 -0.27666223066809242 0.048556765709316413 0 -0.27557432804337789 0.028962327297865052 0 -0.29617216736891361 0.030457488595155541 0 -0.29617216736891361 0.030457488595155541 0 -0.29631519845445692 0.054543039961245723 0 -0.31347900888751351 0.038479127678675812 0 -0.29631519845445692 0.054543039961245723 0 -0.31347900888751351 0.038479127678675812 0 -0.31656074086918762 0.063338185015322429 0 -0.31347900888751351 0.038479127678675812 0 -0.34113285775510238 0.048100003135486381 0 -0.31656074086918762 0.063338185015322429 0 -0.31347900888751351 0.038479127678675812 0 -0.31656074086918762 0.063338185015322429 0 -0.31347900888751351 0.038479127678675812 0 -0.34113285775510238 0.048100003135486381 0 -0.3238014212030032 0.02689195126272249 0 -0.34113285775510238 0.048100003135486381 0 -0.3238014212030032 0.02689195126272249 0 -0.33750512832083918 0.022828284462793291 0 -0.34113285775510238 0.048100003135486381 0 -0.31656074086918762 0.063338185015322429 0 -0.33659904305991001 0.072917390245873084 0 -0.31039727690583918 0.013620070342029229 0 -0.32807385559698721 0.012638649188218779 0 -0.3243273320705421 -0.002975739998295202 0 -0.31039727690583918 0.013620070342029229 0 -0.32807385559698721 0.012638649188218779 0 -0.30770280863967042 -0.008115090768276649 0 -0.3243273320705421 -0.002975739998295202 0 -0.31039727690583918 0.013620070342029229 0 -0.31039727690583918 0.013620070342029229 0 -0.32807385559698721 0.012638649188218779 0 -0.3238014212030032 0.02689195126272249 0 -0.31039727690583918 0.013620070342029229 0 -0.31347900888751351 0.038479127678675812 0 -0.3238014212030032 0.02689195126272249 0 -0.34113285775510238 0.048100003135486381 0 -0.33750512832083918 0.022828284462793291 0 -0.35135681626331461 0.021875229708431389 0 -0.32807385559698721 0.012638649188218779 0 -0.33750512832083918 0.022828284462793291 0 -0.34575043428813501 0.0116572280344064 0 -0.32807385559698721 0.012638649188218779 0 -0.3238014212030032 0.02689195126272249 0 -0.33750512832083918 0.022828284462793291 0 -0.32807385559698721 0.012638649188218779 0 -0.34575043428813501 0.0116572280344064 0 -0.32807385559698721 0.012638649188218779 0 -0.33911095629693389 0.00085089756377999598 0 -0.34575043428813501 0.0116572280344064 0 -0.3243273320705421 -0.002975739998295202 0 -0.32807385559698721 0.012638649188218779 0 -0.33911095629693389 0.00085089756377999598 0 -0.361580774771527 -0.0043495437186238384 0 -0.33911095629693389 0.00085089756377999598 0 -0.34575043428813501 0.0116572280344064 0 -0.361580774771527 -0.0043495437186238384 0 -0.35135681626331461 0.021875229708431389 0 -0.361580774771527 -0.0043495437186238384 0 -0.34575043428813501 0.0116572280344064 0 -0.35135681626331461 0.021875229708431389 0 -0.33750512832083918 0.022828284462793291 0 -0.34575043428813501 0.0116572280344064 0 -0.35135681626331461 0.021875229708431389 0 -0.35135681626331461 0.021875229708431389 0 -0.36564136457868862 0.029822470763534389 0 -0.36873298623547179 0.013708748051750491 0 -0.3884339313588816 0.021251925581626911 0 -0.36564136457868862 0.029822470763534389 0 -0.36873298623547179 0.013708748051750491 0 -0.361580774771527 -0.0043495437186238384 0 -0.37671714276837348 -0.0020527700837410161 0 -0.36873298623547179 0.013708748051750491 0 -0.361580774771527 -0.0043495437186238384 0 -0.35135681626331461 0.021875229708431389 0 -0.36873298623547179 0.013708748051750491 0 -0.34113285775510238 0.048100003135486381 0 -0.37170791414445131 0.047833413394124197 0 -0.35957628383175289 0.071331832542292944 0 -0.34113285775510238 0.048100003135486381 0 -0.35135681626331461 0.021875229708431389 0 -0.36564136457868862 0.029822470763534389 0 -0.34113285775510238 0.048100003135486381 0 -0.35135681626331461 0.021875229708431389 0 -0.34113285775510238 0.048100003135486381 0 -0.36564136457868862 0.029822470763534389 0 -0.37170791414445131 0.047833413394124197 0 -0.38282446198857562 0.070081134291422001 0 -0.37170791414445131 0.047833413394124197 0 -0.35957628383175289 0.071331832542292944 0 -0.34113285775510238 0.048100003135486381 0 -0.35957628383175289 0.071331832542292944 0 -0.33659904305991001 0.072917390245873084 0 -0.35957628383175289 0.071331832542292944 0 -0.34871778755880689 0.092178580978669947 0 -0.33659904305991001 0.072917390245873084 0 -0.37779310226675261 0.096159919605369737 0 -0.35957628383175289 0.071331832542292944 0 -0.34871778755880689 0.092178580978669947 0 -0.37779310226675261 0.096159919605369737 0 -0.38282446198857562 0.070081134291422001 0 -0.35957628383175289 0.071331832542292944 0 -0.37779310226675261 0.096159919605369737 0 -0.34871778755880689 0.092178580978669947 0 -0.37779310226675261 0.096159919605369737 0 -0.34871778755880689 0.092178580978669947 0 -0.36403770410201652 0.1132248559919246 0 -0.37208893801186299 0.12686511546871371 0 -0.35558166206678149 0.13247699391327519 0 -0.36403770410201652 0.1132248559919246 0 -0.3850763322618882 0.11563577614832 0 -0.37208893801186299 0.12686511546871371 0 -0.36403770410201652 0.1132248559919246 0 -0.35558166206678149 0.13247699391327519 0 -0.36403770410201652 0.1132248559919246 0 -0.34496840244600668 0.1160327498371988 0 -0.34871778755880689 0.092178580978669947 0 -0.36403770410201652 0.1132248559919246 0 -0.34496840244600668 0.1160327498371988 0 -0.34871778755880689 0.092178580978669947 0 -0.32280110590496308 0.1136766288347212 0 -0.3196424728508615 0.088197242351969102 0 -0.34871778755880689 0.092178580978669947 0 -0.34496840244600668 0.1160327498371988 0 -0.32280110590496308 0.1136766288347212 0 -0.33790963352707659 0.13322136111861041 0 -0.34496840244600668 0.1160327498371988 0 -0.32280110590496308 0.1136766288347212 0 -0.31319521497078462 0.12723917229786741 0 -0.30963115269770142 0.1171015701503601 0 -0.32280110590496308 0.1136766288347212 0 -0.30327519711975842 0.10532666695681631 0 -0.32280110590496308 0.1136766288347212 0 -0.3196424728508615 0.088197242351969102 0 -0.32280110590496308 0.1136766288347212 0 -0.3196424728508615 0.088197242351969102 0 -0.3196424728508615 0.088197242351969102 0 -0.31656074086918762 0.063338185015322429 0 -0.33659904305991001 0.072917390245873084 0 -0.3196424728508615 0.088197242351969102 0 -0.31656074086918762 0.063338185015322429 0 -0.34871778755880689 0.092178580978669947 0 -0.3196424728508615 0.088197242351969102 0 -0.33659904305991001 0.072917390245873084 0 -0.34871778755880689 0.092178580978669947 0 -0.3196424728508615 0.088197242351969102 0 -0.39410683154265758 0.46554868405798072 0 -0.41310150245103722 0.4789910179889465 0 -0.39410683154265758 0.46554868405798072 0 -0.40864420876603641 0.4634523742361199 0 -0.41310150245103722 0.4789910179889465 0 -0.39809573829596712 0.47830206698595867 0 -0.39410683154265758 0.46554868405798072 0 -0.41310150245103722 0.4789910179889465 0 -0.39809573829596712 0.47830206698595867 0 -0.39456191513377409 0.48681299735340178 0 -0.38738202478612732 0.47886080778033752 0 -0.39809573829596712 0.47830206698595867 0 -0.38738202478612732 0.47886080778033752 0 -0.39410683154265758 0.46554868405798072 0 -0.39809573829596712 0.47830206698595867 0 -0.40377430924917102 0.48442153681183348 0 -0.39456191513377409 0.48681299735340178 0 -0.39809573829596712 0.47830206698595867 0 -0.40377430924917102 0.48442153681183348 0 -0.41310150245103722 0.4789910179889465 0 -0.40377430924917102 0.48442153681183348 0 -0.39456191513377409 0.48681299735340178 0 -0.40727692272062271 0.49031012847281558 0 -0.39456191513377409 0.48681299735340178 0 -0.38956591478489772 0.5 0 -0.40727692272062271 0.49031012847281558 0 -0.38956591478489772 0.5 0 -0.41617706474457311 0.5 0 -0.40727692272062271 0.49031012847281558 0 -0.38956591478489772 0.5 0 -0.38079650659006598 0.48924407819042209 0 -0.36295476482522232 0.5 0 -0.39456191513377409 0.48681299735340178 0 -0.38956591478489772 0.5 0 -0.38079650659006598 0.48924407819042209 0 -0.39456191513377409 0.48681299735340178 0 -0.38079650659006598 0.48924407819042209 0 -0.38738202478612732 0.47886080778033752 0 -0.38738202478612732 0.47886080778033752 0 -0.37416096470197768 0.46680368802108918 0 -0.36951791342030882 0.48054658581837162 0 -0.38079650659006598 0.48924407819042209 0 -0.38738202478612732 0.47886080778033752 0 -0.36951791342030882 0.48054658581837162 0 -0.38738202478612732 0.47886080778033752 0 -0.38464726459553539 0.46405996720213383 0 -0.39410683154265758 0.46554868405798072 0 -0.38738202478612732 0.47886080778033752 0 -0.38464726459553539 0.46405996720213383 0 -0.37416096470197768 0.46680368802108918 0 -0.38738202478612732 0.47886080778033752 0 -0.37416096470197768 0.46680368802108918 0 -0.37716961999912491 0.45699154953633009 0 -0.38464726459553539 0.46405996720213383 0 -0.37416096470197768 0.46680368802108918 0 -0.37716961999912491 0.45699154953633009 0 -0.38464726459553539 0.46405996720213383 0 -0.3904168819477899 0.45209510661493191 0 -0.38464726459553539 0.46405996720213383 0 -0.3904168819477899 0.45209510661493191 0 -0.39410683154265758 0.46554868405798072 0 -0.37716961999912491 0.45699154953633009 0 -0.38059372853355722 0.44367822023996739 0 -0.3904168819477899 0.45209510661493191 0 -0.37716961999912491 0.45699154953633009 0 -0.38059372853355722 0.44367822023996739 0 -0.36980970510421818 0.44604279731516833 0 -0.38059372853355722 0.44367822023996739 0 -0.3904168819477899 0.45209510661493191 0 -0.39368591456190122 0.4373832091535515 0 -0.3904168819477899 0.45209510661493191 0 -0.40014028191997209 0.44545042602062229 0 -0.39368591456190122 0.4373832091535515 0 -0.3904168819477899 0.45209510661493191 0 -0.40014028191997209 0.44545042602062229 0 -0.4012792061457407 0.45531981975913549 0 -0.40014028191997209 0.44545042602062229 0 -0.4012792061457407 0.45531981975913549 0 -0.41341565227962868 0.44804201522275999 0 -0.40014028191997209 0.44545042602062229 0 -0.40660405181864712 0.43667930711795372 0 -0.39368591456190122 0.4373832091535515 0 -0.3904168819477899 0.45209510661493191 0 -0.39410683154265758 0.46554868405798072 0 -0.4012792061457407 0.45531981975913549 0 -0.39410683154265758 0.46554868405798072 0 -0.4012792061457407 0.45531981975913549 0 -0.40864420876603641 0.4634523742361199 0 -0.40864420876603641 0.4634523742361199 0 -0.42131697534649681 0.46044880862852622 0 -0.41310150245103722 0.4789910179889465 0 -0.4012792061457407 0.45531981975913549 0 -0.40864420876603641 0.4634523742361199 0 -0.41341565227962868 0.44804201522275999 0 -0.40864420876603641 0.4634523742361199 0 -0.42131697534649681 0.46044880862852622 0 -0.41341565227962868 0.44804201522275999 0 -0.41341565227962868 0.44804201522275999 0 -0.4190758472896926 0.42900463632310848 0 -0.40660405181864712 0.43667930711795372 0 -0.40014028191997209 0.44545042602062229 0 -0.41341565227962868 0.44804201522275999 0 -0.40660405181864712 0.43667930711795372 0 -0.42131697534649681 0.46044880862852622 0 -0.41341565227962868 0.44804201522275999 0 -0.4357509489378123 0.44254997278943792 0 -0.42131697534649681 0.46044880862852622 0 -0.4357509489378123 0.44254997278943792 0 -0.43898036124025458 0.45561105838989208 0 -0.41341565227962868 0.44804201522275999 0 -0.4357509489378123 0.44254997278943792 0 -0.4190758472896926 0.42900463632310848 0 -0.42131697534649681 0.46044880862852622 0 -0.4327637765184848 0.46754316362235743 0 -0.43898036124025458 0.45561105838989208 0 -0.4327637765184848 0.46754316362235743 0 -0.41310150245103722 0.4789910179889465 0 -0.42794485857764353 0.48949550899447231 0 -0.4327637765184848 0.46754316362235743 0 -0.42794485857764353 0.48949550899447231 0 -0.44251464366883619 0.48464713199299209 0 -0.4327637765184848 0.46754316362235743 0 -0.41310150245103722 0.4789910179889465 0 -0.42131697534649681 0.46044880862852622 0 -0.4327637765184848 0.46754316362235743 0 -0.41310150245103722 0.4789910179889465 0 -0.41310150245103722 0.4789910179889465 0 -0.42794485857764353 0.48949550899447231 0 -0.40377430924917102 0.48442153681183348 0 -0.41310150245103722 0.4789910179889465 0 -0.41617706474457311 0.5 0 -0.40727692272062271 0.49031012847281558 0 -0.42794485857764353 0.48949550899447231 0 -0.41310150245103722 0.4789910179889465 0 -0.40727692272062271 0.49031012847281558 0 -0.42794485857764353 0.48949550899447231 0 -0.40377430924917102 0.48442153681183348 0 -0.41310150245103722 0.4789910179889465 0 -0.40727692272062271 0.49031012847281558 0 -0.41617706474457311 0.5 0 -0.42794485857764353 0.48949550899447231 0 -0.44278821470424828 0.49999999999999989 0 -0.42794485857764353 0.48949550899447231 0 -0.44278821470424828 0.49999999999999989 0 -0.44278821470424828 0.49999999999999989 0 -0.44251464366883619 0.48464713199299209 0 -0.44868093134460818 0.49221612697287892 0 -0.42794485857764353 0.48949550899447231 0 -0.44278821470424828 0.49999999999999989 0 -0.44251464366883619 0.48464713199299209 0 -0.44251464366883619 0.48464713199299209 0 -0.44868093134460818 0.49221612697287892 0 -0.45802089790958911 0.48172014347304259 0 -0.44278821470424828 0.49999999999999989 0 -0.44868093134460818 0.49221612697287892 0 -0.45457364798496758 0.49999999999999928 0 -0.4327637765184848 0.46754316362235743 0 -0.44251464366883619 0.48464713199299209 0 -0.44943870330341062 0.47068920705804912 0 -0.44251464366883619 0.48464713199299209 0 -0.44943870330341062 0.47068920705804912 0 -0.45802089790958911 0.48172014347304259 0 -0.45802089790958911 0.48172014347304259 0 -0.46146814783421142 0.46344028694608608 0 -0.44943870330341062 0.47068920705804912 0 -0.45802089790958911 0.48172014347304259 0 -0.46146814783421142 0.46344028694608608 0 -0.45802089790958911 0.48172014347304259 0 -0.46885729085803729 0.48926750289968018 0 -0.47906356748266249 0.47773320607988828 0 -0.45802089790958911 0.48172014347304259 0 -0.47906356748266249 0.47773320607988828 0 -0.46146814783421142 0.46344028694608608 0 -0.45802089790958911 0.48172014347304259 0 -0.45457364798496758 0.49999999999999928 0 -0.44868093134460818 0.49221612697287892 0 -0.45802089790958911 0.48172014347304259 0 -0.45457364798496758 0.49999999999999928 0 -0.45802089790958911 0.48172014347304259 0 -0.45457364798496758 0.49999999999999928 0 -0.46885729085803729 0.48926750289968018 0 -0.45457364798496758 0.49999999999999928 0 -0.47849090174953529 0.49999999999999911 0 -0.46885729085803729 0.48926750289968018 0 -0.47849090174953529 0.49999999999999911 0 -0.48924545087476867 0.47908917702405629 0 -0.47849090174953529 0.49999999999999911 0 -0.47906356748266249 0.47773320607988828 0 -0.48924545087476867 0.47908917702405629 0 -0.48924545087476867 0.47908917702405629 0 -0.5 0.5 0 -0.50000000000000133 0.4581783540481133 0 -0.47849090174953529 0.49999999999999911 0 -0.46885729085803729 0.48926750289968018 0 -0.47906356748266249 0.47773320607988828 0 -0.47906356748266249 0.47773320607988828 0 -0.46146814783421142 0.46344028694608608 0 -0.47906356748266249 0.47773320607988828 0 -0.47512166888633939 0.46566902986673608 0 -0.46146814783421142 0.46344028694608608 0 -0.47906356748266249 0.47773320607988828 0 -0.48545777912772098 0.4669361788944249 0 -0.47512166888633939 0.46566902986673608 0 -0.47906356748266249 0.47773320607988828 0 -0.48924545087476867 0.47908917702405629 0 -0.48545777912772098 0.4669361788944249 0 -0.47849090174953529 0.49999999999999911 0 -0.48924545087476867 0.47908917702405629 0 -0.5 0.5 0 -0.50000000000000133 0.4581783540481133 0 -0.5 0.42899846690091181 0 -0.49240263670046491 0.43685473331802438 0 -0.48878677953925409 0.44765838219580861 0 -0.50000000000000133 0.4581783540481133 0 -0.49240263670046491 0.43685473331802438 0 -0.48878677953925409 0.44765838219580861 0 -0.4889933212384146 0.45702338762630429 0 -0.47944247999569278 0.44840971000212693 0 -0.48878677953925409 0.44765838219580861 0 -0.48309545976169871 0.43782572598447389 0 -0.49240263670046491 0.43685473331802438 0 -0.48878677953925409 0.44765838219580861 0 -0.50000000000000133 0.4581783540481133 0 -0.4889933212384146 0.45702338762630429 0 -0.48924545087476867 0.47908917702405629 0 -0.50000000000000133 0.4581783540481133 0 -0.48924545087476867 0.47908917702405629 0 -0.50000000000000133 0.4581783540481133 0 -0.48545777912772098 0.4669361788944249 0 -0.48545777912772098 0.4669361788944249 0 -0.4889933212384146 0.45702338762630429 0 -0.47904840713826902 0.46032346947478092 0 -0.50000000000000133 0.4581783540481133 0 -0.48545777912772098 0.4669361788944249 0 -0.4889933212384146 0.45702338762630429 0 -0.47904840713826902 0.46032346947478092 0 -0.4724083552843934 0.45402727139493959 0 -0.47944247999569278 0.44840971000212693 0 -0.4889933212384146 0.45702338762630429 0 -0.47904840713826902 0.46032346947478092 0 -0.47944247999569278 0.44840971000212693 0 -0.48545777912772098 0.4669361788944249 0 -0.47904840713826902 0.46032346947478092 0 -0.47512166888633939 0.46566902986673608 0 -0.47512166888633939 0.46566902986673608 0 -0.47057044284883381 0.45991200793850068 0 -0.46146814783421142 0.46344028694608608 0 -0.47904840713826902 0.46032346947478092 0 -0.47512166888633939 0.46566902986673608 0 -0.47057044284883381 0.45991200793850068 0 -0.47057044284883381 0.45991200793850068 0 -0.4724083552843934 0.45402727139493959 0 -0.46353137595508409 0.45249953276329069 0 -0.47904840713826902 0.46032346947478092 0 -0.47057044284883381 0.45991200793850068 0 -0.4724083552843934 0.45402727139493959 0 -0.4724083552843934 0.45402727139493959 0 -0.46986652596715001 0.44594104014307961 0 -0.47944247999569278 0.44840971000212693 0 -0.48878677953925409 0.44765838219580861 0 -0.47944247999569278 0.44840971000212693 0 -0.48309545976169871 0.43782572598447389 0 -0.47944247999569278 0.44840971000212693 0 -0.48309545976169871 0.43782572598447389 0 -0.47449401827792959 0.43910639447366112 0 -0.46986652596715001 0.44594104014307961 0 -0.47944247999569278 0.44840971000212693 0 -0.47449401827792959 0.43910639447366112 0 -0.46986652596715001 0.44594104014307961 0 -0.47449401827792959 0.43910639447366112 0 -0.46762103711116543 0.43453603383207812 0 -0.46986652596715001 0.44594104014307961 0 -0.45242605058593188 0.45609530925576741 0 -0.46986652596715001 0.44594104014307961 0 -0.4554648131957354 0.44196729971139398 0 -0.46762103711116543 0.43453603383207812 0 -0.46986652596715001 0.44594104014307961 0 -0.4554648131957354 0.44196729971139398 0 -0.45242605058593188 0.45609530925576741 0 -0.46986652596715001 0.44594104014307961 0 -0.46353137595508409 0.45249953276329069 0 -0.45242605058593188 0.45609530925576741 0 -0.4724083552843934 0.45402727139493959 0 -0.46986652596715001 0.44594104014307961 0 -0.46353137595508409 0.45249953276329069 0 -0.47057044284883381 0.45991200793850068 0 -0.46353137595508409 0.45249953276329069 0 -0.46146814783421142 0.46344028694608608 0 -0.46353137595508409 0.45249953276329069 0 -0.46146814783421142 0.46344028694608608 0 -0.46353137595508409 0.45249953276329069 0 -0.46146814783421142 0.46344028694608608 0 -0.45242605058593188 0.45609530925576741 0 -0.46146814783421142 0.46344028694608608 0 -0.45242605058593188 0.45609530925576741 0 -0.44943870330341062 0.47068920705804912 0 -0.46146814783421142 0.46344028694608608 0 -0.45242605058593188 0.45609530925576741 0 -0.4327637765184848 0.46754316362235743 0 -0.43898036124025458 0.45561105838989208 0 -0.45242605058593188 0.45609530925576741 0 -0.4327637765184848 0.46754316362235743 0 -0.45242605058593188 0.45609530925576741 0 -0.4327637765184848 0.46754316362235743 0 -0.44943870330341062 0.47068920705804912 0 -0.45242605058593188 0.45609530925576741 0 -0.4357509489378123 0.44254997278943792 0 -0.4554648131957354 0.44196729971139398 0 -0.45242605058593188 0.45609530925576741 0 -0.4357509489378123 0.44254997278943792 0 -0.45242605058593188 0.45609530925576741 0 -0.4357509489378123 0.44254997278943792 0 -0.4554648131957354 0.44196729971139398 0 -0.44804671704470889 0.43215483068469362 0 -0.4357509489378123 0.44254997278943792 0 -0.43898036124025458 0.45561105838989208 0 -0.45242605058593188 0.45609530925576741 0 -0.4357509489378123 0.44254997278943792 0 -0.44804671704470889 0.43215483068469362 0 -0.43539009603250872 0.42672849827710091 0 -0.44804671704470889 0.43215483068469362 0 -0.44600668994632248 0.41499234881345748 0 -0.43539009603250872 0.42672849827710091 0 -0.44600668994632248 0.41499234881345748 0 -0.43122124061684231 0.41146187078157781 0 -0.44600668994632248 0.41499234881345748 0 -0.43122124061684231 0.41146187078157781 0 -0.43539009603250872 0.42672849827710091 0 -0.46940551406133157 0.42057953339398713 0 -0.47536252540488771 0.40705041217717042 0 -0.46066431043954542 0.4039699057174721 0 -0.44600668994632248 0.41499234881345748 0 -0.46940551406133157 0.42057953339398713 0 -0.44600668994632248 0.41499234881345748 0 -0.46940551406133157 0.42057953339398713 0 -0.46066431043954542 0.4039699057174721 0 -0.44600668994632248 0.41499234881345748 0 -0.46762103711116543 0.43453603383207812 0 -0.46940551406133157 0.42057953339398713 0 -0.4554648131957354 0.44196729971139398 0 -0.44804671704470889 0.43215483068469362 0 -0.46762103711116543 0.43453603383207812 0 -0.44804671704470889 0.43215483068469362 0 -0.44600668994632248 0.41499234881345748 0 -0.46762103711116543 0.43453603383207812 0 -0.44600668994632248 0.41499234881345748 0 -0.46762103711116543 0.43453603383207812 0 -0.48272613766230998 0.43074358566305282 0 -0.46940551406133157 0.42057953339398713 0 -0.49280433817634089 0.42616671797451627 0 -0.47449401827792959 0.43910639447366112 0 -0.46762103711116543 0.43453603383207812 0 -0.47592273961171422 0.43229121764426209 0 -0.46940551406133157 0.42057953339398713 0 -0.49280433817634089 0.42616671797451627 0 -0.48309545976169871 0.43782572598447389 0 -0.47449401827792959 0.43910639447366112 0 -0.47592273961171422 0.43229121764426209 0 -0.48309545976169871 0.43782572598447389 0 -0.47592273961171422 0.43229121764426209 0 -0.48272613766230998 0.43074358566305282 0 -0.47592273961171422 0.43229121764426209 0 -0.48272613766230998 0.43074358566305282 0 -0.46940551406133157 0.42057953339398713 0 -0.46762103711116543 0.43453603383207812 0 -0.47592273961171422 0.43229121764426209 0 -0.46940551406133157 0.42057953339398713 0 -0.46940551406133157 0.42057953339398713 0 -0.48177282574591462 0.4162759424918791 0 -0.49280433817634089 0.42616671797451627 0 -0.46940551406133157 0.42057953339398713 0 -0.47536252540488771 0.40705041217717042 0 -0.48177282574591462 0.4162759424918791 0 -0.47536252540488771 0.40705041217717042 0 -0.48177282574591462 0.4162759424918791 0 -0.48951892534109809 0.41130710642184282 0 -0.48177282574591462 0.4162759424918791 0 -0.48951892534109809 0.41130710642184282 0 -0.49280433817634089 0.42616671797451627 0 -0.48951892534109809 0.41130710642184282 0 -0.5 0.42899846690091181 0 -0.5 0.39981857975371021 0 -0.48951892534109809 0.41130710642184282 0 -0.5 0.42899846690091181 0 -0.49280433817634089 0.42616671797451627 0 -0.5 0.42899846690091181 0 -0.49280433817634089 0.42616671797451627 0 -0.49240263670046491 0.43685473331802438 0 -0.48309545976169871 0.43782572598447389 0 -0.48272613766230998 0.43074358566305282 0 -0.49240263670046491 0.43685473331802438 0 -0.48272613766230998 0.43074358566305282 0 -0.49280433817634089 0.42616671797451627 0 -0.49240263670046491 0.43685473331802438 0 -0.5 0.39981857975371021 0 -0.47823077794552687 0.38737361849649937 0 -0.5 0.37063869260650872 0 -0.48951892534109809 0.41130710642184282 0 -0.5 0.39981857975371021 0 -0.47823077794552687 0.38737361849649937 0 -0.47536252540488771 0.40705041217717042 0 -0.48951892534109809 0.41130710642184282 0 -0.47823077794552687 0.38737361849649937 0 -0.48951892534109809 0.41130710642184282 0 -0.47823077794552687 0.38737361849649937 0 -0.47536252540488771 0.40705041217717042 0 -0.47823077794552687 0.38737361849649937 0 -0.46066431043954542 0.4039699057174721 0 -0.47823077794552687 0.38737361849649937 0 -0.46694263054995561 0.36344013057115598 0 -0.47823077794552687 0.38737361849649937 0 -0.45239362105088232 0.38983623128310618 0 -0.45139534218645538 0.3721654298428495 0 -0.47823077794552687 0.38737361849649937 0 -0.46066431043954542 0.4039699057174721 0 -0.45239362105088232 0.38983623128310618 0 -0.44438435431940237 0.39888608476961662 0 -0.438524833325865 0.38323778580425899 0 -0.45239362105088232 0.38983623128310618 0 -0.46066431043954542 0.4039699057174721 0 -0.44438435431940237 0.39888608476961662 0 -0.45239362105088232 0.38983623128310618 0 -0.44600668994632248 0.41499234881345748 0 -0.46066431043954542 0.4039699057174721 0 -0.44438435431940237 0.39888608476961662 0 -0.44600668994632248 0.41499234881345748 0 -0.44438435431940237 0.39888608476961662 0 -0.42800555827735209 0.39871573196104892 0 -0.438524833325865 0.38323778580425899 0 -0.45239362105088232 0.38983623128310618 0 -0.45139534218645538 0.3721654298428495 0 -0.438524833325865 0.38323778580425899 0 -0.42420168739963843 0.37812183803155608 0 -0.43504780577367891 0.36400722339877589 0 -0.438524833325865 0.38323778580425899 0 -0.42420168739963843 0.37812183803155608 0 -0.42800555827735209 0.39871573196104892 0 -0.41000442660838138 0.38243911510864048 0 -0.42800555827735209 0.39871573196104892 0 -0.42420168739963843 0.37812183803155608 0 -0.41000442660838138 0.38243911510864048 0 -0.42800555827735209 0.39871573196104892 0 -0.41000442660838138 0.38243911510864048 0 -0.40743516536487601 0.39653339329919712 0 -0.42800555827735209 0.39871573196104892 0 -0.40743516536487601 0.39653339329919712 0 -0.42800555827735209 0.39871573196104892 0 -0.41643579128736219 0.4079313927496977 0 -0.40743516536487601 0.39653339329919712 0 -0.41643579128736219 0.4079313927496977 0 -0.40160758602125868 0.40729115375241048 0 -0.42800555827735209 0.39871573196104892 0 -0.43122124061684231 0.41146187078157781 0 -0.41643579128736219 0.4079313927496977 0 -0.44438435431940237 0.39888608476961662 0 -0.438524833325865 0.38323778580425899 0 -0.42800555827735209 0.39871573196104892 0 -0.43122124061684231 0.41146187078157781 0 -0.4190758472896926 0.42900463632310848 0 -0.41643579128736219 0.4079313927496977 0 -0.44600668994632248 0.41499234881345748 0 -0.42800555827735209 0.39871573196104892 0 -0.44600668994632248 0.41499234881345748 0 -0.42800555827735209 0.39871573196104892 0 -0.43122124061684231 0.41146187078157781 0 -0.43122124061684231 0.41146187078157781 0 -0.41643579128736219 0.4079313927496977 0 -0.4357509489378123 0.44254997278943792 0 -0.43539009603250872 0.42672849827710091 0 -0.4190758472896926 0.42900463632310848 0 -0.4357509489378123 0.44254997278943792 0 -0.4190758472896926 0.42900463632310848 0 -0.43122124061684231 0.41146187078157781 0 -0.43539009603250872 0.42672849827710091 0 -0.4190758472896926 0.42900463632310848 0 -0.4190758472896926 0.42900463632310848 0 -0.40660405181864712 0.43667930711795372 0 -0.40080995070622227 0.41998165432998108 0 -0.4190758472896926 0.42900463632310848 0 -0.41643579128736219 0.4079313927496977 0 -0.40080995070622227 0.41998165432998108 0 -0.41643579128736219 0.4079313927496977 0 -0.40160758602125868 0.40729115375241048 0 -0.40080995070622227 0.41998165432998108 0 -0.40080995070622227 0.41998165432998108 0 -0.38522211773756382 0.42724229760283422 0 -0.38925882942946177 0.41202159374996328 0 -0.40160758602125868 0.40729115375241048 0 -0.40080995070622227 0.41998165432998108 0 -0.38925882942946177 0.41202159374996328 0 -0.40160758602125868 0.40729115375241048 0 -0.38925882942946177 0.41202159374996328 0 -0.39409819331837148 0.39998773463321358 0 -0.40080995070622227 0.41998165432998108 0 -0.39368591456190122 0.4373832091535515 0 -0.38522211773756382 0.42724229760283422 0 -0.40660405181864712 0.43667930711795372 0 -0.40080995070622227 0.41998165432998108 0 -0.39368591456190122 0.4373832091535515 0 -0.38522211773756382 0.42724229760283422 0 -0.37677764599766111 0.41643405758377178 0 -0.37055177776791631 0.43404182432853999 0 -0.38059372853355722 0.44367822023996739 0 -0.39368591456190122 0.4373832091535515 0 -0.38522211773756382 0.42724229760283422 0 -0.38059372853355722 0.44367822023996739 0 -0.38522211773756382 0.42724229760283422 0 -0.37055177776791631 0.43404182432853999 0 -0.38522211773756382 0.42724229760283422 0 -0.38925882942946177 0.41202159374996328 0 -0.37677764599766111 0.41643405758377178 0 -0.38925882942946177 0.41202159374996328 0 -0.37677764599766111 0.41643405758377178 0 -0.37967285571403969 0.40222969171741269 0 -0.37967285571403969 0.40222969171741269 0 -0.39121030090981368 0.38239280066199721 0 -0.37153130942982238 0.38751575799215132 0 -0.37967285571403969 0.40222969171741269 0 -0.39121030090981368 0.38239280066199721 0 -0.39409819331837148 0.39998773463321358 0 -0.38925882942946177 0.41202159374996328 0 -0.37967285571403969 0.40222969171741269 0 -0.39409819331837148 0.39998773463321358 0 -0.39121030090981368 0.38239280066199721 0 -0.37292373606025409 0.37301457748705519 0 -0.37153130942982238 0.38751575799215132 0 -0.41000442660838138 0.38243911510864048 0 -0.40743516536487601 0.39653339329919712 0 -0.39121030090981368 0.38239280066199721 0 -0.41000442660838138 0.38243911510864048 0 -0.39121030090981368 0.38239280066199721 0 -0.40942581301291442 0.36220933388505622 0 -0.40743516536487601 0.39653339329919712 0 -0.39121030090981368 0.38239280066199721 0 -0.39409819331837148 0.39998773463321358 0 -0.40743516536487601 0.39653339329919712 0 -0.40160758602125868 0.40729115375241048 0 -0.39409819331837148 0.39998773463321358 0 -0.39750300350524681 0.34865270496614809 0 -0.38380382025214982 0.36041144437133638 0 -0.40942581301291442 0.36220933388505622 0 -0.39121030090981368 0.38239280066199721 0 -0.38380382025214982 0.36041144437133638 0 -0.40942581301291442 0.36220933388505622 0 -0.38380382025214982 0.36041144437133638 0 -0.40942581301291442 0.36220933388505622 0 -0.39121030090981368 0.38239280066199721 0 -0.38380382025214982 0.36041144437133638 0 -0.37292373606025409 0.37301457748705519 0 -0.38380382025214982 0.36041144437133638 0 -0.38113873886368788 0.33718811110940861 0 -0.37031899769323129 0.3486066317027437 0 -0.39750300350524681 0.34865270496614809 0 -0.38380382025214982 0.36041144437133638 0 -0.38113873886368788 0.33718811110940861 0 -0.38113873886368788 0.33718811110940861 0 -0.37867085570044068 0.31724355711412228 0 -0.36651981516399329 0.33008112182969668 0 -0.38113873886368788 0.33718811110940861 0 -0.37867085570044068 0.31724355711412228 0 -0.39924381899532091 0.31385619655616648 0 -0.38113873886368788 0.33718811110940861 0 -0.39924381899532091 0.31385619655616648 0 -0.40605412578146038 0.33275258289056892 0 -0.39750300350524681 0.34865270496614809 0 -0.38113873886368788 0.33718811110940861 0 -0.40605412578146038 0.33275258289056892 0 -0.38113873886368788 0.33718811110940861 0 -0.40605412578146038 0.33275258289056892 0 -0.39750300350524681 0.34865270496614809 0 -0.40605412578146038 0.33275258289056892 0 -0.41543143935262888 0.34660057510845033 0 -0.40605412578146038 0.33275258289056892 0 -0.43043469052917238 0.33921116698519271 0 -0.41543143935262888 0.34660057510845033 0 -0.40605412578146038 0.33275258289056892 0 -0.42131417358611861 0.31975703138652772 0 -0.43043469052917238 0.33921116698519271 0 -0.39924381899532091 0.31385619655616648 0 -0.40605412578146038 0.33275258289056892 0 -0.42131417358611861 0.31975703138652772 0 -0.42131417358611861 0.31975703138652772 0 -0.43043469052917238 0.33921116698519271 0 -0.44436633575881301 0.31557315472046921 0 -0.43043469052917238 0.33921116698519271 0 -0.41543143935262888 0.34660057510845033 0 -0.43504780577367891 0.36400722339877589 0 -0.39750300350524681 0.34865270496614809 0 -0.41543143935262888 0.34660057510845033 0 -0.40942581301291442 0.36220933388505622 0 -0.41543143935262888 0.34660057510845033 0 -0.40942581301291442 0.36220933388505622 0 -0.43504780577367891 0.36400722339877589 0 -0.42420168739963843 0.37812183803155608 0 -0.41000442660838138 0.38243911510864048 0 -0.40942581301291442 0.36220933388505622 0 -0.40942581301291442 0.36220933388505622 0 -0.43504780577367891 0.36400722339877589 0 -0.42420168739963843 0.37812183803155608 0 -0.40942581301291442 0.36220933388505622 0 -0.43504780577367891 0.36400722339877589 0 -0.45139534218645538 0.3721654298428495 0 -0.46694263054995561 0.36344013057115598 0 -0.45565448315438423 0.33950664264581248 0 -0.43504780577367891 0.36400722339877589 0 -0.45139534218645538 0.3721654298428495 0 -0.45565448315438423 0.33950664264581248 0 -0.438524833325865 0.38323778580425899 0 -0.43504780577367891 0.36400722339877589 0 -0.45139534218645538 0.3721654298428495 0 -0.43043469052917238 0.33921116698519271 0 -0.43504780577367891 0.36400722339877589 0 -0.45565448315438423 0.33950664264581248 0 -0.46694263054995561 0.36344013057115598 0 -0.45565448315438423 0.33950664264581248 0 -0.46694263054995561 0.36344013057115598 0 -0.4792000525155114 0.34602598306428251 0 -0.45565448315438423 0.33950664264581248 0 -0.47823077794552687 0.38737361849649937 0 -0.45139534218645538 0.3721654298428495 0 -0.46694263054995561 0.36344013057115598 0 -0.47823077794552687 0.38737361849649937 0 -0.46694263054995561 0.36344013057115598 0 -0.5 0.37063869260650872 0 -0.46694263054995561 0.36344013057115598 0 -0.4792000525155114 0.34602598306428251 0 -0.5 0.37063869260650872 0 -0.4792000525155114 0.34602598306428251 0 -0.5 0.37063869260650872 0 -0.5 0.34145880545930718 0 -0.5 0.34145880545930718 0 -0.47595380115210761 0.32567844839004079 0 -0.5 0.31227891831210569 0 -0.4792000525155114 0.34602598306428251 0 -0.5 0.34145880545930718 0 -0.47595380115210761 0.32567844839004079 0 -0.4792000525155114 0.34602598306428251 0 -0.47595380115210761 0.32567844839004079 0 -0.45565448315438423 0.33950664264581248 0 -0.47595380115210761 0.32567844839004079 0 -0.45565448315438423 0.33950664264581248 0 -0.44436633575881301 0.31557315472046921 0 -0.47595380115210761 0.32567844839004079 0 -0.44436633575881301 0.31557315472046921 0 -0.4765019354839371 0.29922718613826832 0 -0.43043469052917238 0.33921116698519271 0 -0.45565448315438423 0.33950664264581248 0 -0.44436633575881301 0.31557315472046921 0 -0.45565448315438423 0.33950664264581248 0 -0.44436633575881301 0.31557315472046921 0 -0.44436633575881301 0.31557315472046921 0 -0.44099009493231428 0.28837077795582938 0 -0.45833566804169751 0.28936105991203759 0 -0.44436633575881301 0.31557315472046921 0 -0.45833566804169751 0.28936105991203759 0 -0.4765019354839371 0.29922718613826832 0 -0.44099009493231428 0.28837077795582938 0 -0.45833566804169751 0.28936105991203759 0 -0.45545347355542848 0.2738174338300291 0 -0.47595380115210761 0.32567844839004079 0 -0.4765019354839371 0.29922718613826832 0 -0.5 0.31227891831210569 0 -0.45833566804169751 0.28936105991203759 0 -0.4765019354839371 0.29922718613826832 0 -0.47787934565231333 0.2725798425716372 0 -0.4765019354839371 0.29922718613826832 0 -0.5 0.2830990311649042 0 -0.47787934565231333 0.2725798425716372 0 -0.4765019354839371 0.29922718613826832 0 -0.5 0.2830990311649042 0 -0.5 0.31227891831210569 0 -0.5 0.25391914401770282 0 -0.47787934565231333 0.2725798425716372 0 -0.47717593892139021 0.25179324361900268 0 -0.5 0.2830990311649042 0 -0.5 0.25391914401770282 0 -0.47787934565231333 0.2725798425716372 0 -0.47787934565231333 0.2725798425716372 0 -0.47717593892139021 0.25179324361900268 0 -0.46622511875373518 0.26353118948426618 0 -0.46342219189871742 0.2494556258641823 0 -0.47717593892139021 0.25179324361900268 0 -0.46622511875373518 0.26353118948426618 0 -0.46342219189871742 0.2494556258641823 0 -0.46622511875373518 0.26353118948426618 0 -0.44543003678968002 0.26039875117901079 0 -0.47787934565231333 0.2725798425716372 0 -0.46622511875373518 0.26353118948426618 0 -0.45545347355542848 0.2738174338300291 0 -0.45833566804169751 0.28936105991203759 0 -0.47787934565231333 0.2725798425716372 0 -0.45545347355542848 0.2738174338300291 0 -0.46622511875373518 0.26353118948426618 0 -0.45545347355542848 0.2738174338300291 0 -0.44543003678968002 0.26039875117901079 0 -0.44229372173984549 0.27396288346787528 0 -0.44543003678968002 0.26039875117901079 0 -0.42866728306273483 0.27303910276259119 0 -0.44099009493231428 0.28837077795582938 0 -0.45545347355542848 0.2738174338300291 0 -0.44229372173984549 0.27396288346787528 0 -0.45545347355542848 0.2738174338300291 0 -0.44229372173984549 0.27396288346787528 0 -0.44543003678968002 0.26039875117901079 0 -0.44776935611995222 0.24423706133883999 0 -0.44543003678968002 0.26039875117901079 0 -0.43034752120389669 0.25321385163389648 0 -0.44776935611995222 0.24423706133883999 0 -0.46342219189871742 0.2494556258641823 0 -0.44543003678968002 0.26039875117901079 0 -0.44543003678968002 0.26039875117901079 0 -0.43034752120389669 0.25321385163389648 0 -0.42866728306273483 0.27303910276259119 0 -0.43034752120389669 0.25321385163389648 0 -0.41704845321265538 0.26055513977215849 0 -0.42866728306273483 0.27303910276259119 0 -0.41508104439967403 0.24519736438917361 0 -0.41704845321265538 0.26055513977215849 0 -0.39950360821606928 0.25530860255497162 0 -0.41704845321265538 0.26055513977215849 0 -0.41311134801625737 0.27388277245492698 0 -0.39950360821606928 0.25530860255497162 0 -0.41508104439967403 0.24519736438917361 0 -0.43034752120389669 0.25321385163389648 0 -0.41704845321265538 0.26055513977215849 0 -0.41508104439967403 0.24519736438917361 0 -0.39950360821606928 0.25530860255497162 0 -0.41311134801625737 0.27388277245492698 0 -0.42866728306273483 0.27303910276259119 0 -0.42096368198413109 0.29592861762934508 0 -0.41704845321265538 0.26055513977215849 0 -0.41311134801625737 0.27388277245492698 0 -0.42866728306273483 0.27303910276259119 0 -0.44099009493231428 0.28837077795582938 0 -0.44229372173984549 0.27396288346787528 0 -0.42866728306273483 0.27303910276259119 0 -0.44099009493231428 0.28837077795582938 0 -0.42866728306273483 0.27303910276259119 0 -0.42096368198413109 0.29592861762934508 0 -0.42131417358611861 0.31975703138652772 0 -0.44436633575881301 0.31557315472046921 0 -0.42096368198413109 0.29592861762934508 0 -0.44436633575881301 0.31557315472046921 0 -0.44099009493231428 0.28837077795582938 0 -0.42096368198413109 0.29592861762934508 0 -0.39924381899532091 0.31385619655616648 0 -0.42096368198413109 0.29592861762934508 0 -0.39937371360569551 0.28458239955556902 0 -0.39924381899532091 0.31385619655616648 0 -0.42131417358611861 0.31975703138652772 0 -0.42096368198413109 0.29592861762934508 0 -0.41311134801625737 0.27388277245492698 0 -0.42096368198413109 0.29592861762934508 0 -0.39937371360569551 0.28458239955556902 0 -0.39924381899532091 0.31385619655616648 0 -0.39937371360569551 0.28458239955556902 0 -0.39924381899532091 0.31385619655616648 0 -0.39937371360569551 0.28458239955556902 0 -0.37965908829212602 0.29429523952211017 0 -0.37867085570044068 0.31724355711412228 0 -0.39924381899532091 0.31385619655616648 0 -0.37965908829212602 0.29429523952211017 0 -0.37965908829212602 0.29429523952211017 0 -0.38328347491380432 0.27990483682637363 0 -0.36931071006725857 0.2749066660937946 0 -0.39937371360569551 0.28458239955556902 0 -0.37965908829212602 0.29429523952211017 0 -0.38328347491380432 0.27990483682637363 0 -0.39937371360569551 0.28458239955556902 0 -0.38328347491380432 0.27990483682637363 0 -0.38440715914166368 0.26510763432438261 0 -0.38440715914166368 0.26510763432438261 0 -0.36931071006725857 0.2749066660937946 0 -0.38328347491380432 0.27990483682637363 0 -0.38440715914166368 0.26510763432438261 0 -0.36931071006725857 0.2749066660937946 0 -0.38332481097124571 0.24869408969404011 0 -0.38440715914166368 0.26510763432438261 0 -0.3683119580287349 0.25512360104486692 0 -0.38332481097124571 0.24869408969404011 0 -0.38440715914166368 0.26510763432438261 0 -0.39950360821606928 0.25530860255497162 0 -0.38440715914166368 0.26510763432438261 0 -0.39950360821606928 0.25530860255497162 0 -0.39937371360569551 0.28458239955556902 0 -0.38440715914166368 0.26510763432438261 0 -0.39950360821606928 0.25530860255497162 0 -0.39937371360569551 0.28458239955556902 0 -0.39950360821606928 0.25530860255497162 0 -0.41311134801625737 0.27388277245492698 0 -0.39937371360569551 0.28458239955556902 0 -0.39950360821606928 0.25530860255497162 0 -0.35709346930803348 0.26763549968947581 0 -0.35623598870032802 0.2875270067957289 0 -0.34051824321497831 0.26927880230899798 0 -0.34713503643075377 0.24967148756325119 0 -0.35709346930803348 0.26763549968947581 0 -0.34051824321497831 0.26927880230899798 0 -0.34713503643075377 0.24967148756325119 0 -0.35709346930803348 0.26763549968947581 0 -0.3683119580287349 0.25512360104486692 0 -0.38440715914166368 0.26510763432438261 0 -0.3683119580287349 0.25512360104486692 0 -0.36931071006725857 0.2749066660937946 0 -0.35709346930803348 0.26763549968947581 0 -0.3683119580287349 0.25512360104486692 0 -0.36931071006725857 0.2749066660937946 0 -0.35709346930803348 0.26763549968947581 0 -0.36931071006725857 0.2749066660937946 0 -0.35623598870032802 0.2875270067957289 0 -0.37965908829212602 0.29429523952211017 0 -0.36931071006725857 0.2749066660937946 0 -0.35623598870032802 0.2875270067957289 0 -0.37965908829212602 0.29429523952211017 0 -0.36326795595698719 0.31061774892059379 0 -0.35623598870032802 0.2875270067957289 0 -0.37867085570044068 0.31724355711412228 0 -0.37965908829212602 0.29429523952211017 0 -0.36326795595698719 0.31061774892059379 0 -0.36326795595698719 0.31061774892059379 0 -0.3448810664641056 0.30857928481437491 0 -0.35623598870032802 0.2875270067957289 0 -0.35623598870032802 0.2875270067957289 0 -0.33892138759880691 0.28737580622075548 0 -0.34051824321497831 0.26927880230899798 0 -0.3448810664641056 0.30857928481437491 0 -0.35623598870032802 0.2875270067957289 0 -0.33892138759880691 0.28737580622075548 0 -0.3448810664641056 0.30857928481437491 0 -0.33892138759880691 0.28737580622075548 0 -0.32555312861535418 0.29678579150208501 0 -0.32555312861535418 0.29678579150208501 0 -0.33358048303663101 0.32436234979791628 0 -0.3448810664641056 0.30857928481437491 0 -0.32555312861535418 0.29678579150208501 0 -0.33358048303663101 0.32436234979791628 0 -0.32555312861535418 0.29678579150208501 0 -0.30141426315894332 0.30919851095816869 0 -0.31644546382994582 0.32244138273027922 0 -0.33892138759880691 0.28737580622075548 0 -0.32555312861535418 0.29678579150208501 0 -0.31752577419407751 0.26920923320625362 0 -0.32555312861535418 0.29678579150208501 0 -0.31752577419407751 0.26920923320625362 0 -0.29831761371167298 0.28351114302202762 0 -0.32555312861535418 0.29678579150208501 0 -0.31752577419407751 0.26920923320625362 0 -0.33892138759880691 0.28737580622075548 0 -0.31752577419407751 0.26920923320625362 0 -0.34051824321497831 0.26927880230899798 0 -0.31752577419407751 0.26920923320625362 0 -0.34051824321497831 0.26927880230899798 0 -0.32877515114103262 0.25241493566753948 0 -0.34713503643075377 0.24967148756325119 0 -0.34051824321497831 0.26927880230899798 0 -0.32877515114103262 0.25241493566753948 0 -0.30949841977280068 0.24163267491042209 0 -0.31752577419407751 0.26920923320625362 0 -0.30949841977280068 0.24163267491042209 0 -0.31752577419407751 0.26920923320625362 0 -0.32877515114103262 0.25241493566753948 0 -0.30949841977280068 0.24163267491042209 0 -0.31752577419407751 0.26920923320625362 0 -0.2952209642644027 0.25782377508588661 0 -0.31752577419407751 0.26920923320625362 0 -0.2952209642644027 0.25782377508588661 0 -0.29831761371167298 0.28351114302202762 0 -0.2952209642644027 0.25782377508588661 0 -0.29831761371167298 0.28351114302202762 0 -0.2952209642644027 0.25782377508588661 0 -0.27780393759258548 0.27056794148965269 0 -0.29831761371167298 0.28351114302202762 0 -0.27780393759258548 0.27056794148965269 0 -0.27535813169036422 0.28807666738101312 0 -0.29831761371167298 0.28351114302202762 0 -0.28343699201108957 0.24494826123210689 0 -0.2952209642644027 0.25782377508588661 0 -0.27387252477080049 0.25384945815621962 0 -0.2952209642644027 0.25782377508588661 0 -0.27387252477080049 0.25384945815621962 0 -0.27780393759258548 0.27056794148965269 0 -0.27387252477080049 0.25384945815621962 0 -0.27780393759258548 0.27056794148965269 0 -0.26315723479924519 0.26643717930770289 0 -0.27780393759258548 0.27056794148965269 0 -0.26315723479924519 0.26643717930770289 0 -0.26135843833802591 0.28087390606931828 0 -0.27780393759258548 0.27056794148965269 0 -0.26135843833802591 0.28087390606931828 0 -0.27535813169036422 0.28807666738101312 0 -0.26315723479924519 0.26643717930770289 0 -0.26135843833802591 0.28087390606931828 0 -0.25027870342817993 0.27348509089476652 0 -0.26135843833802591 0.28087390606931828 0 -0.25027870342817993 0.27348509089476652 0 -0.24600045521931049 0.28593154543727778 0 -0.26315723479924519 0.26643717930770289 0 -0.25027870342817993 0.27348509089476652 0 -0.25255672097802823 0.26278996840377622 0 -0.25255672097802823 0.26278996840377622 0 -0.25950637057499037 0.25645591549124258 0 -0.24759739790112481 0.25315441603119782 0 -0.26034797442575353 0.24604855555731669 0 -0.25950637057499037 0.25645591549124258 0 -0.24759739790112481 0.25315441603119782 0 -0.26034797442575353 0.24604855555731669 0 -0.27387252477080049 0.25384945815621962 0 -0.25950637057499037 0.25645591549124258 0 -0.26315723479924519 0.26643717930770289 0 -0.25255672097802823 0.26278996840377622 0 -0.25950637057499037 0.25645591549124258 0 -0.27387252477080049 0.25384945815621962 0 -0.26315723479924519 0.26643717930770289 0 -0.25950637057499037 0.25645591549124258 0 -0.25597075036591121 0.29696193378846469 0 -0.27222525914630519 0.30789467516027991 0 -0.25694910642793961 0.31363538248303702 0 -0.25597075036591121 0.29696193378846469 0 -0.25694910642793961 0.31363538248303702 0 -0.24506209967329479 0.30886558668515401 0 -0.26135843833802591 0.28087390606931828 0 -0.25597075036591121 0.29696193378846469 0 -0.27535813169036422 0.28807666738101312 0 -0.26135843833802591 0.28087390606931828 0 -0.25597075036591121 0.29696193378846469 0 -0.24600045521931049 0.28593154543727778 0 -0.27535813169036422 0.28807666738101312 0 -0.27222525914630519 0.30789467516027991 0 -0.28735935211237013 0.29912948948135498 0 -0.25597075036591121 0.29696193378846469 0 -0.27535813169036422 0.28807666738101312 0 -0.27222525914630519 0.30789467516027991 0 -0.28735935211237013 0.29912948948135498 0 -0.30141426315894332 0.30919851095816869 0 -0.28701027084984299 0.31753397022355828 0 -0.27222525914630519 0.30789467516027991 0 -0.28735935211237013 0.29912948948135498 0 -0.28701027084984299 0.31753397022355828 0 -0.28735935211237013 0.29912948948135498 0 -0.29831761371167298 0.28351114302202762 0 -0.30141426315894332 0.30919851095816869 0 -0.27535813169036422 0.28807666738101312 0 -0.28735935211237013 0.29912948948135498 0 -0.29831761371167298 0.28351114302202762 0 -0.29831761371167298 0.28351114302202762 0 -0.30141426315894332 0.30919851095816869 0 -0.32555312861535418 0.29678579150208501 0 -0.29831761371167298 0.28351114302202762 0 -0.30141426315894332 0.30919851095816869 0 -0.30141426315894332 0.30919851095816869 0 -0.30451091260621532 0.33488587889430949 0 -0.30141426315894332 0.30919851095816869 0 -0.30451091260621532 0.33488587889430949 0 -0.31644546382994582 0.32244138273027922 0 -0.30141426315894332 0.30919851095816869 0 -0.30451091260621532 0.33488587889430949 0 -0.28701027084984299 0.31753397022355828 0 -0.30451091260621532 0.33488587889430949 0 -0.30639257811037129 0.35049469576593112 0 -0.30451091260621532 0.33488587889430949 0 -0.30639257811037129 0.35049469576593112 0 -0.31606276380091358 0.342039013998509 0 -0.30451091260621532 0.33488587889430949 0 -0.29588720779928268 0.34384330619990522 0 -0.30639257811037129 0.35049469576593112 0 -0.30451091260621532 0.33488587889430949 0 -0.28651846820265098 0.33273184812681061 0 -0.30451091260621532 0.33488587889430949 0 -0.28651846820265098 0.33273184812681061 0 -0.29588720779928268 0.34384330619990522 0 -0.30451091260621532 0.33488587889430949 0 -0.28651846820265098 0.33273184812681061 0 -0.28701027084984299 0.31753397022355828 0 -0.28651846820265098 0.33273184812681061 0 -0.28033629863483028 0.34261434572846078 0 -0.29588720779928268 0.34384330619990522 0 -0.28651846820265098 0.33273184812681061 0 -0.28701027084984299 0.31753397022355828 0 -0.26852602379908591 0.33057781735931868 0 -0.27222525914630519 0.30789467516027991 0 -0.26852602379908591 0.33057781735931868 0 -0.25694910642793961 0.31363538248303702 0 -0.27222525914630519 0.30789467516027991 0 -0.28701027084984299 0.31753397022355828 0 -0.26852602379908591 0.33057781735931868 0 -0.28651846820265098 0.33273184812681061 0 -0.26852602379908591 0.33057781735931868 0 -0.28651846820265098 0.33273184812681061 0 -0.28033629863483028 0.34261434572846078 0 -0.26852602379908591 0.33057781735931868 0 -0.28033629863483028 0.34261434572846078 0 -0.27002081724391991 0.34233875731118801 0 -0.26852602379908591 0.33057781735931868 0 -0.27002081724391991 0.34233875731118801 0 -0.26852602379908591 0.33057781735931868 0 -0.2590222026346477 0.34358272508480392 0 -0.26852602379908591 0.33057781735931868 0 -0.2590222026346477 0.34358272508480392 0 -0.24515466658146171 0.325618700264869 0 -0.26852602379908591 0.33057781735931868 0 -0.25694910642793961 0.31363538248303702 0 -0.24515466658146171 0.325618700264869 0 -0.25193422489448369 0.368596584172802 0 -0.26216403037483549 0.35836842344299308 0 -0.23600533649031241 0.36302528971104198 0 -0.26316811568406728 0.37240942770973401 0 -0.25193422489448369 0.368596584172802 0 -0.26216403037483549 0.35836842344299308 0 -0.26316811568406728 0.37240942770973401 0 -0.25193422489448369 0.368596584172802 0 -0.25178122254076452 0.38222546314694161 0 -0.2590222026346477 0.34358272508480392 0 -0.26216403037483549 0.35836842344299308 0 -0.24944289275892051 0.35232460830669848 0 -0.2590222026346477 0.34358272508480392 0 -0.26216403037483549 0.35836842344299308 0 -0.27219874390711563 0.35258014107216867 0 -0.26216403037483549 0.35836842344299308 0 -0.27219874390711563 0.35258014107216867 0 -0.28832272425935829 0.35371155717494362 0 -0.26216403037483549 0.35836842344299308 0 -0.28832272425935829 0.35371155717494362 0 -0.27219874390711563 0.35258014107216867 0 -0.28832272425935829 0.35371155717494362 0 -0.28033629863483028 0.34261434572846078 0 -0.27219874390711563 0.35258014107216867 0 -0.28832272425935829 0.35371155717494362 0 -0.27002081724391991 0.34233875731118801 0 -0.2590222026346477 0.34358272508480392 0 -0.27219874390711563 0.35258014107216867 0 -0.28033629863483028 0.34261434572846078 0 -0.27002081724391991 0.34233875731118801 0 -0.27219874390711563 0.35258014107216867 0 -0.26316811568406728 0.37240942770973401 0 -0.26216403037483549 0.35836842344299308 0 -0.27909272739465552 0.37014505527249242 0 -0.26216403037483549 0.35836842344299308 0 -0.27909272739465552 0.37014505527249242 0 -0.28832272425935829 0.35371155717494362 0 -0.27909272739465552 0.37014505527249242 0 -0.29665282166164109 0.36393865851796842 0 -0.29821730352905118 0.37946100811929911 0 -0.27909272739465552 0.37014505527249242 0 -0.29665282166164109 0.36393865851796842 0 -0.28832272425935829 0.35371155717494362 0 -0.28832272425935829 0.35371155717494362 0 -0.29588720779928268 0.34384330619990522 0 -0.30639257811037129 0.35049469576593112 0 -0.28033629863483028 0.34261434572846078 0 -0.28832272425935829 0.35371155717494362 0 -0.29588720779928268 0.34384330619990522 0 -0.29665282166164109 0.36393865851796842 0 -0.28832272425935829 0.35371155717494362 0 -0.30693784196985652 0.35501777583017241 0 -0.28832272425935829 0.35371155717494362 0 -0.30639257811037129 0.35049469576593112 0 -0.28832272425935829 0.35371155717494362 0 -0.30693784196985652 0.35501777583017241 0 -0.28832272425935829 0.35371155717494362 0 -0.30693784196985652 0.35501777583017241 0 -0.30639257811037129 0.35049469576593112 0 -0.30693784196985652 0.35501777583017241 0 -0.30639257811037129 0.35049469576593112 0 -0.29665282166164109 0.36393865851796842 0 -0.30861812429542729 0.36895607626374533 0 -0.29821730352905118 0.37946100811929911 0 -0.29665282166164109 0.36393865851796842 0 -0.30693784196985652 0.35501777583017241 0 -0.30861812429542729 0.36895607626374533 0 -0.30693784196985652 0.35501777583017241 0 -0.30861812429542729 0.36895607626374533 0 -0.31903148572345058 0.36363788040536638 0 -0.30693784196985652 0.35501777583017241 0 -0.30861812429542729 0.36895607626374533 0 -0.30861812429542729 0.36895607626374533 0 -0.3196700440316842 0.37293764439472021 0 -0.31903148572345058 0.36363788040536638 0 -0.31903148572345058 0.36363788040536638 0 -0.32815917750510848 0.36852983330287448 0 -0.33255983473062067 0.35681566534389703 0 -0.3196700440316842 0.37293764439472021 0 -0.31903148572345058 0.36363788040536638 0 -0.32815917750510848 0.36852983330287448 0 -0.3196700440316842 0.37293764439472021 0 -0.32815917750510848 0.36852983330287448 0 -0.32851837053387051 0.37989813042492071 0 -0.32815917750510848 0.36852983330287448 0 -0.34184664903869622 0.37130890357054003 0 -0.32851837053387051 0.37989813042492071 0 -0.32815917750510848 0.36852983330287448 0 -0.34184664903869622 0.37130890357054003 0 -0.33255983473062067 0.35681566534389703 0 -0.33255983473062067 0.35681566534389703 0 -0.33130796502814308 0.34605916754708788 0 -0.34470640164435629 0.35036469888618671 0 -0.30693784196985652 0.35501777583017241 0 -0.31903148572345058 0.36363788040536638 0 -0.33255983473062067 0.35681566534389703 0 -0.30639257811037129 0.35049469576593112 0 -0.33130796502814308 0.34605916754708788 0 -0.31606276380091358 0.342039013998509 0 -0.30693784196985652 0.35501777583017241 0 -0.30639257811037129 0.35049469576593112 0 -0.33130796502814308 0.34605916754708788 0 -0.30639257811037129 0.35049469576593112 0 -0.33130796502814308 0.34605916754708788 0 -0.30693784196985652 0.35501777583017241 0 -0.33255983473062067 0.35681566534389703 0 -0.33130796502814308 0.34605916754708788 0 -0.30693784196985652 0.35501777583017241 0 -0.33255983473062067 0.35681566534389703 0 -0.30451091260621532 0.33488587889430949 0 -0.31606276380091358 0.342039013998509 0 -0.32510517079183832 0.33735139523941399 0 -0.30451091260621532 0.33488587889430949 0 -0.32510517079183832 0.33735139523941399 0 -0.30451091260621532 0.33488587889430949 0 -0.32510517079183832 0.33735139523941399 0 -0.31644546382994582 0.32244138273027922 0 -0.33130796502814308 0.34605916754708788 0 -0.31606276380091358 0.342039013998509 0 -0.32510517079183832 0.33735139523941399 0 -0.32555312861535418 0.29678579150208501 0 -0.31644546382994582 0.32244138273027922 0 -0.33358048303663101 0.32436234979791628 0 -0.32510517079183832 0.33735139523941399 0 -0.31644546382994582 0.32244138273027922 0 -0.33358048303663101 0.32436234979791628 0 -0.3448810664641056 0.30857928481437491 0 -0.33358048303663101 0.32436234979791628 0 -0.34378890298218368 0.32883616645216213 0 -0.33130796502814308 0.34605916754708788 0 -0.32510517079183832 0.33735139523941399 0 -0.34569942897746059 0.33981691158452559 0 -0.32510517079183832 0.33735139523941399 0 -0.34569942897746059 0.33981691158452559 0 -0.32510517079183832 0.33735139523941399 0 -0.33358048303663101 0.32436234979791628 0 -0.34378890298218368 0.32883616645216213 0 -0.32510517079183832 0.33735139523941399 0 -0.34569942897746059 0.33981691158452559 0 -0.34378890298218368 0.32883616645216213 0 -0.33130796502814308 0.34605916754708788 0 -0.34569942897746059 0.33981691158452559 0 -0.35622335194591548 0.34162363932824819 0 -0.34569942897746059 0.33981691158452559 0 -0.34378890298218368 0.32883616645216213 0 -0.35324326735671918 0.33250367370756018 0 -0.35324326735671918 0.33250367370756018 0 -0.35398483771404238 0.32216052934316841 0 -0.36651981516399329 0.33008112182969668 0 -0.35324326735671918 0.33250367370756018 0 -0.35622335194591548 0.34162363932824819 0 -0.36651981516399329 0.33008112182969668 0 -0.34569942897746059 0.33981691158452559 0 -0.35324326735671918 0.33250367370756018 0 -0.35622335194591548 0.34162363932824819 0 -0.36326795595698719 0.31061774892059379 0 -0.3448810664641056 0.30857928481437491 0 -0.35398483771404238 0.32216052934316841 0 -0.3448810664641056 0.30857928481437491 0 -0.34378890298218368 0.32883616645216213 0 -0.35398483771404238 0.32216052934316841 0 -0.34378890298218368 0.32883616645216213 0 -0.35324326735671918 0.33250367370756018 0 -0.35398483771404238 0.32216052934316841 0 -0.36326795595698719 0.31061774892059379 0 -0.35398483771404238 0.32216052934316841 0 -0.36651981516399329 0.33008112182969668 0 -0.37867085570044068 0.31724355711412228 0 -0.36326795595698719 0.31061774892059379 0 -0.36651981516399329 0.33008112182969668 0 -0.38113873886368788 0.33718811110940861 0 -0.35622335194591548 0.34162363932824819 0 -0.38113873886368788 0.33718811110940861 0 -0.35622335194591548 0.34162363932824819 0 -0.37031899769323129 0.3486066317027437 0 -0.38113873886368788 0.33718811110940861 0 -0.35622335194591548 0.34162363932824819 0 -0.36651981516399329 0.33008112182969668 0 -0.35622335194591548 0.34162363932824819 0 -0.37031899769323129 0.3486066317027437 0 -0.35818182749138527 0.3586135548576167 0 -0.38380382025214982 0.36041144437133638 0 -0.37031899769323129 0.3486066317027437 0 -0.35818182749138527 0.3586135548576167 0 -0.38380382025214982 0.36041144437133638 0 -0.35818182749138527 0.3586135548576167 0 -0.38380382025214982 0.36041144437133638 0 -0.37292373606025409 0.37301457748705519 0 -0.35818182749138527 0.3586135548576167 0 -0.37292373606025409 0.37301457748705519 0 -0.35818182749138527 0.3586135548576167 0 -0.35989142221809939 0.37613932955217422 0 -0.34184664903869622 0.37130890357054003 0 -0.35818182749138527 0.3586135548576167 0 -0.35989142221809939 0.37613932955217422 0 -0.34184664903869622 0.37130890357054003 0 -0.33255983473062067 0.35681566534389703 0 -0.35818182749138527 0.3586135548576167 0 -0.35622335194591548 0.34162363932824819 0 -0.35818182749138527 0.3586135548576167 0 -0.34470640164435629 0.35036469888618671 0 -0.33130796502814308 0.34605916754708788 0 -0.35622335194591548 0.34162363932824819 0 -0.33255983473062067 0.35681566534389703 0 -0.35818182749138527 0.3586135548576167 0 -0.33255983473062067 0.35681566534389703 0 -0.35818182749138527 0.3586135548576167 0 -0.34470640164435629 0.35036469888618671 0 -0.33130796502814308 0.34605916754708788 0 -0.35622335194591548 0.34162363932824819 0 -0.34470640164435629 0.35036469888618671 0 -0.35830478571062829 0.39291216171201299 0 -0.35194363720999622 0.41074542492000771 0 -0.34304610577838202 0.39084461902991519 0 -0.35830478571062829 0.39291216171201299 0 -0.36610305523348019 0.40392071752730357 0 -0.35194363720999622 0.41074542492000771 0 -0.35194363720999622 0.41074542492000771 0 -0.33725184787705881 0.40823108976311578 0 -0.34304610577838202 0.39084461902991519 0 -0.34184664903869622 0.37130890357054003 0 -0.35989142221809939 0.37613932955217422 0 -0.34304610577838202 0.39084461902991519 0 -0.35830478571062829 0.39291216171201299 0 -0.35989142221809939 0.37613932955217422 0 -0.34304610577838202 0.39084461902991519 0 -0.35830478571062829 0.39291216171201299 0 -0.35989142221809939 0.37613932955217422 0 -0.37153130942982238 0.38751575799215132 0 -0.37292373606025409 0.37301457748705519 0 -0.35989142221809939 0.37613932955217422 0 -0.37153130942982238 0.38751575799215132 0 -0.35830478571062829 0.39291216171201299 0 -0.37153130942982238 0.38751575799215132 0 -0.36610305523348019 0.40392071752730357 0 -0.37967285571403969 0.40222969171741269 0 -0.37153130942982238 0.38751575799215132 0 -0.36610305523348019 0.40392071752730357 0 -0.37677764599766111 0.41643405758377178 0 -0.36610305523348019 0.40392071752730357 0 -0.36395861277120739 0.41911271047558618 0 -0.37677764599766111 0.41643405758377178 0 -0.37967285571403969 0.40222969171741269 0 -0.36610305523348019 0.40392071752730357 0 -0.36610305523348019 0.40392071752730357 0 -0.36395861277120739 0.41911271047558618 0 -0.35194363720999622 0.41074542492000771 0 -0.37677764599766111 0.41643405758377178 0 -0.36395861277120739 0.41911271047558618 0 -0.37055177776791631 0.43404182432853999 0 -0.36395861277120739 0.41911271047558618 0 -0.37055177776791631 0.43404182432853999 0 -0.35522752088127058 0.42839567407450868 0 -0.37055177776791631 0.43404182432853999 0 -0.35522752088127058 0.42839567407450868 0 -0.35979349460266491 0.44075582420916293 0 -0.35522752088127058 0.42839567407450868 0 -0.34223094411588001 0.43768468548487133 0 -0.35979349460266491 0.44075582420916293 0 -0.35522752088127058 0.42839567407450868 0 -0.34231696521638633 0.42113740240576858 0 -0.34223094411588001 0.43768468548487133 0 -0.36395861277120739 0.41911271047558618 0 -0.35522752088127058 0.42839567407450868 0 -0.35194363720999622 0.41074542492000771 0 -0.35522752088127058 0.42839567407450868 0 -0.35194363720999622 0.41074542492000771 0 -0.34231696521638633 0.42113740240576858 0 -0.35194363720999622 0.41074542492000771 0 -0.33725184787705881 0.40823108976311578 0 -0.34231696521638633 0.42113740240576858 0 -0.33725184787705881 0.40823108976311578 0 -0.32352198361393181 0.42062280270790159 0 -0.32543054756659751 0.39780519975198619 0 -0.33725184787705881 0.40823108976311578 0 -0.34231696521638633 0.42113740240576858 0 -0.32352198361393181 0.42062280270790159 0 -0.34231696521638633 0.42113740240576858 0 -0.32352198361393181 0.42062280270790159 0 -0.34223094411588001 0.43768468548487133 0 -0.32352198361393181 0.42062280270790159 0 -0.34223094411588001 0.43768468548487133 0 -0.32352198361393181 0.42062280270790159 0 -0.32413507494797311 0.43756826150304251 0 -0.34223094411588001 0.43768468548487133 0 -0.32352198361393181 0.42062280270790159 0 -0.30300927390836901 0.42971884315273973 0 -0.32413507494797311 0.43756826150304251 0 -0.32352198361393181 0.42062280270790159 0 -0.32543054756659751 0.39780519975198619 0 -0.30481302311198383 0.40356091993093202 0 -0.32352198361393181 0.42062280270790159 0 -0.30481302311198383 0.40356091993093202 0 -0.32543054756659751 0.39780519975198619 0 -0.31402306210056369 0.38366630157669401 0 -0.30481302311198383 0.40356091993093202 0 -0.33725184787705881 0.40823108976311578 0 -0.32543054756659751 0.39780519975198619 0 -0.34304610577838202 0.39084461902991519 0 -0.32543054756659751 0.39780519975198619 0 -0.34304610577838202 0.39084461902991519 0 -0.32851837053387051 0.37989813042492071 0 -0.34184664903869622 0.37130890357054003 0 -0.34304610577838202 0.39084461902991519 0 -0.32851837053387051 0.37989813042492071 0 -0.32543054756659751 0.39780519975198619 0 -0.32851837053387051 0.37989813042492071 0 -0.31402306210056369 0.38366630157669401 0 -0.3196700440316842 0.37293764439472021 0 -0.32851837053387051 0.37989813042492071 0 -0.31402306210056369 0.38366630157669401 0 -0.30861812429542729 0.36895607626374533 0 -0.3196700440316842 0.37293764439472021 0 -0.31402306210056369 0.38366630157669401 0 -0.31402306210056369 0.38366630157669401 0 -0.29821730352905118 0.37946100811929911 0 -0.30481302311198383 0.40356091993093202 0 -0.30861812429542729 0.36895607626374533 0 -0.31402306210056369 0.38366630157669401 0 -0.29821730352905118 0.37946100811929911 0 -0.30481302311198383 0.40356091993093202 0 -0.28610406261003568 0.38649903715396239 0 -0.30481302311198383 0.40356091993093202 0 -0.28610406261003568 0.38649903715396239 0 -0.27862014895604442 0.4010092345993157 0 -0.29821730352905118 0.37946100811929911 0 -0.30481302311198383 0.40356091993093202 0 -0.28610406261003568 0.38649903715396239 0 -0.27909272739465552 0.37014505527249242 0 -0.29821730352905118 0.37946100811929911 0 -0.28610406261003568 0.38649903715396239 0 -0.26316811568406728 0.37240942770973401 0 -0.27909272739465552 0.37014505527249242 0 -0.26932383122158049 0.38488294097204889 0 -0.27909272739465552 0.37014505527249242 0 -0.28610406261003568 0.38649903715396239 0 -0.26932383122158049 0.38488294097204889 0 -0.26932383122158049 0.38488294097204889 0 -0.27862014895604442 0.4010092345993157 0 -0.25917154070788262 0.39927618038945378 0 -0.28610406261003568 0.38649903715396239 0 -0.26932383122158049 0.38488294097204889 0 -0.27862014895604442 0.4010092345993157 0 -0.27862014895604442 0.4010092345993157 0 -0.25917154070788262 0.39927618038945378 0 -0.26774547272770288 0.41535610355363872 0 -0.25917154070788262 0.39927618038945378 0 -0.25178122254076452 0.38222546314694161 0 -0.24585321203617869 0.40099826428649521 0 -0.25917154070788262 0.39927618038945378 0 -0.25361375985589152 0.41393761394372941 0 -0.24585321203617869 0.40099826428649521 0 -0.26932383122158049 0.38488294097204889 0 -0.25917154070788262 0.39927618038945378 0 -0.25178122254076452 0.38222546314694161 0 -0.26316811568406728 0.37240942770973401 0 -0.26932383122158049 0.38488294097204889 0 -0.25178122254076452 0.38222546314694161 0 -0.25777189149644131 0.42941294108035599 0 -0.27562435196470969 0.43362050477174618 0 -0.25871821780968152 0.44475405229027382 0 -0.25777189149644131 0.42941294108035599 0 -0.2474167164462632 0.43967662104223409 0 -0.24655496897617671 0.42526261189166659 0 -0.25777189149644131 0.42941294108035599 0 -0.25361375985589152 0.41393761394372941 0 -0.24655496897617671 0.42526261189166659 0 -0.25917154070788262 0.39927618038945378 0 -0.25361375985589152 0.41393761394372941 0 -0.26774547272770288 0.41535610355363872 0 -0.25777189149644131 0.42941294108035599 0 -0.25361375985589152 0.41393761394372941 0 -0.26774547272770288 0.41535610355363872 0 -0.27862014895604442 0.4010092345993157 0 -0.26774547272770288 0.41535610355363872 0 -0.28456296335708131 0.41648022559585818 0 -0.26774547272770288 0.41535610355363872 0 -0.27562435196470969 0.43362050477174618 0 -0.28456296335708131 0.41648022559585818 0 -0.25777189149644131 0.42941294108035599 0 -0.26774547272770288 0.41535610355363872 0 -0.27562435196470969 0.43362050477174618 0 -0.27562435196470969 0.43362050477174618 0 -0.30300927390836901 0.42971884315273973 0 -0.29097326848385718 0.44506840790785779 0 -0.27562435196470969 0.43362050477174618 0 -0.28456296335708131 0.41648022559585818 0 -0.30300927390836901 0.42971884315273973 0 -0.30481302311198383 0.40356091993093202 0 -0.27862014895604442 0.4010092345993157 0 -0.28456296335708131 0.41648022559585818 0 -0.30481302311198383 0.40356091993093202 0 -0.28456296335708131 0.41648022559585818 0 -0.30300927390836901 0.42971884315273973 0 -0.32352198361393181 0.42062280270790159 0 -0.30481302311198383 0.40356091993093202 0 -0.30300927390836901 0.42971884315273973 0 -0.30460344347052731 0.46218959614426441 0 -0.29097326848385718 0.44506840790785779 0 -0.31429548052851403 0.44829446135918571 0 -0.30300927390836901 0.42971884315273973 0 -0.29097326848385718 0.44506840790785779 0 -0.31429548052851403 0.44829446135918571 0 -0.29097326848385718 0.44506840790785779 0 -0.31429548052851403 0.44829446135918571 0 -0.30460344347052731 0.46218959614426441 0 -0.2836400909029228 0.46369174787830592 0 -0.29097326848385718 0.44506840790785779 0 -0.30460344347052731 0.46218959614426441 0 -0.2836400909029228 0.46369174787830592 0 -0.29571328992402213 0.48014961015422608 0 -0.2836400909029228 0.46369174787830592 0 -0.29097326848385718 0.44506840790785779 0 -0.27346005911790439 0.44978807062444248 0 -0.27562435196470969 0.43362050477174618 0 -0.27346005911790439 0.44978807062444248 0 -0.25871821780968152 0.44475405229027382 0 -0.27562435196470969 0.43362050477174618 0 -0.29097326848385718 0.44506840790785779 0 -0.27346005911790439 0.44978807062444248 0 -0.2836400909029228 0.46369174787830592 0 -0.27346005911790439 0.44978807062444248 0 -0.26138738602010758 0.4619788403067725 0 -0.2836400909029228 0.46369174787830592 0 -0.26138738602010758 0.4619788403067725 0 -0.27311298830455599 0.48047711462575232 0 -0.26138738602010758 0.4619788403067725 0 -0.25871821780968152 0.44475405229027382 0 -0.24634807081902499 0.45334107014676289 0 -0.26138738602010758 0.4619788403067725 0 -0.24634807081902499 0.45334107014676289 0 -0.2443934969042979 0.46780468588750451 0 -0.25871821780968152 0.44475405229027382 0 -0.2474167164462632 0.43967662104223409 0 -0.24634807081902499 0.45334107014676289 0 -0.27346005911790439 0.44978807062444248 0 -0.26138738602010758 0.4619788403067725 0 -0.25871821780968152 0.44475405229027382 0 -0.25777189149644131 0.42941294108035599 0 -0.25871821780968152 0.44475405229027382 0 -0.2474167164462632 0.43967662104223409 0 -0.25651016498652102 0.5 0 -0.25572140450957842 0.47759694734280073 0 -0.24038034144793111 0.48336014465996902 0 -0.25651016498652102 0.5 0 -0.25572140450957842 0.47759694734280073 0 -0.27311298830455599 0.48047711462575232 0 -0.26138738602010758 0.4619788403067725 0 -0.25572140450957842 0.47759694734280073 0 -0.27311298830455599 0.48047711462575232 0 -0.26138738602010758 0.4619788403067725 0 -0.25572140450957842 0.47759694734280073 0 -0.2443934969042979 0.46780468588750451 0 -0.25651016498652102 0.5 0 -0.27311298830455599 0.48047711462575232 0 -0.2831213149461963 0.5 0 -0.2831213149461963 0.5 0 -0.29571328992402213 0.48014961015422608 0 -0.30973246490587159 0.5 0 -0.27311298830455599 0.48047711462575232 0 -0.2831213149461963 0.5 0 -0.29571328992402213 0.48014961015422608 0 -0.2836400909029228 0.46369174787830592 0 -0.27311298830455599 0.48047711462575232 0 -0.29571328992402213 0.48014961015422608 0 -0.30460344347052731 0.46218959614426441 0 -0.29571328992402213 0.48014961015422608 0 -0.31853354595315342 0.47517492551681878 0 -0.29571328992402213 0.48014961015422608 0 -0.30973246490587159 0.5 0 -0.31853354595315342 0.47517492551681878 0 -0.30973246490587159 0.5 0 -0.33172269166175572 0.48465633161123162 0 -0.33634361486554698 0.5 0 -0.30973246490587159 0.5 0 -0.33172269166175572 0.48465633161123162 0 -0.31853354595315342 0.47517492551681878 0 -0.33172269166175572 0.48465633161123162 0 -0.33634361486554698 0.5 0 -0.35038358791439311 0.4806183504409936 0 -0.33172269166175572 0.48465633161123162 0 -0.33595776440154662 0.46856627278050228 0 -0.35038358791439311 0.4806183504409936 0 -0.33172269166175572 0.48465633161123162 0 -0.31853354595315342 0.47517492551681878 0 -0.33595776440154662 0.46856627278050228 0 -0.32446498503069449 0.46075842404919198 0 -0.31429548052851403 0.44829446135918571 0 -0.33761769257317081 0.4515205148105137 0 -0.30460344347052731 0.46218959614426441 0 -0.31853354595315342 0.47517492551681878 0 -0.32446498503069449 0.46075842404919198 0 -0.30460344347052731 0.46218959614426441 0 -0.32446498503069449 0.46075842404919198 0 -0.31429548052851403 0.44829446135918571 0 -0.31853354595315342 0.47517492551681878 0 -0.32446498503069449 0.46075842404919198 0 -0.33595776440154662 0.46856627278050228 0 -0.32413507494797311 0.43756826150304251 0 -0.31429548052851403 0.44829446135918571 0 -0.33761769257317081 0.4515205148105137 0 -0.30300927390836901 0.42971884315273973 0 -0.32413507494797311 0.43756826150304251 0 -0.31429548052851403 0.44829446135918571 0 -0.31429548052851403 0.44829446135918571 0 -0.33761769257317081 0.4515205148105137 0 -0.32413507494797311 0.43756826150304251 0 -0.33761769257317081 0.4515205148105137 0 -0.34223094411588001 0.43768468548487133 0 -0.33761769257317081 0.4515205148105137 0 -0.33595776440154662 0.46856627278050228 0 -0.34911454625905392 0.46478809193422171 0 -0.32446498503069449 0.46075842404919198 0 -0.33761769257317081 0.4515205148105137 0 -0.33595776440154662 0.46856627278050228 0 -0.33761769257317081 0.4515205148105137 0 -0.36093990461782771 0.45474656826184118 0 -0.33761769257317081 0.4515205148105137 0 -0.34911454625905392 0.46478809193422171 0 -0.36093990461782771 0.45474656826184118 0 -0.34911454625905392 0.46478809193422171 0 -0.36067378178833132 0.46848875337725743 0 -0.36093990461782771 0.45474656826184118 0 -0.34223094411588001 0.43768468548487133 0 -0.35979349460266491 0.44075582420916293 0 -0.36093990461782771 0.45474656826184118 0 -0.33761769257317081 0.4515205148105137 0 -0.34223094411588001 0.43768468548487133 0 -0.36093990461782771 0.45474656826184118 0 -0.34223094411588001 0.43768468548487133 0 -0.36093990461782771 0.45474656826184118 0 -0.37716961999912491 0.45699154953633009 0 -0.36980970510421818 0.44604279731516833 0 -0.36093990461782771 0.45474656826184118 0 -0.37055177776791631 0.43404182432853999 0 -0.35979349460266491 0.44075582420916293 0 -0.36980970510421818 0.44604279731516833 0 -0.35979349460266491 0.44075582420916293 0 -0.36980970510421818 0.44604279731516833 0 -0.36093990461782771 0.45474656826184118 0 -0.38059372853355722 0.44367822023996739 0 -0.37055177776791631 0.43404182432853999 0 -0.36980970510421818 0.44604279731516833 0 -0.37716961999912491 0.45699154953633009 0 -0.36093990461782771 0.45474656826184118 0 -0.37716961999912491 0.45699154953633009 0 -0.36093990461782771 0.45474656826184118 0 -0.37416096470197768 0.46680368802108918 0 -0.36067378178833132 0.46848875337725743 0 -0.36093990461782771 0.45474656826184118 0 -0.37416096470197768 0.46680368802108918 0 -0.36093990461782771 0.45474656826184118 0 -0.37416096470197768 0.46680368802108918 0 -0.36067378178833132 0.46848875337725743 0 -0.36951791342030882 0.48054658581837162 0 -0.35038358791439311 0.4806183504409936 0 -0.36067378178833132 0.46848875337725743 0 -0.37416096470197768 0.46680368802108918 0 -0.36951791342030882 0.48054658581837162 0 -0.38079650659006598 0.48924407819042209 0 -0.36951791342030882 0.48054658581837162 0 -0.36295476482522232 0.5 0 -0.36951791342030882 0.48054658581837162 0 -0.36295476482522232 0.5 0 -0.35038358791439311 0.4806183504409936 0 -0.33634361486554698 0.5 0 -0.36295476482522232 0.5 0 -0.35038358791439311 0.4806183504409936 0 -0.34911454625905392 0.46478809193422171 0 -0.36067378178833132 0.46848875337725743 0 -0.35038358791439311 0.4806183504409936 0 -0.33595776440154662 0.46856627278050228 0 -0.34911454625905392 0.46478809193422171 0 -0.35038358791439311 0.4806183504409936 0 -0.14853400669719311 0.4792559497749328 0 -0.13284143777672811 0.4752551213533639 0 -0.14853400669719311 0.4792559497749328 0 -0.13389896894147801 0.47209623318514737 0 -0.15191760418789019 0.45899994155092161 0 -0.14853400669719311 0.4792559497749328 0 -0.15191760418789019 0.45899994155092161 0 -0.1599108570439465 0.47018706224465828 0 -0.13926624175885149 0.48924393762480528 0 -0.12843441774398759 0.5 0 -0.15674152586708609 0.50000000000000278 0 -0.14853400669719311 0.4792559497749328 0 -0.13926624175885149 0.48924393762480528 0 -0.15674152586708609 0.50000000000000278 0 -0.13926624175885149 0.48924393762480528 0 -0.13040011397142359 0.48822360686611838 0 -0.13163323501550611 0.47886407164670558 0 -0.12843441774398759 0.5 0 -0.13040011397142359 0.48822360686611838 0 -0.1235264836517066 0.49047184491401669 0 -0.13926624175885149 0.48924393762480528 0 -0.12843441774398759 0.5 0 -0.13040011397142359 0.48822360686611838 0 -0.13040011397142359 0.48822360686611838 0 -0.1248663799293558 0.48456971051795861 0 -0.1235264836517066 0.49047184491401669 0 -0.14853400669719311 0.4792559497749328 0 -0.13284143777672811 0.4752551213533639 0 -0.13389896894147801 0.47209623318514737 0 -0.14853400669719311 0.4792559497749328 0 -0.13926624175885149 0.48924393762480528 0 -0.13163323501550611 0.47886407164670558 0 -0.13163323501550611 0.47886407164670558 0 -0.13040679970736199 0.47463440914024269 0 -0.1248663799293558 0.48456971051795861 0 -0.14853400669719311 0.4792559497749328 0 -0.13163323501550611 0.47886407164670558 0 -0.13284143777672811 0.4752551213533639 0 -0.13040011397142359 0.48822360686611838 0 -0.13163323501550611 0.47886407164670558 0 -0.1248663799293558 0.48456971051795861 0 -0.13163323501550611 0.47886407164670558 0 -0.13284143777672811 0.4752551213533639 0 -0.13284143777672811 0.4752551213533639 0 -0.13389896894147801 0.47209623318514737 0 -0.13389896894147801 0.47209623318514737 0 -0.1291906232461513 0.46966240593357411 0 -0.1302317767833322 0.47230793069012228 0 -0.1302317767833322 0.47230793069012228 0 -0.13040679970736199 0.47463440914024269 0 -0.12609227434380951 0.47353441870607321 0 -0.13163323501550611 0.47886407164670558 0 -0.13284143777672811 0.4752551213533639 0 -0.13040679970736199 0.47463440914024269 0 -0.13284143777672811 0.4752551213533639 0 -0.13040679970736199 0.47463440914024269 0 -0.13389896894147801 0.47209623318514737 0 -0.1302317767833322 0.47230793069012228 0 -0.13040679970736199 0.47463440914024269 0 -0.13284143777672811 0.4752551213533639 0 -0.13389896894147801 0.47209623318514737 0 -0.13040679970736199 0.47463440914024269 0 -0.13389896894147801 0.47209623318514737 0 -0.13040679970736199 0.47463440914024269 0 -0.13040679970736199 0.47463440914024269 0 -0.12609227434380951 0.47353441870607321 0 -0.1291906232461513 0.46966240593357411 0 -0.12609227434380951 0.47353441870607321 0 -0.12422274044664861 0.46877912371349689 0 -0.1291906232461513 0.46966240593357411 0 -0.1302317767833322 0.47230793069012228 0 -0.12609227434380951 0.47353441870607321 0 -0.13389896894147801 0.47209623318514737 0 -0.1291906232461513 0.46966240593357411 0 -0.128378859872812 0.46350859241118109 0 -0.128378859872812 0.46350859241118109 0 -0.1270902450669299 0.45549879668012078 0 -0.11990732776734039 0.46500732942905232 0 -0.1291906232461513 0.46966240593357411 0 -0.128378859872812 0.46350859241118109 0 -0.12422274044664861 0.46877912371349689 0 -0.13389896894147801 0.47209623318514737 0 -0.128378859872812 0.46350859241118109 0 -0.14141293498669619 0.44965171407515198 0 -0.13389896894147801 0.47209623318514737 0 -0.14141293498669619 0.44965171407515198 0 -0.128378859872812 0.46350859241118109 0 -0.1270902450669299 0.45549879668012078 0 -0.14141293498669619 0.44965171407515198 0 -0.12646158318117309 0.44043125541057793 0 -0.13118659628666721 0.44695320744293232 0 -0.1362617756886402 0.43547013341476037 0 -0.12646158318117309 0.44043125541057793 0 -0.13118659628666721 0.44695320744293232 0 -0.1214208300975589 0.44882109333831971 0 -0.1270902450669299 0.45549879668012078 0 -0.13118659628666721 0.44695320744293232 0 -0.1214208300975589 0.44882109333831971 0 -0.1270902450669299 0.45549879668012078 0 -0.13118659628666721 0.44695320744293232 0 -0.14141293498669619 0.44965171407515198 0 -0.13118659628666721 0.44695320744293232 0 -0.14141293498669619 0.44965171407515198 0 -0.1362617756886402 0.43547013341476037 0 -0.14141293498669619 0.44965171407515198 0 -0.14892690103191339 0.42720719496515619 0 -0.14141293498669619 0.44965171407515198 0 -0.15557102719913371 0.44356949706965992 0 -0.14892690103191339 0.42720719496515619 0 -0.14141293498669619 0.44965171407515198 0 -0.15557102719913371 0.44356949706965992 0 -0.15191760418789019 0.45899994155092161 0 -0.13389896894147801 0.47209623318514737 0 -0.15191760418789019 0.45899994155092161 0 -0.13389896894147801 0.47209623318514737 0 -0.14141293498669619 0.44965171407515198 0 -0.15191760418789019 0.45899994155092161 0 -0.15191760418789019 0.45899994155092161 0 -0.16993623943430311 0.44590364991669662 0 -0.17496524167304461 0.45923557945627752 0 -0.15191760418789019 0.45899994155092161 0 -0.17496524167304461 0.45923557945627752 0 -0.1599108570439465 0.47018706224465828 0 -0.15191760418789019 0.45899994155092161 0 -0.16993623943430311 0.44590364991669662 0 -0.15557102719913371 0.44356949706965992 0 -0.15191760418789019 0.45899994155092161 0 -0.16993623943430311 0.44590364991669662 0 -0.15557102719913371 0.44356949706965992 0 -0.16993623943430311 0.44590364991669662 0 -0.16832843072832221 0.42655795750186343 0 -0.16993623943430311 0.44590364991669662 0 -0.17496524167304461 0.45923557945627752 0 -0.18570390772842851 0.43521438071605151 0 -0.17496524167304461 0.45923557945627752 0 -0.18570390772842851 0.43521438071605151 0 -0.17496524167304461 0.45923557945627752 0 -0.1910285578438988 0.45496712974665898 0 -0.18570390772842851 0.43521438071605151 0 -0.17496524167304461 0.45923557945627752 0 -0.18774787866501361 0.4713217669637822 0 -0.1910285578438988 0.45496712974665898 0 -0.17496524167304461 0.45923557945627752 0 -0.16422657561765791 0.48325677819650231 0 -0.18774787866501361 0.4713217669637822 0 -0.16422657561765791 0.48325677819650231 0 -0.18611738875405401 0.48883785213100162 0 -0.18774787866501361 0.4713217669637822 0 -0.14853400669719311 0.4792559497749328 0 -0.1599108570439465 0.47018706224465828 0 -0.16422657561765791 0.48325677819650231 0 -0.17496524167304461 0.45923557945627752 0 -0.16422657561765791 0.48325677819650231 0 -0.17496524167304461 0.45923557945627752 0 -0.1599108570439465 0.47018706224465828 0 -0.16422657561765791 0.48325677819650231 0 -0.14853400669719311 0.4792559497749328 0 -0.16422657561765791 0.48325677819650231 0 -0.16422657561765791 0.48325677819650231 0 -0.15674152586708609 0.50000000000000278 0 -0.14853400669719311 0.4792559497749328 0 -0.16422657561765791 0.48325677819650231 0 -0.15674152586708609 0.50000000000000278 0 -0.16422657561765791 0.48325677819650231 0 -0.15674152586708609 0.50000000000000278 0 -0.18112735558700599 0.5 0 -0.16422657561765791 0.48325677819650231 0 -0.18611738875405401 0.48883785213100162 0 -0.16422657561765791 0.48325677819650231 0 -0.18611738875405401 0.48883785213100162 0 -0.18112735558700599 0.5 0 -0.18611738875405401 0.48883785213100162 0 -0.20048366317270749 0.47854582314671767 0 -0.2080082018904498 0.49441892606550131 0 -0.18611738875405401 0.48883785213100162 0 -0.18112735558700599 0.5 0 -0.20551318530692589 0.5 0 -0.18611738875405401 0.48883785213100162 0 -0.2080082018904498 0.49441892606550131 0 -0.18611738875405401 0.48883785213100162 0 -0.20551318530692589 0.5 0 -0.2080082018904498 0.49441892606550131 0 -0.20048366317270749 0.47854582314671767 0 -0.18774787866501361 0.4713217669637822 0 -0.20463103104941369 0.46232226586744019 0 -0.18611738875405401 0.48883785213100162 0 -0.20048366317270749 0.47854582314671767 0 -0.18774787866501361 0.4713217669637822 0 -0.20048366317270749 0.47854582314671767 0 -0.21591381550460631 0.47582830470586279 0 -0.20463103104941369 0.46232226586744019 0 -0.20048366317270749 0.47854582314671767 0 -0.21591381550460631 0.47582830470586279 0 -0.2080082018904498 0.49441892606550131 0 -0.20551318530692589 0.5 0 -0.2080082018904498 0.49441892606550131 0 -0.2298990150268457 0.50000000000000056 0 -0.21591381550460631 0.47582830470586279 0 -0.2080082018904498 0.49441892606550131 0 -0.2265231320969355 0.48517837078251053 0 -0.2080082018904498 0.49441892606550131 0 -0.2298990150268457 0.50000000000000056 0 -0.2265231320969355 0.48517837078251053 0 -0.2080082018904498 0.49441892606550131 0 -0.2298990150268457 0.50000000000000056 0 -0.2298990150268457 0.50000000000000056 0 -0.2265231320969355 0.48517837078251053 0 -0.24038034144793111 0.48336014465996902 0 -0.21591381550460631 0.47582830470586279 0 -0.2265231320969355 0.48517837078251053 0 -0.23015200374013881 0.47222510288636421 0 -0.21591381550460631 0.47582830470586279 0 -0.23015200374013881 0.47222510288636421 0 -0.21906454296265179 0.46222147015463572 0 -0.2265231320969355 0.48517837078251053 0 -0.23015200374013881 0.47222510288636421 0 -0.24038034144793111 0.48336014465996902 0 -0.23015200374013881 0.47222510288636421 0 -0.24038034144793111 0.48336014465996902 0 -0.2443934969042979 0.46780468588750451 0 -0.25572140450957842 0.47759694734280073 0 -0.24038034144793111 0.48336014465996902 0 -0.2443934969042979 0.46780468588750451 0 -0.25651016498652102 0.5 0 -0.2298990150268457 0.50000000000000056 0 -0.24038034144793111 0.48336014465996902 0 -0.2363295857698757 0.44609734349880997 0 -0.24634807081902499 0.45334107014676289 0 -0.23291538459218011 0.45894527121210787 0 -0.2363295857698757 0.44609734349880997 0 -0.2474167164462632 0.43967662104223409 0 -0.23660573742890759 0.43182247913315491 0 -0.2363295857698757 0.44609734349880997 0 -0.2474167164462632 0.43967662104223409 0 -0.24634807081902499 0.45334107014676289 0 -0.23015200374013881 0.47222510288636421 0 -0.2443934969042979 0.46780468588750451 0 -0.23291538459218011 0.45894527121210787 0 -0.24634807081902499 0.45334107014676289 0 -0.2443934969042979 0.46780468588750451 0 -0.23291538459218011 0.45894527121210787 0 -0.23015200374013881 0.47222510288636421 0 -0.23291538459218011 0.45894527121210787 0 -0.21906454296265179 0.46222147015463572 0 -0.23291538459218011 0.45894527121210787 0 -0.21906454296265179 0.46222147015463572 0 -0.22515435453629351 0.44949081103515431 0 -0.21906454296265179 0.46222147015463572 0 -0.22515435453629351 0.44949081103515431 0 -0.2138884391275564 0.45147916919338371 0 -0.2363295857698757 0.44609734349880997 0 -0.23291538459218011 0.45894527121210787 0 -0.22515435453629351 0.44949081103515431 0 -0.2363295857698757 0.44609734349880997 0 -0.2281751274446428 0.43886548522001412 0 -0.23660573742890759 0.43182247913315491 0 -0.2363295857698757 0.44609734349880997 0 -0.22515435453629351 0.44949081103515431 0 -0.2281751274446428 0.43886548522001412 0 -0.22515435453629351 0.44949081103515431 0 -0.2281751274446428 0.43886548522001412 0 -0.2170837219221394 0.4397364651426815 0 -0.22515435453629351 0.44949081103515431 0 -0.2170837219221394 0.4397364651426815 0 -0.2138884391275564 0.45147916919338371 0 -0.2170837219221394 0.4397364651426815 0 -0.2138884391275564 0.45147916919338371 0 -0.20209473010359341 0.44674165572974339 0 -0.2170837219221394 0.4397364651426815 0 -0.20209473010359341 0.44674165572974339 0 -0.20715587474560199 0.43452317333271789 0 -0.21591381550460631 0.47582830470586279 0 -0.21906454296265179 0.46222147015463572 0 -0.20463103104941369 0.46232226586744019 0 -0.21906454296265179 0.46222147015463572 0 -0.2138884391275564 0.45147916919338371 0 -0.20463103104941369 0.46232226586744019 0 -0.2138884391275564 0.45147916919338371 0 -0.20463103104941369 0.46232226586744019 0 -0.20209473010359341 0.44674165572974339 0 -0.18774787866501361 0.4713217669637822 0 -0.20463103104941369 0.46232226586744019 0 -0.1910285578438988 0.45496712974665898 0 -0.20463103104941369 0.46232226586744019 0 -0.1910285578438988 0.45496712974665898 0 -0.20209473010359341 0.44674165572974339 0 -0.1910285578438988 0.45496712974665898 0 -0.20209473010359341 0.44674165572974339 0 -0.18570390772842851 0.43521438071605151 0 -0.20209473010359341 0.44674165572974339 0 -0.20715587474560199 0.43452317333271789 0 -0.18570390772842851 0.43521438071605151 0 -0.19644257378381241 0.41119318197582572 0 -0.18179447281252659 0.42013423413854678 0 -0.18570390772842851 0.43521438071605151 0 -0.20715587474560199 0.43452317333271789 0 -0.20534020017138199 0.42227356188806298 0 -0.18570390772842851 0.43521438071605151 0 -0.19644257378381241 0.41119318197582572 0 -0.20534020017138199 0.42227356188806298 0 -0.18570390772842851 0.43521438071605151 0 -0.19644257378381241 0.41119318197582572 0 -0.18570390772842851 0.43521438071605151 0 -0.19644257378381241 0.41119318197582572 0 -0.2124675641000828 0.41303007662631502 0 -0.20534020017138199 0.42227356188806298 0 -0.19644257378381241 0.41119318197582572 0 -0.2124675641000828 0.41303007662631502 0 -0.21340591455514171 0.40080792523891462 0 -0.21437326925773961 0.42060333439189668 0 -0.2124675641000828 0.41303007662631502 0 -0.20534020017138199 0.42227356188806298 0 -0.21437326925773961 0.42060333439189668 0 -0.2124675641000828 0.41303007662631502 0 -0.22224979772874009 0.41926413845066302 0 -0.2124675641000828 0.41303007662631502 0 -0.22446730390069949 0.41019797271585579 0 -0.21340591455514171 0.40080792523891462 0 -0.20715587474560199 0.43452317333271789 0 -0.20534020017138199 0.42227356188806298 0 -0.21614630892276049 0.42832150933805518 0 -0.21437326925773961 0.42060333439189668 0 -0.20534020017138199 0.42227356188806298 0 -0.21614630892276049 0.42832150933805518 0 -0.21437326925773961 0.42060333439189668 0 -0.21614630892276049 0.42832150933805518 0 -0.2219950194653518 0.42527256315250378 0 -0.2170837219221394 0.4397364651426815 0 -0.20715587474560199 0.43452317333271789 0 -0.21614630892276049 0.42832150933805518 0 -0.2170837219221394 0.4397364651426815 0 -0.21614630892276049 0.42832150933805518 0 -0.22592569047525751 0.43029141243967362 0 -0.2281751274446428 0.43886548522001412 0 -0.2170837219221394 0.4397364651426815 0 -0.22592569047525751 0.43029141243967362 0 -0.2281751274446428 0.43886548522001412 0 -0.22592569047525751 0.43029141243967362 0 -0.23660573742890759 0.43182247913315491 0 -0.22592569047525751 0.43029141243967362 0 -0.23301013635147599 0.42531968008975413 0 -0.23660573742890759 0.43182247913315491 0 -0.23301013635147599 0.42531968008975413 0 -0.22733468209463251 0.42273963471715292 0 -0.23232489289347971 0.41827424148184822 0 -0.22592569047525751 0.43029141243967362 0 -0.23301013635147599 0.42531968008975413 0 -0.22733468209463251 0.42273963471715292 0 -0.21614630892276049 0.42832150933805518 0 -0.22592569047525751 0.43029141243967362 0 -0.2219950194653518 0.42527256315250378 0 -0.22733468209463251 0.42273963471715292 0 -0.2219950194653518 0.42527256315250378 0 -0.22224979772874009 0.41926413845066302 0 -0.22592569047525751 0.43029141243967362 0 -0.22733468209463251 0.42273963471715292 0 -0.2219950194653518 0.42527256315250378 0 -0.21437326925773961 0.42060333439189668 0 -0.2219950194653518 0.42527256315250378 0 -0.22224979772874009 0.41926413845066302 0 -0.22224979772874009 0.41926413845066302 0 -0.22446730390069949 0.41019797271585579 0 -0.22224979772874009 0.41926413845066302 0 -0.2246889261909169 0.41282971420276632 0 -0.22446730390069949 0.41019797271585579 0 -0.2124675641000828 0.41303007662631502 0 -0.22224979772874009 0.41926413845066302 0 -0.22446730390069949 0.41019797271585579 0 -0.22224979772874009 0.41926413845066302 0 -0.2246889261909169 0.41282971420276632 0 -0.2272548900729692 0.41726022297819748 0 -0.22733468209463251 0.42273963471715292 0 -0.22224979772874009 0.41926413845066302 0 -0.2272548900729692 0.41726022297819748 0 -0.2246889261909169 0.41282971420276632 0 -0.22446730390069949 0.41019797271585579 0 -0.22885595073220069 0.4135547574194382 0 -0.2246889261909169 0.41282971420276632 0 -0.22446730390069949 0.41019797271585579 0 -0.22885595073220069 0.4135547574194382 0 -0.23232489289347971 0.41827424148184822 0 -0.2355437406029379 0.40921163571852331 0 -0.22446730390069949 0.41019797271585579 0 -0.22885595073220069 0.4135547574194382 0 -0.2355437406029379 0.40921163571852331 0 -0.22733468209463251 0.42273963471715292 0 -0.2272548900729692 0.41726022297819748 0 -0.23232489289347971 0.41827424148184822 0 -0.2246889261909169 0.41282971420276632 0 -0.22885595073220069 0.4135547574194382 0 -0.2272548900729692 0.41726022297819748 0 -0.22885595073220069 0.4135547574194382 0 -0.2272548900729692 0.41726022297819748 0 -0.23232489289347971 0.41827424148184822 0 -0.23232489289347971 0.41827424148184822 0 -0.2355437406029379 0.40921163571852331 0 -0.2391490203154662 0.42199895484365169 0 -0.23301013635147599 0.42531968008975413 0 -0.23232489289347971 0.41827424148184822 0 -0.2391490203154662 0.42199895484365169 0 -0.2355437406029379 0.40921163571852331 0 -0.2441429403573302 0.41428181613681331 0 -0.2391490203154662 0.42199895484365169 0 -0.2355437406029379 0.40921163571852331 0 -0.2441429403573302 0.41428181613681331 0 -0.24585321203617869 0.40099826428649521 0 -0.25361375985589152 0.41393761394372941 0 -0.2441429403573302 0.41428181613681331 0 -0.24585321203617869 0.40099826428649521 0 -0.2441429403573302 0.41428181613681331 0 -0.24655496897617671 0.42526261189166659 0 -0.2391490203154662 0.42199895484365169 0 -0.25361375985589152 0.41393761394372941 0 -0.2441429403573302 0.41428181613681331 0 -0.24655496897617671 0.42526261189166659 0 -0.2474167164462632 0.43967662104223409 0 -0.24655496897617671 0.42526261189166659 0 -0.23660573742890759 0.43182247913315491 0 -0.23301013635147599 0.42531968008975413 0 -0.23660573742890759 0.43182247913315491 0 -0.2391490203154662 0.42199895484365169 0 -0.24655496897617671 0.42526261189166659 0 -0.23660573742890759 0.43182247913315491 0 -0.2391490203154662 0.42199895484365169 0 -0.25178122254076452 0.38222546314694161 0 -0.2424892760302664 0.37511474206105849 0 -0.23023632019550549 0.38661163121344883 0 -0.25178122254076452 0.38222546314694161 0 -0.24585321203617869 0.40099826428649521 0 -0.23023632019550549 0.38661163121344883 0 -0.25193422489448369 0.368596584172802 0 -0.25178122254076452 0.38222546314694161 0 -0.2424892760302664 0.37511474206105849 0 -0.2355437406029379 0.40921163571852331 0 -0.24585321203617869 0.40099826428649521 0 -0.23023632019550549 0.38661163121344883 0 -0.22446730390069949 0.41019797271585579 0 -0.23023632019550549 0.38661163121344883 0 -0.22446730390069949 0.41019797271585579 0 -0.22259561453856069 0.38797185755330388 0 -0.22446730390069949 0.41019797271585579 0 -0.2355437406029379 0.40921163571852331 0 -0.23023632019550549 0.38661163121344883 0 -0.22446730390069949 0.41019797271585579 0 -0.22259561453856069 0.38797185755330388 0 -0.21340591455514171 0.40080792523891462 0 -0.22446730390069949 0.41019797271585579 0 -0.23023632019550549 0.38661163121344883 0 -0.22259561453856069 0.38797185755330388 0 -0.22259561453856069 0.38797185755330388 0 -0.21306437125900621 0.37519321133080658 0 -0.2207239251764217 0.36574574239075208 0 -0.22259561453856069 0.38797185755330388 0 -0.2207239251764217 0.36574574239075208 0 -0.23023632019550549 0.38661163121344883 0 -0.22259561453856069 0.38797185755330388 0 -0.2207239251764217 0.36574574239075208 0 -0.22259561453856069 0.38797185755330388 0 -0.21306437125900621 0.37519321133080658 0 -0.2071812398391962 0.38717198323559981 0 -0.21306437125900621 0.37519321133080658 0 -0.2071812398391962 0.38717198323559981 0 -0.20207252178755589 0.37342564855104349 0 -0.19644257378381241 0.41119318197582572 0 -0.2071812398391962 0.38717198323559981 0 -0.21340591455514171 0.40080792523891462 0 -0.22259561453856069 0.38797185755330388 0 -0.2071812398391962 0.38717198323559981 0 -0.21340591455514171 0.40080792523891462 0 -0.19644257378381241 0.41119318197582572 0 -0.19616457919744501 0.38788248383391999 0 -0.1853566108647986 0.3921670892465477 0 -0.19644257378381241 0.41119318197582572 0 -0.2071812398391962 0.38717198323559981 0 -0.19644257378381241 0.41119318197582572 0 -0.2071812398391962 0.38717198323559981 0 -0.19616457919744501 0.38788248383391999 0 -0.19616457919744501 0.38788248383391999 0 -0.19108277199053719 0.37808213392651641 0 -0.20207252178755589 0.37342564855104349 0 -0.2071812398391962 0.38717198323559981 0 -0.19616457919744501 0.38788248383391999 0 -0.20207252178755589 0.37342564855104349 0 -0.19616457919744501 0.38788248383391999 0 -0.19108277199053719 0.37808213392651641 0 -0.1853566108647986 0.3921670892465477 0 -0.179706325288222 0.37524567766738087 0 -0.17213285287964911 0.39367142796751781 0 -0.1853566108647986 0.3921670892465477 0 -0.179706325288222 0.37524567766738087 0 -0.16395483312234779 0.38231815674516512 0 -0.17213285287964911 0.39367142796751781 0 -0.19108277199053719 0.37808213392651641 0 -0.179706325288222 0.37524567766738087 0 -0.1853566108647986 0.3921670892465477 0 -0.16395483312234779 0.38231815674516512 0 -0.14937977076881351 0.377710993289261 0 -0.16683150484713 0.36958416129455152 0 -0.179706325288222 0.37524567766738087 0 -0.16395483312234779 0.38231815674516512 0 -0.16683150484713 0.36958416129455152 0 -0.16395483312234779 0.38231815674516512 0 -0.15644086707713059 0.40476267585516068 0 -0.16395483312234779 0.38231815674516512 0 -0.15644086707713059 0.40476267585516068 0 -0.17213285287964911 0.39367142796751781 0 -0.16395483312234779 0.38231815674516512 0 -0.15644086707713059 0.40476267585516068 0 -0.15313880874530489 0.39117719360026659 0 -0.15644086707713059 0.40476267585516068 0 -0.17213285287964911 0.39367142796751781 0 -0.1767029790095434 0.40757141636044658 0 -0.19644257378381241 0.41119318197582572 0 -0.1853566108647986 0.3921670892465477 0 -0.1767029790095434 0.40757141636044658 0 -0.17213285287964911 0.39367142796751781 0 -0.1853566108647986 0.3921670892465477 0 -0.1767029790095434 0.40757141636044658 0 -0.19644257378381241 0.41119318197582572 0 -0.18179447281252659 0.42013423413854678 0 -0.1767029790095434 0.40757141636044658 0 -0.18179447281252659 0.42013423413854678 0 -0.1767029790095434 0.40757141636044658 0 -0.16832843072832221 0.42655795750186343 0 -0.18179447281252659 0.42013423413854678 0 -0.18570390772842851 0.43521438071605151 0 -0.16832843072832221 0.42655795750186343 0 -0.16993623943430311 0.44590364991669662 0 -0.18570390772842851 0.43521438071605151 0 -0.16832843072832221 0.42655795750186343 0 -0.15557102719913371 0.44356949706965992 0 -0.16832843072832221 0.42655795750186343 0 -0.14892690103191339 0.42720719496515619 0 -0.15644086707713059 0.40476267585516068 0 -0.16832843072832221 0.42655795750186343 0 -0.14892690103191339 0.42720719496515619 0 -0.15644086707713059 0.40476267585516068 0 -0.1767029790095434 0.40757141636044658 0 -0.16832843072832221 0.42655795750186343 0 -0.15644086707713059 0.40476267585516068 0 -0.14892690103191339 0.42720719496515619 0 -0.13859346792163441 0.41841260385292001 0 -0.15644086707713059 0.40476267585516068 0 -0.14892690103191339 0.42720719496515619 0 -0.15644086707713059 0.40476267585516068 0 -0.13859346792163441 0.41841260385292001 0 -0.13662129785865729 0.40205964601565541 0 -0.14892690103191339 0.42720719496515619 0 -0.1362617756886402 0.43547013341476037 0 -0.13859346792163441 0.41841260385292001 0 -0.14141293498669619 0.44965171407515198 0 -0.14892690103191339 0.42720719496515619 0 -0.1362617756886402 0.43547013341476037 0 -0.1362617756886402 0.43547013341476037 0 -0.13859346792163441 0.41841260385292001 0 -0.1238628249485012 0.42640829874204977 0 -0.12646158318117309 0.44043125541057793 0 -0.1362617756886402 0.43547013341476037 0 -0.1238628249485012 0.42640829874204977 0 -0.13859346792163441 0.41841260385292001 0 -0.13662129785865729 0.40205964601565541 0 -0.1238628249485012 0.42640829874204977 0 -0.13662129785865729 0.40205964601565541 0 -0.1238628249485012 0.42640829874204977 0 -0.13662129785865729 0.40205964601565541 0 -0.12064699510279819 0.41141043511993952 0 -0.1238628249485012 0.42640829874204977 0 -0.13662129785865729 0.40205964601565541 0 -0.1326230197812206 0.38578317979234023 0 -0.11938697336984549 0.39593056612221672 0 -0.13662129785865729 0.40205964601565541 0 -0.11938697336984549 0.39593056612221672 0 -0.12064699510279819 0.41141043511993952 0 -0.13662129785865729 0.40205964601565541 0 -0.1326230197812206 0.38578317979234023 0 -0.14937977076881351 0.377710993289261 0 -0.1326230197812206 0.38578317979234023 0 -0.14937977076881351 0.377710993289261 0 -0.13214598057342289 0.37070553122603661 0 -0.1326230197812206 0.38578317979234023 0 -0.13214598057342289 0.37070553122603661 0 -0.1216364771498149 0.37964542288782621 0 -0.13662129785865729 0.40205964601565541 0 -0.14937977076881351 0.377710993289261 0 -0.13662129785865729 0.40205964601565541 0 -0.14937977076881351 0.377710993289261 0 -0.15313880874530489 0.39117719360026659 0 -0.16395483312234779 0.38231815674516512 0 -0.14937977076881351 0.377710993289261 0 -0.15313880874530489 0.39117719360026659 0 -0.15644086707713059 0.40476267585516068 0 -0.13662129785865729 0.40205964601565541 0 -0.15313880874530489 0.39117719360026659 0 -0.14742718697475229 0.34542615826375 0 -0.14105181501636141 0.35743975868026162 0 -0.16213824367896959 0.35336234056286658 0 -0.14937977076881351 0.377710993289261 0 -0.14105181501636141 0.35743975868026162 0 -0.16213824367896959 0.35336234056286658 0 -0.14937977076881351 0.377710993289261 0 -0.16213824367896959 0.35336234056286658 0 -0.14937977076881351 0.377710993289261 0 -0.14105181501636141 0.35743975868026162 0 -0.13214598057342289 0.37070553122603661 0 -0.14105181501636141 0.35743975868026162 0 -0.13214598057342289 0.37070553122603661 0 -0.12735311119068521 0.35737863321314151 0 -0.13214598057342289 0.37070553122603661 0 -0.12735311119068521 0.35737863321314151 0 -0.12030727828528601 0.36679067336604781 0 -0.14742718697475229 0.34542615826375 0 -0.14105181501636141 0.35743975868026162 0 -0.12911066663652779 0.33926403678419192 0 -0.14105181501636141 0.35743975868026162 0 -0.12735311119068521 0.35737863321314151 0 -0.12911066663652779 0.33926403678419192 0 -0.12911066663652779 0.33926403678419192 0 -0.13626560058604301 0.32042771339523279 0 -0.1124361943185265 0.33058449174930271 0 -0.12522219782980251 0.31680644889930942 0 -0.1426586023416811 0.31353869197023632 0 -0.13626560058604301 0.32042771339523279 0 -0.12522219782980251 0.31680644889930942 0 -0.1426586023416811 0.31353869197023632 0 -0.13626560058604301 0.32042771339523279 0 -0.1600950068535596 0.3102709350411631 0 -0.13626560058604301 0.32042771339523279 0 -0.1574080225671505 0.33163849702767978 0 -0.1600950068535596 0.3102709350411631 0 -0.13626560058604301 0.32042771339523279 0 -0.1426586023416811 0.31353869197023632 0 -0.1600950068535596 0.3102709350411631 0 -0.12911066663652779 0.33926403678419192 0 -0.13626560058604301 0.32042771339523279 0 -0.1574080225671505 0.33163849702767978 0 -0.12911066663652779 0.33926403678419192 0 -0.1574080225671505 0.33163849702767978 0 -0.14742718697475229 0.34542615826375 0 -0.12911066663652779 0.33926403678419192 0 -0.1574080225671505 0.33163849702767978 0 -0.14742718697475229 0.34542615826375 0 -0.1574080225671505 0.33163849702767978 0 -0.16213824367896959 0.35336234056286658 0 -0.1574080225671505 0.33163849702767978 0 -0.1757215243848404 0.32427799344157721 0 -0.17567592398060961 0.34244449265575561 0 -0.1574080225671505 0.33163849702767978 0 -0.17567592398060961 0.34244449265575561 0 -0.16213824367896959 0.35336234056286658 0 -0.1757215243848404 0.32427799344157721 0 -0.1791447939976725 0.30670081403971861 0 -0.1600950068535596 0.3102709350411631 0 -0.1574080225671505 0.33163849702767978 0 -0.1757215243848404 0.32427799344157721 0 -0.1600950068535596 0.3102709350411631 0 -0.1757215243848404 0.32427799344157721 0 -0.1896360500388875 0.33450462982868612 0 -0.1942285581697912 0.31939368128804302 0 -0.1757215243848404 0.32427799344157721 0 -0.1942285581697912 0.31939368128804302 0 -0.1791447939976725 0.30670081403971861 0 -0.1757215243848404 0.32427799344157721 0 -0.17567592398060961 0.34244449265575561 0 -0.1896360500388875 0.33450462982868612 0 -0.17567592398060961 0.34244449265575561 0 -0.19017335183651299 0.35159985686564021 0 -0.1896360500388875 0.33450462982868612 0 -0.17567592398060961 0.34244449265575561 0 -0.1768770894338989 0.35965345117144709 0 -0.19017335183651299 0.35159985686564021 0 -0.1768770894338989 0.35965345117144709 0 -0.18673718697194949 0.3656841779824882 0 -0.19017335183651299 0.35159985686564021 0 -0.17567592398060961 0.34244449265575561 0 -0.16213824367896959 0.35336234056286658 0 -0.1768770894338989 0.35965345117144709 0 -0.14937977076881351 0.377710993289261 0 -0.16213824367896959 0.35336234056286658 0 -0.16683150484713 0.36958416129455152 0 -0.16213824367896959 0.35336234056286658 0 -0.16683150484713 0.36958416129455152 0 -0.1768770894338989 0.35965345117144709 0 -0.179706325288222 0.37524567766738087 0 -0.16683150484713 0.36958416129455152 0 -0.1768770894338989 0.35965345117144709 0 -0.179706325288222 0.37524567766738087 0 -0.1768770894338989 0.35965345117144709 0 -0.18673718697194949 0.3656841779824882 0 -0.19108277199053719 0.37808213392651641 0 -0.179706325288222 0.37524567766738087 0 -0.18673718697194949 0.3656841779824882 0 -0.19108277199053719 0.37808213392651641 0 -0.18673718697194949 0.3656841779824882 0 -0.1969169179089402 0.36448632145153359 0 -0.18673718697194949 0.3656841779824882 0 -0.1969169179089402 0.36448632145153359 0 -0.19017335183651299 0.35159985686564021 0 -0.1969169179089402 0.36448632145153359 0 -0.20204285702101829 0.35479268306608591 0 -0.20643927152868599 0.3638637614154796 0 -0.1969169179089402 0.36448632145153359 0 -0.20207252178755589 0.37342564855104349 0 -0.20643927152868599 0.3638637614154796 0 -0.19108277199053719 0.37808213392651641 0 -0.1969169179089402 0.36448632145153359 0 -0.20207252178755589 0.37342564855104349 0 -0.1969169179089402 0.36448632145153359 0 -0.19017335183651299 0.35159985686564021 0 -0.20204285702101829 0.35479268306608591 0 -0.19017335183651299 0.35159985686564021 0 -0.20204285702101829 0.35479268306608591 0 -0.20308538485551711 0.33928814409843111 0 -0.21344412984408109 0.35742010636320121 0 -0.2207239251764217 0.36574574239075208 0 -0.21939745313549311 0.3499940258196404 0 -0.2093059019308347 0.34800321767789172 0 -0.21939745313549311 0.3499940258196404 0 -0.2180709810945646 0.3342423092485286 0 -0.20204285702101829 0.35479268306608591 0 -0.2093059019308347 0.34800321767789172 0 -0.20308538485551711 0.33928814409843111 0 -0.20204285702101829 0.35479268306608591 0 -0.21344412984408109 0.35742010636320121 0 -0.20643927152868599 0.3638637614154796 0 -0.20204285702101829 0.35479268306608591 0 -0.2093059019308347 0.34800321767789172 0 -0.21344412984408109 0.35742010636320121 0 -0.2093059019308347 0.34800321767789172 0 -0.21344412984408109 0.35742010636320121 0 -0.21939745313549311 0.3499940258196404 0 -0.20207252178755589 0.37342564855104349 0 -0.20939800823182411 0.36976662729174797 0 -0.20643927152868599 0.3638637614154796 0 -0.21306437125900621 0.37519321133080658 0 -0.20207252178755589 0.37342564855104349 0 -0.20939800823182411 0.36976662729174797 0 -0.20939800823182411 0.36976662729174797 0 -0.20643927152868599 0.3638637614154796 0 -0.21601586835204839 0.36658388786966228 0 -0.21344412984408109 0.35742010636320121 0 -0.21601586835204839 0.36658388786966228 0 -0.2207239251764217 0.36574574239075208 0 -0.21344412984408109 0.35742010636320121 0 -0.20643927152868599 0.3638637614154796 0 -0.21601586835204839 0.36658388786966228 0 -0.21601586835204839 0.36658388786966228 0 -0.2207239251764217 0.36574574239075208 0 -0.21306437125900621 0.37519321133080658 0 -0.21601586835204839 0.36658388786966228 0 -0.2207239251764217 0.36574574239075208 0 -0.21306437125900621 0.37519321133080658 0 -0.20939800823182411 0.36976662729174797 0 -0.21601586835204839 0.36658388786966228 0 -0.23023632019550549 0.38661163121344883 0 -0.2207239251764217 0.36574574239075208 0 -0.23600533649031241 0.36302528971104198 0 -0.23023632019550549 0.38661163121344883 0 -0.23600533649031241 0.36302528971104198 0 -0.2207239251764217 0.36574574239075208 0 -0.22902550111378731 0.35287790038272432 0 -0.23600533649031241 0.36302528971104198 0 -0.2207239251764217 0.36574574239075208 0 -0.23600533649031241 0.36302528971104198 0 -0.2207239251764217 0.36574574239075208 0 -0.21939745313549311 0.3499940258196404 0 -0.22902550111378731 0.35287790038272432 0 -0.2207239251764217 0.36574574239075208 0 -0.21939745313549311 0.3499940258196404 0 -0.21939745313549311 0.3499940258196404 0 -0.22902550111378731 0.35287790038272432 0 -0.22762635332795009 0.34192473927908767 0 -0.22902550111378731 0.35287790038272432 0 -0.24058000153588679 0.34432199498795552 0 -0.22762635332795009 0.34192473927908767 0 -0.26216403037483549 0.35836842344299308 0 -0.24944289275892051 0.35232460830669848 0 -0.23600533649031241 0.36302528971104198 0 -0.24058000153588679 0.34432199498795552 0 -0.24944289275892051 0.35232460830669848 0 -0.23600533649031241 0.36302528971104198 0 -0.2590222026346477 0.34358272508480392 0 -0.24058000153588679 0.34432199498795552 0 -0.24944289275892051 0.35232460830669848 0 -0.24058000153588679 0.34432199498795552 0 -0.23600533649031241 0.36302528971104198 0 -0.22902550111378731 0.35287790038272432 0 -0.24058000153588679 0.34432199498795552 0 -0.23600533649031241 0.36302528971104198 0 -0.25193422489448369 0.368596584172802 0 -0.2424892760302664 0.37511474206105849 0 -0.23600533649031241 0.36302528971104198 0 -0.2424892760302664 0.37511474206105849 0 -0.23023632019550549 0.38661163121344883 0 -0.23600533649031241 0.36302528971104198 0 -0.26216403037483549 0.35836842344299308 0 -0.23600533649031241 0.36302528971104198 0 -0.24515466658146171 0.325618700264869 0 -0.23114806355022141 0.31202185689149009 0 -0.24506209967329479 0.30886558668515401 0 -0.24515466658146171 0.325618700264869 0 -0.23105782976001879 0.3281874659565896 0 -0.23114806355022141 0.31202185689149009 0 -0.25694910642793961 0.31363538248303702 0 -0.24515466658146171 0.325618700264869 0 -0.24506209967329479 0.30886558668515401 0 -0.24058000153588679 0.34432199498795552 0 -0.24515466658146171 0.325618700264869 0 -0.2590222026346477 0.34358272508480392 0 -0.24058000153588679 0.34432199498795552 0 -0.24515466658146171 0.325618700264869 0 -0.24058000153588679 0.34432199498795552 0 -0.24515466658146171 0.325618700264869 0 -0.23105782976001879 0.3281874659565896 0 -0.24058000153588679 0.34432199498795552 0 -0.23105782976001879 0.3281874659565896 0 -0.22762635332795009 0.34192473927908767 0 -0.21939745313549311 0.3499940258196404 0 -0.22762635332795009 0.34192473927908767 0 -0.2180709810945646 0.3342423092485286 0 -0.23105782976001879 0.3281874659565896 0 -0.22762635332795009 0.34192473927908767 0 -0.2180709810945646 0.3342423092485286 0 -0.23105782976001879 0.3281874659565896 0 -0.21114412042558389 0.31507038025301243 0 -0.23114806355022141 0.31202185689149009 0 -0.23105782976001879 0.3281874659565896 0 -0.21114412042558389 0.31507038025301243 0 -0.2180709810945646 0.3342423092485286 0 -0.21114412042558389 0.31507038025301243 0 -0.20438359886144369 0.32760322431594752 0 -0.2180709810945646 0.3342423092485286 0 -0.21114412042558389 0.31507038025301243 0 -0.20438359886144369 0.32760322431594752 0 -0.1942285581697912 0.31939368128804302 0 -0.21939745313549311 0.3499940258196404 0 -0.2180709810945646 0.3342423092485286 0 -0.20438359886144369 0.32760322431594752 0 -0.2180709810945646 0.3342423092485286 0 -0.20308538485551711 0.33928814409843111 0 -0.2093059019308347 0.34800321767789172 0 -0.2180709810945646 0.3342423092485286 0 -0.20308538485551711 0.33928814409843111 0 -0.19017335183651299 0.35159985686564021 0 -0.20308538485551711 0.33928814409843111 0 -0.1896360500388875 0.33450462982868612 0 -0.20438359886144369 0.32760322431594752 0 -0.20308538485551711 0.33928814409843111 0 -0.1896360500388875 0.33450462982868612 0 -0.21114412042558389 0.31507038025301243 0 -0.1942285581697912 0.31939368128804302 0 -0.1981945811417852 0.30313069303827261 0 -0.20438359886144369 0.32760322431594752 0 -0.1896360500388875 0.33450462982868612 0 -0.1942285581697912 0.31939368128804302 0 -0.1981945811417852 0.30313069303827261 0 -0.1791447939976725 0.30670081403971861 0 -0.19144588820368219 0.29690828766744198 0 -0.1981945811417852 0.30313069303827261 0 -0.1791447939976725 0.30670081403971861 0 -0.1942285581697912 0.31939368128804302 0 -0.1981945811417852 0.30313069303827261 0 -0.1791447939976725 0.30670081403971861 0 -0.19144588820368219 0.29690828766744198 0 -0.1981945811417852 0.30313069303827261 0 -0.19144588820368219 0.29690828766744198 0 -0.21021801587891001 0.28890706691141022 0 -0.19144588820368219 0.29690828766744198 0 -0.21021801587891001 0.28890706691141022 0 -0.19434491742757021 0.27806761522520751 0 -0.19144588820368219 0.29690828766744198 0 -0.1981945811417852 0.30313069303827261 0 -0.21021801587891001 0.28890706691141022 0 -0.1981945811417852 0.30313069303827261 0 -0.21960257022371771 0.29911862136304151 0 -0.1981945811417852 0.30313069303827261 0 -0.21021801587891001 0.28890706691141022 0 -0.21960257022371771 0.29911862136304151 0 -0.21114412042558389 0.31507038025301243 0 -0.1981945811417852 0.30313069303827261 0 -0.21960257022371771 0.29911862136304151 0 -0.21114412042558389 0.31507038025301243 0 -0.1981945811417852 0.30313069303827261 0 -0.21114412042558389 0.31507038025301243 0 -0.21960257022371771 0.29911862136304151 0 -0.23114806355022141 0.31202185689149009 0 -0.21960257022371771 0.29911862136304151 0 -0.23114806355022141 0.31202185689149009 0 -0.23608791144094021 0.29609005999790861 0 -0.21021801587891001 0.28890706691141022 0 -0.22899014355413769 0.2809058461553775 0 -0.21021801587891001 0.28890706691141022 0 -0.22667579139496941 0.29123868693044291 0 -0.22899014355413769 0.2809058461553775 0 -0.21021801587891001 0.28890706691141022 0 -0.21960257022371771 0.29911862136304151 0 -0.22667579139496941 0.29123868693044291 0 -0.21960257022371771 0.29911862136304151 0 -0.22667579139496941 0.29123868693044291 0 -0.23608791144094021 0.29609005999790861 0 -0.22667579139496941 0.29123868693044291 0 -0.2353918746837865 0.28635815190471758 0 -0.22899014355413769 0.2809058461553775 0 -0.22667579139496941 0.29123868693044291 0 -0.23608791144094021 0.29609005999790861 0 -0.2353918746837865 0.28635815190471758 0 -0.23608791144094021 0.29609005999790861 0 -0.2353918746837865 0.28635815190471758 0 -0.24600045521931049 0.28593154543727778 0 -0.25597075036591121 0.29696193378846469 0 -0.23608791144094021 0.29609005999790861 0 -0.24600045521931049 0.28593154543727778 0 -0.2353918746837865 0.28635815190471758 0 -0.24600045521931049 0.28593154543727778 0 -0.23920507180957479 0.27762462100258128 0 -0.2353918746837865 0.28635815190471758 0 -0.23920507180957479 0.27762462100258128 0 -0.22899014355413769 0.2809058461553775 0 -0.25597075036591121 0.29696193378846469 0 -0.23608791144094021 0.29609005999790861 0 -0.24506209967329479 0.30886558668515401 0 -0.23114806355022141 0.31202185689149009 0 -0.23608791144094021 0.29609005999790861 0 -0.24506209967329479 0.30886558668515401 0 -0.23659851017468231 0.25432161507005241 0 -0.24194075848194749 0.26599630648722322 0 -0.23198574286962201 0.26286080198979062 0 -0.23659851017468231 0.25432161507005241 0 -0.24759739790112481 0.25315441603119782 0 -0.24194075848194749 0.26599630648722322 0 -0.23659851017468231 0.25432161507005241 0 -0.24759739790112481 0.25315441603119782 0 -0.23552086690955309 0.2444055720541079 0 -0.25255672097802823 0.26278996840377622 0 -0.24759739790112481 0.25315441603119782 0 -0.24194075848194749 0.26599630648722322 0 -0.25027870342817993 0.27348509089476652 0 -0.23920507180957479 0.27762462100258128 0 -0.24194075848194749 0.26599630648722322 0 -0.25027870342817993 0.27348509089476652 0 -0.25255672097802823 0.26278996840377622 0 -0.24194075848194749 0.26599630648722322 0 -0.25027870342817993 0.27348509089476652 0 -0.24600045521931049 0.28593154543727778 0 -0.23920507180957479 0.27762462100258128 0 -0.24194075848194749 0.26599630648722322 0 -0.23367834001033891 0.2718987690731125 0 -0.23198574286962201 0.26286080198979062 0 -0.23920507180957479 0.27762462100258128 0 -0.24194075848194749 0.26599630648722322 0 -0.23367834001033891 0.2718987690731125 0 -0.23367834001033891 0.2718987690731125 0 -0.22363781420963161 0.27341351830091531 0 -0.23198574286962201 0.26286080198979062 0 -0.21021801587891001 0.28890706691141022 0 -0.22899014355413769 0.2809058461553775 0 -0.22363781420963161 0.27341351830091531 0 -0.23367834001033891 0.2718987690731125 0 -0.22899014355413769 0.2809058461553775 0 -0.22363781420963161 0.27341351830091531 0 -0.23920507180957479 0.27762462100258128 0 -0.23367834001033891 0.2718987690731125 0 -0.22899014355413769 0.2809058461553775 0 -0.22363781420963161 0.27341351830091531 0 -0.21741549794635109 0.26424221677719872 0 -0.2240732914715097 0.24867380101764949 0 -0.22363781420963161 0.27341351830091531 0 -0.2240732914715097 0.24867380101764949 0 -0.22363781420963161 0.27341351830091531 0 -0.23198574286962201 0.26286080198979062 0 -0.2240732914715097 0.24867380101764949 0 -0.23659851017468231 0.25432161507005241 0 -0.23198574286962201 0.26286080198979062 0 -0.2240732914715097 0.24867380101764949 0 -0.21222572633593059 0.25042384699120041 0 -0.21249252163638499 0.26019103592160697 0 -0.2240732914715097 0.24867380101764949 0 -0.21741549794635109 0.26424221677719872 0 -0.21249252163638499 0.26019103592160697 0 -0.2240732914715097 0.24867380101764949 0 -0.21249252163638499 0.26019103592160697 0 -0.2094583644678783 0.27469051186862292 0 -0.1998555116210283 0.25891194290682518 0 -0.21222572633593059 0.25042384699120041 0 -0.21249252163638499 0.26019103592160697 0 -0.1998555116210283 0.25891194290682518 0 -0.21021801587891001 0.28890706691141022 0 -0.2094583644678783 0.27469051186862292 0 -0.19434491742757021 0.27806761522520751 0 -0.21021801587891001 0.28890706691141022 0 -0.22363781420963161 0.27341351830091531 0 -0.2094583644678783 0.27469051186862292 0 -0.21741549794635109 0.26424221677719872 0 -0.21249252163638499 0.26019103592160697 0 -0.2094583644678783 0.27469051186862292 0 -0.22363781420963161 0.27341351830091531 0 -0.21741549794635109 0.26424221677719872 0 -0.2094583644678783 0.27469051186862292 0 -0.2094583644678783 0.27469051186862292 0 -0.19434491742757021 0.27806761522520751 0 -0.1998555116210283 0.25891194290682518 0 -0.1998555116210283 0.25891194290682518 0 -0.17653414283731059 0.25896614820827052 0 -0.18780594399135009 0.2432222609189009 0 -0.19434491742757021 0.27806761522520751 0 -0.1998555116210283 0.25891194290682518 0 -0.17653414283731059 0.25896614820827052 0 -0.17653414283731059 0.25896614820827052 0 -0.153448837031642 0.26187438444246253 0 -0.15921749235545729 0.24728948044781751 0 -0.17244736261766219 0.27939133605495209 0 -0.15656323555280829 0.28269012713256769 0 -0.153448837031642 0.26187438444246253 0 -0.17244736261766219 0.27939133605495209 0 -0.153448837031642 0.26187438444246253 0 -0.17653414283731059 0.25896614820827052 0 -0.17244736261766219 0.27939133605495209 0 -0.153448837031642 0.26187438444246253 0 -0.19434491742757021 0.27806761522520751 0 -0.17653414283731059 0.25896614820827052 0 -0.17244736261766219 0.27939133605495209 0 -0.19144588820368219 0.29690828766744198 0 -0.17244736261766219 0.27939133605495209 0 -0.19144588820368219 0.29690828766744198 0 -0.19434491742757021 0.27806761522520751 0 -0.17244736261766219 0.27939133605495209 0 -0.19144588820368219 0.29690828766744198 0 -0.17244736261766219 0.27939133605495209 0 -0.175770447528621 0.30358961135430279 0 -0.19144588820368219 0.29690828766744198 0 -0.175770447528621 0.30358961135430279 0 -0.1791447939976725 0.30670081403971861 0 -0.19144588820368219 0.29690828766744198 0 -0.175770447528621 0.30358961135430279 0 -0.1600950068535596 0.3102709350411631 0 -0.16261403203449371 0.29403005013853428 0 -0.14791851907636269 0.29345176862658662 0 -0.175770447528621 0.30358961135430279 0 -0.1791447939976725 0.30670081403971861 0 -0.1600950068535596 0.3102709350411631 0 -0.175770447528621 0.30358961135430279 0 -0.1600950068535596 0.3102709350411631 0 -0.1791447939976725 0.30670081403971861 0 -0.1600950068535596 0.3102709350411631 0 -0.175770447528621 0.30358961135430279 0 -0.1600950068535596 0.3102709350411631 0 -0.16261403203449371 0.29403005013853428 0 -0.17244736261766219 0.27939133605495209 0 -0.175770447528621 0.30358961135430279 0 -0.16261403203449371 0.29403005013853428 0 -0.17244736261766219 0.27939133605495209 0 -0.16261403203449371 0.29403005013853428 0 -0.15656323555280829 0.28269012713256769 0 -0.15656323555280829 0.28269012713256769 0 -0.14791851907636269 0.29345176862658662 0 -0.14398429490495279 0.2781066563476764 0 -0.16261403203449371 0.29403005013853428 0 -0.15656323555280829 0.28269012713256769 0 -0.14791851907636269 0.29345176862658662 0 -0.1600950068535596 0.3102709350411631 0 -0.14791851907636269 0.29345176862658662 0 -0.14393776692921459 0.30377600958425871 0 -0.14791851907636269 0.29345176862658662 0 -0.14393776692921459 0.30377600958425871 0 -0.1314624863067114 0.30195068522895252 0 -0.1426586023416811 0.31353869197023632 0 -0.1600950068535596 0.3102709350411631 0 -0.1426586023416811 0.31353869197023632 0 -0.1600950068535596 0.3102709350411631 0 -0.14393776692921459 0.30377600958425871 0 -0.12522219782980251 0.31680644889930942 0 -0.1426586023416811 0.31353869197023632 0 -0.1314624863067114 0.30195068522895252 0 -0.1426586023416811 0.31353869197023632 0 -0.14393776692921459 0.30377600958425871 0 -0.1314624863067114 0.30195068522895252 0 -0.12522219782980251 0.31680644889930942 0 -0.1314624863067114 0.30195068522895252 0 -0.11928910735618781 0.30134428255610779 0 -0.14791851907636269 0.29345176862658662 0 -0.1314624863067114 0.30195068522895252 0 -0.12849438665656759 0.28611322018648577 0 -0.1314624863067114 0.30195068522895252 0 -0.12849438665656759 0.28611322018648577 0 -0.11928910735618781 0.30134428255610779 0 -0.14791851907636269 0.29345176862658662 0 -0.12849438665656759 0.28611322018648577 0 -0.14398429490495279 0.2781066563476764 0 -0.12849438665656759 0.28611322018648577 0 -0.13322090766392841 0.26564730886718019 0 -0.14398429490495279 0.2781066563476764 0 -0.12849438665656759 0.28611322018648577 0 -0.13322090766392841 0.26564730886718019 0 -0.11959959930457249 0.26932993010046868 0 -0.13322090766392841 0.26564730886718019 0 -0.12612077033089619 0.25508176695385482 0 -0.11959959930457249 0.26932993010046868 0 -0.13322090766392841 0.26564730886718019 0 -0.153448837031642 0.26187438444246253 0 -0.13445031144562181 0.24435743282997291 0 -0.13322090766392841 0.26564730886718019 0 -0.12612077033089619 0.25508176695385482 0 -0.13445031144562181 0.24435743282997291 0 -0.153448837031642 0.26187438444246253 0 -0.15921749235545729 0.24728948044781751 0 -0.1448195272638477 0.24358016940887259 0 -0.153448837031642 0.26187438444246253 0 -0.13445031144562181 0.24435743282997291 0 -0.15656323555280829 0.28269012713256769 0 -0.153448837031642 0.26187438444246253 0 -0.14398429490495279 0.2781066563476764 0 -0.13322090766392841 0.26564730886718019 0 -0.153448837031642 0.26187438444246253 0 -0.14398429490495279 0.2781066563476764 0 -0.1005896630950656 0.27291822448766612 0 -0.1142226619099411 0.25036030802506137 0 -0.1005896630950656 0.27291822448766612 0 -0.1142226619099411 0.25036030802506137 0 -0.088205846149722877 0.25713272569092332 0 -0.12612077033089619 0.25508176695385482 0 -0.1142226619099411 0.25036030802506137 0 -0.11959959930457249 0.26932993010046868 0 -0.1005896630950656 0.27291822448766612 0 -0.1142226619099411 0.25036030802506137 0 -0.11959959930457249 0.26932993010046868 0 -0.1005896630950656 0.27291822448766612 0 -0.11959959930457249 0.26932993010046868 0 -0.1122545250915182 0.28674567034227472 0 -0.12849438665656759 0.28611322018648577 0 -0.11959959930457249 0.26932993010046868 0 -0.1122545250915182 0.28674567034227472 0 -0.12849438665656759 0.28611322018648577 0 -0.1122545250915182 0.28674567034227472 0 -0.11928910735618781 0.30134428255610779 0 -0.1122545250915182 0.28674567034227472 0 -0.11928910735618781 0.30134428255610779 0 -0.1061537785082669 0.30127433766211759 0 -0.12522219782980251 0.31680644889930942 0 -0.11928910735618781 0.30134428255610779 0 -0.1097156095860123 0.31523807546013688 0 -0.11928910735618781 0.30134428255610779 0 -0.1061537785082669 0.30127433766211759 0 -0.1097156095860123 0.31523807546013688 0 -0.1061537785082669 0.30127433766211759 0 -0.090870879529236184 0.3087773128140579 0 -0.1097156095860123 0.31523807546013688 0 -0.1061537785082669 0.30127433766211759 0 -0.093564631248653135 0.28964460892311422 0 -0.090870879529236184 0.3087773128140579 0 -0.1005896630950656 0.27291822448766612 0 -0.1122545250915182 0.28674567034227472 0 -0.093564631248653135 0.28964460892311422 0 -0.1122545250915182 0.28674567034227472 0 -0.1061537785082669 0.30127433766211759 0 -0.093564631248653135 0.28964460892311422 0 -0.093564631248653135 0.28964460892311422 0 -0.075165433846140939 0.29504231370845829 0 -0.073921847263442794 0.2731725369667406 0 -0.090870879529236184 0.3087773128140579 0 -0.075165433846140939 0.29504231370845829 0 -0.070253574126565688 0.31266229765776998 0 -0.093564631248653135 0.28964460892311422 0 -0.090870879529236184 0.3087773128140579 0 -0.075165433846140939 0.29504231370845829 0 -0.075165433846140939 0.29504231370845829 0 -0.050191775724699413 0.29532726032528461 0 -0.070253574126565688 0.31266229765776998 0 -0.075165433846140939 0.29504231370845829 0 -0.073921847263442794 0.2731725369667406 0 -0.050191775724699413 0.29532726032528461 0 -0.073921847263442794 0.2731725369667406 0 -0.069459292058931837 0.25840191753036401 0 -0.047481969384000393 0.26968399374835578 0 -0.1005896630950656 0.27291822448766612 0 -0.093564631248653135 0.28964460892311422 0 -0.073921847263442794 0.2731725369667406 0 -0.1005896630950656 0.27291822448766612 0 -0.073921847263442794 0.2731725369667406 0 -0.088205846149722877 0.25713272569092332 0 -0.088205846149722877 0.25713272569092332 0 -0.069459292058931837 0.25840191753036401 0 -0.076867143983894576 0.2466666451067244 0 -0.069459292058931837 0.25840191753036401 0 -0.076867143983894576 0.2466666451067244 0 -0.060819653513598478 0.2453536861390756 0 -0.073921847263442794 0.2731725369667406 0 -0.088205846149722877 0.25713272569092332 0 -0.069459292058931837 0.25840191753036401 0 -0.069459292058931837 0.25840191753036401 0 -0.047481969384000393 0.26968399374835578 0 -0.060819653513598478 0.2453536861390756 0 -0.047481969384000393 0.26968399374835578 0 -0.044772163043302393 0.24404072717142691 0 -0.060819653513598478 0.2453536861390756 0 -0.073921847263442794 0.2731725369667406 0 -0.047481969384000393 0.26968399374835578 0 -0.050191775724699413 0.29532726032528461 0 -0.047481969384000393 0.26968399374835578 0 -0.02497579542961845 0.27103883677574059 0 -0.031821046770050841 0.28916586204638772 0 -0.047481969384000393 0.26968399374835578 0 -0.03548396145915636 0.25798705152301848 0 -0.02497579542961845 0.27103883677574059 0 -0.047481969384000393 0.26968399374835578 0 -0.044772163043302393 0.24404072717142691 0 -0.047481969384000393 0.26968399374835578 0 -0.03548396145915636 0.25798705152301848 0 -0.044772163043302393 0.24404072717142691 0 -0.02497579542961845 0.27103883677574059 0 -0.0086125766329941504 0.2681582996035754 0 -0.014966429343546131 0.2416021087830322 0 -0.03548396145915636 0.25798705152301848 0 -0.02497579542961845 0.27103883677574059 0 -0.014966429343546131 0.2416021087830322 0 -0.02497579542961845 0.27103883677574059 0 -0.0086125766329941504 0.2681582996035754 0 -0.01387783576021002 0.29647938990458911 0 -0.0086125766329941504 0.2681582996035754 0 0.001783118853633629 0.26687294430706471 0 0.00032744538039224569 0.28084305500771939 0 -0.0086125766329941504 0.2681582996035754 0 3.4036501383808038e-05 0.25211346284330632 0 0.001783118853633629 0.26687294430706471 0 -0.0086125766329941504 0.2681582996035754 0 -0.014966429343546131 0.2416021087830322 0 3.4036501383808038e-05 0.25211346284330632 0 -0.01387783576021002 0.29647938990458911 0 -0.002779876090803129 0.3219199430334384 0 -0.01387783576021002 0.29647938990458911 0 -0.027813116511714149 0.31125587507130659 0 -0.002779876090803129 0.3219199430334384 0 -0.01387783576021002 0.29647938990458911 0 -0.002779876090803129 0.3219199430334384 0 0.01095689844870875 0.30401128476579459 0 -0.0086125766329941504 0.2681582996035754 0 -0.01387783576021002 0.29647938990458911 0 0.00032744538039224569 0.28084305500771939 0 -0.01387783576021002 0.29647938990458911 0 0.010041311326242889 0.29266434618374332 0 0.00032744538039224569 0.28084305500771939 0 -0.02497579542961845 0.27103883677574059 0 -0.01387783576021002 0.29647938990458911 0 -0.031821046770050841 0.28916586204638772 0 -0.02497579542961845 0.27103883677574059 0 -0.01387783576021002 0.29647938990458911 0 -0.01387783576021002 0.29647938990458911 0 -0.027813116511714149 0.31125587507130659 0 -0.031821046770050841 0.28916586204638772 0 -0.027813116511714149 0.31125587507130659 0 -0.031821046770050841 0.28916586204638772 0 -0.050191775724699413 0.29532726032528461 0 -0.027813116511714149 0.31125587507130659 0 -0.050191775724699413 0.29532726032528461 0 -0.052901582065398439 0.32097052690221339 0 -0.047481969384000393 0.26968399374835578 0 -0.031821046770050841 0.28916586204638772 0 -0.050191775724699413 0.29532726032528461 0 -0.047481969384000393 0.26968399374835578 0 -0.050191775724699413 0.29532726032528461 0 -0.050191775724699413 0.29532726032528461 0 -0.052901582065398439 0.32097052690221339 0 -0.050191775724699413 0.29532726032528461 0 -0.052901582065398439 0.32097052690221339 0 -0.070253574126565688 0.31266229765776998 0 -0.052901582065398439 0.32097052690221339 0 -0.055611388406097743 0.34661379347914217 0 -0.052901582065398439 0.32097052690221339 0 -0.055611388406097743 0.34661379347914217 0 -0.065475399686112629 0.33888580458489997 0 -0.02919563224845052 0.33426686825629032 0 -0.033595733692541693 0.34652904084142089 0 -0.055611388406097743 0.34661379347914217 0 -0.052901582065398439 0.32097052690221339 0 -0.02919563224845052 0.33426686825629032 0 -0.055611388406097743 0.34661379347914217 0 -0.02919563224845052 0.33426686825629032 0 -0.055611388406097743 0.34661379347914217 0 -0.027813116511714149 0.31125587507130659 0 -0.052901582065398439 0.32097052690221339 0 -0.02919563224845052 0.33426686825629032 0 -0.027813116511714149 0.31125587507130659 0 -0.02919563224845052 0.33426686825629032 0 -0.002779876090803129 0.3219199430334384 0 -0.02919563224845052 0.33426686825629032 0 -0.002779876090803129 0.3219199430334384 0 -0.02919563224845052 0.33426686825629032 0 -0.002779876090803129 0.3219199430334384 0 -0.020697810644934238 0.34403759133798628 0 -0.02919563224845052 0.33426686825629032 0 -0.020697810644934238 0.34403759133798628 0 -0.033595733692541693 0.34652904084142089 0 -0.002779876090803129 0.3219199430334384 0 -0.0077270399645133223 0.34787393807981482 0 -0.020697810644934238 0.34403759133798628 0 -0.002779876090803129 0.3219199430334384 0 -0.0077270399645133223 0.34787393807981482 0 0.0079430069714572782 0.34650068439185039 0 -0.0045112187503786819 0.3654230608970287 0 -0.026285228190691321 0.35455031176188151 0 -0.014888848242480591 0.36411658674528702 0 -0.0045112187503786819 0.3654230608970287 0 -0.026285228190691321 0.35455031176188151 0 -0.014888848242480591 0.36411658674528702 0 -0.0075547196922330362 0.37202079710967162 0 -0.0045112187503786819 0.3654230608970287 0 -0.014888848242480591 0.36411658674528702 0 -0.0075547196922330362 0.37202079710967162 0 -0.021204226336619319 0.36447217721256647 0 -0.0075547196922330362 0.37202079710967162 0 -0.0045112187503786819 0.3654230608970287 0 0.0037288652009876042 0.37408999224015083 0 -0.0075547196922330362 0.37202079710967162 0 0.003161894288261895 0.37876248276422902 0 0.0037288652009876042 0.37408999224015083 0 -0.0045112187503786819 0.3654230608970287 0 -0.0077270399645133223 0.34787393807981482 0 -0.026285228190691321 0.35455031176188151 0 -0.0045112187503786819 0.3654230608970287 0 -0.0077270399645133223 0.34787393807981482 0 0.00045783537429429209 0.35545048756526998 0 -0.0077270399645133223 0.34787393807981482 0 -0.020697810644934238 0.34403759133798628 0 -0.026285228190691321 0.35455031176188151 0 -0.020697810644934238 0.34403759133798628 0 -0.026285228190691321 0.35455031176188151 0 -0.033595733692541693 0.34652904084142089 0 -0.026285228190691321 0.35455031176188151 0 -0.033595733692541693 0.34652904084142089 0 -0.032018725347256957 0.35756817741597452 0 -0.026285228190691321 0.35455031176188151 0 -0.02675854010756018 0.36079087528092801 0 -0.032018725347256957 0.35756817741597452 0 -0.036878012102860062 0.3702413112501472 0 -0.01626707458050064 0.37610121141200897 0 -0.0075547196922330362 0.37202079710967162 0 -0.032493319394356672 0.36465844443098422 0 -0.0075547196922330362 0.37202079710967162 0 -0.032493319394356672 0.36465844443098422 0 -0.01626707458050064 0.37610121141200897 0 -0.026285228190691321 0.35455031176188151 0 -0.02675854010756018 0.36079087528092801 0 -0.021204226336619319 0.36447217721256647 0 -0.0075547196922330362 0.37202079710967162 0 -0.021204226336619319 0.36447217721256647 0 -0.032493319394356672 0.36465844443098422 0 -0.028993601410399659 0.36344461470249029 0 -0.032493319394356672 0.36465844443098422 0 -0.032018725347256957 0.35756817741597452 0 -0.028993601410399659 0.36344461470249029 0 -0.02675854010756018 0.36079087528092801 0 -0.032018725347256957 0.35756817741597452 0 -0.028993601410399659 0.36344461470249029 0 -0.021204226336619319 0.36447217721256647 0 -0.032493319394356672 0.36465844443098422 0 -0.036878012102860062 0.3702413112501472 0 -0.032493319394356672 0.36465844443098422 0 -0.01626707458050064 0.37610121141200897 0 -0.028993601410399659 0.36344461470249029 0 -0.02675854010756018 0.36079087528092801 0 -0.021204226336619319 0.36447217721256647 0 -0.014888848242480591 0.36411658674528702 0 -0.026285228190691321 0.35455031176188151 0 -0.021204226336619319 0.36447217721256647 0 -0.032493319394356672 0.36465844443098422 0 -0.056439658471632868 0.35445182595006919 0 -0.036878012102860062 0.3702413112501472 0 -0.057488949625219422 0.36438141108828481 0 -0.043962560233343578 0.38463674560388911 0 -0.036878012102860062 0.3702413112501472 0 -0.032493319394356672 0.36465844443098422 0 -0.056891285562835257 0.35872563464225132 0 -0.032493319394356672 0.36465844443098422 0 -0.056891285562835257 0.35872563464225132 0 -0.032493319394356672 0.36465844443098422 0 -0.046049403859521942 0.3521259083013607 0 -0.056439658471632868 0.35445182595006919 0 -0.033595733692541693 0.34652904084142089 0 -0.046049403859521942 0.3521259083013607 0 -0.055611388406097743 0.34661379347914217 0 -0.032493319394356672 0.36465844443098422 0 -0.038009034613011562 0.35399231221839123 0 -0.032018725347256957 0.35756817741597452 0 -0.032493319394356672 0.36465844443098422 0 -0.038009034613011562 0.35399231221839123 0 -0.046049403859521942 0.3521259083013607 0 -0.033595733692541693 0.34652904084142089 0 -0.038009034613011562 0.35399231221839123 0 -0.032018725347256957 0.35756817741597452 0 -0.033595733692541693 0.34652904084142089 0 -0.038009034613011562 0.35399231221839123 0 -0.046049403859521942 0.3521259083013607 0 -0.032493319394356672 0.36465844443098422 0 -0.056891285562835257 0.35872563464225132 0 -0.056439658471632868 0.35445182595006919 0 -0.046049403859521942 0.3521259083013607 0 -0.056439658471632868 0.35445182595006919 0 -0.055611388406097743 0.34661379347914217 0 -0.056891285562835257 0.35872563464225132 0 -0.057488949625219422 0.36438141108828481 0 -0.072515954775281971 0.35451511629721549 0 -0.056439658471632868 0.35445182595006919 0 -0.064777381783492766 0.35089804845743988 0 -0.056891285562835257 0.35872563464225132 0 -0.056439658471632868 0.35445182595006919 0 -0.064777381783492766 0.35089804845743988 0 -0.056891285562835257 0.35872563464225132 0 -0.056439658471632868 0.35445182595006919 0 -0.055611388406097743 0.34661379347914217 0 -0.064777381783492766 0.35089804845743988 0 -0.065475399686112629 0.33888580458489997 0 -0.056439658471632868 0.35445182595006919 0 -0.055611388406097743 0.34661379347914217 0 -0.056439658471632868 0.35445182595006919 0 -0.055611388406097743 0.34661379347914217 0 -0.064777381783492766 0.35089804845743988 0 -0.055611388406097743 0.34661379347914217 0 -0.064777381783492766 0.35089804845743988 0 -0.036878012102860062 0.3702413112501472 0 -0.056891285562835257 0.35872563464225132 0 -0.057488949625219422 0.36438141108828481 0 -0.036878012102860062 0.3702413112501472 0 -0.057488949625219422 0.36438141108828481 0 -0.056891285562835257 0.35872563464225132 0 -0.057488949625219422 0.36438141108828481 0 -0.057488949625219422 0.36438141108828481 0 -0.078437189439954411 0.37225423709352412 0 -0.059859021993269632 0.38680972879785369 0 -0.057488949625219422 0.36438141108828481 0 -0.079957528612573325 0.35799336447459063 0 -0.057488949625219422 0.36438141108828481 0 -0.078437189439954411 0.37225423709352412 0 -0.079957528612573325 0.35799336447459063 0 -0.088403040866133986 0.36194086109899543 0 -0.079957528612573325 0.35799336447459063 0 -0.078437189439954411 0.37225423709352412 0 -0.088403040866133986 0.36194086109899543 0 -0.079957528612573325 0.35799336447459063 0 -0.088403040866133986 0.36194086109899543 0 -0.093000958697218999 0.37127140208609932 0 -0.096853972872007907 0.36259833126286461 0 -0.078437189439954411 0.37225423709352412 0 -0.088403040866133986 0.36194086109899543 0 -0.093000958697218999 0.37127140208609932 0 -0.072515954775281971 0.35451511629721549 0 -0.088606788051010132 0.34074127010337252 0 -0.100813310705905 0.34688957654070413 0 -0.072515954775281971 0.35451511629721549 0 -0.095521569989836769 0.35356834846127583 0 -0.100813310705905 0.34688957654070413 0 -0.072515954775281971 0.35451511629721549 0 -0.100813310705905 0.34688957654070413 0 -0.079957528612573325 0.35799336447459063 0 -0.072515954775281971 0.35451511629721549 0 -0.095521569989836769 0.35356834846127583 0 -0.088403040866133986 0.36194086109899543 0 -0.079957528612573325 0.35799336447459063 0 -0.095521569989836769 0.35356834846127583 0 -0.079957528612573325 0.35799336447459063 0 -0.095521569989836769 0.35356834846127583 0 -0.088403040866133986 0.36194086109899543 0 -0.096853972872007907 0.36259833126286461 0 -0.095521569989836769 0.35356834846127583 0 -0.072515954775281971 0.35451511629721549 0 -0.064777381783492766 0.35089804845743988 0 -0.088606788051010132 0.34074127010337252 0 -0.064777381783492766 0.35089804845743988 0 -0.088606788051010132 0.34074127010337252 0 -0.057488949625219422 0.36438141108828481 0 -0.079957528612573325 0.35799336447459063 0 -0.072515954775281971 0.35451511629721549 0 -0.079957528612573325 0.35799336447459063 0 -0.072515954775281971 0.35451511629721549 0 -0.056891285562835257 0.35872563464225132 0 -0.072515954775281971 0.35451511629721549 0 -0.056891285562835257 0.35872563464225132 0 -0.072515954775281971 0.35451511629721549 0 -0.064777381783492766 0.35089804845743988 0 -0.072515954775281971 0.35451511629721549 0 -0.064777381783492766 0.35089804845743988 0 -0.052901582065398439 0.32097052690221339 0 -0.071422801311392073 0.32934703513679658 0 -0.065475399686112629 0.33888580458489997 0 -0.064777381783492766 0.35089804845743988 0 -0.065475399686112629 0.33888580458489997 0 -0.088606788051010132 0.34074127010337252 0 -0.071422801311392073 0.32934703513679658 0 -0.065475399686112629 0.33888580458489997 0 -0.088606788051010132 0.34074127010337252 0 -0.071422801311392073 0.32934703513679658 0 -0.070253574126565688 0.31266229765776998 0 -0.083523078614957835 0.32316514053642048 0 -0.052901582065398439 0.32097052690221339 0 -0.071422801311392073 0.32934703513679658 0 -0.070253574126565688 0.31266229765776998 0 -0.090870879529236184 0.3087773128140579 0 -0.070253574126565688 0.31266229765776998 0 -0.083523078614957835 0.32316514053642048 0 -0.090870879529236184 0.3087773128140579 0 -0.083523078614957835 0.32316514053642048 0 -0.096461350056585057 0.32429778697010531 0 -0.071422801311392073 0.32934703513679658 0 -0.083523078614957835 0.32316514053642048 0 -0.088606788051010132 0.34074127010337252 0 -0.083523078614957835 0.32316514053642048 0 -0.088606788051010132 0.34074127010337252 0 -0.096461350056585057 0.32429778697010531 0 -0.088606788051010132 0.34074127010337252 0 -0.096461350056585057 0.32429778697010531 0 -0.1124361943185265 0.33058449174930271 0 -0.088606788051010132 0.34074127010337252 0 -0.1124361943185265 0.33058449174930271 0 -0.100813310705905 0.34688957654070413 0 -0.088606788051010132 0.34074127010337252 0 -0.1124361943185265 0.33058449174930271 0 -0.096461350056585057 0.32429778697010531 0 -0.1097156095860123 0.31523807546013688 0 -0.1124361943185265 0.33058449174930271 0 -0.090870879529236184 0.3087773128140579 0 -0.096461350056585057 0.32429778697010531 0 -0.1097156095860123 0.31523807546013688 0 -0.13626560058604301 0.32042771339523279 0 -0.12522219782980251 0.31680644889930942 0 -0.1124361943185265 0.33058449174930271 0 -0.13626560058604301 0.32042771339523279 0 -0.1124361943185265 0.33058449174930271 0 -0.12522219782980251 0.31680644889930942 0 -0.1097156095860123 0.31523807546013688 0 -0.1124361943185265 0.33058449174930271 0 -0.12911066663652779 0.33926403678419192 0 -0.1124361943185265 0.33058449174930271 0 -0.100813310705905 0.34688957654070413 0 -0.12911066663652779 0.33926403678419192 0 -0.100813310705905 0.34688957654070413 0 -0.12911066663652779 0.33926403678419192 0 -0.11291580241631741 0.35586745509001311 0 -0.100813310705905 0.34688957654070413 0 -0.12735311119068521 0.35737863321314151 0 -0.12911066663652779 0.33926403678419192 0 -0.11291580241631741 0.35586745509001311 0 -0.12735311119068521 0.35737863321314151 0 -0.11291580241631741 0.35586745509001311 0 -0.12030727828528601 0.36679067336604781 0 -0.13214598057342289 0.37070553122603661 0 -0.12030727828528601 0.36679067336604781 0 -0.1216364771498149 0.37964542288782621 0 -0.12030727828528601 0.36679067336604781 0 -0.11258702206112051 0.37433135473297041 0 -0.1216364771498149 0.37964542288782621 0 -0.12030727828528601 0.36679067336604781 0 -0.11258702206112051 0.37433135473297041 0 -0.1113104176231926 0.36480403467726802 0 -0.11291580241631741 0.35586745509001311 0 -0.12030727828528601 0.36679067336604781 0 -0.1113104176231926 0.36480403467726802 0 -0.11291580241631741 0.35586745509001311 0 -0.1113104176231926 0.36480403467726802 0 -0.10388966454216091 0.35861831246614329 0 -0.10396630206901721 0.36804792963601352 0 -0.096853972872007907 0.36259833126286461 0 -0.10388966454216091 0.35861831246614329 0 -0.1113104176231926 0.36480403467726802 0 -0.10396630206901721 0.36804792963601352 0 -0.10388966454216091 0.35861831246614329 0 -0.11258702206112051 0.37433135473297041 0 -0.10396630206901721 0.36804792963601352 0 -0.10169512219332059 0.37962229962684851 0 -0.11258702206112051 0.37433135473297041 0 -0.1113104176231926 0.36480403467726802 0 -0.10396630206901721 0.36804792963601352 0 -0.093000958697218999 0.37127140208609932 0 -0.10396630206901721 0.36804792963601352 0 -0.096853972872007907 0.36259833126286461 0 -0.093000958697218999 0.37127140208609932 0 -0.10396630206901721 0.36804792963601352 0 -0.10169512219332059 0.37962229962684851 0 -0.096853972872007907 0.36259833126286461 0 -0.095521569989836769 0.35356834846127583 0 -0.10388966454216091 0.35861831246614329 0 -0.095521569989836769 0.35356834846127583 0 -0.100813310705905 0.34688957654070413 0 -0.10388966454216091 0.35861831246614329 0 -0.11291580241631741 0.35586745509001311 0 -0.100813310705905 0.34688957654070413 0 -0.10388966454216091 0.35861831246614329 0 -0.1006885010439178 0.39533122885653521 0 -0.10169512219332059 0.37962229962684851 0 -0.1115100018319394 0.38556836938172701 0 -0.1006885010439178 0.39533122885653521 0 -0.10169512219332059 0.37962229962684851 0 -0.0884179474567095 0.38318351306774567 0 -0.093000958697218999 0.37127140208609932 0 -0.10169512219332059 0.37962229962684851 0 -0.0884179474567095 0.38318351306774567 0 -0.11258702206112051 0.37433135473297041 0 -0.10169512219332059 0.37962229962684851 0 -0.1115100018319394 0.38556836938172701 0 -0.1326230197812206 0.38578317979234023 0 -0.1216364771498149 0.37964542288782621 0 -0.11938697336984549 0.39593056612221672 0 -0.1115100018319394 0.38556836938172701 0 -0.1216364771498149 0.37964542288782621 0 -0.11938697336984549 0.39593056612221672 0 -0.11258702206112051 0.37433135473297041 0 -0.1115100018319394 0.38556836938172701 0 -0.1216364771498149 0.37964542288782621 0 -0.1006885010439178 0.39533122885653521 0 -0.11938697336984549 0.39593056612221672 0 -0.1090442391948616 0.41148530843012238 0 -0.1006885010439178 0.39533122885653521 0 -0.1115100018319394 0.38556836938172701 0 -0.11938697336984549 0.39593056612221672 0 -0.12064699510279819 0.41141043511993952 0 -0.1143196401421251 0.42116835628965349 0 -0.1238628249485012 0.42640829874204977 0 -0.12064699510279819 0.41141043511993952 0 -0.1143196401421251 0.42116835628965349 0 -0.1090442391948616 0.41148530843012238 0 -0.11938697336984549 0.39593056612221672 0 -0.12064699510279819 0.41141043511993952 0 -0.1090442391948616 0.41148530843012238 0 -0.12646158318117309 0.44043125541057793 0 -0.1238628249485012 0.42640829874204977 0 -0.1153750205342354 0.4409930649252245 0 -0.1143196401421251 0.42116835628965349 0 -0.1238628249485012 0.42640829874204977 0 -0.1120549684768552 0.43204525842648922 0 -0.1143196401421251 0.42116835628965349 0 -0.1120549684768552 0.43204525842648922 0 -0.10321461368879679 0.42212069990009848 0 -0.1238628249485012 0.42640829874204977 0 -0.1120549684768552 0.43204525842648922 0 -0.1153750205342354 0.4409930649252245 0 -0.1120549684768552 0.43204525842648922 0 -0.088327067603114359 0.4318558113217405 0 -0.1004351676289809 0.44134690211153121 0 -0.1120549684768552 0.43204525842648922 0 -0.10321461368879679 0.42212069990009848 0 -0.088327067603114359 0.4318558113217405 0 -0.10321461368879679 0.42212069990009848 0 -0.092146808566297908 0.4132357977397173 0 -0.088327067603114359 0.4318558113217405 0 -0.1120549684768552 0.43204525842648922 0 -0.088327067603114359 0.4318558113217405 0 -0.1006885010439178 0.39533122885653521 0 -0.1090442391948616 0.41148530843012238 0 -0.092146808566297908 0.4132357977397173 0 -0.10321461368879679 0.42212069990009848 0 -0.1090442391948616 0.41148530843012238 0 -0.092146808566297908 0.4132357977397173 0 -0.1143196401421251 0.42116835628965349 0 -0.10321461368879679 0.42212069990009848 0 -0.1090442391948616 0.41148530843012238 0 -0.092146808566297908 0.4132357977397173 0 -0.076154432410223752 0.41846060747859792 0 -0.078168814748084361 0.39664221148919693 0 -0.092146808566297908 0.4132357977397173 0 -0.088327067603114359 0.4318558113217405 0 -0.076154432410223752 0.41846060747859792 0 -0.088327067603114359 0.4318558113217405 0 -0.064599166729373395 0.43166636421699139 0 -0.076154432410223752 0.41846060747859792 0 -0.088327067603114359 0.4318558113217405 0 -0.064599166729373395 0.43166636421699139 0 -0.064599166729373395 0.43166636421699139 0 -0.062229094361322852 0.40923804650742251 0 -0.076154432410223752 0.41846060747859792 0 -0.078168814748084361 0.39664221148919693 0 -0.062229094361322852 0.40923804650742251 0 -0.064599166729373395 0.43166636421699139 0 -0.076154432410223752 0.41846060747859792 0 -0.062229094361322852 0.40923804650742251 0 -0.078168814748084361 0.39664221148919693 0 -0.059859021993269632 0.38680972879785369 0 -0.062229094361322852 0.40923804650742251 0 -0.1006885010439178 0.39533122885653521 0 -0.078168814748084361 0.39664221148919693 0 -0.0884179474567095 0.38318351306774567 0 -0.1006885010439178 0.39533122885653521 0 -0.092146808566297908 0.4132357977397173 0 -0.078168814748084361 0.39664221148919693 0 -0.078437189439954411 0.37225423709352412 0 -0.093000958697218999 0.37127140208609932 0 -0.0884179474567095 0.38318351306774567 0 -0.078168814748084361 0.39664221148919693 0 -0.0884179474567095 0.38318351306774567 0 -0.078796593135918996 0.38445365595787062 0 -0.078437189439954411 0.37225423709352412 0 -0.0884179474567095 0.38318351306774567 0 -0.078796593135918996 0.38445365595787062 0 -0.078437189439954411 0.37225423709352412 0 -0.078796593135918996 0.38445365595787062 0 -0.059859021993269632 0.38680972879785369 0 -0.078168814748084361 0.39664221148919693 0 -0.078796593135918996 0.38445365595787062 0 -0.059859021993269632 0.38680972879785369 0 -0.057488949625219422 0.36438141108828481 0 -0.059859021993269632 0.38680972879785369 0 -0.059859021993269632 0.38680972879785369 0 -0.040179649601050707 0.40022869671958111 0 -0.043962560233343578 0.38463674560388911 0 -0.057488949625219422 0.36438141108828481 0 -0.059859021993269632 0.38680972879785369 0 -0.043962560233343578 0.38463674560388911 0 -0.059859021993269632 0.38680972879785369 0 -0.040179649601050707 0.40022869671958111 0 -0.062229094361322852 0.40923804650742251 0 -0.059859021993269632 0.38680972879785369 0 -0.062229094361322852 0.40923804650742251 0 -0.040179649601050707 0.40022869671958111 0 -0.043962560233343578 0.38463674560388911 0 -0.026499846558001281 0.38987311776172789 0 -0.036878012102860062 0.3702413112501472 0 -0.043962560233343578 0.38463674560388911 0 -0.026499846558001281 0.38987311776172789 0 -0.026499846558001281 0.38987311776172789 0 -0.01626707458050064 0.37610121141200897 0 -0.0065706072671127469 0.39434828954426082 0 -0.036878012102860062 0.3702413112501472 0 -0.026499846558001281 0.38987311776172789 0 -0.01626707458050064 0.37610121141200897 0 -0.026499846558001281 0.38987311776172789 0 -0.018096234520370839 0.40340099140209068 0 -0.0065706072671127469 0.39434828954426082 0 -0.040179649601050707 0.40022869671958111 0 -0.026499846558001281 0.38987311776172789 0 -0.018096234520370839 0.40340099140209068 0 -0.018096234520370839 0.40340099140209068 0 -0.0065706072671127469 0.39434828954426082 0 -0.0072436027832006112 0.4123364379025341 0 -0.0065706072671127469 0.39434828954426082 0 -0.0072436027832006112 0.4123364379025341 0 0.01089180108124084 0.39997252845066772 0 -0.01626707458050064 0.37610121141200897 0 0.0043438629418587676 0.38196111157387103 0 -0.01626707458050064 0.37610121141200897 0 0.0043438629418587676 0.38196111157387103 0 0.003161894288261895 0.37876248276422902 0 -0.01626707458050064 0.37610121141200897 0 -0.0065706072671127469 0.39434828954426082 0 0.0043438629418587676 0.38196111157387103 0 -0.0075547196922330362 0.37202079710967162 0 -0.01626707458050064 0.37610121141200897 0 0.003161894288261895 0.37876248276422902 0 -0.011394810215588989 0.43124157268759389 0 -0.0025660179154935459 0.44998626422533278 0 0.0041628915828715758 0.42497939633799958 0 -0.011394810215588989 0.43124157268759389 0 -0.0072436027832006112 0.4123364379025341 0 0.0041628915828715758 0.42497939633799958 0 -0.011394810215588989 0.43124157268759389 0 -0.0072436027832006112 0.4123364379025341 0 -0.02555646458780644 0.41826112054656428 0 -0.040179649601050707 0.40022869671958111 0 -0.018096234520370839 0.40340099140209068 0 -0.02555646458780644 0.41826112054656428 0 -0.018096234520370839 0.40340099140209068 0 -0.0072436027832006112 0.4123364379025341 0 -0.02555646458780644 0.41826112054656428 0 -0.011394810215588989 0.43124157268759389 0 -0.02555646458780644 0.41826112054656428 0 -0.037996988472481168 0.43145396845229278 0 -0.011394810215588989 0.43124157268759389 0 -0.037996988472481168 0.43145396845229278 0 -0.024555823784448962 0.4488919763634131 0 -0.011394810215588989 0.43124157268759389 0 -0.037996988472481168 0.43145396845229278 0 -0.02555646458780644 0.41826112054656428 0 -0.037996988472481168 0.43145396845229278 0 -0.046455277113793748 0.41635628640821842 0 -0.040179649601050707 0.40022869671958111 0 -0.02555646458780644 0.41826112054656428 0 -0.046455277113793748 0.41635628640821842 0 -0.064599166729373395 0.43166636421699139 0 -0.046455277113793748 0.41635628640821842 0 -0.062229094361322852 0.40923804650742251 0 -0.040179649601050707 0.40022869671958111 0 -0.046455277113793748 0.41635628640821842 0 -0.062229094361322852 0.40923804650742251 0 -0.064599166729373395 0.43166636421699139 0 -0.037996988472481168 0.43145396845229278 0 -0.046455277113793748 0.41635628640821842 0 -0.064599166729373395 0.43166636421699139 0 -0.037996988472481168 0.43145396845229278 0 -0.046710906172838018 0.44762097489496588 0 -0.064599166729373395 0.43166636421699139 0 -0.037996988472481168 0.43145396845229278 0 -0.064599166729373395 0.43166636421699139 0 -0.046710906172838018 0.44762097489496588 0 -0.067006178318848073 0.45444424281132112 0 -0.038665370728233742 0.46730105838875968 0 -0.051703996542649983 0.48305618961746721 0 -0.067006178318848073 0.45444424281132112 0 -0.038665370728233742 0.46730105838875968 0 -0.046710906172838018 0.44762097489496588 0 -0.067006178318848073 0.45444424281132112 0 -0.038665370728233742 0.46730105838875968 0 -0.046710906172838018 0.44762097489496588 0 -0.024555823784448962 0.4488919763634131 0 -0.037996988472481168 0.43145396845229278 0 -0.046710906172838018 0.44762097489496588 0 -0.024555823784448962 0.4488919763634131 0 -0.038665370728233742 0.46730105838875968 0 -0.024555823784448962 0.4488919763634131 0 -0.0092949274138586589 0.47499313211266581 0 -0.0025660179154935459 0.44998626422533278 0 -0.0092949274138586589 0.47499313211266581 0 -0.0025660179154935459 0.44998626422533278 0 -0.0092949274138586589 0.47499313211266581 0 0.01118748516252247 0.4598761781804801 0 -0.024555823784448962 0.4488919763634131 0 -0.0025660179154935459 0.44998626422533278 0 -0.0092949274138586589 0.47499313211266581 0 -0.011394810215588989 0.43124157268759389 0 -0.024555823784448962 0.4488919763634131 0 -0.0025660179154935459 0.44998626422533278 0 -0.0092949274138586589 0.47499313211266581 0 -0.016023836912223529 0.499999999999999 0 -0.016023836912223529 0.499999999999999 0 0.0041546557958673912 0.4884928686158212 0 0.0080784329589246306 0.5 0 -0.0092949274138586589 0.47499313211266581 0 -0.016023836912223529 0.499999999999999 0 0.0041546557958673912 0.4884928686158212 0 -0.038665370728233742 0.46730105838875968 0 -0.0092949274138586589 0.47499313211266581 0 -0.028162121279770639 0.48404265571054839 0 -0.0092949274138586589 0.47499313211266581 0 -0.028162121279770639 0.48404265571054839 0 -0.016023836912223529 0.499999999999999 0 -0.028162121279770639 0.48404265571054839 0 -0.016023836912223529 0.499999999999999 0 -0.043922019205006817 0.5 0 -0.028162121279770639 0.48404265571054839 0 -0.043922019205006817 0.5 0 -0.051703996542649983 0.48305618961746721 0 -0.038665370728233742 0.46730105838875968 0 -0.028162121279770639 0.48404265571054839 0 -0.051703996542649983 0.48305618961746721 0 -0.043922019205006817 0.5 0 -0.051703996542649983 0.48305618961746721 0 -0.071820201497790143 0.49999999999998129 0 -0.051703996542649983 0.48305618961746721 0 -0.071820201497790143 0.49999999999998129 0 -0.069413189908320086 0.47722212140565112 0 -0.071820201497790143 0.49999999999998129 0 -0.08300942923932414 0.48653258802607779 0 -0.069413189908320086 0.47722212140565112 0 -0.071820201497790143 0.49999999999998129 0 -0.069413189908320086 0.47722212140565112 0 -0.071820201497790143 0.49999999999998129 0 -0.08300942923932414 0.48653258802607779 0 -0.1001273096208888 0.5 0 -0.08300942923932414 0.48653258802607779 0 -0.1001273096208888 0.5 0 -0.098112805223081856 0.48690198399208312 0 -0.08300942923932414 0.48653258802607779 0 -0.08242809231950507 0.46707985915381378 0 -0.095139485564518025 0.47535129642757762 0 -0.08300942923932414 0.48653258802607779 0 -0.069413189908320086 0.47722212140565112 0 -0.08242809231950507 0.46707985915381378 0 -0.08300942923932414 0.48653258802607779 0 -0.098112805223081856 0.48690198399208312 0 -0.095139485564518025 0.47535129642757762 0 -0.051703996542649983 0.48305618961746721 0 -0.069413189908320086 0.47722212140565112 0 -0.067006178318848073 0.45444424281132112 0 -0.069413189908320086 0.47722212140565112 0 -0.067006178318848073 0.45444424281132112 0 -0.08242809231950507 0.46707985915381378 0 -0.069413189908320086 0.47722212140565112 0 -0.067006178318848073 0.45444424281132112 0 -0.067006178318848073 0.45444424281132112 0 -0.08480061421116715 0.449181050934015 0 -0.08242809231950507 0.46707985915381378 0 -0.064599166729373395 0.43166636421699139 0 -0.067006178318848073 0.45444424281132112 0 -0.064599166729373395 0.43166636421699139 0 -0.067006178318848073 0.45444424281132112 0 -0.08480061421116715 0.449181050934015 0 -0.088327067603114359 0.4318558113217405 0 -0.08480061421116715 0.449181050934015 0 -0.1004351676289809 0.44134690211153121 0 -0.088327067603114359 0.4318558113217405 0 -0.064599166729373395 0.43166636421699139 0 -0.08480061421116715 0.449181050934015 0 -0.08242809231950507 0.46707985915381378 0 -0.096972275300819546 0.4587916442939533 0 -0.095139485564518025 0.47535129642757762 0 -0.08480061421116715 0.449181050934015 0 -0.08242809231950507 0.46707985915381378 0 -0.096972275300819546 0.4587916442939533 0 -0.096972275300819546 0.4587916442939533 0 -0.109118598601992 0.46758899834073547 0 -0.095139485564518025 0.47535129642757762 0 -0.096972275300819546 0.4587916442939533 0 -0.109118598601992 0.46758899834073547 0 -0.1103885665623538 0.45202802086287902 0 -0.08480061421116715 0.449181050934015 0 -0.096972275300819546 0.4587916442939533 0 -0.1004351676289809 0.44134690211153121 0 -0.096972275300819546 0.4587916442939533 0 -0.1004351676289809 0.44134690211153121 0 -0.1103885665623538 0.45202802086287902 0 -0.1120549684768552 0.43204525842648922 0 -0.1004351676289809 0.44134690211153121 0 -0.1153750205342354 0.4409930649252245 0 -0.1004351676289809 0.44134690211153121 0 -0.1153750205342354 0.4409930649252245 0 -0.1103885665623538 0.45202802086287902 0 -0.1103885665623538 0.45202802086287902 0 -0.1214208300975589 0.44882109333831971 0 -0.118022968953994 0.45702221470818361 0 -0.1153750205342354 0.4409930649252245 0 -0.1103885665623538 0.45202802086287902 0 -0.1214208300975589 0.44882109333831971 0 -0.12646158318117309 0.44043125541057793 0 -0.1153750205342354 0.4409930649252245 0 -0.1214208300975589 0.44882109333831971 0 -0.109118598601992 0.46758899834073547 0 -0.118022968953994 0.45702221470818361 0 -0.11990732776734039 0.46500732942905232 0 -0.109118598601992 0.46758899834073547 0 -0.1103885665623538 0.45202802086287902 0 -0.118022968953994 0.45702221470818361 0 -0.1270902450669299 0.45549879668012078 0 -0.118022968953994 0.45702221470818361 0 -0.11990732776734039 0.46500732942905232 0 -0.1270902450669299 0.45549879668012078 0 -0.1214208300975589 0.44882109333831971 0 -0.118022968953994 0.45702221470818361 0 -0.128378859872812 0.46350859241118109 0 -0.11990732776734039 0.46500732942905232 0 -0.12422274044664861 0.46877912371349689 0 -0.13040679970736199 0.47463440914024269 0 -0.1248663799293558 0.48456971051795861 0 -0.1083652673007809 0.49065462002270782 0 -0.12609227434380951 0.47353441870607321 0 -0.12422274044664861 0.46877912371349689 0 -0.1169731060961134 0.47382163298241747 0 -0.11990732776734039 0.46500732942905232 0 -0.12422274044664861 0.46877912371349689 0 -0.1169731060961134 0.47382163298241747 0 -0.12609227434380951 0.47353441870607321 0 -0.1169731060961134 0.47382163298241747 0 -0.1083652673007809 0.49065462002270782 0 -0.13040679970736199 0.47463440914024269 0 -0.1083652673007809 0.49065462002270782 0 -0.13040679970736199 0.47463440914024269 0 -0.12609227434380951 0.47353441870607321 0 -0.1083652673007809 0.49065462002270782 0 -0.1169731060961134 0.47382163298241747 0 -0.1098239937318793 0.4780498551683956 0 -0.1083652673007809 0.49065462002270782 0 -0.109118598601992 0.46758899834073547 0 -0.11990732776734039 0.46500732942905232 0 -0.1169731060961134 0.47382163298241747 0 -0.109118598601992 0.46758899834073547 0 -0.1169731060961134 0.47382163298241747 0 -0.1098239937318793 0.4780498551683956 0 -0.12843441774398759 0.5 0 -0.1083652673007809 0.49065462002270782 0 -0.1001273096208888 0.5 0 -0.1248663799293558 0.48456971051795861 0 -0.1235264836517066 0.49047184491401669 0 -0.1083652673007809 0.49065462002270782 0 -0.12843441774398759 0.5 0 -0.1235264836517066 0.49047184491401669 0 -0.1083652673007809 0.49065462002270782 0 -0.1083652673007809 0.49065462002270782 0 -0.098112805223081856 0.48690198399208312 0 -0.1041120300844504 0.47970935079029992 0 -0.1083652673007809 0.49065462002270782 0 -0.1001273096208888 0.5 0 -0.098112805223081856 0.48690198399208312 0 -0.098112805223081856 0.48690198399208312 0 -0.095139485564518025 0.47535129642757762 0 -0.1041120300844504 0.47970935079029992 0 -0.109118598601992 0.46758899834073547 0 -0.1098239937318793 0.4780498551683956 0 -0.1041120300844504 0.47970935079029992 0 -0.109118598601992 0.46758899834073547 0 -0.095139485564518025 0.47535129642757762 0 -0.1041120300844504 0.47970935079029992 0 -0.1098239937318793 0.4780498551683956 0 -0.1083652673007809 0.49065462002270782 0 -0.1041120300844504 0.47970935079029992 0 -0.1634756310438169 0.092246185644673545 0 -0.1613076166594444 0.078338667319227534 0 -0.18081373669588249 0.088080455692086584 0 -0.1634756310438169 0.092246185644673545 0 -0.1613076166594444 0.078338667319227534 0 -0.15181714043583239 0.087717765224677002 0 -0.1613076166594444 0.078338667319227534 0 -0.17459099630605041 0.068335065373714532 0 -0.15528995027968939 0.065924726380977378 0 -0.17459099630605041 0.068335065373714532 0 -0.18081373669588249 0.088080455692086584 0 -0.20360129161501259 0.072307500769365665 0 -0.1634756310438169 0.092246185644673545 0 -0.18081373669588249 0.088080455692086584 0 -0.17345520808240031 0.10012962196636251 0 -0.1613076166594444 0.078338667319227534 0 -0.17459099630605041 0.068335065373714532 0 -0.18081373669588249 0.088080455692086584 0 -0.18081373669588249 0.088080455692086584 0 -0.18711890302695519 0.1057160371235651 0 -0.17345520808240031 0.10012962196636251 0 -0.17345520808240031 0.10012962196636251 0 -0.17749934873145909 0.1103497586724054 0 -0.16889736020855889 0.1070864081317011 0 -0.18711890302695519 0.1057160371235651 0 -0.17345520808240031 0.10012962196636251 0 -0.17749934873145909 0.1103497586724054 0 -0.18711890302695519 0.1057160371235651 0 -0.17749934873145909 0.1103497586724054 0 -0.18893276410175591 0.1151021439971843 0 -0.18085132658360689 0.1195279332587393 0 -0.17749934873145909 0.1103497586724054 0 -0.18893276410175591 0.1151021439971843 0 -0.17749934873145909 0.1103497586724054 0 -0.1734796300358285 0.1189485231901475 0 -0.1683432863445132 0.1137206857876383 0 -0.18085132658360689 0.1195279332587393 0 -0.17749934873145909 0.1103497586724054 0 -0.1734796300358285 0.1189485231901475 0 -0.18085132658360689 0.1195279332587393 0 -0.1734796300358285 0.1189485231901475 0 -0.1743120616679292 0.12636079750236859 0 -0.1734796300358285 0.1189485231901475 0 -0.16515571909500801 0.12260505305778591 0 -0.1743120616679292 0.12636079750236859 0 -0.16515571909500801 0.12260505305778591 0 -0.1683432863445132 0.1137206857876383 0 -0.160327981317819 0.1157583570506046 0 -0.1734796300358285 0.1189485231901475 0 -0.16515571909500801 0.12260505305778591 0 -0.1683432863445132 0.1137206857876383 0 -0.17749934873145909 0.1103497586724054 0 -0.1683432863445132 0.1137206857876383 0 -0.16889736020855889 0.1070864081317011 0 -0.1683432863445132 0.1137206857876383 0 -0.16294122323156751 0.10968199197180301 0 -0.16889736020855889 0.1070864081317011 0 -0.1683432863445132 0.1137206857876383 0 -0.16294122323156751 0.10968199197180301 0 -0.160327981317819 0.1157583570506046 0 -0.16294122323156751 0.10968199197180301 0 -0.160327981317819 0.1157583570506046 0 -0.15536832690851529 0.1097457230705657 0 -0.160327981317819 0.1157583570506046 0 -0.15638423188120451 0.1238317290894369 0 -0.15256646079046579 0.1175743947290525 0 -0.16515571909500801 0.12260505305778591 0 -0.160327981317819 0.1157583570506046 0 -0.15638423188120451 0.1238317290894369 0 -0.1634756310438169 0.092246185644673545 0 -0.17345520808240031 0.10012962196636251 0 -0.16129058810400809 0.10264758937671439 0 -0.17345520808240031 0.10012962196636251 0 -0.16889736020855889 0.1070864081317011 0 -0.16129058810400809 0.10264758937671439 0 -0.16294122323156751 0.10968199197180301 0 -0.16889736020855889 0.1070864081317011 0 -0.16129058810400809 0.10264758937671439 0 -0.16294122323156751 0.10968199197180301 0 -0.16129058810400809 0.10264758937671439 0 -0.15536832690851529 0.1097457230705657 0 -0.1634756310438169 0.092246185644673545 0 -0.16129058810400809 0.10264758937671439 0 -0.15288630033359549 0.097193982719750299 0 -0.16129058810400809 0.10264758937671439 0 -0.15288630033359549 0.097193982719750299 0 -0.15147119583804289 0.10478154927543661 0 -0.15288630033359549 0.097193982719750299 0 -0.15147119583804289 0.10478154927543661 0 -0.14614149523025519 0.1023149168094591 0 -0.16129058810400809 0.10264758937671439 0 -0.15147119583804289 0.10478154927543661 0 -0.15536832690851529 0.1097457230705657 0 -0.15147119583804289 0.10478154927543661 0 -0.15536832690851529 0.1097457230705657 0 -0.14917736198678541 0.1112798298710464 0 -0.15147119583804289 0.10478154927543661 0 -0.14733145945022619 0.106445347136364 0 -0.14917736198678541 0.1112798298710464 0 -0.14614149523025519 0.1023149168094591 0 -0.14733145945022619 0.106445347136364 0 -0.14340743951751261 0.10605201458290291 0 -0.15147119583804289 0.10478154927543661 0 -0.14614149523025519 0.1023149168094591 0 -0.14733145945022619 0.106445347136364 0 -0.14733145945022619 0.106445347136364 0 -0.14340743951751261 0.10605201458290291 0 -0.14336402898051109 0.1110839732129914 0 -0.14340743951751261 0.10605201458290291 0 -0.1407228601539795 0.1036880388658393 0 -0.13900277255170351 0.1069011278919723 0 -0.14340743951751261 0.10605201458290291 0 -0.14336402898051109 0.1110839732129914 0 -0.13900277255170351 0.1069011278919723 0 -0.14614149523025519 0.1023149168094591 0 -0.14340743951751261 0.10605201458290291 0 -0.1407228601539795 0.1036880388658393 0 -0.14614149523025519 0.1023149168094591 0 -0.1407228601539795 0.1036880388658393 0 -0.14102523676799969 0.1001094180881712 0 -0.14614149523025519 0.1023149168094591 0 -0.14102523676799969 0.1001094180881712 0 -0.14508403652236471 0.095071039692081 0 -0.14102523676799969 0.1001094180881712 0 -0.14508403652236471 0.095071039692081 0 -0.1373562005554797 0.096558202524110862 0 -0.15288630033359549 0.097193982719750299 0 -0.14614149523025519 0.1023149168094591 0 -0.14508403652236471 0.095071039692081 0 -0.15638423188120451 0.1238317290894369 0 -0.15256646079046579 0.1175743947290525 0 -0.14771333824842281 0.12544886910463199 0 -0.15256646079046579 0.1175743947290525 0 -0.14521575766649181 0.11909484549006701 0 -0.14771333824842281 0.12544886910463199 0 -0.15256646079046579 0.1175743947290525 0 -0.14917736198678541 0.1112798298710464 0 -0.14521575766649181 0.11909484549006701 0 -0.15256646079046579 0.1175743947290525 0 -0.15536832690851529 0.1097457230705657 0 -0.14917736198678541 0.1112798298710464 0 -0.160327981317819 0.1157583570506046 0 -0.15256646079046579 0.1175743947290525 0 -0.15536832690851529 0.1097457230705657 0 -0.14917736198678541 0.1112798298710464 0 -0.14336402898051109 0.1110839732129914 0 -0.14521575766649181 0.11909484549006701 0 -0.14336402898051109 0.1110839732129914 0 -0.14521575766649181 0.11909484549006701 0 -0.13816656960512311 0.11756685565145331 0 -0.14733145945022619 0.106445347136364 0 -0.14917736198678541 0.1112798298710464 0 -0.14336402898051109 0.1110839732129914 0 -0.14521575766649181 0.11909484549006701 0 -0.14771333824842281 0.12544886910463199 0 -0.1359731756398993 0.1287188491007813 0 -0.13076360428077999 0.1032023948954521 0 -0.1235192860157463 0.11941317108773911 0 -0.13291029282560909 0.1121500122910329 0 -0.13076360428077999 0.1032023948954521 0 -0.1235192860157463 0.11941317108773911 0 -0.14521575766649181 0.11909484549006701 0 -0.13816656960512311 0.11756685565145331 0 -0.1359731756398993 0.1287188491007813 0 -0.13816656960512311 0.11756685565145331 0 -0.1379340743513485 0.11076124472851211 0 -0.13291029282560909 0.1121500122910329 0 -0.14336402898051109 0.1110839732129914 0 -0.13816656960512311 0.11756685565145331 0 -0.1379340743513485 0.11076124472851211 0 -0.14336402898051109 0.1110839732129914 0 -0.1379340743513485 0.11076124472851211 0 -0.13900277255170351 0.1069011278919723 0 -0.1379340743513485 0.11076124472851211 0 -0.13291029282560909 0.1121500122910329 0 -0.1344446508108455 0.1073113770666152 0 -0.13816656960512311 0.11756685565145331 0 -0.13291029282560909 0.1121500122910329 0 -0.1235192860157463 0.11941317108773911 0 -0.1359731756398993 0.1287188491007813 0 -0.1235192860157463 0.11941317108773911 0 -0.13816656960512311 0.11756685565145331 0 -0.1359731756398993 0.1287188491007813 0 -0.1235192860157463 0.11941317108773911 0 -0.13423220048637879 0.1004905155486864 0 -0.13343539714419661 0.097968094268834335 0 -0.1373562005554797 0.096558202524110862 0 -0.13423220048637879 0.1004905155486864 0 -0.1373562005554797 0.096558202524110862 0 -0.13729303109168969 0.10030376660336419 0 -0.13423220048637879 0.1004905155486864 0 -0.13729303109168969 0.10030376660336419 0 -0.13621664094373331 0.1023645006082657 0 -0.13423220048637879 0.1004905155486864 0 -0.13381445209715839 0.1026621461041924 0 -0.13170717523475739 0.101090944653089 0 -0.13423220048637879 0.1004905155486864 0 -0.13343539714419661 0.097968094268834335 0 -0.13170717523475739 0.101090944653089 0 -0.13343539714419661 0.097968094268834335 0 -0.1373562005554797 0.096558202524110862 0 -0.13044601230017061 0.09373271434945106 0 -0.14102523676799969 0.1001094180881712 0 -0.1373562005554797 0.096558202524110862 0 -0.13729303109168969 0.10030376660336419 0 -0.14102523676799969 0.1001094180881712 0 -0.13729303109168969 0.10030376660336419 0 -0.13865121816819409 0.1020989586859387 0 -0.1407228601539795 0.1036880388658393 0 -0.14102523676799969 0.1001094180881712 0 -0.13865121816819409 0.1020989586859387 0 -0.1407228601539795 0.1036880388658393 0 -0.13799832188356839 0.1040290692640531 0 -0.13865121816819409 0.1020989586859387 0 -0.1407228601539795 0.1036880388658393 0 -0.13799832188356839 0.1040290692640531 0 -0.13900277255170351 0.1069011278919723 0 -0.13799832188356839 0.1040290692640531 0 -0.13900277255170351 0.1069011278919723 0 -0.13533245029242949 0.10468101313515719 0 -0.13729303109168969 0.10030376660336419 0 -0.13865121816819409 0.1020989586859387 0 -0.13621664094373331 0.1023645006082657 0 -0.13799832188356839 0.1040290692640531 0 -0.13865121816819409 0.1020989586859387 0 -0.13621664094373331 0.1023645006082657 0 -0.1379340743513485 0.11076124472851211 0 -0.13900277255170351 0.1069011278919723 0 -0.1344446508108455 0.1073113770666152 0 -0.13900277255170351 0.1069011278919723 0 -0.1344446508108455 0.1073113770666152 0 -0.13533245029242949 0.10468101313515719 0 -0.13533245029242949 0.10468101313515719 0 -0.13381445209715839 0.1026621461041924 0 -0.13076360428077999 0.1032023948954521 0 -0.1344446508108455 0.1073113770666152 0 -0.13533245029242949 0.10468101313515719 0 -0.13076360428077999 0.1032023948954521 0 -0.13621664094373331 0.1023645006082657 0 -0.13533245029242949 0.10468101313515719 0 -0.13381445209715839 0.1026621461041924 0 -0.13799832188356839 0.1040290692640531 0 -0.13621664094373331 0.1023645006082657 0 -0.13533245029242949 0.10468101313515719 0 -0.13423220048637879 0.1004905155486864 0 -0.13621664094373331 0.1023645006082657 0 -0.13381445209715839 0.1026621461041924 0 -0.13076360428077999 0.1032023948954521 0 -0.13170717523475739 0.101090944653089 0 -0.13381445209715839 0.1026621461041924 0 -0.13076360428077999 0.1032023948954521 0 -0.13170717523475739 0.101090944653089 0 -0.13291029282560909 0.1121500122910329 0 -0.1344446508108455 0.1073113770666152 0 -0.13076360428077999 0.1032023948954521 0 -0.13076360428077999 0.1032023948954521 0 -0.13170717523475739 0.101090944653089 0 -0.13044601230017061 0.09373271434945106 0 -0.13076360428077999 0.1032023948954521 0 -0.12577384119145621 0.087909922726883194 0 -0.13044601230017061 0.09373271434945106 0 -0.13343539714419661 0.097968094268834335 0 -0.13170717523475739 0.101090944653089 0 -0.13044601230017061 0.09373271434945106 0 -0.12577384119145621 0.087909922726883194 0 -0.13044601230017061 0.09373271434945106 0 -0.1340372224990426 0.08788427678376054 0 -0.12577384119145621 0.087909922726883194 0 -0.13430215430146131 0.07934706358888706 0 -0.1200071464871357 0.075294821015689684 0 -0.12577384119145621 0.087909922726883194 0 -0.13430215430146131 0.07934706358888706 0 -0.1340372224990426 0.08788427678376054 0 -0.13430215430146131 0.07934706358888706 0 -0.1340372224990426 0.08788427678376054 0 -0.14199464985928789 0.087162921217094708 0 -0.1373562005554797 0.096558202524110862 0 -0.1340372224990426 0.08788427678376054 0 -0.14199464985928789 0.087162921217094708 0 -0.1373562005554797 0.096558202524110862 0 -0.13044601230017061 0.09373271434945106 0 -0.1340372224990426 0.08788427678376054 0 -0.14508403652236471 0.095071039692081 0 -0.14199464985928789 0.087162921217094708 0 -0.15181714043583239 0.087717765224677002 0 -0.14508403652236471 0.095071039692081 0 -0.1373562005554797 0.096558202524110862 0 -0.14199464985928789 0.087162921217094708 0 -0.13430215430146131 0.07934706358888706 0 -0.14199464985928789 0.087162921217094708 0 -0.14787493791231379 0.07780811898909977 0 -0.14199464985928789 0.087162921217094708 0 -0.15181714043583239 0.087717765224677002 0 -0.14787493791231379 0.07780811898909977 0 -0.1613076166594444 0.078338667319227534 0 -0.15181714043583239 0.087717765224677002 0 -0.14787493791231379 0.07780811898909977 0 -0.1634756310438169 0.092246185644673545 0 -0.15288630033359549 0.097193982719750299 0 -0.15181714043583239 0.087717765224677002 0 -0.15288630033359549 0.097193982719750299 0 -0.14508403652236471 0.095071039692081 0 -0.15181714043583239 0.087717765224677002 0 -0.15528995027968939 0.065924726380977378 0 -0.14787493791231379 0.07780811898909977 0 -0.1360598665496652 0.061124287569049578 0 -0.1613076166594444 0.078338667319227534 0 -0.15528995027968939 0.065924726380977378 0 -0.14787493791231379 0.07780811898909977 0 -0.13430215430146131 0.07934706358888706 0 -0.14787493791231379 0.07780811898909977 0 -0.1360598665496652 0.061124287569049578 0 -0.13430215430146131 0.07934706358888706 0 -0.1360598665496652 0.061124287569049578 0 -0.1200071464871357 0.075294821015689684 0 -0.1360598665496652 0.061124287569049578 0 -0.13896758136181561 0.039502199217487592 0 -0.1221638745186274 0.046349265705951381 0 -0.13896758136181561 0.039502199217487592 0 -0.12832547528433949 0.017422707222324089 0 -0.1221638745186274 0.046349265705951381 0 -0.12832547528433949 0.017422707222324089 0 -0.1221638745186274 0.046349265705951381 0 -0.13896758136181561 0.039502199217487592 0 -0.15141619206899681 0.02400159055312644 0 -0.15687249838744921 0.048613145036986473 0 -0.1360598665496652 0.061124287569049578 0 -0.13896758136181561 0.039502199217487592 0 -0.15687249838744921 0.048613145036986473 0 -0.15528995027968939 0.065924726380977378 0 -0.1360598665496652 0.061124287569049578 0 -0.15687249838744921 0.048613145036986473 0 -0.1344870760500517 -0.011503851261303469 0 -0.12832547528433949 0.017422707222324089 0 -0.1344870760500517 -0.011503851261303469 0 -0.12832547528433949 0.017422707222324089 0 -0.1481698996749144 0.0056299638759261337 0 -0.13896758136181561 0.039502199217487592 0 -0.12832547528433949 0.017422707222324089 0 -0.15141619206899681 0.02400159055312644 0 -0.12832547528433949 0.017422707222324089 0 -0.15141619206899681 0.02400159055312644 0 -0.1481698996749144 0.0056299638759261337 0 -0.15141619206899681 0.02400159055312644 0 -0.1481698996749144 0.0056299638759261337 0 -0.1659019020419891 0.009198472863133994 0 -0.1607188529291948 -0.01096909999765038 0 -0.1481698996749144 0.0056299638759261337 0 -0.1659019020419891 0.009198472863133994 0 -0.15141619206899681 0.02400159055312644 0 -0.1659019020419891 0.009198472863133994 0 -0.17149442249203509 0.030428385179814731 0 -0.1659019020419891 0.009198472863133994 0 -0.17149442249203509 0.030428385179814731 0 -0.17822636034132719 0.017541437855064981 0 -0.17149442249203509 0.030428385179814731 0 -0.17822636034132719 0.017541437855064981 0 -0.1924258730908954 0.024189699289096839 0 -0.17822636034132719 0.017541437855064981 0 -0.18474352935989971 0.0058366779918899298 0 -0.1924258730908954 0.024189699289096839 0 -0.1659019020419891 0.009198472863133994 0 -0.17822636034132719 0.017541437855064981 0 -0.18474352935989971 0.0058366779918899298 0 -0.17657546904089599 -0.007370569383024504 0 -0.1659019020419891 0.009198472863133994 0 -0.18474352935989971 0.0058366779918899298 0 -0.17459099630605041 0.068335065373714532 0 -0.15528995027968939 0.065924726380977378 0 -0.15687249838744921 0.048613145036986473 0 -0.17149442249203509 0.030428385179814731 0 -0.15687249838744921 0.048613145036986473 0 -0.18607822845935179 0.049343178096612372 0 -0.15141619206899681 0.02400159055312644 0 -0.17149442249203509 0.030428385179814731 0 -0.15687249838744921 0.048613145036986473 0 -0.17149442249203509 0.030428385179814731 0 -0.18607822845935179 0.049343178096612372 0 -0.1924258730908954 0.024189699289096839 0 -0.17459099630605041 0.068335065373714532 0 -0.15687249838744921 0.048613145036986473 0 -0.18607822845935179 0.049343178096612372 0 -0.18607822845935179 0.049343178096612372 0 -0.20818649170566661 0.047375188990534688 0 -0.20360129161501259 0.072307500769365665 0 -0.18607822845935179 0.049343178096612372 0 -0.20818649170566661 0.047375188990534688 0 -0.1924258730908954 0.024189699289096839 0 -0.2044818012513058 -4.6211528709685131e-05 0 -0.18474352935989971 0.0058366779918899298 0 -0.1924258730908954 0.024189699289096839 0 -0.20818649170566661 0.047375188990534688 0 -0.1924258730908954 0.024189699289096839 0 -0.21887248806020601 0.02189905359068748 0 -0.2044818012513058 -4.6211528709685131e-05 0 -0.23277801048404129 8.5799091976347663e-05 0 -0.21887248806020601 0.02189905359068748 0 -0.2044818012513058 -4.6211528709685131e-05 0 -0.1924258730908954 0.024189699289096839 0 -0.21887248806020601 0.02189905359068748 0 -0.23277801048404129 8.5799091976347663e-05 0 -0.21887248806020601 0.02189905359068748 0 -0.24442310393583619 0.018904397669626871 0 -0.21887248806020601 0.02189905359068748 0 -0.24442310393583619 0.018904397669626871 0 -0.23348504220286229 0.040413175195731468 0 -0.26096182947410212 -0.000358506717774391 0 -0.23277801048404129 8.5799091976347663e-05 0 -0.24442310393583619 0.018904397669626871 0 -0.25420852008430622 0.057242051200783052 0 -0.23348504220286229 0.040413175195731468 0 -0.23261158692397479 0.076279936165016785 0 -0.20818649170566661 0.047375188990534688 0 -0.23348504220286229 0.040413175195731468 0 -0.23261158692397479 0.076279936165016785 0 -0.20818649170566661 0.047375188990534688 0 -0.21887248806020601 0.02189905359068748 0 -0.23348504220286229 0.040413175195731468 0 -0.25420852008430622 0.057242051200783052 0 -0.2574641548598442 0.035133979252333067 0 -0.23348504220286229 0.040413175195731468 0 -0.2574641548598442 0.035133979252333067 0 -0.24442310393583619 0.018904397669626871 0 -0.23348504220286229 0.040413175195731468 0 -0.26162188223293692 0.080252371560667904 0 -0.25420852008430622 0.057242051200783052 0 -0.23261158692397479 0.076279936165016785 0 -0.23261158692397479 0.076279936165016785 0 -0.22982101693964621 0.096957103088539026 0 -0.2466704649685986 0.094137763570239424 0 -0.26162188223293692 0.080252371560667904 0 -0.23261158692397479 0.076279936165016785 0 -0.2466704649685986 0.094137763570239424 0 -0.26162188223293692 0.080252371560667904 0 -0.23261158692397479 0.076279936165016785 0 -0.23261158692397479 0.076279936165016785 0 -0.21620677900647511 0.08980771734247768 0 -0.22982101693964621 0.096957103088539026 0 -0.23261158692397479 0.076279936165016785 0 -0.20360129161501259 0.072307500769365665 0 -0.20818649170566661 0.047375188990534688 0 -0.23261158692397479 0.076279936165016785 0 -0.20360129161501259 0.072307500769365665 0 -0.23261158692397479 0.076279936165016785 0 -0.20360129161501259 0.072307500769365665 0 -0.21620677900647511 0.08980771734247768 0 -0.20360129161501259 0.072307500769365665 0 -0.21620677900647511 0.08980771734247768 0 -0.2012443738342389 0.1003097533459188 0 -0.18081373669588249 0.088080455692086584 0 -0.20360129161501259 0.072307500769365665 0 -0.2012443738342389 0.1003097533459188 0 -0.17459099630605041 0.068335065373714532 0 -0.18607822845935179 0.049343178096612372 0 -0.20360129161501259 0.072307500769365665 0 -0.17459099630605041 0.068335065373714532 0 -0.20360129161501259 0.072307500769365665 0 -0.18085132658360689 0.1195279332587393 0 -0.18893276410175591 0.1151021439971843 0 -0.2034198239776257 0.12970388425774559 0 -0.18085132658360689 0.1195279332587393 0 -0.2034198239776257 0.12970388425774559 0 -0.1981786745256276 0.11325388831936831 0 -0.18893276410175591 0.1151021439971843 0 -0.2034198239776257 0.12970388425774559 0 -0.18711890302695519 0.1057160371235651 0 -0.1981786745256276 0.11325388831936831 0 -0.18893276410175591 0.1151021439971843 0 -0.18081373669588249 0.088080455692086584 0 -0.18711890302695519 0.1057160371235651 0 -0.2012443738342389 0.1003097533459188 0 -0.18711890302695519 0.1057160371235651 0 -0.1981786745256276 0.11325388831936831 0 -0.2012443738342389 0.1003097533459188 0 -0.21620677900647511 0.08980771734247768 0 -0.2012443738342389 0.1003097533459188 0 -0.2174625035686642 0.1046834562461513 0 -0.2012443738342389 0.1003097533459188 0 -0.2174625035686642 0.1046834562461513 0 -0.2101775076875623 0.1154376228724278 0 -0.2174625035686642 0.1046834562461513 0 -0.2101775076875623 0.1154376228724278 0 -0.21945267008776179 0.1157126402407532 0 -0.1981786745256276 0.11325388831936831 0 -0.2101775076875623 0.1154376228724278 0 -0.2034198239776257 0.12970388425774559 0 -0.1981786745256276 0.11325388831936831 0 -0.2012443738342389 0.1003097533459188 0 -0.2101775076875623 0.1154376228724278 0 -0.2101775076875623 0.1154376228724278 0 -0.21683355393823539 0.1248775514036891 0 -0.2034198239776257 0.12970388425774559 0 -0.2101775076875623 0.1154376228724278 0 -0.21683355393823539 0.1248775514036891 0 -0.21945267008776179 0.1157126402407532 0 -0.21683355393823539 0.1248775514036891 0 -0.22625936887199821 0.12448146864608201 0 -0.21945267008776179 0.1157126402407532 0 -0.22625936887199821 0.12448146864608201 0 -0.21945267008776179 0.1157126402407532 0 -0.22653041637234869 0.1090831020354156 0 -0.22625936887199821 0.12448146864608201 0 -0.22653041637234869 0.1090831020354156 0 -0.2174625035686642 0.1046834562461513 0 -0.21945267008776179 0.1157126402407532 0 -0.22653041637234869 0.1090831020354156 0 -0.22625936887199821 0.12448146864608201 0 -0.23102352683096131 0.1153924589627106 0 -0.22653041637234869 0.1090831020354156 0 -0.23102352683096131 0.1153924589627106 0 -0.22653041637234869 0.1090831020354156 0 -0.24121356983117201 0.1082096431468671 0 -0.22625936887199821 0.12448146864608201 0 -0.23102352683096131 0.1153924589627106 0 -0.24086791062466209 0.12751650842310069 0 -0.21620677900647511 0.08980771734247768 0 -0.2174625035686642 0.1046834562461513 0 -0.22982101693964621 0.096957103088539026 0 -0.2174625035686642 0.1046834562461513 0 -0.22653041637234869 0.1090831020354156 0 -0.22982101693964621 0.096957103088539026 0 -0.22653041637234869 0.1090831020354156 0 -0.22982101693964621 0.096957103088539026 0 -0.24121356983117201 0.1082096431468671 0 -0.22982101693964621 0.096957103088539026 0 -0.2466704649685986 0.094137763570239424 0 -0.24121356983117201 0.1082096431468671 0 -0.25801695806766872 0.1088815318780445 0 -0.2466704649685986 0.094137763570239424 0 -0.24121356983117201 0.1082096431468671 0 -0.25619864571567158 0.1243014169855481 0 -0.23102352683096131 0.1153924589627106 0 -0.24121356983117201 0.1082096431468671 0 -0.25619864571567158 0.1243014169855481 0 -0.23102352683096131 0.1153924589627106 0 -0.25619864571567158 0.1243014169855481 0 -0.23102352683096131 0.1153924589627106 0 -0.24086791062466209 0.12751650842310069 0 -0.2515550936227457 0.13766665608924619 0 -0.24086791062466209 0.12751650842310069 0 -0.24029164985660201 0.14632908915454079 0 -0.24086791062466209 0.12751650842310069 0 -0.23335181268122709 0.134551725370118 0 -0.24029164985660201 0.14632908915454079 0 -0.2515550936227457 0.13766665608924619 0 -0.25619864571567158 0.1243014169855481 0 -0.24086791062466209 0.12751650842310069 0 -0.22625936887199821 0.12448146864608201 0 -0.24086791062466209 0.12751650842310069 0 -0.23335181268122709 0.134551725370118 0 -0.23335181268122709 0.134551725370118 0 -0.22598832137164621 0.13987983525674841 0 -0.24029164985660201 0.14632908915454079 0 -0.22625936887199821 0.12448146864608201 0 -0.23335181268122709 0.134551725370118 0 -0.22598832137164621 0.13987983525674841 0 -0.21683355393823539 0.1248775514036891 0 -0.22625936887199821 0.12448146864608201 0 -0.22598832137164621 0.13987983525674841 0 -0.22625936887199821 0.12448146864608201 0 -0.22598832137164621 0.13987983525674841 0 -0.22598832137164621 0.13987983525674841 0 -0.22549513715889441 0.1678979180826268 0 -0.2167954912390101 0.1529321645130812 0 -0.22598832137164621 0.13987983525674841 0 -0.2367230051097062 0.15687304275061259 0 -0.22549513715889441 0.1678979180826268 0 -0.22598832137164621 0.13987983525674841 0 -0.24029164985660201 0.14632908915454079 0 -0.2367230051097062 0.15687304275061259 0 -0.22598832137164621 0.13987983525674841 0 -0.22549513715889441 0.1678979180826268 0 -0.22598832137164621 0.13987983525674841 0 -0.24029164985660201 0.14632908915454079 0 -0.25459497834155942 0.15277834305232979 0 -0.24029164985660201 0.14632908915454079 0 -0.2367230051097062 0.15687304275061259 0 -0.25459497834155942 0.15277834305232979 0 -0.2515550936227457 0.13766665608924619 0 -0.24029164985660201 0.14632908915454079 0 -0.25459497834155942 0.15277834305232979 0 -0.24029164985660201 0.14632908915454079 0 -0.25459497834155942 0.15277834305232979 0 -0.2443225216379746 0.1685707376049525 0 -0.2367230051097062 0.15687304275061259 0 -0.2443225216379746 0.1685707376049525 0 -0.2367230051097062 0.15687304275061259 0 -0.22549513715889441 0.1678979180826268 0 -0.25449388519764998 0.1844284315031727 0 -0.2443225216379746 0.1685707376049525 0 -0.23852983354815571 0.18487748756820691 0 -0.2443225216379746 0.1685707376049525 0 -0.23852983354815571 0.18487748756820691 0 -0.22549513715889441 0.1678979180826268 0 -0.23852983354815571 0.18487748756820691 0 -0.22549513715889441 0.1678979180826268 0 -0.22500195294614109 0.19591600090850531 0 -0.22549513715889441 0.1678979180826268 0 -0.21529986754697389 0.18713494900900951 0 -0.22500195294614109 0.19591600090850531 0 -0.22549513715889441 0.1678979180826268 0 -0.22500195294614109 0.19591600090850531 0 -0.22549513715889441 0.1678979180826268 0 -0.20753127651127329 0.1707398355118829 0 -0.21051952683962011 0.159111093158427 0 -0.22549513715889441 0.1678979180826268 0 -0.21051952683962011 0.159111093158427 0 -0.2167954912390101 0.1529321645130812 0 -0.21051952683962011 0.159111093158427 0 -0.19817581817284319 0.1749811338786661 0 -0.22549513715889441 0.1678979180826268 0 -0.20753127651127329 0.1707398355118829 0 -0.21301059856655649 0.1768406137292021 0 -0.21051952683962011 0.159111093158427 0 -0.19817581817284319 0.1749811338786661 0 -0.20133703679936449 0.16234267761174581 0 -0.20753127651127329 0.1707398355118829 0 -0.21051952683962011 0.159111093158427 0 -0.19817581817284319 0.1749811338786661 0 -0.19817581817284319 0.1749811338786661 0 -0.2114395184668165 0.19963835008766381 0 -0.22549513715889441 0.1678979180826268 0 -0.21529986754697389 0.18713494900900951 0 -0.21301059856655649 0.1768406137292021 0 -0.20442045499347841 0.1798633799867686 0 -0.19817581817284319 0.1749811338786661 0 -0.2114395184668165 0.19963835008766381 0 -0.20753127651127329 0.1707398355118829 0 -0.21301059856655649 0.1768406137292021 0 -0.2034733406100169 0.17482201640523809 0 -0.21301059856655649 0.1768406137292021 0 -0.2034733406100169 0.17482201640523809 0 -0.20442045499347841 0.1798633799867686 0 -0.21529986754697389 0.18713494900900951 0 -0.21301059856655649 0.1768406137292021 0 -0.20442045499347841 0.1798633799867686 0 -0.19817581817284319 0.1749811338786661 0 -0.18031949124967731 0.19793862931496831 0 -0.20753127651127329 0.1707398355118829 0 -0.2034733406100169 0.17482201640523809 0 -0.19817581817284319 0.1749811338786661 0 -0.2034733406100169 0.17482201640523809 0 -0.20442045499347841 0.1798633799867686 0 -0.19817581817284319 0.1749811338786661 0 -0.20442045499347841 0.1798633799867686 0 -0.19817581817284319 0.1749811338786661 0 -0.19817581817284319 0.1749811338786661 0 -0.19561266276368389 0.1702162284827286 0 -0.19817581817284319 0.1749811338786661 0 -0.18152200391641171 0.16275341521661929 0 -0.19817581817284319 0.1749811338786661 0 -0.19561266276368389 0.1702162284827286 0 -0.18152200391641171 0.16275341521661929 0 -0.20133703679936449 0.16234267761174581 0 -0.19271899891510319 0.1624621689221854 0 -0.19240429218095259 0.15453635437764809 0 -0.19817581817284319 0.1749811338786661 0 -0.20133703679936449 0.16234267761174581 0 -0.19561266276368389 0.1702162284827286 0 -0.20133703679936449 0.16234267761174581 0 -0.19561266276368389 0.1702162284827286 0 -0.19271899891510319 0.1624621689221854 0 -0.19561266276368389 0.1702162284827286 0 -0.19271899891510319 0.1624621689221854 0 -0.18152200391641171 0.16275341521661929 0 -0.19271899891510319 0.1624621689221854 0 -0.19240429218095259 0.15453635437764809 0 -0.18152200391641171 0.16275341521661929 0 -0.19240429218095259 0.15453635437764809 0 -0.19039769473007881 0.14151219371457821 0 -0.180545236126467 0.14975913358102169 0 -0.20133703679936449 0.16234267761174581 0 -0.19240429218095259 0.15453635437764809 0 -0.20517897958587991 0.14483981155452261 0 -0.19240429218095259 0.15453635437764809 0 -0.19039769473007881 0.14151219371457821 0 -0.20517897958587991 0.14483981155452261 0 -0.18085132658360689 0.1195279332587393 0 -0.2034198239776257 0.12970388425774559 0 -0.18507521594325299 0.13101347516035119 0 -0.19039769473007881 0.14151219371457821 0 -0.2034198239776257 0.12970388425774559 0 -0.18507521594325299 0.13101347516035119 0 -0.19039769473007881 0.14151219371457821 0 -0.2034198239776257 0.12970388425774559 0 -0.20517897958587991 0.14483981155452261 0 -0.22598832137164621 0.13987983525674841 0 -0.2034198239776257 0.12970388425774559 0 -0.20517897958587991 0.14483981155452261 0 -0.21683355393823539 0.1248775514036891 0 -0.22598832137164621 0.13987983525674841 0 -0.2034198239776257 0.12970388425774559 0 -0.22598832137164621 0.13987983525674841 0 -0.2034198239776257 0.12970388425774559 0 -0.21051952683962011 0.159111093158427 0 -0.20133703679936449 0.16234267761174581 0 -0.20517897958587991 0.14483981155452261 0 -0.22598832137164621 0.13987983525674841 0 -0.2167954912390101 0.1529321645130812 0 -0.20517897958587991 0.14483981155452261 0 -0.21051952683962011 0.159111093158427 0 -0.2167954912390101 0.1529321645130812 0 -0.20517897958587991 0.14483981155452261 0 -0.2240732914715097 0.24867380101764949 0 -0.22450876873338749 0.22393408373438381 0 -0.2240732914715097 0.24867380101764949 0 -0.23552086690955309 0.2444055720541079 0 -0.22450876873338749 0.22393408373438381 0 -0.23659851017468231 0.25432161507005241 0 -0.2240732914715097 0.24867380101764949 0 -0.23552086690955309 0.2444055720541079 0 -0.24759739790112481 0.25315441603119782 0 -0.23552086690955309 0.2444055720541079 0 -0.24548244335966471 0.24286857053810521 0 -0.23552086690955309 0.2444055720541079 0 -0.24548244335966471 0.24286857053810521 0 -0.24741806503572619 0.2329767179432283 0 -0.24741806503572619 0.2329767179432283 0 -0.24667485751449911 0.21894349547531761 0 -0.22450876873338749 0.22393408373438381 0 -0.23552086690955309 0.2444055720541079 0 -0.24741806503572619 0.2329767179432283 0 -0.22450876873338749 0.22393408373438381 0 -0.23552086690955309 0.2444055720541079 0 -0.22450876873338749 0.22393408373438381 0 -0.22450876873338749 0.22393408373438381 0 -0.22500195294614109 0.19591600090850531 0 -0.2114395184668165 0.19963835008766381 0 -0.22450876873338749 0.22393408373438381 0 -0.23529302305827021 0.21010640769344299 0 -0.22500195294614109 0.19591600090850531 0 -0.22450876873338749 0.22393408373438381 0 -0.22500195294614109 0.19591600090850531 0 -0.24667485751449911 0.21894349547531761 0 -0.22450876873338749 0.22393408373438381 0 -0.23529302305827021 0.21010640769344299 0 -0.24667485751449911 0.21894349547531761 0 -0.24636878037834131 0.2052805006327261 0 -0.23529302305827021 0.21010640769344299 0 -0.24636878037834131 0.2052805006327261 0 -0.23529302305827021 0.21010640769344299 0 -0.23768721001063231 0.19837892033327109 0 -0.25449388519764998 0.1844284315031727 0 -0.23852983354815571 0.18487748756820691 0 -0.24655002503873369 0.19394753918537411 0 -0.24636878037834131 0.2052805006327261 0 -0.23768721001063231 0.19837892033327109 0 -0.24655002503873369 0.19394753918537411 0 -0.23852983354815571 0.18487748756820691 0 -0.23768721001063231 0.19837892033327109 0 -0.24655002503873369 0.19394753918537411 0 -0.23852983354815571 0.18487748756820691 0 -0.23768721001063231 0.19837892033327109 0 -0.22500195294614109 0.19591600090850531 0 -0.23529302305827021 0.21010640769344299 0 -0.23768721001063231 0.19837892033327109 0 -0.22500195294614109 0.19591600090850531 0 -0.21529986754697389 0.18713494900900951 0 -0.20442045499347841 0.1798633799867686 0 -0.2114395184668165 0.19963835008766381 0 -0.21529986754697389 0.18713494900900951 0 -0.22500195294614109 0.19591600090850531 0 -0.2114395184668165 0.19963835008766381 0 -0.19817581817284319 0.1749811338786661 0 -0.1971742228626063 0.1912902501672176 0 -0.18031949124967731 0.19793862931496831 0 -0.19817581817284319 0.1749811338786661 0 -0.2114395184668165 0.19963835008766381 0 -0.1971742228626063 0.1912902501672176 0 -0.1971742228626063 0.1912902501672176 0 -0.19506949197621609 0.20838777827971661 0 -0.18031949124967731 0.19793862931496831 0 -0.2114395184668165 0.19963835008766381 0 -0.1971742228626063 0.1912902501672176 0 -0.19506949197621609 0.20838777827971661 0 -0.19506949197621609 0.20838777827971661 0 -0.19273287222004701 0.2268905945245315 0 -0.1818289628607847 0.2170616524171691 0 -0.19506949197621609 0.20838777827971661 0 -0.20618640756922119 0.21954410799139321 0 -0.19273287222004701 0.2268905945245315 0 -0.22450876873338749 0.22393408373438381 0 -0.2114395184668165 0.19963835008766381 0 -0.20618640756922119 0.21954410799139321 0 -0.22450876873338749 0.22393408373438381 0 -0.2114395184668165 0.19963835008766381 0 -0.2114395184668165 0.19963835008766381 0 -0.19506949197621609 0.20838777827971661 0 -0.20618640756922119 0.21954410799139321 0 -0.22450876873338749 0.22393408373438381 0 -0.20618640756922119 0.21954410799139321 0 -0.2071813864496386 0.23886973333067019 0 -0.20618640756922119 0.21954410799139321 0 -0.19273287222004701 0.2268905945245315 0 -0.2071813864496386 0.23886973333067019 0 -0.19273287222004701 0.2268905945245315 0 -0.18780594399135009 0.2432222609189009 0 -0.2071813864496386 0.23886973333067019 0 -0.1998555116210283 0.25891194290682518 0 -0.18780594399135009 0.2432222609189009 0 -0.2071813864496386 0.23886973333067019 0 -0.21222572633593059 0.25042384699120041 0 -0.1998555116210283 0.25891194290682518 0 -0.2071813864496386 0.23886973333067019 0 -0.21222572633593059 0.25042384699120041 0 -0.2240732914715097 0.24867380101764949 0 -0.2071813864496386 0.23886973333067019 0 -0.2240732914715097 0.24867380101764949 0 -0.22450876873338749 0.22393408373438381 0 -0.2071813864496386 0.23886973333067019 0 -0.17653414283731059 0.25896614820827052 0 -0.17122511624507969 0.24209515342071941 0 -0.15921749235545729 0.24728948044781751 0 -0.17122511624507969 0.24209515342071941 0 -0.15921749235545729 0.24728948044781751 0 -0.1625695092567625 0.22075939936192049 0 -0.18780594399135009 0.2432222609189009 0 -0.17122511624507969 0.24209515342071941 0 -0.17923248091480479 0.23000581212864829 0 -0.17653414283731059 0.25896614820827052 0 -0.18780594399135009 0.2432222609189009 0 -0.17122511624507969 0.24209515342071941 0 -0.19273287222004701 0.2268905945245315 0 -0.18780594399135009 0.2432222609189009 0 -0.17923248091480479 0.23000581212864829 0 -0.17923248091480479 0.23000581212864829 0 -0.1625695092567625 0.22075939936192049 0 -0.1818289628607847 0.2170616524171691 0 -0.19273287222004701 0.2268905945245315 0 -0.17923248091480479 0.23000581212864829 0 -0.1818289628607847 0.2170616524171691 0 -0.17122511624507969 0.24209515342071941 0 -0.17923248091480479 0.23000581212864829 0 -0.1625695092567625 0.22075939936192049 0 -0.1625695092567625 0.22075939936192049 0 -0.18031949124967731 0.19793862931496831 0 -0.16111609714723071 0.20125972064720199 0 -0.1625695092567625 0.22075939936192049 0 -0.18031949124967731 0.19793862931496831 0 -0.1625695092567625 0.22075939936192049 0 -0.16111609714723071 0.20125972064720199 0 -0.1522798003658303 0.21347882245813191 0 -0.19506949197621609 0.20838777827971661 0 -0.1818289628607847 0.2170616524171691 0 -0.18031949124967731 0.19793862931496831 0 -0.1625695092567625 0.22075939936192049 0 -0.1818289628607847 0.2170616524171691 0 -0.18031949124967731 0.19793862931496831 0 -0.16111609714723071 0.20125972064720199 0 -0.16703957114438911 0.185472990144771 0 -0.15357945469212261 0.18437791951578689 0 -0.18031949124967731 0.19793862931496831 0 -0.16111609714723071 0.20125972064720199 0 -0.16703957114438911 0.185472990144771 0 -0.16111609714723071 0.20125972064720199 0 -0.14115114541271731 0.1906098180404015 0 -0.141488659539692 0.2052444750998523 0 -0.16111609714723071 0.20125972064720199 0 -0.14115114541271731 0.1906098180404015 0 -0.16111609714723071 0.20125972064720199 0 -0.14115114541271731 0.1906098180404015 0 -0.15357945469212261 0.18437791951578689 0 -0.14115114541271731 0.1906098180404015 0 -0.12832829264602649 0.1978496786684622 0 -0.1211861936782038 0.17995991543360099 0 -0.14115114541271731 0.1906098180404015 0 -0.12832829264602649 0.1978496786684622 0 -0.141488659539692 0.2052444750998523 0 -0.12832829264602649 0.1978496786684622 0 -0.1257098954772374 0.2113246755578779 0 -0.141488659539692 0.2052444750998523 0 -0.141488659539692 0.2052444750998523 0 -0.12785566072481649 0.2278023915624568 0 -0.1257098954772374 0.2113246755578779 0 -0.141488659539692 0.2052444750998523 0 -0.12785566072481649 0.2278023915624568 0 -0.1522798003658303 0.21347882245813191 0 -0.141488659539692 0.2052444750998523 0 -0.14552374626821149 0.22581456256643581 0 -0.16111609714723071 0.20125972064720199 0 -0.1522798003658303 0.21347882245813191 0 -0.141488659539692 0.2052444750998523 0 -0.1625695092567625 0.22075939936192049 0 -0.1522798003658303 0.21347882245813191 0 -0.14552374626821149 0.22581456256643581 0 -0.1625695092567625 0.22075939936192049 0 -0.14552374626821149 0.22581456256643581 0 -0.1448195272638477 0.24358016940887259 0 -0.1625695092567625 0.22075939936192049 0 -0.1448195272638477 0.24358016940887259 0 -0.141488659539692 0.2052444750998523 0 -0.14552374626821149 0.22581456256643581 0 -0.12785566072481649 0.2278023915624568 0 -0.14552374626821149 0.22581456256643581 0 -0.12785566072481649 0.2278023915624568 0 -0.13864474683184569 0.23479182107732061 0 -0.1142226619099411 0.25036030802506137 0 -0.12785566072481649 0.2278023915624568 0 -0.13445031144562181 0.24435743282997291 0 -0.12785566072481649 0.2278023915624568 0 -0.13864474683184569 0.23479182107732061 0 -0.13445031144562181 0.24435743282997291 0 -0.13864474683184569 0.23479182107732061 0 -0.13445031144562181 0.24435743282997291 0 -0.1448195272638477 0.24358016940887259 0 -0.15921749235545729 0.24728948044781751 0 -0.1625695092567625 0.22075939936192049 0 -0.1448195272638477 0.24358016940887259 0 -0.14552374626821149 0.22581456256643581 0 -0.13864474683184569 0.23479182107732061 0 -0.1448195272638477 0.24358016940887259 0 -0.153448837031642 0.26187438444246253 0 -0.13445031144562181 0.24435743282997291 0 -0.1448195272638477 0.24358016940887259 0 -0.16497453459023201 0.1503889711652214 0 -0.14842706526405269 0.1380245271138229 0 -0.16497453459023201 0.1503889711652214 0 -0.17342765521465989 0.13960473343104149 0 -0.14842706526405269 0.1380245271138229 0 -0.16515571909500801 0.12260505305778591 0 -0.1743120616679292 0.12636079750236859 0 -0.14842706526405269 0.1380245271138229 0 -0.16515571909500801 0.12260505305778591 0 -0.15638423188120451 0.1238317290894369 0 -0.14842706526405269 0.1380245271138229 0 -0.17342765521465989 0.13960473343104149 0 -0.1743120616679292 0.12636079750236859 0 -0.14842706526405269 0.1380245271138229 0 -0.1743120616679292 0.12636079750236859 0 -0.14842706526405269 0.1380245271138229 0 -0.19039769473007881 0.14151219371457821 0 -0.17342765521465989 0.13960473343104149 0 -0.18507521594325299 0.13101347516035119 0 -0.17342765521465989 0.13960473343104149 0 -0.1743120616679292 0.12636079750236859 0 -0.18507521594325299 0.13101347516035119 0 -0.18085132658360689 0.1195279332587393 0 -0.1743120616679292 0.12636079750236859 0 -0.18507521594325299 0.13101347516035119 0 -0.16497453459023201 0.1503889711652214 0 -0.180545236126467 0.14975913358102169 0 -0.18152200391641171 0.16275341521661929 0 -0.19039769473007881 0.14151219371457821 0 -0.17342765521465989 0.13960473343104149 0 -0.180545236126467 0.14975913358102169 0 -0.16497453459023201 0.1503889711652214 0 -0.17342765521465989 0.13960473343104149 0 -0.180545236126467 0.14975913358102169 0 -0.19240429218095259 0.15453635437764809 0 -0.180545236126467 0.14975913358102169 0 -0.18152200391641171 0.16275341521661929 0 -0.18152200391641171 0.16275341521661929 0 -0.17961750686066019 0.17876601317962201 0 -0.17102235025565021 0.17095238094951529 0 -0.16497453459023201 0.1503889711652214 0 -0.18152200391641171 0.16275341521661929 0 -0.17102235025565021 0.17095238094951529 0 -0.16497453459023201 0.1503889711652214 0 -0.18152200391641171 0.16275341521661929 0 -0.19817581817284319 0.1749811338786661 0 -0.18152200391641171 0.16275341521661929 0 -0.17961750686066019 0.17876601317962201 0 -0.18031949124967731 0.19793862931496831 0 -0.17961750686066019 0.17876601317962201 0 -0.16703957114438911 0.185472990144771 0 -0.19817581817284319 0.1749811338786661 0 -0.18031949124967731 0.19793862931496831 0 -0.17961750686066019 0.17876601317962201 0 -0.17961750686066019 0.17876601317962201 0 -0.16703957114438911 0.185472990144771 0 -0.17102235025565021 0.17095238094951529 0 -0.16703957114438911 0.185472990144771 0 -0.17102235025565021 0.17095238094951529 0 -0.15743466200370029 0.17092741455902369 0 -0.16703957114438911 0.185472990144771 0 -0.15743466200370029 0.17092741455902369 0 -0.15357945469212261 0.18437791951578689 0 -0.16497453459023201 0.1503889711652214 0 -0.17102235025565021 0.17095238094951529 0 -0.15743466200370029 0.17092741455902369 0 -0.15743466200370029 0.17092741455902369 0 -0.14488507952452739 0.15721513704535139 0 -0.14115579775257581 0.173619654187536 0 -0.16497453459023201 0.1503889711652214 0 -0.15743466200370029 0.17092741455902369 0 -0.14488507952452739 0.15721513704535139 0 -0.14115114541271731 0.1906098180404015 0 -0.14115579775257581 0.173619654187536 0 -0.15357945469212261 0.18437791951578689 0 -0.15743466200370029 0.17092741455902369 0 -0.14115579775257581 0.173619654187536 0 -0.15357945469212261 0.18437791951578689 0 -0.14115579775257581 0.173619654187536 0 -0.12969237989865601 0.1629328250777323 0 -0.1211861936782038 0.17995991543360099 0 -0.14115114541271731 0.1906098180404015 0 -0.14115579775257581 0.173619654187536 0 -0.1211861936782038 0.17995991543360099 0 -0.14115114541271731 0.1906098180404015 0 -0.1211861936782038 0.17995991543360099 0 -0.14488507952452739 0.15721513704535139 0 -0.14115579775257581 0.173619654187536 0 -0.12969237989865601 0.1629328250777323 0 -0.14488507952452739 0.15721513704535139 0 -0.12969237989865601 0.1629328250777323 0 -0.12762603763794811 0.1473974301687726 0 -0.14488507952452739 0.15721513704535139 0 -0.12762603763794811 0.1473974301687726 0 -0.14842706526405269 0.1380245271138229 0 -0.12762603763794811 0.1473974301687726 0 -0.14842706526405269 0.1380245271138229 0 -0.16497453459023201 0.1503889711652214 0 -0.14488507952452739 0.15721513704535139 0 -0.14842706526405269 0.1380245271138229 0 -0.15638423188120451 0.1238317290894369 0 -0.14842706526405269 0.1380245271138229 0 -0.14771333824842281 0.12544886910463199 0 -0.14842706526405269 0.1380245271138229 0 -0.1359731756398993 0.1287188491007813 0 -0.14842706526405269 0.1380245271138229 0 -0.14771333824842281 0.12544886910463199 0 -0.1359731756398993 0.1287188491007813 0 -0.1359731756398993 0.1287188491007813 0 -0.12662780444237171 0.1357469498020871 0 -0.1235192860157463 0.11941317108773911 0 -0.14842706526405269 0.1380245271138229 0 -0.1359731756398993 0.1287188491007813 0 -0.12662780444237171 0.1357469498020871 0 -0.12762603763794811 0.1473974301687726 0 -0.14842706526405269 0.1380245271138229 0 -0.12662780444237171 0.1357469498020871 0 -0.12662780444237171 0.1357469498020871 0 -0.1151721480137935 0.13809175215572969 0 -0.1235192860157463 0.11941317108773911 0 -0.1151721480137935 0.13809175215572969 0 -0.1235192860157463 0.11941317108773911 0 -0.1151721480137935 0.13809175215572969 0 -0.1235192860157463 0.11941317108773911 0 -0.11262796015323071 0.12421124413663399 0 -0.12762603763794811 0.1473974301687726 0 -0.12662780444237171 0.1357469498020871 0 -0.1151721480137935 0.13809175215572969 0 -0.1151721480137935 0.13809175215572969 0 -0.099705524281883187 0.12772580554098631 0 -0.11262796015323071 0.12421124413663399 0 -0.1151721480137935 0.13809175215572969 0 -0.099705524281883187 0.12772580554098631 0 -0.091434776282506153 0.1436817571981342 0 -0.10682501001184309 0.15677033322372139 0 -0.091044059472557226 0.16388119919526981 0 -0.091434776282506153 0.1436817571981342 0 -0.1151721480137935 0.13809175215572969 0 -0.10682501001184309 0.15677033322372139 0 -0.091434776282506153 0.1436817571981342 0 -0.12762603763794811 0.1473974301687726 0 -0.10682501001184309 0.15677033322372139 0 -0.12762603763794811 0.1473974301687726 0 -0.1151721480137935 0.13809175215572969 0 -0.10682501001184309 0.15677033322372139 0 -0.1151721480137935 0.13809175215572969 0 -0.10682501001184309 0.15677033322372139 0 -0.12969237989865601 0.1629328250777323 0 -0.12762603763794811 0.1473974301687726 0 -0.1148159301349965 0.1678632923725264 0 -0.12762603763794811 0.1473974301687726 0 -0.1148159301349965 0.1678632923725264 0 -0.10682501001184309 0.15677033322372139 0 -0.12969237989865601 0.1629328250777323 0 -0.1148159301349965 0.1678632923725264 0 -0.1211861936782038 0.17995991543360099 0 -0.1211861936782038 0.17995991543360099 0 -0.1012212419436908 0.16931001282679981 0 -0.1148159301349965 0.1678632923725264 0 -0.1211861936782038 0.17995991543360099 0 -0.1012212419436908 0.16931001282679981 0 -0.1211861936782038 0.17995991543360099 0 -0.1012212419436908 0.16931001282679981 0 -0.1054939366901097 0.18759356829309831 0 -0.1012212419436908 0.16931001282679981 0 -0.1054939366901097 0.18759356829309831 0 -0.089618859267163398 0.19527292914071331 0 -0.1012212419436908 0.16931001282679981 0 -0.089618859267163398 0.19527292914071331 0 -0.10682501001184309 0.15677033322372139 0 -0.091044059472557226 0.16388119919526981 0 -0.10682501001184309 0.15677033322372139 0 -0.1012212419436908 0.16931001282679981 0 -0.091044059472557226 0.16388119919526981 0 -0.10682501001184309 0.15677033322372139 0 -0.1012212419436908 0.16931001282679981 0 -0.1148159301349965 0.1678632923725264 0 -0.10682501001184309 0.15677033322372139 0 -0.1012212419436908 0.16931001282679981 0 -0.1012212419436908 0.16931001282679981 0 -0.091044059472557226 0.16388119919526981 0 -0.091044059472557226 0.16388119919526981 0 -0.068712974232226248 0.1739435432694055 0 -0.074876078009691427 0.15525671413676381 0 -0.091044059472557226 0.16388119919526981 0 -0.074876078009691427 0.15525671413676381 0 -0.091044059472557226 0.16388119919526981 0 -0.082489945975274953 0.17537086341399641 0 -0.068712974232226248 0.1739435432694055 0 -0.091044059472557226 0.16388119919526981 0 -0.068712974232226248 0.1739435432694055 0 -0.1012212419436908 0.16931001282679981 0 -0.091044059472557226 0.16388119919526981 0 -0.088643383845510265 0.17783241526073459 0 -0.1012212419436908 0.16931001282679981 0 -0.088643383845510265 0.17783241526073459 0 -0.089618859267163398 0.19527292914071331 0 -0.088643383845510265 0.17783241526073459 0 -0.081559366350805754 0.18582629593057509 0 -0.089618859267163398 0.19527292914071331 0 -0.091044059472557226 0.16388119919526981 0 -0.088643383845510265 0.17783241526073459 0 -0.082489945975274953 0.17537086341399641 0 -0.088643383845510265 0.17783241526073459 0 -0.082489945975274953 0.17537086341399641 0 -0.081559366350805754 0.18582629593057509 0 -0.081559366350805754 0.18582629593057509 0 -0.063970627671350561 0.18491609163705919 0 -0.081559366350805754 0.18582629593057509 0 -0.068712974232226248 0.1739435432694055 0 -0.063970627671350561 0.18491609163705919 0 -0.082489945975274953 0.17537086341399641 0 -0.081559366350805754 0.18582629593057509 0 -0.068712974232226248 0.1739435432694055 0 -0.068712974232226248 0.1739435432694055 0 -0.074876078009691427 0.15525671413676381 0 -0.054195851860079788 0.15916383351508459 0 -0.074876078009691427 0.15525671413676381 0 -0.074608392053766376 0.13960188812621049 0 -0.058708096546824948 0.14663222907825921 0 -0.074876078009691427 0.15525671413676381 0 -0.058708096546824948 0.14663222907825921 0 -0.074876078009691427 0.15525671413676381 0 -0.058708096546824948 0.14663222907825921 0 -0.054195851860079788 0.15916383351508459 0 -0.074608392053766376 0.13960188812621049 0 -0.066043471425443312 0.12626010328359591 0 -0.081979538004366054 0.1261786369342994 0 -0.074608392053766376 0.13960188812621049 0 -0.066043471425443312 0.12626010328359591 0 -0.058708096546824948 0.14663222907825921 0 -0.074608392053766376 0.13960188812621049 0 -0.081979538004366054 0.1261786369342994 0 -0.091434776282506153 0.1436817571981342 0 -0.099705524281883187 0.12772580554098631 0 -0.081979538004366054 0.1261786369342994 0 -0.091434776282506153 0.1436817571981342 0 -0.074876078009691427 0.15525671413676381 0 -0.074608392053766376 0.13960188812621049 0 -0.091434776282506153 0.1436817571981342 0 -0.091044059472557226 0.16388119919526981 0 -0.074876078009691427 0.15525671413676381 0 -0.091434776282506153 0.1436817571981342 0 -0.1142226619099411 0.25036030802506137 0 -0.088205846149722877 0.25713272569092332 0 -0.095859115512611753 0.24060575538982379 0 -0.1142226619099411 0.25036030802506137 0 -0.095859115512611753 0.24060575538982379 0 -0.1100412919746253 0.23245448992289641 0 -0.12612077033089619 0.25508176695385482 0 -0.1142226619099411 0.25036030802506137 0 -0.13445031144562181 0.24435743282997291 0 -0.1142226619099411 0.25036030802506137 0 -0.12785566072481649 0.2278023915624568 0 -0.1142226619099411 0.25036030802506137 0 -0.12785566072481649 0.2278023915624568 0 -0.1100412919746253 0.23245448992289641 0 -0.1257098954772374 0.2113246755578779 0 -0.12785566072481649 0.2278023915624568 0 -0.11399544893260929 0.2178115518701757 0 -0.12785566072481649 0.2278023915624568 0 -0.1100412919746253 0.23245448992289641 0 -0.11399544893260929 0.2178115518701757 0 -0.1100412919746253 0.23245448992289641 0 -0.098825199251645568 0.2238820412325061 0 -0.11399544893260929 0.2178115518701757 0 -0.095859115512611753 0.24060575538982379 0 -0.1100412919746253 0.23245448992289641 0 -0.098825199251645568 0.2238820412325061 0 -0.098825199251645568 0.2238820412325061 0 -0.10410760416579069 0.2053008338913328 0 -0.11399544893260929 0.2178115518701757 0 -0.098825199251645568 0.2238820412325061 0 -0.10410760416579069 0.2053008338913328 0 -0.086978482342459529 0.2119353765015605 0 -0.1257098954772374 0.2113246755578779 0 -0.11399544893260929 0.2178115518701757 0 -0.11743304200154051 0.2061048790539842 0 -0.12832829264602649 0.1978496786684622 0 -0.1257098954772374 0.2113246755578779 0 -0.11743304200154051 0.2061048790539842 0 -0.10410760416579069 0.2053008338913328 0 -0.11399544893260929 0.2178115518701757 0 -0.11743304200154051 0.2061048790539842 0 -0.10410760416579069 0.2053008338913328 0 -0.11743304200154051 0.2061048790539842 0 -0.11530981383633419 0.19536177506809571 0 -0.12832829264602649 0.1978496786684622 0 -0.1211861936782038 0.17995991543360099 0 -0.11530981383633419 0.19536177506809571 0 -0.1211861936782038 0.17995991543360099 0 -0.11530981383633419 0.19536177506809571 0 -0.1054939366901097 0.18759356829309831 0 -0.12832829264602649 0.1978496786684622 0 -0.11743304200154051 0.2061048790539842 0 -0.11530981383633419 0.19536177506809571 0 -0.10410760416579069 0.2053008338913328 0 -0.1054939366901097 0.18759356829309831 0 -0.089618859267163398 0.19527292914071331 0 -0.10410760416579069 0.2053008338913328 0 -0.11530981383633419 0.19536177506809571 0 -0.1054939366901097 0.18759356829309831 0 -0.081559366350805754 0.18582629593057509 0 -0.089618859267163398 0.19527292914071331 0 -0.080896567647954387 0.2020460151072227 0 -0.081559366350805754 0.18582629593057509 0 -0.080896567647954387 0.2020460151072227 0 -0.072171399585773094 0.19437254836005821 0 -0.089618859267163398 0.19527292914071331 0 -0.080896567647954387 0.2020460151072227 0 -0.086978482342459529 0.2119353765015605 0 -0.081559366350805754 0.18582629593057509 0 -0.063970627671350561 0.18491609163705919 0 -0.072171399585773094 0.19437254836005821 0 -0.063970627671350561 0.18491609163705919 0 -0.072171399585773094 0.19437254836005821 0 -0.063556282414224022 0.19497406999776271 0 -0.072171399585773094 0.19437254836005821 0 -0.063556282414224022 0.19497406999776271 0 -0.069630388406030724 0.2037338378657978 0 -0.063556282414224022 0.19497406999776271 0 -0.069630388406030724 0.2037338378657978 0 -0.05943209939037275 0.20946170393468239 0 -0.080896567647954387 0.2020460151072227 0 -0.072171399585773094 0.19437254836005821 0 -0.069630388406030724 0.2037338378657978 0 -0.072406148387029801 0.21730076612038571 0 -0.057215230553617227 0.228249021406145 0 -0.05943209939037275 0.20946170393468239 0 -0.080896567647954387 0.2020460151072227 0 -0.069630388406030724 0.2037338378657978 0 -0.072406148387029801 0.21730076612038571 0 -0.069630388406030724 0.2037338378657978 0 -0.072406148387029801 0.21730076612038571 0 -0.05943209939037275 0.20946170393468239 0 -0.10410760416579069 0.2053008338913328 0 -0.089618859267163398 0.19527292914071331 0 -0.086978482342459529 0.2119353765015605 0 -0.080896567647954387 0.2020460151072227 0 -0.072406148387029801 0.21730076612038571 0 -0.086978482342459529 0.2119353765015605 0 -0.095859115512611753 0.24060575538982379 0 -0.098825199251645568 0.2238820412325061 0 -0.083294360057557804 0.2298179588692377 0 -0.098825199251645568 0.2238820412325061 0 -0.086978482342459529 0.2119353765015605 0 -0.083294360057557804 0.2298179588692377 0 -0.072406148387029801 0.21730076612038571 0 -0.086978482342459529 0.2119353765015605 0 -0.083294360057557804 0.2298179588692377 0 -0.072406148387029801 0.21730076612038571 0 -0.070120507299139587 0.2334776155283137 0 -0.057215230553617227 0.228249021406145 0 -0.072406148387029801 0.21730076612038571 0 -0.083294360057557804 0.2298179588692377 0 -0.070120507299139587 0.2334776155283137 0 -0.076867143983894576 0.2466666451067244 0 -0.060819653513598478 0.2453536861390756 0 -0.070120507299139587 0.2334776155283137 0 -0.076867143983894576 0.2466666451067244 0 -0.060819653513598478 0.2453536861390756 0 -0.070120507299139587 0.2334776155283137 0 -0.060819653513598478 0.2453536861390756 0 -0.057215230553617227 0.228249021406145 0 -0.083294360057557804 0.2298179588692377 0 -0.070120507299139587 0.2334776155283137 0 -0.076867143983894576 0.2466666451067244 0 -0.088205846149722877 0.25713272569092332 0 -0.095859115512611753 0.24060575538982379 0 -0.076867143983894576 0.2466666451067244 0 -0.095859115512611753 0.24060575538982379 0 -0.083294360057557804 0.2298179588692377 0 -0.076867143983894576 0.2466666451067244 0 -0.03548396145915636 0.25798705152301848 0 -0.044772163043302393 0.24404072717142691 0 -0.014966429343546131 0.2416021087830322 0 -0.044772163043302393 0.24404072717142691 0 -0.060819653513598478 0.2453536861390756 0 -0.057215230553617227 0.228249021406145 0 -0.044772163043302393 0.24404072717142691 0 -0.060819653513598478 0.2453536861390756 0 -0.044772163043302393 0.24404072717142691 0 -0.057215230553617227 0.228249021406145 0 -0.041780883544977852 0.2157338417569421 0 -0.044772163043302393 0.24404072717142691 0 -0.041780883544977852 0.2157338417569421 0 -0.023866489027926568 0.22278288162113999 0 -0.044772163043302393 0.24404072717142691 0 -0.041780883544977852 0.2157338417569421 0 -0.041780883544977852 0.2157338417569421 0 -0.030827499881089401 0.20542480233296539 0 -0.023866489027926568 0.22278288162113999 0 -0.041780883544977852 0.2157338417569421 0 -0.05943209939037275 0.20946170393468239 0 -0.052003663036356958 0.1967786864610612 0 -0.057215230553617227 0.228249021406145 0 -0.041780883544977852 0.2157338417569421 0 -0.05943209939037275 0.20946170393468239 0 -0.063970627671350561 0.18491609163705919 0 -0.052003663036356958 0.1967786864610612 0 -0.046381888991895458 0.18400588734354181 0 -0.063556282414224022 0.19497406999776271 0 -0.05943209939037275 0.20946170393468239 0 -0.052003663036356958 0.1967786864610612 0 -0.063970627671350561 0.18491609163705919 0 -0.063556282414224022 0.19497406999776271 0 -0.052003663036356958 0.1967786864610612 0 -0.041780883544977852 0.2157338417569421 0 -0.052003663036356958 0.1967786864610612 0 -0.03878960404665581 0.1874269563424571 0 -0.052003663036356958 0.1967786864610612 0 -0.046381888991895458 0.18400588734354181 0 -0.03878960404665581 0.1874269563424571 0 -0.041780883544977852 0.2157338417569421 0 -0.030827499881089401 0.20542480233296539 0 -0.03878960404665581 0.1874269563424571 0 -0.032107951434550391 0.19043769616290401 0 -0.030827499881089401 0.20542480233296539 0 -0.03878960404665581 0.1874269563424571 0 -0.041780883544977852 0.2157338417569421 0 -0.03878960404665581 0.1874269563424571 0 -0.032107951434550391 0.19043769616290401 0 -0.03878960404665581 0.1874269563424571 0 -0.032107951434550391 0.19043769616290401 0 -0.0173429703078707 0.1959176718311082 0 -0.012275916199634871 0.1822409283299494 0 -0.0173429703078707 0.1959176718311082 0 -0.010655350369958849 0.2079950060531324 0 -0.030827499881089401 0.20542480233296539 0 -0.032107951434550391 0.19043769616290401 0 -0.0173429703078707 0.1959176718311082 0 -0.030827499881089401 0.20542480233296539 0 -0.0173429703078707 0.1959176718311082 0 -0.00084813365411998446 0.1934899262765897 0 -0.012275916199634871 0.1822409283299494 0 -0.00084813365411998446 0.1934899262765897 0 -0.010655350369958849 0.2079950060531324 0 0.010152248718067171 0.20193668832579309 0 -0.0173429703078707 0.1959176718311082 0 -0.00084813365411998446 0.1934899262765897 0 -0.010655350369958849 0.2079950060531324 0 -0.010655350369958849 0.2079950060531324 0 -0.023866489027926568 0.22278288162113999 0 -0.00019660798468582521 0.22190080362934089 0 -0.010655350369958849 0.2079950060531324 0 -0.00019660798468582521 0.22190080362934089 0 0.010152248718067171 0.20193668832579309 0 -0.010655350369958849 0.2079950060531324 0 -0.030827499881089401 0.20542480233296539 0 -0.023866489027926568 0.22278288162113999 0 -0.00019660798468582521 0.22190080362934089 0 -0.014966429343546131 0.2416021087830322 0 0.01483930435621021 0.23916349039463611 0 -0.023866489027926568 0.22278288162113999 0 -0.00019660798468582521 0.22190080362934089 0 -0.014966429343546131 0.2416021087830322 0 -0.014966429343546131 0.2416021087830322 0 0.01483930435621021 0.23916349039463611 0 3.4036501383808038e-05 0.25211346284330632 0 -0.014966429343546131 0.2416021087830322 0 0.01483930435621021 0.23916349039463611 0 -0.044772163043302393 0.24404072717142691 0 -0.023866489027926568 0.22278288162113999 0 -0.014966429343546131 0.2416021087830322 0 -0.044772163043302393 0.24404072717142691 0 -0.014966429343546131 0.2416021087830322 0 -0.04541077377186642 0.14924881744730389 0 -0.054195851860079788 0.15916383351508459 0 -0.03570783359019674 0.15826374266296611 0 -0.033031313090373868 0.13293546453290489 0 -0.03570783359019674 0.15826374266296611 0 -0.04541077377186642 0.14924881744730389 0 -0.033031313090373868 0.13293546453290489 0 -0.03570783359019674 0.15826374266296611 0 -0.04541077377186642 0.14924881744730389 0 -0.033031313090373868 0.13293546453290489 0 -0.058708096546824948 0.14663222907825921 0 -0.033031313090373868 0.13293546453290489 0 -0.031571869024581263 0.1191245465086572 0 -0.04847045691299641 0.12432138953435019 0 -0.033031313090373868 0.13293546453290489 0 -0.058708096546824948 0.14663222907825921 0 -0.04847045691299641 0.12432138953435019 0 -0.033031313090373868 0.13293546453290489 0 -0.058708096546824948 0.14663222907825921 0 -0.033031313090373868 0.13293546453290489 0 -0.031571869024581263 0.1191245465086572 0 -0.066043471425443312 0.12626010328359591 0 -0.058708096546824948 0.14663222907825921 0 -0.066043471425443312 0.12626010328359591 0 -0.058708096546824948 0.14663222907825921 0 -0.04847045691299641 0.12432138953435019 0 -0.04541077377186642 0.14924881744730389 0 -0.058708096546824948 0.14663222907825921 0 -0.054195851860079788 0.15916383351508459 0 -0.058708096546824948 0.14663222907825921 0 -0.054195851860079788 0.15916383351508459 0 -0.068712974232226248 0.1739435432694055 0 -0.054682404405094247 0.17185410881690361 0 -0.054195851860079788 0.15916383351508459 0 -0.054682404405094247 0.17185410881690361 0 -0.054195851860079788 0.15916383351508459 0 -0.046266959470649821 0.17125672446111309 0 -0.063970627671350561 0.18491609163705919 0 -0.046381888991895458 0.18400588734354181 0 -0.068712974232226248 0.1739435432694055 0 -0.063970627671350561 0.18491609163705919 0 -0.046381888991895458 0.18400588734354181 0 -0.068712974232226248 0.1739435432694055 0 -0.046381888991895458 0.18400588734354181 0 -0.068712974232226248 0.1739435432694055 0 -0.054682404405094247 0.17185410881690361 0 -0.046381888991895458 0.18400588734354181 0 -0.054682404405094247 0.17185410881690361 0 -0.046381888991895458 0.18400588734354181 0 -0.046266959470649821 0.17125672446111309 0 -0.046381888991895458 0.18400588734354181 0 -0.038384354090031277 0.18359202079302611 0 -0.03878960404665581 0.1874269563424571 0 -0.046381888991895458 0.18400588734354181 0 -0.038384354090031277 0.18359202079302611 0 -0.046381888991895458 0.18400588734354181 0 -0.03878960404665581 0.1874269563424571 0 -0.046381888991895458 0.18400588734354181 0 -0.038384354090031277 0.18359202079302611 0 -0.046266959470649821 0.17125672446111309 0 -0.032107951434550391 0.19043769616290401 0 -0.038384354090031277 0.18359202079302611 0 -0.03878960404665581 0.1874269563424571 0 -0.038384354090031277 0.18359202079302611 0 -0.03878960404665581 0.1874269563424571 0 -0.038384354090031277 0.18359202079302611 0 -0.03570783359019674 0.15826374266296611 0 -0.038384354090031277 0.18359202079302611 0 -0.03570783359019674 0.15826374266296611 0 -0.046266959470649821 0.17125672446111309 0 -0.038384354090031277 0.18359202079302611 0 -0.03570783359019674 0.15826374266296611 0 -0.024588622626145161 0.1709184859927797 0 -0.054195851860079788 0.15916383351508459 0 -0.03570783359019674 0.15826374266296611 0 -0.046266959470649821 0.17125672446111309 0 -0.03570783359019674 0.15826374266296611 0 -0.024588622626145161 0.1709184859927797 0 -0.017613822312506539 0.15030063416745371 0 -0.038384354090031277 0.18359202079302611 0 -0.024588622626145161 0.1709184859927797 0 -0.012275916199634871 0.1822409283299494 0 -0.038384354090031277 0.18359202079302611 0 -0.012275916199634871 0.1822409283299494 0 -0.032107951434550391 0.19043769616290401 0 -0.038384354090031277 0.18359202079302611 0 -0.012275916199634871 0.1822409283299494 0 -0.024588622626145161 0.1709184859927797 0 -0.012275916199634871 0.1822409283299494 0 -0.00047794902262057992 0.1633110830326773 0 -0.012275916199634871 0.1822409283299494 0 -0.00047794902262057992 0.1633110830326773 0 0.0048657734533592194 0.1736731905571699 0 -0.024588622626145161 0.1709184859927797 0 -0.00047794902262057992 0.1633110830326773 0 -0.017613822312506539 0.15030063416745371 0 -0.00047794902262057992 0.1633110830326773 0 -0.017613822312506539 0.15030063416745371 0 0.0022400168639910428 0.14088378668564211 0 -0.017613822312506539 0.15030063416745371 0 -0.013820028394028849 0.13577569681799659 0 0.0022400168639910428 0.14088378668564211 0 -0.033031313090373868 0.13293546453290489 0 -0.03570783359019674 0.15826374266296611 0 -0.017613822312506539 0.15030063416745371 0 -0.033031313090373868 0.13293546453290489 0 -0.013820028394028849 0.13577569681799659 0 -0.0068749950372359037 0.1189829018859844 0 -0.033031313090373868 0.13293546453290489 0 -0.017613822312506539 0.15030063416745371 0 -0.013820028394028849 0.13577569681799659 0 -0.033031313090373868 0.13293546453290489 0 -0.0068749950372359037 0.1189829018859844 0 -0.013820028394028849 0.13577569681799659 0 -0.0068749950372359037 0.1189829018859844 0 0.0022400168639910428 0.14088378668564211 0 -0.0068749950372359037 0.1189829018859844 0 -0.011429360025198711 0.10878718745150009 0 -0.02103787333870754 0.1185685879934603 0 -0.0068749950372359037 0.1189829018859844 0 -0.003321782685211066 0.1053820588488959 0 -0.011429360025198711 0.10878718745150009 0 -0.0020537484887101359 0.094772676856455795 0 -0.01330880958368569 0.10345322276906931 0 -0.023388819993325271 0.084515014473833722 0 -0.003321782685211066 0.1053820588488959 0 -0.0020537484887101359 0.094772676856455795 0 -0.01330880958368569 0.10345322276906931 0 -0.003321782685211066 0.1053820588488959 0 -0.01330880958368569 0.10345322276906931 0 -0.011429360025198711 0.10878718745150009 0 -0.011429360025198711 0.10878718745150009 0 -0.032079188784819732 0.1078207841306444 0 -0.01330880958368569 0.10345322276906931 0 -0.02742067417072502 0.097134429537889269 0 -0.032079188784819732 0.1078207841306444 0 -0.01330880958368569 0.10345322276906931 0 -0.02742067417072502 0.097134429537889269 0 -0.023388819993325271 0.084515014473833722 0 -0.01330880958368569 0.10345322276906931 0 -0.023388819993325271 0.084515014473833722 0 -0.01330880958368569 0.10345322276906931 0 -0.011429360025198711 0.10878718745150009 0 -0.032079188784819732 0.1078207841306444 0 -0.022281829516145352 0.11301283958825981 0 -0.031571869024581263 0.1191245465086572 0 -0.032079188784819732 0.1078207841306444 0 -0.011429360025198711 0.10878718745150009 0 -0.022281829516145352 0.11301283958825981 0 -0.032079188784819732 0.1078207841306444 0 -0.02103787333870754 0.1185685879934603 0 -0.022281829516145352 0.11301283958825981 0 -0.031571869024581263 0.1191245465086572 0 -0.033031313090373868 0.13293546453290489 0 -0.0068749950372359037 0.1189829018859844 0 -0.02103787333870754 0.1185685879934603 0 -0.033031313090373868 0.13293546453290489 0 -0.02103787333870754 0.1185685879934603 0 -0.031571869024581263 0.1191245465086572 0 -0.011429360025198711 0.10878718745150009 0 -0.02103787333870754 0.1185685879934603 0 -0.022281829516145352 0.11301283958825981 0 -0.0017533712137043961 0.076435494418646943 0 -0.023388819993325271 0.084515014473833722 0 -0.01047210625047482 0.061507158867089871 0 -0.0020537484887101359 0.094772676856455795 0 -0.0017533712137043961 0.076435494418646943 0 -0.023388819993325271 0.084515014473833722 0 -0.0020537484887101359 0.094772676856455795 0 -0.023388819993325271 0.084515014473833722 0 -0.02742067417072502 0.097134429537889269 0 -0.023388819993325271 0.084515014473833722 0 -0.040905878321070982 0.092748696778013007 0 -0.023388819993325271 0.084515014473833722 0 -0.036117191054831271 0.060601096469226783 0 -0.01047210625047482 0.061507158867089871 0 -0.023388819993325271 0.084515014473833722 0 -0.036117191054831271 0.060601096469226783 0 -0.023388819993325271 0.084515014473833722 0 -0.050532139621699078 0.071464811729895078 0 -0.023388819993325271 0.084515014473833722 0 -0.050532139621699078 0.071464811729895078 0 -0.036117191054831271 0.060601096469226783 0 -0.023388819993325271 0.084515014473833722 0 -0.040905878321070982 0.092748696778013007 0 -0.050532139621699078 0.071464811729895078 0 -0.040905878321070982 0.092748696778013007 0 -0.062078306199534382 0.088511032787997435 0 -0.050532139621699078 0.071464811729895078 0 -0.050532139621699078 0.071464811729895078 0 -0.065413712665649035 0.073818335485101083 0 -0.054595067180582053 0.054912667442638591 0 -0.062078306199534382 0.088511032787997435 0 -0.050532139621699078 0.071464811729895078 0 -0.065413712665649035 0.073818335485101083 0 -0.042412268296999053 0.1139478046503089 0 -0.031571869024581263 0.1191245465086572 0 -0.04847045691299641 0.12432138953435019 0 -0.042412268296999053 0.1139478046503089 0 -0.032079188784819732 0.1078207841306444 0 -0.052729017544440801 0.10685438080978869 0 -0.042412268296999053 0.1139478046503089 0 -0.031571869024581263 0.1191245465086572 0 -0.032079188784819732 0.1078207841306444 0 -0.040905878321070982 0.092748696778013007 0 -0.032079188784819732 0.1078207841306444 0 -0.052729017544440801 0.10685438080978869 0 -0.032079188784819732 0.1078207841306444 0 -0.052729017544440801 0.10685438080978869 0 -0.02742067417072502 0.097134429537889269 0 -0.040905878321070982 0.092748696778013007 0 -0.032079188784819732 0.1078207841306444 0 -0.040905878321070982 0.092748696778013007 0 -0.062078306199534382 0.088511032787997435 0 -0.052729017544440801 0.10685438080978869 0 -0.042412268296999053 0.1139478046503089 0 -0.052729017544440801 0.10685438080978869 0 -0.04847045691299641 0.12432138953435019 0 -0.066043471425443312 0.12626010328359591 0 -0.052729017544440801 0.10685438080978869 0 -0.04847045691299641 0.12432138953435019 0 -0.066043471425443312 0.12626010328359591 0 -0.081979538004366054 0.1261786369342994 0 -0.073378846304061829 0.10588797748893269 0 -0.066043471425443312 0.12626010328359591 0 -0.052729017544440801 0.10685438080978869 0 -0.073378846304061829 0.10588797748893269 0 -0.066043471425443312 0.12626010328359591 0 -0.073378846304061829 0.10588797748893269 0 -0.099705524281883187 0.12772580554098631 0 -0.081979538004366054 0.1261786369342994 0 -0.092894062023594542 0.1161869859735077 0 -0.081979538004366054 0.1261786369342994 0 -0.092894062023594542 0.1161869859735077 0 -0.073378846304061829 0.10588797748893269 0 -0.073378846304061829 0.10588797748893269 0 -0.10207122529242101 0.1045451861921924 0 -0.073378846304061829 0.10588797748893269 0 -0.082132067133204437 0.081578147549696001 0 -0.10207122529242101 0.1045451861921924 0 -0.092894062023594542 0.1161869859735077 0 -0.073378846304061829 0.10588797748893269 0 -0.10207122529242101 0.1045451861921924 0 -0.052729017544440801 0.10685438080978869 0 -0.073378846304061829 0.10588797748893269 0 -0.062078306199534382 0.088511032787997435 0 -0.052729017544440801 0.10685438080978869 0 -0.073378846304061829 0.10588797748893269 0 -0.073378846304061829 0.10588797748893269 0 -0.082132067133204437 0.081578147549696001 0 -0.062078306199534382 0.088511032787997435 0 -0.073378846304061829 0.10588797748893269 0 -0.082132067133204437 0.081578147549696001 0 -0.062078306199534382 0.088511032787997435 0 -0.065413712665649035 0.073818335485101083 0 -0.082132067133204437 0.081578147549696001 0 -0.065413712665649035 0.073818335485101083 0 -0.082132067133204437 0.081578147549696001 0 -0.072188305715599907 0.06028658729121239 0 -0.065413712665649035 0.073818335485101083 0 -0.072188305715599907 0.06028658729121239 0 -0.054595067180582053 0.054912667442638591 0 -0.082132067133204437 0.081578147549696001 0 -0.1033467674946246 0.07276307649624901 0 -0.092330935824558882 0.05828947376211089 0 -0.082132067133204437 0.081578147549696001 0 -0.092330935824558882 0.05828947376211089 0 -0.072188305715599907 0.06028658729121239 0 -0.082132067133204437 0.081578147549696001 0 -0.1086257119294434 0.088680422950757454 0 -0.10207122529242101 0.1045451861921924 0 -0.082132067133204437 0.081578147549696001 0 -0.1086257119294434 0.088680422950757454 0 -0.1033467674946246 0.07276307649624901 0 -0.1033467674946246 0.07276307649624901 0 -0.1136379760987804 0.059972517202991092 0 -0.092330935824558882 0.05828947376211089 0 -0.1033467674946246 0.07276307649624901 0 -0.1200071464871357 0.075294821015689684 0 -0.1136379760987804 0.059972517202991092 0 -0.1360598665496652 0.061124287569049578 0 -0.1200071464871357 0.075294821015689684 0 -0.1136379760987804 0.059972517202991092 0 -0.12577384119145621 0.087909922726883194 0 -0.1086257119294434 0.088680422950757454 0 -0.1200071464871357 0.075294821015689684 0 -0.13076360428077999 0.1032023948954521 0 -0.12577384119145621 0.087909922726883194 0 -0.1086257119294434 0.088680422950757454 0 -0.1086257119294434 0.088680422950757454 0 -0.1033467674946246 0.07276307649624901 0 -0.1200071464871357 0.075294821015689684 0 -0.13076360428077999 0.1032023948954521 0 -0.1086257119294434 0.088680422950757454 0 -0.10207122529242101 0.1045451861921924 0 -0.13076360428077999 0.1032023948954521 0 -0.10207122529242101 0.1045451861921924 0 -0.13076360428077999 0.1032023948954521 0 -0.11804302563125341 0.1153212514231516 0 -0.10207122529242101 0.1045451861921924 0 -0.13076360428077999 0.1032023948954521 0 -0.11804302563125341 0.1153212514231516 0 -0.1235192860157463 0.11941317108773911 0 -0.11804302563125341 0.1153212514231516 0 -0.1235192860157463 0.11941317108773911 0 -0.11262796015323071 0.12421124413663399 0 -0.11804302563125341 0.1153212514231516 0 -0.1235192860157463 0.11941317108773911 0 -0.11804302563125341 0.1153212514231516 0 -0.11262796015323071 0.12421124413663399 0 -0.10506835947647659 0.1175980946532944 0 -0.11804302563125341 0.1153212514231516 0 -0.10506835947647659 0.1175980946532944 0 -0.10207122529242101 0.1045451861921924 0 -0.099705524281883187 0.12772580554098631 0 -0.11262796015323071 0.12421124413663399 0 -0.10506835947647659 0.1175980946532944 0 -0.099705524281883187 0.12772580554098631 0 -0.092894062023594542 0.1161869859735077 0 -0.10506835947647659 0.1175980946532944 0 -0.092894062023594542 0.1161869859735077 0 -0.10506835947647659 0.1175980946532944 0 -0.10207122529242101 0.1045451861921924 0 -0.1083602237852468 0.01913132607725351 0 -0.1052789879826153 0.03684719997243846 0 -0.088597982274282713 0.018827288995960249 0 -0.1083602237852468 0.01913132607725351 0 -0.10150418330331321 0.0025078213068508211 0 -0.088597982274282713 0.018827288995960249 0 -0.12832547528433949 0.017422707222324089 0 -0.1083602237852468 0.01913132607725351 0 -0.10150418330331321 0.0025078213068508211 0 -0.1136104046283796 -0.012726262184012779 0 -0.12832547528433949 0.017422707222324089 0 -0.10150418330331321 0.0025078213068508211 0 -0.12832547528433949 0.017422707222324089 0 -0.1083602237852468 0.01913132607725351 0 -0.1052789879826153 0.03684719997243846 0 -0.12832547528433949 0.017422707222324089 0 -0.1221638745186274 0.046349265705951381 0 -0.1052789879826153 0.03684719997243846 0 -0.1360598665496652 0.061124287569049578 0 -0.1221638745186274 0.046349265705951381 0 -0.1136379760987804 0.059972517202991092 0 -0.1221638745186274 0.046349265705951381 0 -0.1136379760987804 0.059972517202991092 0 -0.1052789879826153 0.03684719997243846 0 -0.1136379760987804 0.059972517202991092 0 -0.1052789879826153 0.03684719997243846 0 -0.092330935824558882 0.05828947376211089 0 -0.1052789879826153 0.03684719997243846 0 -0.077062275049474077 0.036767189218525939 0 -0.1052789879826153 0.03684719997243846 0 -0.092330935824558882 0.05828947376211089 0 -0.077062275049474077 0.036767189218525939 0 -0.092330935824558882 0.05828947376211089 0 -0.072188305715599907 0.06028658729121239 0 -0.077062275049474077 0.036767189218525939 0 -0.072188305715599907 0.06028658729121239 0 -0.077062275049474077 0.036767189218525939 0 -0.054595067180582053 0.054912667442638591 0 -0.077062275049474077 0.036767189218525939 0 -0.070020004815002757 0.023932973124675651 0 -0.048845562116332883 0.036687178464617609 0 -0.077062275049474077 0.036767189218525939 0 -0.048845562116332883 0.036687178464617609 0 -0.070020004815002757 0.023932973124675651 0 -0.088597982274282713 0.018827288995960249 0 -0.071860724227586784 0.010451426245969189 0 -0.070020004815002757 0.023932973124675651 0 -0.071860724227586784 0.010451426245969189 0 -0.060428845423134078 0.01492463823975943 0 -0.1052789879826153 0.03684719997243846 0 -0.077062275049474077 0.036767189218525939 0 -0.088597982274282713 0.018827288995960249 0 -0.077062275049474077 0.036767189218525939 0 -0.070020004815002757 0.023932973124675651 0 -0.088597982274282713 0.018827288995960249 0 -0.10150418330331321 0.0025078213068508211 0 -0.088597982274282713 0.018827288995960249 0 -0.085799489399454615 0.001724744846627279 0 -0.088597982274282713 0.018827288995960249 0 -0.085799489399454615 0.001724744846627279 0 -0.071860724227586784 0.010451426245969189 0 -0.072758396221369898 -0.0082399808146359013 0 -0.085799489399454615 0.001724744846627279 0 -0.071860724227586784 0.010451426245969189 0 -0.072758396221369898 -0.0082399808146359013 0 -0.060428845423134078 0.01492463823975943 0 -0.072758396221369898 -0.0082399808146359013 0 -0.071860724227586784 0.010451426245969189 0 -0.060428845423134078 0.01492463823975943 0 -0.071860724227586784 0.010451426245969189 0 -0.060428845423134078 0.01492463823975943 0 -0.051842672105422212 -0.004508979832561268 0 -0.060428845423134078 0.01492463823975943 0 -0.044197721668806957 0.010029076185240149 0 -0.072758396221369898 -0.0082399808146359013 0 -0.051842672105422212 -0.004508979832561268 0 -0.060428845423134078 0.01492463823975943 0 -0.060428845423134078 0.01492463823975943 0 -0.048845562116332883 0.036687178464617609 0 -0.070020004815002757 0.023932973124675651 0 -0.060428845423134078 0.01492463823975943 0 -0.048845562116332883 0.036687178464617609 0 -0.060428845423134078 0.01492463823975943 0 -0.032778736941483887 0.025743926915353491 0 -0.048845562116332883 0.036687178464617609 0 -0.060428845423134078 0.01492463823975943 0 -0.032778736941483887 0.025743926915353491 0 -0.044197721668806957 0.010029076185240149 0 -0.060428845423134078 0.01492463823975943 0 -0.032778736941483887 0.025743926915353491 0 -0.051842672105422212 -0.004508979832561268 0 -0.044197721668806957 0.010029076185240149 0 -0.031740632205187157 0.0039567194184075994 0 -0.032778736941483887 0.025743926915353491 0 -0.044197721668806957 0.010029076185240149 0 -0.031740632205187157 0.0039567194184075994 0 -0.050532139621699078 0.071464811729895078 0 -0.054595067180582053 0.054912667442638591 0 -0.036117191054831271 0.060601096469226783 0 -0.077062275049474077 0.036767189218525939 0 -0.054595067180582053 0.054912667442638591 0 -0.048845562116332883 0.036687178464617609 0 -0.032778736941483887 0.025743926915353491 0 -0.048845562116332883 0.036687178464617609 0 -0.02698709528808314 0.036625197027780422 0 -0.048845562116332883 0.036687178464617609 0 -0.036117191054831271 0.060601096469226783 0 -0.02698709528808314 0.036625197027780422 0 -0.048845562116332883 0.036687178464617609 0 -0.02698709528808314 0.036625197027780422 0 -0.054595067180582053 0.054912667442638591 0 -0.048845562116332883 0.036687178464617609 0 -0.036117191054831271 0.060601096469226783 0 -0.048845562116332883 0.036687178464617609 0 -0.036117191054831271 0.060601096469226783 0 -0.036117191054831271 0.060601096469226783 0 -0.01633858693384416 0.047313880017271541 0 -0.02698709528808314 0.036625197027780422 0 -0.036117191054831271 0.060601096469226783 0 -0.01633858693384416 0.047313880017271541 0 -0.01047210625047482 0.061507158867089871 0 -0.032778736941483887 0.025743926915353491 0 -0.02698709528808314 0.036625197027780422 0 -0.0051286284598333473 0.036563215590946788 0 -0.02698709528808314 0.036625197027780422 0 -0.0051286284598333473 0.036563215590946788 0 -0.01633858693384416 0.047313880017271541 0 -0.02698709528808314 0.036625197027780422 0 -0.0051286284598333473 0.036563215590946788 0 -0.0051286284598333473 0.036563215590946788 0 0.0035162367661260778 0.036538702381846672 0 -0.0051286284598333473 0.036563215590946788 0 -0.0035907580868082579 0.048113885390109787 0 0.0053778524356253741 0.040674326035522138 0 -0.01633858693384416 0.047313880017271541 0 -0.0051286284598333473 0.036563215590946788 0 -0.0035907580868082579 0.048113885390109787 0 -0.01633858693384416 0.047313880017271541 0 -0.0035907580868082579 0.048113885390109787 0 -0.01047210625047482 0.061507158867089871 0 -0.032778736941483887 0.025743926915353491 0 -0.031740632205187157 0.0039567194184075994 0 -0.0078299177893015933 0.0113329491608615 0 -0.019176072344730209 -0.01387280406012348 0 -0.031740632205187157 0.0039567194184075994 0 -0.0078299177893015933 0.0113329491608615 0 -0.032778736941483887 0.025743926915353491 0 -0.0051286284598333473 0.036563215590946788 0 -0.032778736941483887 0.025743926915353491 0 -0.0051286284598333473 0.036563215590946788 0 -0.0078299177893015933 0.0113329491608615 0 -0.0078299177893015933 0.0113329491608615 0 0.0035162367661260778 0.036538702381846672 0 -0.0051286284598333473 0.036563215590946788 0 -0.0078299177893015933 0.0113329491608615 0 0.0035162367661260778 0.036538702381846672 0 -0.0078299177893015933 0.0113329491608615 0 0.012804629755676091 0.01274829418331646 0 0.011487415012152041 -0.00090451840804060585 0 -0.0078299177893015933 0.0113329491608615 0 0.0136921553953082 0.027087812205967812 0 0.0035162367661260778 0.036538702381846672 0 -0.0078299177893015933 0.0113329491608615 0 0.012804629755676091 0.01274829418331646 0 0.0136921553953082 0.027087812205967812 0 0.012804629755676091 0.01274829418331646 0 0.0136921553953082 0.027087812205967812 0 0.022817507703070779 0.01935438951685331 0 0.0136921553953082 0.027087812205967812 0 0.02172824741827202 0.027422574202564901 0 0.027597834435326329 0.036470417079111597 0 0.0136921553953082 0.027087812205967812 0 0.022817507703070779 0.01935438951685331 0 0.02172824741827202 0.027422574202564901 0 0.02172824741827202 0.027422574202564901 0 0.026950782985469431 0.031220298078867809 0 0.029825177290780922 0.024351537191322381 0 0.022817507703070779 0.01935438951685331 0 0.02172824741827202 0.027422574202564901 0 0.029825177290780922 0.024351537191322381 0 0.026950782985469431 0.031220298078867809 0 0.029825177290780922 0.024351537191322381 0 0.033136335344784489 0.030451563698466581 0 0.022817507703070779 0.01935438951685331 0 0.029825177290780922 0.024351537191322381 0 0.034668492678739157 0.01220787109679823 0 0.022817507703070779 0.01935438951685331 0 0.024379544835876399 0.0059501558049816902 0 0.034668492678739157 0.01220787109679823 0 0.012804629755676091 0.01274829418331646 0 0.024379544835876399 0.0059501558049816902 0 0.011487415012152041 -0.00090451840804060585 0 0.012804629755676091 0.01274829418331646 0 0.022817507703070779 0.01935438951685331 0 0.024379544835876399 0.0059501558049816902 0 0.014617418387521621 0.061200242381434088 0 0.0053778524356253741 0.040674326035522138 0 0.014617418387521621 0.061200242381434088 0 0.0053778524356253741 0.040674326035522138 0 0.016217530381797921 0.044915814090728853 0 -0.0035907580868082579 0.048113885390109787 0 0.014617418387521621 0.061200242381434088 0 0.0053778524356253741 0.040674326035522138 0 -0.0035907580868082579 0.048113885390109787 0 -0.01047210625047482 0.061507158867089871 0 0.014617418387521621 0.061200242381434088 0 0.0136921553953082 0.027087812205967812 0 0.0035162367661260778 0.036538702381846672 0 0.027597834435326329 0.036470417079111597 0 0.0035162367661260778 0.036538702381846672 0 0.027597834435326329 0.036470417079111597 0 0.0053778524356253741 0.040674326035522138 0 0.016217530381797921 0.044915814090728853 0 0.0053778524356253741 0.040674326035522138 0 0.0035162367661260778 0.036538702381846672 0 0.016217530381797921 0.044915814090728853 0 -0.0051286284598333473 0.036563215590946788 0 0.0053778524356253741 0.040674326035522138 0 0.0035162367661260778 0.036538702381846672 0 0.0053778524356253741 0.040674326035522138 0 0.0035162367661260778 0.036538702381846672 0 -0.0051286284598333473 0.036563215590946788 0 0.0053778524356253741 0.040674326035522138 0 0.027597834435326329 0.036470417079111597 0 0.030069639886044192 0.056526430808150327 0 0.0035162367661260778 0.036538702381846672 0 0.027597834435326329 0.036470417079111597 0 0.016217530381797921 0.044915814090728853 0 0.027597834435326329 0.036470417079111597 0 0.016217530381797921 0.044915814090728853 0 0.030069639886044192 0.056526430808150327 0 0.02172824741827202 0.027422574202564901 0 0.026950782985469431 0.031220298078867809 0 0.027597834435326329 0.036470417079111597 0 0.026950782985469431 0.031220298078867809 0 0.027597834435326329 0.036470417079111597 0 0.026950782985469431 0.031220298078867809 0 0.027597834435326329 0.036470417079111597 0 0.033136335344784489 0.030451563698466581 0 0.014617418387521621 0.061200242381434088 0 0.016217530381797921 0.044915814090728853 0 0.030069639886044192 0.056526430808150327 0 0.030069639886044192 0.056526430808150327 0 0.038223224086265273 0.047965544561363281 0 0.045211957046516302 0.068433533879483477 0 0.027597834435326329 0.036470417079111597 0 0.030069639886044192 0.056526430808150327 0 0.038223224086265273 0.047965544561363281 0 0.038223224086265273 0.047965544561363281 0 0.052181945439770991 0.04195090420563103 0 0.045211957046516302 0.068433533879483477 0 0.036054743623668672 0.036446436834439933 0 0.052181945439770991 0.04195090420563103 0 0.040870344173846593 0.026729075379993059 0 0.038223224086265273 0.047965544561363281 0 0.036054743623668672 0.036446436834439933 0 0.052181945439770991 0.04195090420563103 0 0.027597834435326329 0.036470417079111597 0 0.038223224086265273 0.047965544561363281 0 0.036054743623668672 0.036446436834439933 0 0.027597834435326329 0.036470417079111597 0 0.036054743623668672 0.036446436834439933 0 0.027597834435326329 0.036470417079111597 0 0.036054743623668672 0.036446436834439933 0 0.033136335344784489 0.030451563698466581 0 0.052181945439770991 0.04195090420563103 0 0.065110367410800035 0.037613582407992847 0 0.063947194847996311 0.058179180653568467 0 0.052181945439770991 0.04195090420563103 0 0.059151933833025687 0.015468274531778551 0 0.065110367410800035 0.037613582407992847 0 0.052181945439770991 0.04195090420563103 0 0.063947194847996311 0.058179180653568467 0 0.045211957046516302 0.068433533879483477 0 0.052181945439770991 0.04195090420563103 0 0.045211957046516302 0.068433533879483477 0 0.024379544835876399 0.0059501558049816902 0 0.034668492678739157 0.01220787109679823 0 0.041242187119049582 -0.0028268805465379541 0 0.034668492678739157 0.01220787109679823 0 0.059151933833025687 0.015468274531778551 0 0.041242187119049582 -0.0028268805465379541 0 0.029825177290780922 0.024351537191322381 0 0.034668492678739157 0.01220787109679823 0 0.040870344173846593 0.026729075379993059 0 0.034668492678739157 0.01220787109679823 0 0.040870344173846593 0.026729075379993059 0 0.059151933833025687 0.015468274531778551 0 0.029825177290780922 0.024351537191322381 0 0.033136335344784489 0.030451563698466581 0 0.040870344173846593 0.026729075379993059 0 0.036054743623668672 0.036446436834439933 0 0.033136335344784489 0.030451563698466581 0 0.040870344173846593 0.026729075379993059 0 0.052181945439770991 0.04195090420563103 0 0.040870344173846593 0.026729075379993059 0 0.059151933833025687 0.015468274531778551 0 0.052181945439770991 0.04195090420563103 0 0.059151933833025687 0.015468274531778551 0 0.059151933833025687 0.015468274531778551 0 0.041242187119049582 -0.0028268805465379541 0 0.066121922226280383 -0.011014355142073939 0 0.059151933833025687 0.015468274531778551 0 0.066121922226280383 -0.011014355142073939 0 0.059151933833025687 0.015468274531778551 0 0.074430949642245739 0.0081337784437301233 0 0.066121922226280383 -0.011014355142073939 0 0.074430949642245739 0.0081337784437301233 0 0.090311016037907227 0.0091617695474997124 0 0.082899820843788871 0.021418902990744091 0 0.074430949642245739 0.0081337784437301233 0 0.090311016037907227 0.0091617695474997124 0 0.087923092569810235 -0.01354239255918047 0 0.090311016037907227 0.0091617695474997124 0 0.092698939506004177 0.031865931654179828 0 0.090311016037907227 0.0091617695474997124 0 0.082899820843788871 0.021418902990744091 0 0.092698939506004177 0.031865931654179828 0 0.074430949642245739 0.0081337784437301233 0 0.082899820843788871 0.021418902990744091 0 0.068795782939110817 0.023916751912161919 0 0.059151933833025687 0.015468274531778551 0 0.068795782939110817 0.023916751912161919 0 0.065110367410800035 0.037613582407992847 0 0.059151933833025687 0.015468274531778551 0 0.074430949642245739 0.0081337784437301233 0 0.068795782939110817 0.023916751912161919 0 0.082899820843788871 0.021418902990744091 0 0.068795782939110817 0.023916751912161919 0 0.076160533602886674 0.047338720019967508 0 0.068795782939110817 0.023916751912161919 0 0.065110367410800035 0.037613582407992847 0 0.076160533602886674 0.047338720019967508 0 0.068795782939110817 0.023916751912161919 0 0.076160533602886674 0.047338720019967508 0 0.076160533602886674 0.047338720019967508 0 0.063947194847996311 0.058179180653568467 0 0.083525284266662531 0.070760688127773252 0 0.065110367410800035 0.037613582407992847 0 0.076160533602886674 0.047338720019967508 0 0.063947194847996311 0.058179180653568467 0 0.076160533602886674 0.047338720019967508 0 0.083525284266662531 0.070760688127773252 0 0.076160533602886674 0.047338720019967508 0 0.095086862974101127 0.054570093760859813 0 0.083525284266662531 0.070760688127773252 0 0.076160533602886674 0.047338720019967508 0 0.092698939506004177 0.031865931654179828 0 0.095086862974101127 0.054570093760859813 0 0.082899820843788871 0.021418902990744091 0 0.076160533602886674 0.047338720019967508 0 0.092698939506004177 0.031865931654179828 0 0.092698939506004177 0.031865931654179828 0 0.095086862974101127 0.054570093760859813 0 0.092698939506004177 0.031865931654179828 0 0.1002424435851418 0.040134493836747852 0 0.095086862974101127 0.054570093760859813 0 0.1002424435851418 0.040134493836747852 0 0.1112587069244291 0.03155889741355565 0 0.10985702765479061 0.045864532887802928 0 0.1002424435851418 0.040134493836747852 0 0.10113285571023529 0.051291587571517992 0 0.10985702765479061 0.045864532887802928 0 0.095086862974101127 0.054570093760859813 0 0.10361520101083239 0.060044125445866653 0 0.083525284266662531 0.070760688127773252 0 0.095086862974101127 0.054570093760859813 0 0.10113285571023529 0.051291587571517992 0 0.10361520101083239 0.060044125445866653 0 0.1002424435851418 0.040134493836747852 0 0.095086862974101127 0.054570093760859813 0 0.10113285571023529 0.051291587571517992 0 0.10113285571023529 0.051291587571517992 0 0.10361520101083239 0.060044125445866653 0 0.10985702765479061 0.045864532887802928 0 0.10113285571023529 0.051291587571517992 0 0.10361520101083239 0.060044125445866653 0 0.10361520101083239 0.060044125445866653 0 0.1176544120096116 0.052555190245745551 0 0.115432342309486 0.070779966328890179 0 0.10361520101083239 0.060044125445866653 0 0.1176544120096116 0.052555190245745551 0 0.10361520101083239 0.060044125445866653 0 0.1176544120096116 0.052555190245745551 0 0.10985702765479061 0.045864532887802928 0 0.1176544120096116 0.052555190245745551 0 0.13169362300839149 0.045066255045625787 0 0.1176544120096116 0.052555190245745551 0 0.10985702765479061 0.045864532887802928 0 0.1217654303830035 0.036039969463771783 0 0.1176544120096116 0.052555190245745551 0 0.1217654303830035 0.036039969463771783 0 0.13169362300839149 0.045066255045625787 0 0.1112587069244291 0.03155889741355565 0 0.10985702765479061 0.045864532887802928 0 0.1217654303830035 0.036039969463771783 0 0.1112587069244291 0.03155889741355565 0 0.1217654303830035 0.036039969463771783 0 0.1200165412971101 0.016821957912596379 0 0.1112587069244291 0.03155889741355565 0 0.1200165412971101 0.016821957912596379 0 0.10418603662079701 0.021717038567612451 0 0.1200165412971101 0.016821957912596379 0 0.1054706582405712 -0.001623709214258733 0 0.12535926908485989 -0.0043146879934122416 0 0.1200165412971101 0.016821957912596379 0 0.10418603662079701 0.021717038567612451 0 0.1054706582405712 -0.001623709214258733 0 0.090311016037907227 0.0091617695474997124 0 0.10418603662079701 0.021717038567612451 0 0.1054706582405712 -0.001623709214258733 0 0.092698939506004177 0.031865931654179828 0 0.1002424435851418 0.040134493836747852 0 0.10418603662079701 0.021717038567612451 0 0.090311016037907227 0.0091617695474997124 0 0.092698939506004177 0.031865931654179828 0 0.10418603662079701 0.021717038567612451 0 0.1002424435851418 0.040134493836747852 0 0.1112587069244291 0.03155889741355565 0 0.10418603662079701 0.021717038567612451 0 0.095204828694183119 0.1079049078826391 0 0.1179389008837123 0.1105482698966882 0 0.11077705094727169 0.085296197671277552 0 0.095204828694183119 0.1079049078826391 0 0.11077705094727169 0.085296197671277552 0 0.089365056480422839 0.089332798005206132 0 0.095204828694183119 0.1079049078826391 0 0.099748100985016935 0.12493257931483399 0 0.1179389008837123 0.1105482698966882 0 0.1179389008837123 0.1105482698966882 0 0.123576886174183 0.13042732531174611 0 0.1179389008837123 0.1105482698966882 0 0.1130219389257829 0.1339564182426026 0 0.123576886174183 0.13042732531174611 0 0.1179389008837123 0.1105482698966882 0 0.1130219389257829 0.1339564182426026 0 0.099748100985016935 0.12493257931483399 0 0.1179389008837123 0.1105482698966882 0 0.1130219389257829 0.1339564182426026 0 0.1179389008837123 0.1105482698966882 0 0.11077705094727169 0.085296197671277552 0 0.1179389008837123 0.1105482698966882 0 0.1225238082586065 0.088720931613000958 0 0.11077705094727169 0.085296197671277552 0 0.1179389008837123 0.1105482698966882 0 0.1225238082586065 0.088720931613000958 0 0.13277620178702379 0.1041218724103066 0 0.1179389008837123 0.1105482698966882 0 0.1225238082586065 0.088720931613000958 0 0.1225238082586065 0.088720931613000958 0 0.11077705094727169 0.085296197671277552 0 0.115432342309486 0.070779966328890179 0 0.10361520101083239 0.060044125445866653 0 0.11077705094727169 0.085296197671277552 0 0.115432342309486 0.070779966328890179 0 0.1176544120096116 0.052555190245745551 0 0.115432342309486 0.070779966328890179 0 0.1271087156334996 0.06689359332931348 0 0.1225238082586065 0.088720931613000958 0 0.1271087156334996 0.06689359332931348 0 0.1225238082586065 0.088720931613000958 0 0.115432342309486 0.070779966328890179 0 0.1271087156334996 0.06689359332931348 0 0.10361520101083239 0.060044125445866653 0 0.11077705094727169 0.085296197671277552 0 0.10361520101083239 0.060044125445866653 0 0.11077705094727169 0.085296197671277552 0 0.096820648176297291 0.0763584523125308 0 0.10361520101083239 0.060044125445866653 0 0.096820648176297291 0.0763584523125308 0 0.083525284266662531 0.070760688127773252 0 0.11077705094727169 0.085296197671277552 0 0.096820648176297291 0.0763584523125308 0 0.089365056480422839 0.089332798005206132 0 0.096820648176297291 0.0763584523125308 0 0.089365056480422839 0.089332798005206132 0 0.083525284266662531 0.070760688127773252 0 0.089365056480422839 0.089332798005206132 0 0.083525284266662531 0.070760688127773252 0 0.089365056480422839 0.089332798005206132 0 0.083525284266662531 0.070760688127773252 0 0.073907819145916764 0.094216159279947753 0 0.10361520101083239 0.060044125445866653 0 0.083525284266662531 0.070760688127773252 0 0.083525284266662531 0.070760688127773252 0 0.060883626459964299 0.082838425840556604 0 0.063947194847996311 0.058179180653568467 0 0.083525284266662531 0.070760688127773252 0 0.060883626459964299 0.082838425840556604 0 0.083525284266662531 0.070760688127773252 0 0.073907819145916764 0.094216159279947753 0 0.060883626459964299 0.082838425840556604 0 0.063775213581159881 0.10073297473789759 0 0.073907819145916764 0.094216159279947753 0 0.060883626459964299 0.082838425840556604 0 0.073907819145916764 0.094216159279947753 0 0.083112958336211462 0.1044240838713953 0 0.072104063845027058 0.1110028105097722 0 0.063775213581159881 0.10073297473789759 0 0.073907819145916764 0.094216159279947753 0 0.072104063845027058 0.1110028105097722 0 0.063775213581159881 0.10073297473789759 0 0.072104063845027058 0.1110028105097722 0 0.060226530729088457 0.11319686946064191 0 0.089365056480422839 0.089332798005206132 0 0.073907819145916764 0.094216159279947753 0 0.083112958336211462 0.1044240838713953 0 0.095204828694183119 0.1079049078826391 0 0.089365056480422839 0.089332798005206132 0 0.095204828694183119 0.1079049078826391 0 0.089365056480422839 0.089332798005206132 0 0.083112958336211462 0.1044240838713953 0 0.095204828694183119 0.1079049078826391 0 0.099748100985016935 0.12493257931483399 0 0.084983023515507544 0.11966374367941141 0 0.095204828694183119 0.1079049078826391 0 0.083112958336211462 0.1044240838713953 0 0.084983023515507544 0.11966374367941141 0 0.083112958336211462 0.1044240838713953 0 0.084983023515507544 0.11966374367941141 0 0.072104063845027058 0.1110028105097722 0 0.072104063845027058 0.1110028105097722 0 0.060226530729088457 0.11319686946064191 0 0.073038284793928876 0.13087608175348719 0 0.084983023515507544 0.11966374367941141 0 0.072104063845027058 0.1110028105097722 0 0.073038284793928876 0.13087608175348719 0 0.05339376677020484 0.12143121846755039 0 0.060226530729088457 0.11319686946064191 0 0.073038284793928876 0.13087608175348719 0 0.05339376677020484 0.12143121846755039 0 0.044882013817764327 0.1239081869216167 0 0.052284785478873837 0.12867281124139529 0 0.05339376677020484 0.12143121846755039 0 0.048545570370510722 0.1111882117527556 0 0.060226530729088457 0.11319686946064191 0 0.063775213581159881 0.10073297473789759 0 0.060226530729088457 0.11319686946064191 0 0.051754027725802863 0.1024106085985695 0 0.063775213581159881 0.10073297473789759 0 0.051754027725802863 0.1024106085985695 0 0.060883626459964299 0.082838425840556604 0 0.048545570370510722 0.1111882117527556 0 0.051754027725802863 0.1024106085985695 0 0.043254818000371939 0.1070642888541657 0 0.048545570370510722 0.1111882117527556 0 0.060226530729088457 0.11319686946064191 0 0.051754027725802863 0.1024106085985695 0 0.043254818000371939 0.1070642888541657 0 0.038241968653264312 0.09491616355333668 0 0.035898410433724319 0.10382056639382969 0 0.051754027725802863 0.1024106085985695 0 0.043254818000371939 0.1070642888541657 0 0.038241968653264312 0.09491616355333668 0 0.038241968653264312 0.09491616355333668 0 0.035013250787480951 0.096638458266227772 0 0.035898410433724319 0.10382056639382969 0 0.038241968653264312 0.09491616355333668 0 0.035898410433724319 0.10382056639382969 0 0.038241968653264312 0.09491616355333668 0 0.035013250787480951 0.096638458266227772 0 0.035013250787480951 0.096638458266227772 0 0.035898410433724319 0.10382056639382969 0 0.035898410433724319 0.10382056639382969 0 0.036906127838233597 0.1119970974771996 0 0.043254818000371939 0.1070642888541657 0 0.035898410433724319 0.10382056639382969 0 0.036906127838233597 0.1119970974771996 0 0.035898410433724319 0.10382056639382969 0 0.033749248746476328 0.1119863551816228 0 0.036906127838233597 0.1119970974771996 0 0.035898410433724319 0.10382056639382969 0 0.033749248746476328 0.1119863551816228 0 0.05339376677020484 0.12143121846755039 0 0.048545570370510722 0.1111882117527556 0 0.036906127838233597 0.1119970974771996 0 0.05339376677020484 0.12143121846755039 0 0.033749248746476328 0.1119863551816228 0 0.036906127838233597 0.1119970974771996 0 0.033749248746476328 0.1119863551816228 0 0.044882013817764327 0.1239081869216167 0 0.028617861416427751 0.1314831782331938 0 0.05339376677020484 0.12143121846755039 0 0.033749248746476328 0.1119863551816228 0 0.05339376677020484 0.12143121846755039 0 0.033749248746476328 0.1119863551816228 0 0.044882013817764327 0.1239081869216167 0 0.048545570370510722 0.1111882117527556 0 0.043254818000371939 0.1070642888541657 0 0.036906127838233597 0.1119970974771996 0 0.063947194847996311 0.058179180653568467 0 0.060883626459964299 0.082838425840556604 0 0.045211957046516302 0.068433533879483477 0 0.051754027725802863 0.1024106085985695 0 0.038241968653264312 0.09491616355333668 0 0.060883626459964299 0.082838425840556604 0 0.038241968653264312 0.09491616355333668 0 0.060883626459964299 0.082838425840556604 0 0.038241968653264312 0.09491616355333668 0 0.060883626459964299 0.082838425840556604 0 0.045211957046516302 0.068433533879483477 0 0.038241968653264312 0.09491616355333668 0 0.045211957046516302 0.068433533879483477 0 0.032541445336762218 0.076582444537189071 0 0.035013250787480951 0.096638458266227772 0 0.032541445336762218 0.076582444537189071 0 0.038241968653264312 0.09491616355333668 0 0.045211957046516302 0.068433533879483477 0 0.038241968653264312 0.09491616355333668 0 0.035013250787480951 0.096638458266227772 0 0.032541445336762218 0.076582444537189071 0 0.030069639886044192 0.056526430808150327 0 0.032541445336762218 0.076582444537189071 0 0.030069639886044192 0.056526430808150327 0 0.045211957046516302 0.068433533879483477 0 0.032541445336762218 0.076582444537189071 0 0.014617418387521621 0.061200242381434088 0 0.032541445336762218 0.076582444537189071 0 0.012530400276465041 0.080182379514424543 0 0.014617418387521621 0.061200242381434088 0 0.030069639886044192 0.056526430808150327 0 0.032541445336762218 0.076582444537189071 0 0.035013250787480951 0.096638458266227772 0 0.032541445336762218 0.076582444537189071 0 0.02024113221674579 0.090897105715964238 0 0.032541445336762218 0.076582444537189071 0 0.02024113221674579 0.090897105715964238 0 0.012530400276465041 0.080182379514424543 0 -0.0020537484887101359 0.094772676856455795 0 0.02024113221674579 0.090897105715964238 0 0.012530400276465041 0.080182379514424543 0 -0.0020537484887101359 0.094772676856455795 0 -0.0017533712137043961 0.076435494418646943 0 0.012530400276465041 0.080182379514424543 0 -0.0017533712137043961 0.076435494418646943 0 -0.01047210625047482 0.061507158867089871 0 0.014617418387521621 0.061200242381434088 0 -0.0017533712137043961 0.076435494418646943 0 0.014617418387521621 0.061200242381434088 0 0.012530400276465041 0.080182379514424543 0 0.023422555516230979 0.11494096519090199 0 0.01274754366272182 0.116130265534008 0 0.028617861416427751 0.1314831782331938 0 0.033749248746476328 0.1119863551816228 0 0.028617861416427751 0.1314831782331938 0 0.01274754366272182 0.116130265534008 0 0.028617861416427751 0.1314831782331938 0 0.033749248746476328 0.1119863551816228 0 0.023422555516230979 0.11494096519090199 0 0.028617861416427751 0.1314831782331938 0 0.023422555516230979 0.11494096519090199 0 0.01928132301590724 0.1050303392390733 0 0.01274754366272182 0.116130265534008 0 0.033749248746476328 0.1119863551816228 0 0.023422555516230979 0.11494096519090199 0 0.01928132301590724 0.1050303392390733 0 0.035013250787480951 0.096638458266227772 0 0.035898410433724319 0.10382056639382969 0 0.01928132301590724 0.1050303392390733 0 0.033749248746476328 0.1119863551816228 0 0.01928132301590724 0.1050303392390733 0 0.035013250787480951 0.096638458266227772 0 0.01928132301590724 0.1050303392390733 0 0.035013250787480951 0.096638458266227772 0 0.02024113221674579 0.090897105715964238 0 0.01928132301590724 0.1050303392390733 0 0.035898410433724319 0.10382056639382969 0 0.033749248746476328 0.1119863551816228 0 0.01928132301590724 0.1050303392390733 0 -0.0020537484887101359 0.094772676856455795 0 0.01928132301590724 0.1050303392390733 0 -0.003321782685211066 0.1053820588488959 0 -0.0020537484887101359 0.094772676856455795 0 0.01928132301590724 0.1050303392390733 0 -0.0020537484887101359 0.094772676856455795 0 0.02024113221674579 0.090897105715964238 0 0.01928132301590724 0.1050303392390733 0 -0.0068749950372359037 0.1189829018859844 0 0.01274754366272182 0.116130265534008 0 0.012165415421466401 0.12980044201573401 0 -0.0068749950372359037 0.1189829018859844 0 0.01928132301590724 0.1050303392390733 0 0.01274754366272182 0.116130265534008 0 -0.0068749950372359037 0.1189829018859844 0 0.01928132301590724 0.1050303392390733 0 -0.0068749950372359037 0.1189829018859844 0 -0.003321782685211066 0.1053820588488959 0 0.01928132301590724 0.1050303392390733 0 -0.0068749950372359037 0.1189829018859844 0 0.012165415421466401 0.12980044201573401 0 0.0022400168639910428 0.14088378668564211 0 0.012165415421466401 0.12980044201573401 0 0.01768881986379359 0.14252464460177319 0 0.0022400168639910428 0.14088378668564211 0 0.012165415421466401 0.12980044201573401 0 0.028617861416427751 0.1314831782331938 0 0.01768881986379359 0.14252464460177319 0 0.01274754366272182 0.116130265534008 0 0.012165415421466401 0.12980044201573401 0 0.028617861416427751 0.1314831782331938 0 0.028617861416427751 0.1314831782331938 0 0.021766336990100981 0.15751570136613499 0 0.035731393853039882 0.15669215604486161 0 0.028617861416427751 0.1314831782331938 0 0.021766336990100981 0.15751570136613499 0 0.028617861416427751 0.1314831782331938 0 0.01768881986379359 0.14252464460177319 0 0.021766336990100981 0.15751570136613499 0 0.0022400168639910428 0.14088378668564211 0 0.021766336990100981 0.15751570136613499 0 0.01768881986379359 0.14252464460177319 0 0.0022400168639910428 0.14088378668564211 0 0.021766336990100981 0.15751570136613499 0 -0.00047794902262057992 0.1633110830326773 0 0.0022400168639910428 0.14088378668564211 0 0.021766336990100981 0.15751570136613499 0 -0.00047794902262057992 0.1633110830326773 0 0.01279842387625266 0.16750529170404191 0 0.021766336990100981 0.15751570136613499 0 -0.00047794902262057992 0.1633110830326773 0 0.01279842387625266 0.16750529170404191 0 0.0048657734533592194 0.1736731905571699 0 -0.012275916199634871 0.1822409283299494 0 0.01383252169076167 0.18088983586687299 0 -0.00084813365411998446 0.1934899262765897 0 -0.012275916199634871 0.1822409283299494 0 0.01383252169076167 0.18088983586687299 0 -0.012275916199634871 0.1822409283299494 0 0.0048657734533592194 0.1736731905571699 0 0.01383252169076167 0.18088983586687299 0 0.01279842387625266 0.16750529170404191 0 0.011760458012656291 0.17580542541169369 0 0.01554511303025161 0.18115338351869009 0 0.0048657734533592194 0.1736731905571699 0 0.011760458012656291 0.17580542541169369 0 0.01383252169076167 0.18088983586687299 0 0.01279842387625266 0.16750529170404191 0 0.0048657734533592194 0.1736731905571699 0 0.011760458012656291 0.17580542541169369 0 0.011760458012656291 0.17580542541169369 0 0.01383252169076167 0.18088983586687299 0 0.01554511303025161 0.18115338351869009 0 0.01383252169076167 0.18088983586687299 0 0.01560681092613159 0.18475313200844359 0 0.01189893126739474 0.19037469473822891 0 0.01383252169076167 0.18088983586687299 0 0.01554511303025161 0.18115338351869009 0 0.01560681092613159 0.18475313200844359 0 0.01554511303025161 0.18115338351869009 0 0.021150677716118348 0.1865946139099825 0 0.024617825946283499 0.1599445113377678 0 0.021150677716118348 0.1865946139099825 0 0.028271134929777109 0.1742384480740668 0 0.024617825946283499 0.1599445113377678 0 0.021150677716118348 0.1865946139099825 0 0.024617825946283499 0.1599445113377678 0 0.01560681092613159 0.18475313200844359 0 0.021150677716118348 0.1865946139099825 0 0.01189893126739474 0.19037469473822891 0 0.01554511303025161 0.18115338351869009 0 0.01560681092613159 0.18475313200844359 0 0.021150677716118348 0.1865946139099825 0 0.021150677716118348 0.1865946139099825 0 0.028271134929777109 0.1742384480740668 0 0.030487638791816249 0.1794386116372429 0 0.021150677716118348 0.1865946139099825 0 0.030487638791816249 0.1794386116372429 0 0.029476492771416979 0.1869982179809844 0 0.01279842387625266 0.16750529170404191 0 0.01554511303025161 0.18115338351869009 0 0.021766336990100981 0.15751570136613499 0 0.01554511303025161 0.18115338351869009 0 0.021766336990100981 0.15751570136613499 0 0.024617825946283499 0.1599445113377678 0 0.01554511303025161 0.18115338351869009 0 0.021766336990100981 0.15751570136613499 0 0.021766336990100981 0.15751570136613499 0 0.024617825946283499 0.1599445113377678 0 0.024617825946283499 0.1599445113377678 0 0.037139858815101262 0.1706103910813862 0 0.028271134929777109 0.1742384480740668 0 0.024617825946283499 0.1599445113377678 0 0.037139858815101262 0.1706103910813862 0 0.021766336990100981 0.15751570136613499 0 0.024617825946283499 0.1599445113377678 0 0.035731393853039882 0.15669215604486161 0 0.035731393853039882 0.15669215604486161 0 0.050394549722248029 0.16710261488408851 0 0.048275718804395337 0.15050014897153929 0 0.024617825946283499 0.1599445113377678 0 0.035731393853039882 0.15669215604486161 0 0.037139858815101262 0.1706103910813862 0 0.035731393853039882 0.15669215604486161 0 0.037139858815101262 0.1706103910813862 0 0.050394549722248029 0.16710261488408851 0 0.037139858815101262 0.1706103910813862 0 0.052513380640101352 0.18370508079663761 0 0.050394549722248029 0.16710261488408851 0 0.030487638791816249 0.1794386116372429 0 0.029476492771416979 0.1869982179809844 0 0.037153470402438382 0.1847989344309281 0 0.030487638791816249 0.1794386116372429 0 0.037139858815101262 0.1706103910813862 0 0.037153470402438382 0.1847989344309281 0 0.028271134929777109 0.1742384480740668 0 0.030487638791816249 0.1794386116372429 0 0.037139858815101262 0.1706103910813862 0 0.037139858815101262 0.1706103910813862 0 0.052513380640101352 0.18370508079663761 0 0.037153470402438382 0.1847989344309281 0 0.052513380640101352 0.18370508079663761 0 0.042353537970693293 0.19246513992122641 0 0.037139858815101262 0.1706103910813862 0 0.037153470402438382 0.1847989344309281 0 0.052513380640101352 0.18370508079663761 0 0.052513380640101352 0.18370508079663761 0 0.060171314300930978 0.1762488516979849 0 0.050394549722248029 0.16710261488408851 0 0.052513380640101352 0.18370508079663761 0 0.050394549722248029 0.16710261488408851 0 0.052513380640101352 0.18370508079663761 0 0.060171314300930978 0.1762488516979849 0 0.065995523126847228 0.19518875217463491 0 0.050394549722248029 0.16710261488408851 0 0.06007627893995135 0.1619159865353674 0 0.048275718804395337 0.15050014897153929 0 0.050394549722248029 0.16710261488408851 0 0.048275718804395337 0.15050014897153929 0 0.060171314300930978 0.1762488516979849 0 0.050394549722248029 0.16710261488408851 0 0.06007627893995135 0.1619159865353674 0 0.048275718804395337 0.15050014897153929 0 0.053124410102902621 0.13636881609984969 0 0.065201591203857462 0.1468018392220026 0 0.06007627893995135 0.1619159865353674 0 0.048275718804395337 0.15050014897153929 0 0.065201591203857462 0.1468018392220026 0 0.06007627893995135 0.1619159865353674 0 0.048275718804395337 0.15050014897153929 0 0.044882013817764327 0.1239081869216167 0 0.048275718804395337 0.15050014897153929 0 0.053124410102902621 0.13636881609984969 0 0.05339376677020484 0.12143121846755039 0 0.052284785478873837 0.12867281124139529 0 0.073038284793928876 0.13087608175348719 0 0.052284785478873837 0.12867281124139529 0 0.053124410102902621 0.13636881609984969 0 0.073038284793928876 0.13087608175348719 0 0.044882013817764327 0.1239081869216167 0 0.052284785478873837 0.12867281124139529 0 0.053124410102902621 0.13636881609984969 0 0.044882013817764327 0.1239081869216167 0 0.028617861416427751 0.1314831782331938 0 0.048275718804395337 0.15050014897153929 0 0.044882013817764327 0.1239081869216167 0 0.048275718804395337 0.15050014897153929 0 0.028617861416427751 0.1314831782331938 0 0.035731393853039882 0.15669215604486161 0 0.048275718804395337 0.15050014897153929 0 0.028617861416427751 0.1314831782331938 0 0.048275718804395337 0.15050014897153929 0 0.022179105737704811 0.24902080974435001 0 0.01483930435621021 0.23916349039463611 0 0.034943605518874758 0.2375186149825792 0 0.01483930435621021 0.23916349039463611 0 0.034943605518874758 0.2375186149825792 0 0.022179105737704811 0.24902080974435001 0 0.014390092031904439 0.24290508288887891 0 0.01483930435621021 0.23916349039463611 0 0.022179105737704811 0.24902080974435001 0 0.014390092031904439 0.24290508288887891 0 0.014872567949103809 0.25043112220009289 0 0.014390092031904439 0.24290508288887891 0 0.014872567949103809 0.25043112220009289 0 3.4036501383808038e-05 0.25211346284330632 0 0.014390092031904439 0.24290508288887891 0 0.01483930435621021 0.23916349039463611 0 3.4036501383808038e-05 0.25211346284330632 0 0.014390092031904439 0.24290508288887891 0 0.01483930435621021 0.23916349039463611 0 -0.00019660798468582521 0.22190080362934089 0 0.01483930435621021 0.23916349039463611 0 0.017994991036164119 0.21287905215230929 0 0.01483930435621021 0.23916349039463611 0 0.017994991036164119 0.21287905215230929 0 0.01483930435621021 0.23916349039463611 0 0.017994991036164119 0.21287905215230929 0 0.034943605518874758 0.2375186149825792 0 0.017994991036164119 0.21287905215230929 0 0.038036232537791599 0.21887429109421819 0 0.034943605518874758 0.2375186149825792 0 0.017994991036164119 0.21287905215230929 0 0.030156824988450449 0.20405926459911289 0 0.03540155240750921 0.20940673379182631 0 0.017994991036164119 0.21287905215230929 0 0.030156824988450449 0.20405926459911289 0 0.029179226662367559 0.19423537552205339 0 0.017994991036164119 0.21287905215230929 0 0.03540155240750921 0.20940673379182631 0 0.038036232537791599 0.21887429109421819 0 -0.00019660798468582521 0.22190080362934089 0 0.017994991036164119 0.21287905215230929 0 0.010152248718067171 0.20193668832579309 0 -0.00084813365411998446 0.1934899262765897 0 0.010152248718067171 0.20193668832579309 0 0.01189893126739474 0.19037469473822891 0 0.021150677716118348 0.1865946139099825 0 0.010152248718067171 0.20193668832579309 0 0.01189893126739474 0.19037469473822891 0 -0.00084813365411998446 0.1934899262765897 0 0.01383252169076167 0.18088983586687299 0 0.01189893126739474 0.19037469473822891 0 0.021150677716118348 0.1865946139099825 0 0.017994991036164119 0.21287905215230929 0 0.021150677716118348 0.1865946139099825 0 0.017994991036164119 0.21287905215230929 0 0.029179226662367559 0.19423537552205339 0 0.021150677716118348 0.1865946139099825 0 0.017994991036164119 0.21287905215230929 0 0.010152248718067171 0.20193668832579309 0 0.021150677716118348 0.1865946139099825 0 0.029476492771416979 0.1869982179809844 0 0.029179226662367559 0.19423537552205339 0 0.029476492771416979 0.1869982179809844 0 0.037153470402438382 0.1847989344309281 0 0.036093292108952263 0.19261305461332359 0 0.037153470402438382 0.1847989344309281 0 0.036093292108952263 0.19261305461332359 0 0.042353537970693293 0.19246513992122641 0 0.036093292108952263 0.19261305461332359 0 0.038051529847760918 0.1997158969302627 0 0.042353537970693293 0.19246513992122641 0 0.029476492771416979 0.1869982179809844 0 0.029179226662367559 0.19423537552205339 0 0.036093292108952263 0.19261305461332359 0 0.029179226662367559 0.19423537552205339 0 0.036093292108952263 0.19261305461332359 0 0.038051529847760918 0.1997158969302627 0 0.030156824988450449 0.20405926459911289 0 0.029179226662367559 0.19423537552205339 0 0.038051529847760918 0.1997158969302627 0 0.038051529847760918 0.1997158969302627 0 0.045385991910777239 0.19737826436081471 0 0.042353537970693293 0.19246513992122641 0 0.038051529847760918 0.1997158969302627 0 0.045385991910777239 0.19737826436081471 0 0.042693136201198252 0.20448826273337811 0 0.045385991910777239 0.19737826436081471 0 0.048618858908528101 0.20389272612760709 0 0.042693136201198252 0.20448826273337811 0 0.052513380640101352 0.18370508079663761 0 0.045385991910777239 0.19737826436081471 0 0.042353537970693293 0.19246513992122641 0 0.052513380640101352 0.18370508079663761 0 0.045385991910777239 0.19737826436081471 0 0.048618858908528101 0.20389272612760709 0 0.052513380640101352 0.18370508079663761 0 0.048618858908528101 0.20389272612760709 0 0.056298727723822301 0.21336582219656691 0 0.052513380640101352 0.18370508079663761 0 0.056298727723822301 0.21336582219656691 0 0.065995523126847228 0.19518875217463491 0 0.052513380640101352 0.18370508079663761 0 0.056298727723822301 0.21336582219656691 0 0.052513380640101352 0.18370508079663761 0 0.065995523126847228 0.19518875217463491 0 0.048618858908528101 0.20389272612760709 0 0.056298727723822301 0.21336582219656691 0 0.050193918038754351 0.2130273545928997 0 0.048618858908528101 0.20389272612760709 0 0.050193918038754351 0.2130273545928997 0 0.044627998936515353 0.21139157208534501 0 0.060521714904191323 0.21553124587257691 0 0.056298727723822301 0.21336582219656691 0 0.065995523126847228 0.19518875217463491 0 0.060521714904191323 0.21553124587257691 0 0.056298727723822301 0.21336582219656691 0 0.048530570600547197 0.22083508266711849 0 0.050193918038754351 0.2130273545928997 0 0.044627998936515353 0.21139157208534501 0 0.048530570600547197 0.22083508266711849 0 0.056298727723822301 0.21336582219656691 0 0.050193918038754351 0.2130273545928997 0 0.048530570600547197 0.22083508266711849 0 0.044627998936515353 0.21139157208534501 0 0.038036232537791599 0.21887429109421819 0 0.048530570600547197 0.22083508266711849 0 0.044627998936515353 0.21139157208534501 0 0.03540155240750921 0.20940673379182631 0 0.038036232537791599 0.21887429109421819 0 0.044627998936515353 0.21139157208534501 0 0.042693136201198252 0.20448826273337811 0 0.03540155240750921 0.20940673379182631 0 0.048618858908528101 0.20389272612760709 0 0.044627998936515353 0.21139157208534501 0 0.042693136201198252 0.20448826273337811 0 0.038051529847760918 0.1997158969302627 0 0.042693136201198252 0.20448826273337811 0 0.03540155240750921 0.20940673379182631 0 0.030156824988450449 0.20405926459911289 0 0.038051529847760918 0.1997158969302627 0 0.03540155240750921 0.20940673379182631 0 0.038036232537791599 0.21887429109421819 0 0.048530570600547197 0.22083508266711849 0 0.034943605518874758 0.2375186149825792 0 0.048530570600547197 0.22083508266711849 0 0.055047906681539117 0.23587373957051991 0 0.034943605518874758 0.2375186149825792 0 0.060521714904191323 0.21553124587257691 0 0.048530570600547197 0.22083508266711849 0 0.055047906681539117 0.23587373957051991 0 0.060521714904191323 0.21553124587257691 0 0.055047906681539117 0.23587373957051991 0 0.055047906681539117 0.23587373957051991 0 0.048181948490842272 0.26138992602485772 0 0.055047906681539117 0.23587373957051991 0 0.034943605518874758 0.2375186149825792 0 0.055047906681539117 0.23587373957051991 0 0.037365263241541463 0.25048195128351242 0 0.048181948490842272 0.26138992602485772 0 0.055047906681539117 0.23587373957051991 0 0.034943605518874758 0.2375186149825792 0 0.037365263241541463 0.25048195128351242 0 0.022179105737704811 0.24902080974435001 0 0.034943605518874758 0.2375186149825792 0 0.037365263241541463 0.25048195128351242 0 0.076401789133895781 0.234126627053966 0 0.072432791631623195 0.25897738621086552 0 0.094691733425368935 0.25170817048520849 0 0.076401789133895781 0.234126627053966 0 0.1031369791864887 0.23193923161065241 0 0.094691733425368935 0.25170817048520849 0 0.076401789133895781 0.234126627053966 0 0.072432791631623195 0.25897738621086552 0 0.055047906681539117 0.23587373957051991 0 0.076401789133895781 0.234126627053966 0 0.055047906681539117 0.23587373957051991 0 0.076401789133895781 0.234126627053966 0 0.072432791631623195 0.25897738621086552 0 0.060521714904191323 0.21553124587257691 0 0.055047906681539117 0.23587373957051991 0 0.076401789133895781 0.234126627053966 0 0.060521714904191323 0.21553124587257691 0 0.076401789133895781 0.234126627053966 0 0.080629849597722805 0.2076538181828772 0 0.076401789133895781 0.234126627053966 0 0.1031369791864887 0.23193923161065241 0 0.076401789133895781 0.234126627053966 0 0.080629849597722805 0.2076538181828772 0 0.089324981364060363 0.22406875787299649 0 0.080629849597722805 0.2076538181828772 0 0.1017112488784558 0.22561030112067981 0 0.076401789133895781 0.234126627053966 0 0.089324981364060363 0.22406875787299649 0 0.1031369791864887 0.23193923161065241 0 0.076401789133895781 0.234126627053966 0 0.089324981364060363 0.22406875787299649 0 0.080629849597722805 0.2076538181828772 0 0.088935554665747124 0.20751789035015711 0 0.080629849597722805 0.2076538181828772 0 0.1017112488784558 0.22561030112067981 0 0.080629849597722805 0.2076538181828772 0 0.1017112488784558 0.22561030112067981 0 0.088935554665747124 0.20751789035015711 0 0.090177990408979183 0.2000817689989105 0 0.095796506687555044 0.20204834739995761 0 0.088935554665747124 0.20751789035015711 0 0.080941089686322132 0.20570507609440691 0 0.085165900434211295 0.20020471257905759 0 0.088935554665747124 0.20751789035015711 0 0.080941089686322132 0.20570507609440691 0 0.080629849597722805 0.2076538181828772 0 0.080941089686322132 0.20570507609440691 0 0.080629849597722805 0.2076538181828772 0 0.060521714904191323 0.21553124587257691 0 0.065995523126847228 0.19518875217463491 0 0.060521714904191323 0.21553124587257691 0 0.080629849597722805 0.2076538181828772 0 0.065995523126847228 0.19518875217463491 0 0.080941089686322132 0.20570507609440691 0 0.080629849597722805 0.2076538181828772 0 0.065995523126847228 0.19518875217463491 0 0.080629849597722805 0.2076538181828772 0 0.065995523126847228 0.19518875217463491 0 0.080941089686322132 0.20570507609440691 0 0.065995523126847228 0.19518875217463491 0 0.080053183026275898 0.19438751930619461 0 0.065995523126847228 0.19518875217463491 0 0.080053183026275898 0.19438751930619461 0 0.0761893807784359 0.1855616268754765 0 0.080053183026275898 0.19438751930619461 0 0.0761893807784359 0.1855616268754765 0 0.08569704960949337 0.1862983434636952 0 0.080053183026275898 0.19438751930619461 0 0.088024002382978833 0.19447206588905519 0 0.08569704960949337 0.1862983434636952 0 0.080053183026275898 0.19438751930619461 0 0.085165900434211295 0.20020471257905759 0 0.088024002382978833 0.19447206588905519 0 0.080941089686322132 0.20570507609440691 0 0.080053183026275898 0.19438751930619461 0 0.085165900434211295 0.20020471257905759 0 0.085165900434211295 0.20020471257905759 0 0.090177990408979183 0.2000817689989105 0 0.088024002382978833 0.19447206588905519 0 0.088935554665747124 0.20751789035015711 0 0.085165900434211295 0.20020471257905759 0 0.090177990408979183 0.2000817689989105 0 0.090177990408979183 0.2000817689989105 0 0.095037769812306022 0.19573682573060941 0 0.095796506687555044 0.20204834739995761 0 0.090177990408979183 0.2000817689989105 0 0.088024002382978833 0.19447206588905519 0 0.095037769812306022 0.19573682573060941 0 0.092874839706187345 0.1897366861949101 0 0.088024002382978833 0.19447206588905519 0 0.095037769812306022 0.19573682573060941 0 0.092874839706187345 0.1897366861949101 0 0.088024002382978833 0.19447206588905519 0 0.08569704960949337 0.1862983434636952 0 0.1007551519492394 0.18961088291554759 0 0.095037769812306022 0.19573682573060941 0 0.101927921481232 0.19838088562183551 0 0.092874839706187345 0.1897366861949101 0 0.1007551519492394 0.18961088291554759 0 0.095037769812306022 0.19573682573060941 0 0.095796506687555044 0.20204834739995761 0 0.101927921481232 0.19838088562183551 0 0.099686307032721494 0.20809084295376429 0 0.095037769812306022 0.19573682573060941 0 0.095796506687555044 0.20204834739995761 0 0.101927921481232 0.19838088562183551 0 0.101927921481232 0.19838088562183551 0 0.11167449687870649 0.19182668438672781 0 0.1098710244076484 0.20535563487950859 0 0.1007551519492394 0.18961088291554759 0 0.101927921481232 0.19838088562183551 0 0.11167449687870649 0.19182668438672781 0 0.11167449687870649 0.19182668438672781 0 0.1220564144964072 0.19087769366992891 0 0.1231030208410932 0.20121529250928649 0 0.11167449687870649 0.19182668438672781 0 0.1231030208410932 0.20121529250928649 0 0.1098710244076484 0.20535563487950859 0 0.1231030208410932 0.20121529250928649 0 0.1098710244076484 0.20535563487950859 0 0.1153929244670035 0.21684323859145871 0 0.1231030208410932 0.20121529250928649 0 0.1153929244670035 0.21684323859145871 0 0.13434386107460991 0.21031825383018349 0 0.1098710244076484 0.20535563487950859 0 0.1153929244670035 0.21684323859145871 0 0.1067176854672278 0.21504553623926739 0 0.1067176854672278 0.21504553623926739 0 0.099686307032721494 0.20809084295376429 0 0.1017112488784558 0.22561030112067981 0 0.088935554665747124 0.20751789035015711 0 0.099686307032721494 0.20809084295376429 0 0.1017112488784558 0.22561030112067981 0 0.101927921481232 0.19838088562183551 0 0.1098710244076484 0.20535563487950859 0 0.099686307032721494 0.20809084295376429 0 0.1098710244076484 0.20535563487950859 0 0.1067176854672278 0.21504553623926739 0 0.099686307032721494 0.20809084295376429 0 0.088935554665747124 0.20751789035015711 0 0.095796506687555044 0.20204834739995761 0 0.099686307032721494 0.20809084295376429 0 0.089324981364060363 0.22406875787299649 0 0.1031369791864887 0.23193923161065241 0 0.1017112488784558 0.22561030112067981 0 0.1153929244670035 0.21684323859145871 0 0.1067176854672278 0.21504553623926739 0 0.1017112488784558 0.22561030112067981 0 0.1153929244670035 0.21684323859145871 0 0.1031369791864887 0.23193923161065241 0 0.1017112488784558 0.22561030112067981 0 0.1031369791864887 0.23193923161065241 0 0.1298721692390816 0.22975183616733849 0 0.1153929244670035 0.21684323859145871 0 0.1031369791864887 0.23193923161065241 0 0.1298721692390816 0.22975183616733849 0 0.1031369791864887 0.23193923161065241 0 0.1169003344909078 0.24964346781480179 0 0.1298721692390816 0.22975183616733849 0 0.1031369791864887 0.23193923161065241 0 0.1169003344909078 0.24964346781480179 0 0.094691733425368935 0.25170817048520849 0 0.079655632100062948 0.1462195934213576 0 0.091549150110540892 0.15437057932662379 0 0.07580633157433464 0.15872852176525029 0 0.079655632100062948 0.1462195934213576 0 0.091549150110540892 0.15437057932662379 0 0.092682802817652926 0.14032094503942399 0 0.079655632100062948 0.1462195934213576 0 0.092682802817652926 0.14032094503942399 0 0.073038284793928876 0.13087608175348719 0 0.099748100985016935 0.12493257931483399 0 0.084983023515507544 0.11966374367941141 0 0.092682802817652926 0.14032094503942399 0 0.092682802817652926 0.14032094503942399 0 0.073038284793928876 0.13087608175348719 0 0.084983023515507544 0.11966374367941141 0 0.092682802817652926 0.14032094503942399 0 0.073038284793928876 0.13087608175348719 0 0.05339376677020484 0.12143121846755039 0 0.073038284793928876 0.13087608175348719 0 0.053124410102902621 0.13636881609984969 0 0.073038284793928876 0.13087608175348719 0 0.065201591203857462 0.1468018392220026 0 0.079655632100062948 0.1462195934213576 0 0.073038284793928876 0.13087608175348719 0 0.065201591203857462 0.1468018392220026 0 0.06007627893995135 0.1619159865353674 0 0.065201591203857462 0.1468018392220026 0 0.07580633157433464 0.15872852176525029 0 0.079655632100062948 0.1462195934213576 0 0.065201591203857462 0.1468018392220026 0 0.07580633157433464 0.15872852176525029 0 0.06007627893995135 0.1619159865353674 0 0.07580633157433464 0.15872852176525029 0 0.071876839075507459 0.1733318240991954 0 0.06007627893995135 0.1619159865353674 0 0.071876839075507459 0.1733318240991954 0 0.060171314300930978 0.1762488516979849 0 0.06007627893995135 0.1619159865353674 0 0.071876839075507459 0.1733318240991954 0 0.07580633157433464 0.15872852176525029 0 0.071876839075507459 0.1733318240991954 0 0.07580633157433464 0.15872852176525029 0 0.071876839075507459 0.1733318240991954 0 0.082988920709818934 0.16817445310855669 0 0.065995523126847228 0.19518875217463491 0 0.071876839075507459 0.1733318240991954 0 0.065995523126847228 0.19518875217463491 0 0.071876839075507459 0.1733318240991954 0 0.0761893807784359 0.1855616268754765 0 0.060171314300930978 0.1762488516979849 0 0.065995523126847228 0.19518875217463491 0 0.071876839075507459 0.1733318240991954 0 0.071876839075507459 0.1733318240991954 0 0.077324309054055823 0.17860169533366221 0 0.0761893807784359 0.1855616268754765 0 0.071876839075507459 0.1733318240991954 0 0.077324309054055823 0.17860169533366221 0 0.082988920709818934 0.16817445310855669 0 0.071876839075507459 0.1733318240991954 0 0.077324309054055823 0.17860169533366221 0 0.077324309054055823 0.17860169533366221 0 0.08569704960949337 0.1862983434636952 0 0.088516987414979029 0.1769838704464004 0 0.077324309054055823 0.17860169533366221 0 0.0761893807784359 0.1855616268754765 0 0.08569704960949337 0.1862983434636952 0 0.077324309054055823 0.17860169533366221 0 0.088516987414979029 0.1769838704464004 0 0.082988920709818934 0.16817445310855669 0 0.092874839706187345 0.1897366861949101 0 0.08569704960949337 0.1862983434636952 0 0.095998757056648704 0.18304102427427399 0 0.08569704960949337 0.1862983434636952 0 0.088516987414979029 0.1769838704464004 0 0.095998757056648704 0.18304102427427399 0 0.091549150110540892 0.15437057932662379 0 0.07580633157433464 0.15872852176525029 0 0.082988920709818934 0.16817445310855669 0 0.088516987414979029 0.1769838704464004 0 0.082988920709818934 0.16817445310855669 0 0.098142559669628385 0.16947648501516779 0 0.091549150110540892 0.15437057932662379 0 0.082988920709818934 0.16817445310855669 0 0.098142559669628385 0.16947648501516779 0 0.091549150110540892 0.15437057932662379 0 0.098142559669628385 0.16947648501516779 0 0.1074759139296034 0.15660613416061461 0 0.098142559669628385 0.16947648501516779 0 0.1074759139296034 0.15660613416061461 0 0.11060094872199509 0.16893051206299381 0 0.1007551519492394 0.18961088291554759 0 0.095998757056648704 0.18304102427427399 0 0.1062764230648528 0.18046709006736331 0 0.092874839706187345 0.1897366861949101 0 0.1007551519492394 0.18961088291554759 0 0.095998757056648704 0.18304102427427399 0 0.098142559669628385 0.16947648501516779 0 0.095998757056648704 0.18304102427427399 0 0.1062764230648528 0.18046709006736331 0 0.088516987414979029 0.1769838704464004 0 0.098142559669628385 0.16947648501516779 0 0.095998757056648704 0.18304102427427399 0 0.098142559669628385 0.16947648501516779 0 0.1062764230648528 0.18046709006736331 0 0.11060094872199509 0.16893051206299381 0 0.1007551519492394 0.18961088291554759 0 0.11167449687870649 0.19182668438672781 0 0.1062764230648528 0.18046709006736331 0 0.11167449687870649 0.19182668438672781 0 0.1062764230648528 0.18046709006736331 0 0.1202703531980322 0.1787676463342816 0 0.1062764230648528 0.18046709006736331 0 0.1202703531980322 0.1787676463342816 0 0.11060094872199509 0.16893051206299381 0 0.11167449687870649 0.19182668438672781 0 0.1220564144964072 0.19087769366992891 0 0.1202703531980322 0.1787676463342816 0 0.1202703531980322 0.1787676463342816 0 0.11060094872199509 0.16893051206299381 0 0.1198081253920365 0.1617146731298679 0 0.1202703531980322 0.1787676463342816 0 0.1198081253920365 0.1617146731298679 0 0.13485285675512709 0.17018543614186141 0 0.1074759139296034 0.15660613416061461 0 0.11060094872199509 0.16893051206299381 0 0.1198081253920365 0.1617146731298679 0 0.1074759139296034 0.15660613416061461 0 0.1198081253920365 0.1617146731298679 0 0.1164338082828065 0.14549192935265209 0 0.1164338082828065 0.14549192935265209 0 0.123576886174183 0.13042732531174611 0 0.12921487146465499 0.15030638072680369 0 0.1198081253920365 0.1617146731298679 0 0.1164338082828065 0.14549192935265209 0 0.12921487146465499 0.15030638072680369 0 0.1074759139296034 0.15660613416061461 0 0.1164338082828065 0.14549192935265209 0 0.1044737454547562 0.14232011293660449 0 0.091549150110540892 0.15437057932662379 0 0.1074759139296034 0.15660613416061461 0 0.1044737454547562 0.14232011293660449 0 0.091549150110540892 0.15437057932662379 0 0.092682802817652926 0.14032094503942399 0 0.1044737454547562 0.14232011293660449 0 0.099748100985016935 0.12493257931483399 0 0.1044737454547562 0.14232011293660449 0 0.1130219389257829 0.1339564182426026 0 0.099748100985016935 0.12493257931483399 0 0.092682802817652926 0.14032094503942399 0 0.1044737454547562 0.14232011293660449 0 0.1164338082828065 0.14549192935265209 0 0.1044737454547562 0.14232011293660449 0 0.1130219389257829 0.1339564182426026 0 0.1164338082828065 0.14549192935265209 0 0.1130219389257829 0.1339564182426026 0 0.123576886174183 0.13042732531174611 0 0.123576886174183 0.13042732531174611 0 0.13531620224213259 0.1363525626785197 0 0.1335718775425121 0.1198752109337242 0 0.123576886174183 0.13042732531174611 0 0.13531620224213259 0.1363525626785197 0 0.12921487146465499 0.15030638072680369 0 0.123576886174183 0.13042732531174611 0 0.12921487146465499 0.15030638072680369 0 0.13531620224213259 0.1363525626785197 0 0.1459334125944903 0.1323621310022316 0 0.1335718775425121 0.1198752109337242 0 0.13531620224213259 0.1363525626785197 0 0.1459334125944903 0.1323621310022316 0 0.1442839634348225 0.14879176541809289 0 0.1459334125944903 0.1323621310022316 0 0.1442839634348225 0.14879176541809289 0 0.16796917283093429 0.13809806111230949 0 0.1459334125944903 0.1323621310022316 0 0.16796917283093429 0.13809806111230949 0 0.1503358531089129 0.1127111908229069 0 0.1442839634348225 0.14879176541809289 0 0.15426817141391949 0.16343671850505129 0 0.16796917283093429 0.13809806111230949 0 0.13531620224213259 0.1363525626785197 0 0.1442839634348225 0.14879176541809289 0 0.12921487146465499 0.15030638072680369 0 0.1442839634348225 0.14879176541809289 0 0.12921487146465499 0.15030638072680369 0 0.13485285675512709 0.17018543614186141 0 0.12921487146465499 0.15030638072680369 0 0.13485285675512709 0.17018543614186141 0 0.1198081253920365 0.1617146731298679 0 0.12921487146465499 0.15030638072680369 0 0.13485285675512709 0.17018543614186141 0 0.1202703531980322 0.1787676463342816 0 0.13485285675512709 0.17018543614186141 0 0.13345045210947681 0.19006705974704491 0 0.13485285675512709 0.17018543614186141 0 0.151504331904494 0.17947710465383659 0 0.13345045210947681 0.19006705974704491 0 0.1220564144964072 0.19087769366992891 0 0.1202703531980322 0.1787676463342816 0 0.13345045210947681 0.19006705974704491 0 0.1442839634348225 0.14879176541809289 0 0.13485285675512709 0.17018543614186141 0 0.15426817141391949 0.16343671850505129 0 0.13485285675512709 0.17018543614186141 0 0.151504331904494 0.17947710465383659 0 0.15426817141391949 0.16343671850505129 0 0.15426817141391949 0.16343671850505129 0 0.17102299501602319 0.16971965313382209 0 0.16796917283093429 0.13809806111230949 0 0.17102299501602319 0.16971965313382209 0 0.16796917283093429 0.13809806111230949 0 0.19020988476531911 0.16472991985681701 0 0.151504331904494 0.17947710465383659 0 0.15426817141391949 0.16343671850505129 0 0.17102299501602319 0.16971965313382209 0 0.151504331904494 0.17947710465383659 0 0.17102299501602319 0.16971965313382209 0 0.16526245227975911 0.18747763978590851 0 0.17102299501602319 0.16971965313382209 0 0.16526245227975911 0.18747763978590851 0 0.18164992939919991 0.1827412028122779 0 0.17102299501602319 0.16971965313382209 0 0.18164992939919991 0.1827412028122779 0 0.19020988476531911 0.16472991985681701 0 0.16796917283093429 0.13809806111230949 0 0.1881153479037399 0.13260837815573939 0 0.19020988476531911 0.16472991985681701 0 0.16796917283093429 0.13809806111230949 0 0.1881153479037399 0.13260837815573939 0 0.18167017424794921 0.11275940371956759 0 0.16796917283093429 0.13809806111230949 0 0.18167017424794921 0.11275940371956759 0 0.15426817141391949 0.16343671850505129 0 0.16796917283093429 0.13809806111230949 0 0.1169003344909078 0.24964346781480179 0 0.1298721692390816 0.22975183616733849 0 0.13379059300217011 0.25282610349580448 0 0.14930787253493141 0.24386890629328431 0 0.1298721692390816 0.22975183616733849 0 0.13379059300217011 0.25282610349580448 0 0.1153929244670035 0.21684323859145871 0 0.1298721692390816 0.22975183616733849 0 0.13434386107460991 0.21031825383018349 0 0.1298721692390816 0.22975183616733849 0 0.13434386107460991 0.21031825383018349 0 0.15660735929167419 0.22756444072402471 0 0.14930787253493141 0.24386890629328431 0 0.1298721692390816 0.22975183616733849 0 0.15660735929167419 0.22756444072402471 0 0.1298721692390816 0.22975183616733849 0 0.15660735929167419 0.22756444072402471 0 0.15131835661091311 0.20993654233628711 0 0.13434386107460991 0.21031825383018349 0 0.14916043279051641 0.1958481676365916 0 0.15131835661091311 0.20993654233628711 0 0.13434386107460991 0.21031825383018349 0 0.15660735929167419 0.22756444072402471 0 0.13434386107460991 0.21031825383018349 0 0.13345045210947681 0.19006705974704491 0 0.14916043279051641 0.1958481676365916 0 0.1231030208410932 0.20121529250928649 0 0.13434386107460991 0.21031825383018349 0 0.13345045210947681 0.19006705974704491 0 0.1220564144964072 0.19087769366992891 0 0.1231030208410932 0.20121529250928649 0 0.13345045210947681 0.19006705974704491 0 0.151504331904494 0.17947710465383659 0 0.16526245227975911 0.18747763978590851 0 0.14916043279051641 0.1958481676365916 0 0.151504331904494 0.17947710465383659 0 0.13345045210947681 0.19006705974704491 0 0.14916043279051641 0.1958481676365916 0 0.15131835661091311 0.20993654233628711 0 0.14916043279051641 0.1958481676365916 0 0.16533743448735069 0.20201423866658361 0 0.16526245227975911 0.18747763978590851 0 0.16533743448735069 0.20201423866658361 0 0.18255227743057531 0.19781820242487599 0 0.16526245227975911 0.18747763978590851 0 0.14916043279051641 0.1958481676365916 0 0.16533743448735069 0.20201423866658361 0 0.16533743448735069 0.20201423866658361 0 0.18255227743057531 0.19781820242487599 0 0.17900740934507409 0.2085054765337955 0 0.16526245227975911 0.18747763978590851 0 0.18164992939919991 0.1827412028122779 0 0.18255227743057531 0.19781820242487599 0 0.1699076422018149 0.21350190381733439 0 0.18849692779271709 0.21706726529837969 0 0.1699076422018149 0.21350190381733439 0 0.18334254934426711 0.22537704528071181 0 0.18849692779271709 0.21706726529837969 0 0.17900740934507409 0.2085054765337955 0 0.1699076422018149 0.21350190381733439 0 0.18849692779271709 0.21706726529837969 0 0.18255227743057531 0.19781820242487599 0 0.17900740934507409 0.2085054765337955 0 0.18849692779271709 0.21706726529837969 0 0.15131835661091311 0.20993654233628711 0 0.16533743448735069 0.20201423866658361 0 0.1699076422018149 0.21350190381733439 0 0.15131835661091311 0.20993654233628711 0 0.1699076422018149 0.21350190381733439 0 0.15131835661091311 0.20993654233628711 0 0.1699076422018149 0.21350190381733439 0 0.15660735929167419 0.22756444072402471 0 0.16533743448735069 0.20201423866658361 0 0.17900740934507409 0.2085054765337955 0 0.1699076422018149 0.21350190381733439 0 0.15660735929167419 0.22756444072402471 0 0.18334254934426711 0.22537704528071181 0 0.1699076422018149 0.21350190381733439 0 0.15660735929167419 0.22756444072402471 0 0.18334254934426711 0.22537704528071181 0 0.15660735929167419 0.22756444072402471 0 0.18334254934426711 0.22537704528071181 0 0.16867276165720749 0.24902736690266011 0 0.18334254934426711 0.22537704528071181 0 0.18849692779271709 0.21706726529837969 0 0.16867276165720749 0.24902736690266011 0 0.19200847820906361 0.24013056444975989 0 0.18605375978043609 0.26007645544556501 0 0.18334254934426711 0.22537704528071181 0 0.16867276165720749 0.24902736690266011 0 0.18334254934426711 0.22537704528071181 0 0.16867276165720749 0.24902736690266011 0 0.19200847820906361 0.24013056444975989 0 0.14930787253493141 0.24386890629328431 0 0.15660735929167419 0.22756444072402471 0 0.16867276165720749 0.24902736690266011 0 0.2170333870944314 0.24966219459793751 0 0.2069035471978049 0.24131735885022179 0 0.20129388103320339 0.25315965289432613 0 0.2170333870944314 0.24966219459793751 0 0.2179526608734981 0.23595174364395691 0 0.2069035471978049 0.24131735885022179 0 0.2179526608734981 0.23595174364395691 0 0.2069035471978049 0.24131735885022179 0 0.20572730769318981 0.23117686874109031 0 0.2069035471978049 0.24131735885022179 0 0.19200847820906361 0.24013056444975989 0 0.20129388103320339 0.25315965289432613 0 0.2069035471978049 0.24131735885022179 0 0.19200847820906361 0.24013056444975989 0 0.20572730769318981 0.23117686874109031 0 0.21149531667995891 0.22147827773152501 0 0.18849692779271709 0.21706726529837969 0 0.19733449522200641 0.22423226498942231 0 0.21149531667995891 0.22147827773152501 0 0.18849692779271709 0.21706726529837969 0 0.18334254934426711 0.22537704528071181 0 0.19200847820906361 0.24013056444975989 0 0.19733449522200641 0.22423226498942231 0 0.19200847820906361 0.24013056444975989 0 0.19733449522200641 0.22423226498942231 0 0.20572730769318981 0.23117686874109031 0 0.18334254934426711 0.22537704528071181 0 0.19733449522200641 0.22423226498942231 0 0.18849692779271709 0.21706726529837969 0 0.18334254934426711 0.22537704528071181 0 0.19733449522200641 0.22423226498942231 0 0.19733449522200641 0.22423226498942231 0 0.20572730769318981 0.23117686874109031 0 0.21149531667995891 0.22147827773152501 0 0.2179526608734981 0.23595174364395691 0 0.20572730769318981 0.23117686874109031 0 0.21149531667995891 0.22147827773152501 0 0.21149531667995891 0.22147827773152501 0 0.21129980399203629 0.2070073231825591 0 0.22698558862680021 0.20287487581432931 0 0.21129980399203629 0.2070073231825591 0 0.20287734628908219 0.2108426472205496 0 0.20304749481349069 0.19360914871455631 0 0.21149531667995891 0.22147827773152501 0 0.21129980399203629 0.2070073231825591 0 0.20287734628908219 0.2108426472205496 0 0.21149531667995891 0.22147827773152501 0 0.18849692779271709 0.21706726529837969 0 0.20287734628908219 0.2108426472205496 0 0.18849692779271709 0.21706726529837969 0 0.20304749481349069 0.19360914871455631 0 0.18849692779271709 0.21706726529837969 0 0.20287734628908219 0.2108426472205496 0 0.20304749481349069 0.19360914871455631 0 0.18255227743057531 0.19781820242487599 0 0.18849692779271709 0.21706726529837969 0 0.20304749481349069 0.19360914871455631 0 0.18164992939919991 0.1827412028122779 0 0.18255227743057531 0.19781820242487599 0 0.20304749481349069 0.19360914871455631 0 0.21129980399203629 0.2070073231825591 0 0.20304749481349069 0.19360914871455631 0 0.22698558862680021 0.20287487581432931 0 0.20304749481349069 0.19360914871455631 0 0.22698558862680021 0.20287487581432931 0 0.22847825404891151 0.18528729955606191 0 0.22698558862680021 0.20287487581432931 0 0.2494776261920125 0.18849616454771709 0 0.22847825404891151 0.18528729955606191 0 0.22698558862680021 0.20287487581432931 0 0.2494776261920125 0.18849616454771709 0 0.25172225287358252 0.20891730451015739 0 0.22698558862680021 0.20287487581432931 0 0.23449370556720109 0.2258892901646683 0 0.25172225287358252 0.20891730451015739 0 0.21149531667995891 0.22147827773152501 0 0.22698558862680021 0.20287487581432931 0 0.23449370556720109 0.2258892901646683 0 0.21149531667995891 0.22147827773152501 0 0.23449370556720109 0.2258892901646683 0 0.2179526608734981 0.23595174364395691 0 0.21149531667995891 0.22147827773152501 0 0.23449370556720109 0.2258892901646683 0 0.23449370556720109 0.2258892901646683 0 0.25099764385199508 0.24313445578590931 0 0.26102007976483688 0.22551604710539039 0 0.23449370556720109 0.2258892901646683 0 0.26102007976483688 0.22551604710539039 0 0.25172225287358252 0.20891730451015739 0 0.23449370556720109 0.2258892901646683 0 0.23185563173168419 0.24669504905584849 0 0.25099764385199508 0.24313445578590931 0 0.2179526608734981 0.23595174364395691 0 0.23449370556720109 0.2258892901646683 0 0.23185563173168419 0.24669504905584849 0 0.2170333870944314 0.24966219459793751 0 0.2179526608734981 0.23595174364395691 0 0.23185563173168419 0.24669504905584849 0 0.2056628252695788 0.14086712144172009 0 0.1881153479037399 0.13260837815573939 0 0.19020988476531911 0.16472991985681701 0 0.2056628252695788 0.14086712144172009 0 0.21759806183426511 0.1701510321307331 0 0.23214862885503951 0.14669291554690991 0 0.2056628252695788 0.14086712144172009 0 0.2211157657738386 0.1170043230266232 0 0.2056628252695788 0.14086712144172009 0 0.1881153479037399 0.13260837815573939 0 0.201732684063577 0.1101097766589318 0 0.2056628252695788 0.14086712144172009 0 0.19020988476531911 0.16472991985681701 0 0.18164992939919991 0.1827412028122779 0 0.20304749481349069 0.19360914871455631 0 0.19020988476531911 0.16472991985681701 0 0.20304749481349069 0.19360914871455631 0 0.21759806183426511 0.1701510321307331 0 0.22847825404891151 0.18528729955606191 0 0.20304749481349069 0.19360914871455631 0 0.21759806183426511 0.1701510321307331 0 0.20304749481349069 0.19360914871455631 0 0.19020988476531911 0.16472991985681701 0 0.21759806183426511 0.1701510321307331 0 0.2056628252695788 0.14086712144172009 0 0.19020988476531911 0.16472991985681701 0 0.21759806183426511 0.1701510321307331 0 0.21759806183426511 0.1701510321307331 0 0.23214862885503951 0.14669291554690991 0 0.21759806183426511 0.1701510321307331 0 0.23980045361392929 0.17035920191343251 0 0.23214862885503951 0.14669291554690991 0 0.21759806183426511 0.1701510321307331 0 0.22847825404891151 0.18528729955606191 0 0.23980045361392929 0.17035920191343251 0 0.2494776261920125 0.18849616454771709 0 0.22847825404891151 0.18528729955606191 0 0.23980045361392929 0.17035920191343251 0 0.2494776261920125 0.18849616454771709 0 0.23980045361392929 0.17035920191343251 0 0.25993023620439348 0.16768951731488221 0 0.23980045361392929 0.17035920191343251 0 0.24899860534032439 0.15212894843547389 0 0.25993023620439348 0.16768951731488221 0 0.23980045361392929 0.17035920191343251 0 0.24899860534032439 0.15212894843547389 0 0.23214862885503951 0.14669291554690991 0 0.24899860534032439 0.15212894843547389 0 0.23214862885503951 0.14669291554690991 0 0.2466991958758139 0.1232347989630867 0 0.2056628252695788 0.14086712144172009 0 0.23214862885503951 0.14669291554690991 0 0.2211157657738386 0.1170043230266232 0 0.23214862885503951 0.14669291554690991 0 0.2466991958758139 0.1232347989630867 0 0.2211157657738386 0.1170043230266232 0 0.23214862885503951 0.14669291554690991 0 0.2466991958758139 0.1232347989630867 0 0.2466991958758139 0.1232347989630867 0 0.2211157657738386 0.1170043230266232 0 0.23656870627809831 0.093141524611526194 0 0.2211157657738386 0.1170043230266232 0 0.21659473275851729 0.085544546032968641 0 0.23656870627809831 0.093141524611526194 0 0.2466991958758139 0.1232347989630867 0 0.23656870627809831 0.093141524611526194 0 0.2612497628965883 0.099776682379263543 0 0.2211157657738386 0.1170043230266232 0 0.23656870627809831 0.093141524611526194 0 0.2211157657738386 0.1170043230266232 0 0.201732684063577 0.1101097766589318 0 0.21659473275851729 0.085544546032968641 0 0.2056628252695788 0.14086712144172009 0 0.2211157657738386 0.1170043230266232 0 0.201732684063577 0.1101097766589318 0 0.201732684063577 0.1101097766589318 0 0.19537117566496409 0.087420746326825588 0 0.21659473275851729 0.085544546032968641 0 0.19537117566496409 0.087420746326825588 0 0.18167017424794921 0.11275940371956759 0 0.201732684063577 0.1101097766589318 0 0.19537117566496409 0.087420746326825588 0 0.18167017424794921 0.11275940371956759 0 0.1881153479037399 0.13260837815573939 0 0.201732684063577 0.1101097766589318 0 0.18167017424794921 0.11275940371956759 0 0.19537117566496409 0.087420746326825588 0 0.20877906646829411 0.058119257768857617 0 0.17900855283361339 0.069702879751134122 0 0.19537117566496409 0.087420746326825588 0 0.21659473275851729 0.085544546032968641 0 0.20877906646829411 0.058119257768857617 0 0.21659473275851729 0.085544546032968641 0 0.23251447221715699 0.067874631784888367 0 0.20877906646829411 0.058119257768857617 0 0.21659473275851729 0.085544546032968641 0 0.23251447221715699 0.067874631784888367 0 0.23656870627809831 0.093141524611526194 0 0.23251447221715699 0.067874631784888367 0 0.23656870627809831 0.093141524611526194 0 0.25107041730997021 0.076146770429481356 0 0.23656870627809831 0.093141524611526194 0 0.25107041730997021 0.076146770429481356 0 0.2612497628965883 0.099776682379263543 0 0.23251447221715699 0.067874631784888367 0 0.25081120588605921 0.055896535270252852 0 0.25107041730997021 0.076146770429481356 0 0.23251447221715699 0.067874631784888367 0 0.23727068837385579 0.039648874162388492 0 0.25081120588605921 0.055896535270252852 0 0.23727068837385579 0.039648874162388492 0 0.20877906646829411 0.058119257768857617 0 0.21498086072401981 0.031347545878621118 0 0.23251447221715699 0.067874631784888367 0 0.23727068837385579 0.039648874162388492 0 0.20877906646829411 0.058119257768857617 0 0.25425597451158072 0.012088783861486979 0 0.2578183078052394 -0.0046775058104196422 0 0.22881534689338351 -0.0067413783578508836 0 0.22929209036550099 0.015976485310166901 0 0.25425597451158072 0.012088783861486979 0 0.22881534689338351 -0.0067413783578508836 0 0.23727068837385579 0.039648874162388492 0 0.22929209036550099 0.015976485310166901 0 0.25425597451158072 0.012088783861486979 0 0.23727068837385579 0.039648874162388492 0 0.22929209036550099 0.015976485310166901 0 0.21498086072401981 0.031347545878621118 0 0.22929209036550099 0.015976485310166901 0 0.20486585250753339 0.006033998516739681 0 0.22881534689338351 -0.0067413783578508836 0 0.20486585250753339 0.006033998516739681 0 0.193450746872282 0.03880781621627731 0 0.1809163581216833 0.01880937539133026 0 0.20486585250753339 0.006033998516739681 0 0.21498086072401981 0.031347545878621118 0 0.193450746872282 0.03880781621627731 0 0.22929209036550099 0.015976485310166901 0 0.20486585250753339 0.006033998516739681 0 0.21498086072401981 0.031347545878621118 0 0.20486585250753339 0.006033998516739681 0 0.1809163581216833 0.01880937539133026 0 0.20486585250753339 0.006033998516739681 0 0.1809163581216833 0.01880937539133026 0 0.18265408171503719 -0.0030557455288178601 0 0.20877906646829411 0.058119257768857617 0 0.21498086072401981 0.031347545878621118 0 0.193450746872282 0.03880781621627731 0 0.20877906646829411 0.058119257768857617 0 0.193450746872282 0.03880781621627731 0 0.17900855283361339 0.069702879751134122 0 0.193450746872282 0.03880781621627731 0 0.17215379057854821 0.048833839990981079 0 0.17900855283361339 0.069702879751134122 0 0.193450746872282 0.03880781621627731 0 0.17215379057854821 0.048833839990981079 0 0.1809163581216833 0.01880937539133026 0 0.17215379057854821 0.048833839990981079 0 0.15696686373583171 0.031584752265917691 0 0.15090808721025251 0.057856805858335039 0 0.17215379057854821 0.048833839990981079 0 0.15696686373583171 0.031584752265917691 0 0.17215379057854821 0.048833839990981079 0 0.15696686373583171 0.031584752265917691 0 0.1809163581216833 0.01880937539133026 0 0.17215379057854821 0.048833839990981079 0 0.15090808721025251 0.057856805858335039 0 0.17900855283361339 0.069702879751134122 0 0.1809163581216833 0.01880937539133026 0 0.16223656169118791 0.0022157833461514801 0 0.18265408171503719 -0.0030557455288178601 0 0.15696686373583171 0.031584752265917691 0 0.1809163581216833 0.01880937539133026 0 0.15696686373583171 0.031584752265917691 0 0.1809163581216833 0.01880937539133026 0 0.16223656169118791 0.0022157833461514801 0 0.15696686373583171 0.031584752265917691 0 0.16223656169118791 0.0022157833461514801 0 0.13884814345735569 0.011005776757164999 0 0.15696686373583171 0.031584752265917691 0 0.13884814345735569 0.011005776757164999 0 0.15696686373583171 0.031584752265917691 0 0.1352708832328757 0.02803601590139583 0 0.13884814345735569 0.011005776757164999 0 0.1217654303830035 0.036039969463771783 0 0.1200165412971101 0.016821957912596379 0 0.1352708832328757 0.02803601590139583 0 0.1352708832328757 0.02803601590139583 0 0.13884814345735569 0.011005776757164999 0 0.1200165412971101 0.016821957912596379 0 0.1352708832328757 0.02803601590139583 0 0.13884814345735569 0.011005776757164999 0 0.1200165412971101 0.016821957912596379 0 0.13884814345735569 0.011005776757164999 0 0.12535926908485989 -0.0043146879934122416 0 0.13884814345735569 0.011005776757164999 0 0.12535926908485989 -0.0043146879934122416 0 0.15696686373583171 0.031584752265917691 0 0.15090808721025251 0.057856805858335039 0 0.13169362300839149 0.045066255045625787 0 0.15696686373583171 0.031584752265917691 0 0.13169362300839149 0.045066255045625787 0 0.15696686373583171 0.031584752265917691 0 0.1352708832328757 0.02803601590139583 0 0.13169362300839149 0.045066255045625787 0 0.1217654303830035 0.036039969463771783 0 0.1352708832328757 0.02803601590139583 0 0.13169362300839149 0.045066255045625787 0 0.1352708832328757 0.02803601590139583 0 0.13169362300839149 0.045066255045625787 0 0.13169362300839149 0.045066255045625787 0 0.1271087156334996 0.06689359332931348 0 0.15090808721025251 0.057856805858335039 0 0.13169362300839149 0.045066255045625787 0 0.1271087156334996 0.06689359332931348 0 0.1176544120096116 0.052555190245745551 0 0.13169362300839149 0.045066255045625787 0 0.1271087156334996 0.06689359332931348 0 0.1225238082586065 0.088720931613000958 0 0.1271087156334996 0.06689359332931348 0 0.14169978595985819 0.075851141288466387 0 0.15090808721025251 0.057856805858335039 0 0.1271087156334996 0.06689359332931348 0 0.14169978595985819 0.075851141288466387 0 0.15090808721025251 0.057856805858335039 0 0.14169978595985819 0.075851141288466387 0 0.15723260188818311 0.079493906589192198 0 0.14169978595985819 0.075851141288466387 0 0.144100256775296 0.092983068789487977 0 0.15723260188818311 0.079493906589192198 0 0.144100256775296 0.092983068789487977 0 0.16636125275248581 0.097461557708789767 0 0.15723260188818311 0.079493906589192198 0 0.1225238082586065 0.088720931613000958 0 0.14169978595985819 0.075851141288466387 0 0.144100256775296 0.092983068789487977 0 0.1225238082586065 0.088720931613000958 0 0.144100256775296 0.092983068789487977 0 0.13277620178702379 0.1041218724103066 0 0.13277620178702379 0.1041218724103066 0 0.1335718775425121 0.1198752109337242 0 0.1503358531089129 0.1127111908229069 0 0.1179389008837123 0.1105482698966882 0 0.123576886174183 0.13042732531174611 0 0.1335718775425121 0.1198752109337242 0 0.1179389008837123 0.1105482698966882 0 0.13277620178702379 0.1041218724103066 0 0.1335718775425121 0.1198752109337242 0 0.1459334125944903 0.1323621310022316 0 0.1335718775425121 0.1198752109337242 0 0.1503358531089129 0.1127111908229069 0 0.144100256775296 0.092983068789487977 0 0.13277620178702379 0.1041218724103066 0 0.1503358531089129 0.1127111908229069 0 0.144100256775296 0.092983068789487977 0 0.1503358531089129 0.1127111908229069 0 0.16636125275248581 0.097461557708789767 0 0.16796917283093429 0.13809806111230949 0 0.1503358531089129 0.1127111908229069 0 0.18167017424794921 0.11275940371956759 0 0.1503358531089129 0.1127111908229069 0 0.16636125275248581 0.097461557708789767 0 0.18167017424794921 0.11275940371956759 0 0.19537117566496409 0.087420746326825588 0 0.16636125275248581 0.097461557708789767 0 0.18167017424794921 0.11275940371956759 0 0.19537117566496409 0.087420746326825588 0 0.16636125275248581 0.097461557708789767 0 0.17900855283361339 0.069702879751134122 0 0.15090808721025251 0.057856805858335039 0 0.17900855283361339 0.069702879751134122 0 0.15723260188818311 0.079493906589192198 0 0.16636125275248581 0.097461557708789767 0 0.17900855283361339 0.069702879751134122 0 0.15723260188818311 0.079493906589192198 0 0.1069255376573764 0.48199601840853518 0 0.09046187542102839 0.46423600793062092 0 0.1069255376573764 0.48199601840853518 0 0.09046187542102839 0.46423600793062092 0 0.088261475795999619 0.48158464622303782 0 0.1069255376573764 0.48199601840853518 0 0.1141339310740235 0.4680971300671975 0 0.1041266795850105 0.46259237170799578 0 0.1069255376573764 0.48199601840853518 0 0.1041266795850105 0.46259237170799578 0 0.09046187542102839 0.46423600793062092 0 0.097588115901762085 0.49999999999999972 0 0.1018106359306532 0.49185833361076592 0 0.11980829636931289 0.4958931651322821 0 0.1069255376573764 0.48199601840853518 0 0.1018106359306532 0.49185833361076592 0 0.088261475795999619 0.48158464622303782 0 0.097588115901762085 0.49999999999999972 0 0.1018106359306532 0.49185833361076592 0 0.1069255376573764 0.48199601840853518 0 0.1018106359306532 0.49185833361076592 0 0.1018106359306532 0.49185833361076592 0 0.11430306223521471 0.48995444903731988 0 0.1069255376573764 0.48199601840853518 0 0.1018106359306532 0.49185833361076592 0 0.11430306223521471 0.48995444903731988 0 0.11430306223521471 0.48995444903731988 0 0.13104101678281729 0.4874035327719532 0 0.097588115901762085 0.49999999999999972 0 0.11980829636931289 0.4958931651322821 0 0.12694468637568981 0.5 0 0.1069255376573764 0.48199601840853518 0 0.11430306223521471 0.48995444903731988 0 0.11430306223521471 0.48995444903731988 0 0.12307890761133319 0.47717759226895762 0 0.13104101678281729 0.4874035327719532 0 0.1018106359306532 0.49185833361076592 0 0.11430306223521471 0.48995444903731988 0 0.11980829636931289 0.4958931651322821 0 0.11430306223521471 0.48995444903731988 0 0.11980829636931289 0.4958931651322821 0 0.13104101678281729 0.4874035327719532 0 0.11430306223521471 0.48995444903731988 0 0.11980829636931289 0.4958931651322821 0 0.1069255376573764 0.48199601840853518 0 0.11430306223521471 0.48995444903731988 0 0.12307890761133319 0.47717759226895762 0 0.1069255376573764 0.48199601840853518 0 0.12307890761133319 0.47717759226895762 0 0.1141339310740235 0.4680971300671975 0 0.1069255376573764 0.48199601840853518 0 0.1141339310740235 0.4680971300671975 0 0.12307890761133319 0.47717759226895762 0 0.1141339310740235 0.4680971300671975 0 0.12548597270264661 0.46479205655642702 0 0.12134232449067089 0.45419824172586021 0 0.1141339310740235 0.4680971300671975 0 0.12134232449067089 0.45419824172586021 0 0.1141339310740235 0.4680971300671975 0 0.12548597270264661 0.46479205655642702 0 0.12134232449067089 0.45419824172586021 0 0.1141339310740235 0.4680971300671975 0 0.1041266795850105 0.46259237170799578 0 0.12134232449067089 0.45419824172586021 0 0.1146202389540245 0.44194684444429871 0 0.097670268837677668 0.45033711958928252 0 0.12134232449067089 0.45419824172586021 0 0.097670268837677668 0.45033711958928252 0 0.1146202389540245 0.44194684444429871 0 0.1215228720538309 0.42702029116818491 0 0.1266730183998292 0.4439198460913758 0 0.1146202389540245 0.44194684444429871 0 0.1266730183998292 0.4439198460913758 0 0.12134232449067089 0.45419824172586021 0 0.1146202389540245 0.44194684444429871 0 0.1266730183998292 0.4439198460913758 0 0.12134232449067089 0.45419824172586021 0 0.1266730183998292 0.4439198460913758 0 0.1146202389540245 0.44194684444429871 0 0.097670268837677668 0.45033711958928252 0 0.097686139478707038 0.43114350914820698 0 0.12134232449067089 0.45419824172586021 0 0.097670268837677668 0.45033711958928252 0 0.1041266795850105 0.46259237170799578 0 0.097670268837677668 0.45033711958928252 0 0.1041266795850105 0.46259237170799578 0 0.09046187542102839 0.46423600793062092 0 0.097670268837677668 0.45033711958928252 0 0.09046187542102839 0.46423600793062092 0 0.073998213184684677 0.44647599745270278 0 0.09046187542102839 0.46423600793062092 0 0.073998213184684677 0.44647599745270278 0 0.072371559140910632 0.45497252103532437 0 0.09046187542102839 0.46423600793062092 0 0.073998213184684677 0.44647599745270278 0 0.097670268837677668 0.45033711958928252 0 0.073998213184684677 0.44647599745270278 0 0.097670268837677668 0.45033711958928252 0 0.073998213184684677 0.44647599745270278 0 0.097686139478707038 0.43114350914820698 0 0.073998213184684677 0.44647599745270278 0 0.060185523739375427 0.44220538420492611 0 0.057343558199154612 0.42850995546257331 0 0.073998213184684677 0.44647599745270278 0 0.065363930705963136 0.44965045774495521 0 0.072371559140910632 0.45497252103532437 0 0.073998213184684677 0.44647599745270278 0 0.065363930705963136 0.44965045774495521 0 0.060185523739375427 0.44220538420492611 0 0.072371559140910632 0.45497252103532437 0 0.062806783327762655 0.45528299137002493 0 0.064480692480901741 0.47428912587676619 0 0.09046187542102839 0.46423600793062092 0 0.072371559140910632 0.45497252103532437 0 0.064480692480901741 0.47428912587676619 0 0.065363930705963136 0.44965045774495521 0 0.072371559140910632 0.45497252103532437 0 0.062806783327762655 0.45528299137002493 0 0.064480692480901741 0.47428912587676619 0 0.088261475795999619 0.48158464622303782 0 0.077628637490035485 0.49554374528850242 0 0.09046187542102839 0.46423600793062092 0 0.064480692480901741 0.47428912587676619 0 0.088261475795999619 0.48158464622303782 0 0.1018106359306532 0.49185833361076592 0 0.077628637490035485 0.49554374528850242 0 0.1018106359306532 0.49185833361076592 0 0.088261475795999619 0.48158464622303782 0 0.077628637490035485 0.49554374528850242 0 0.097588115901762085 0.49999999999999972 0 0.080385242572369217 0.49999999999999861 0 0.077628637490035485 0.49554374528850242 0 0.097588115901762085 0.49999999999999972 0 0.1018106359306532 0.49185833361076592 0 0.077628637490035485 0.49554374528850242 0 0.080385242572369217 0.49999999999999861 0 0.077628637490035485 0.49554374528850242 0 0.077628637490035485 0.49554374528850242 0 0.062281329732456293 0.49097338627008491 0 0.051420309047906357 0.5 0 0.077628637490035485 0.49554374528850242 0 0.051420309047906357 0.5 0 0.064480692480901741 0.47428912587676619 0 0.077628637490035485 0.49554374528850242 0 0.080385242572369217 0.49999999999999861 0 0.077628637490035485 0.49554374528850242 0 0.056282972701221012 0.5 0 0.064480692480901741 0.47428912587676619 0 0.077628637490035485 0.49554374528850242 0 0.062281329732456293 0.49097338627008491 0 0.077628637490035485 0.49554374528850242 0 0.056282972701221012 0.5 0 0.051420309047906357 0.5 0 0.062281329732456293 0.49097338627008491 0 0.053350554816984933 0.49308532852851761 0 0.051420309047906357 0.5 0 0.062281329732456293 0.49097338627008491 0 0.051632614106834118 0.4867519984152559 0 0.053350554816984933 0.49308532852851761 0 0.051632614106834118 0.4867519984152559 0 0.053350554816984933 0.49308532852851761 0 0.045381749564155971 0.49389904570749887 0 0.053350554816984933 0.49308532852851761 0 0.051420309047906357 0.5 0 0.045381749564155971 0.49389904570749887 0 0.064480692480901741 0.47428912587676619 0 0.062281329732456293 0.49097338627008491 0 0.051632614106834118 0.4867519984152559 0 0.064480692480901741 0.47428912587676619 0 0.049796603140256093 0.47788633379297779 0 0.047610105821743909 0.46783664995458463 0 0.064480692480901741 0.47428912587676619 0 0.051632614106834118 0.4867519984152559 0 0.049796603140256093 0.47788633379297779 0 0.051632614106834118 0.4867519984152559 0 0.049796603140256093 0.47788633379297779 0 0.042454259168646112 0.48146676430814028 0 0.03774453234673221 0.47365357949044512 0 0.034634738518891713 0.46512063453646052 0 0.047610105821743909 0.46783664995458463 0 0.049796603140256093 0.47788633379297779 0 0.03774453234673221 0.47365357949044512 0 0.047610105821743909 0.46783664995458463 0 0.049796603140256093 0.47788633379297779 0 0.042454259168646112 0.48146676430814028 0 0.03774453234673221 0.47365357949044512 0 0.042454259168646112 0.48146676430814028 0 0.034346229944286613 0.48230518062712763 0 0.039658452081357959 0.48903307012097191 0 0.042454259168646112 0.48146676430814028 0 0.034346229944286613 0.48230518062712763 0 0.03774453234673221 0.47365357949044512 0 0.034346229944286613 0.48230518062712763 0 0.03774453234673221 0.47365357949044512 0 0.025299556322735041 0.48017061794783328 0 0.03774453234673221 0.47365357949044512 0 0.025299556322735041 0.48017061794783328 0 0.034634738518891713 0.46512063453646052 0 0.03774453234673221 0.47365357949044512 0 0.034634738518891713 0.46512063453646052 0 0.051420309047906357 0.5 0 0.045381749564155971 0.49389904570749887 0 0.032180702830072787 0.5 0 0.045381749564155971 0.49389904570749887 0 0.039658452081357959 0.48903307012097191 0 0.032180702830072787 0.5 0 0.051632614106834118 0.4867519984152559 0 0.045381749564155971 0.49389904570749887 0 0.039658452081357959 0.48903307012097191 0 0.051632614106834118 0.4867519984152559 0 0.042454259168646112 0.48146676430814028 0 0.039658452081357959 0.48903307012097191 0 0.034346229944286613 0.48230518062712763 0 0.039658452081357959 0.48903307012097191 0 0.02601126422289431 0.49103227354633228 0 0.039658452081357959 0.48903307012097191 0 0.032180702830072787 0.5 0 0.02601126422289431 0.49103227354633228 0 0.032180702830072787 0.5 0 0.015964374126576839 0.4952206013592052 0 0.02601126422289431 0.49103227354633228 0 0.032180702830072787 0.5 0 0.015964374126576839 0.4952206013592052 0 0.0080784329589246306 0.5 0 0.015964374126576839 0.4952206013592052 0 0.025299556322735041 0.48017061794783328 0 0.015964374126576839 0.4952206013592052 0 0.02601126422289431 0.49103227354633228 0 0.025299556322735041 0.48017061794783328 0 0.015964374126576839 0.4952206013592052 0 0.025299556322735041 0.48017061794783328 0 0.015645085922359671 0.48257758337742779 0 0.034346229944286613 0.48230518062712763 0 0.02601126422289431 0.49103227354633228 0 0.025299556322735041 0.48017061794783328 0 0.025299556322735041 0.48017061794783328 0 0.034634738518891713 0.46512063453646052 0 0.025299556322735041 0.48017061794783328 0 0.02154440772543224 0.46837671587731239 0 0.034634738518891713 0.46512063453646052 0 0.015645085922359671 0.48257758337742779 0 0.0098551765456640003 0.4757046766042905 0 0.02154440772543224 0.46837671587731239 0 0.025299556322735041 0.48017061794783328 0 0.015645085922359671 0.48257758337742779 0 0.02154440772543224 0.46837671587731239 0 -0.0092949274138586589 0.47499313211266581 0 0.0098551765456640003 0.4757046766042905 0 0.0041546557958673912 0.4884928686158212 0 -0.0092949274138586589 0.47499313211266581 0 0.0098551765456640003 0.4757046766042905 0 0.01118748516252247 0.4598761781804801 0 0.015645085922359671 0.48257758337742779 0 0.0098551765456640003 0.4757046766042905 0 0.0041546557958673912 0.4884928686158212 0 0.015964374126576839 0.4952206013592052 0 0.0041546557958673912 0.4884928686158212 0 0.0080784329589246306 0.5 0 0.015964374126576839 0.4952206013592052 0 0.015645085922359671 0.48257758337742779 0 0.0041546557958673912 0.4884928686158212 0 -0.0025660179154935459 0.44998626422533278 0 0.011662179686007039 0.43998700034618798 0 0.0041628915828715758 0.42497939633799958 0 -0.0025660179154935459 0.44998626422533278 0 0.011662179686007039 0.43998700034618798 0 0.01118748516252247 0.4598761781804801 0 0.0098551765456640003 0.4757046766042905 0 0.01118748516252247 0.4598761781804801 0 0.02154440772543224 0.46837671587731239 0 0.02672042603967454 0.44340459917452962 0 0.034634738518891713 0.46512063453646052 0 0.02154440772543224 0.46837671587731239 0 0.02672042603967454 0.44340459917452962 0 0.034634738518891713 0.46512063453646052 0 0.01118748516252247 0.4598761781804801 0 0.02154440772543224 0.46837671587731239 0 0.02672042603967454 0.44340459917452962 0 0.011662179686007039 0.43998700034618798 0 0.01118748516252247 0.4598761781804801 0 0.02672042603967454 0.44340459917452962 0 0.02672042603967454 0.44340459917452962 0 0.04598914835902522 0.44681529499951811 0 0.042031847618489299 0.42900302958861591 0 0.02672042603967454 0.44340459917452962 0 0.04598914835902522 0.44681529499951811 0 0.034634738518891713 0.46512063453646052 0 0.04598914835902522 0.44681529499951811 0 0.034634738518891713 0.46512063453646052 0 0.051332747471767012 0.45303450646503057 0 0.04598914835902522 0.44681529499951811 0 0.034634738518891713 0.46512063453646052 0 0.034634738518891713 0.46512063453646052 0 0.047610105821743909 0.46783664995458463 0 0.051332747471767012 0.45303450646503057 0 0.064480692480901741 0.47428912587676619 0 0.051332747471767012 0.45303450646503057 0 0.062806783327762655 0.45528299137002493 0 0.064480692480901741 0.47428912587676619 0 0.051332747471767012 0.45303450646503057 0 0.064480692480901741 0.47428912587676619 0 0.047610105821743909 0.46783664995458463 0 0.051332747471767012 0.45303450646503057 0 0.04598914835902522 0.44681529499951811 0 0.057343558199154612 0.42850995546257331 0 0.04598914835902522 0.44681529499951811 0 0.060185523739375427 0.44220538420492611 0 0.057343558199154612 0.42850995546257331 0 0.04598914835902522 0.44681529499951811 0 0.057135626720778702 0.44939772695689101 0 0.060185523739375427 0.44220538420492611 0 0.04598914835902522 0.44681529499951811 0 0.051332747471767012 0.45303450646503057 0 0.057135626720778702 0.44939772695689101 0 0.062806783327762655 0.45528299137002493 0 0.051332747471767012 0.45303450646503057 0 0.057135626720778702 0.44939772695689101 0 0.065363930705963136 0.44965045774495521 0 0.057135626720778702 0.44939772695689101 0 0.060185523739375427 0.44220538420492611 0 0.065363930705963136 0.44965045774495521 0 0.062806783327762655 0.45528299137002493 0 0.057135626720778702 0.44939772695689101 0 0.04598914835902522 0.44681529499951811 0 0.057343558199154612 0.42850995546257331 0 0.042031847618489299 0.42900302958861591 0 0.057343558199154612 0.42850995546257331 0 0.048825464413838962 0.42077228384530879 0 0.042031847618489299 0.42900302958861591 0 0.057343558199154612 0.42850995546257331 0 0.056473778555659757 0.41206609916222831 0 0.0730933379272376 0.40311849350075901 0 0.056473778555659757 0.41206609916222831 0 0.048825464413838962 0.42077228384530879 0 0.039592872445116813 0.41366128960851278 0 0.057343558199154612 0.42850995546257331 0 0.056473778555659757 0.41206609916222831 0 0.048825464413838962 0.42077228384530879 0 0.056473778555659757 0.41206609916222831 0 0.039592872445116813 0.41366128960851278 0 0.042009305666462458 0.4003595109527926 0 0.039592872445116813 0.41366128960851278 0 0.042031847618489299 0.42900302958861591 0 0.01880611356046015 0.42168856381259778 0 0.048825464413838962 0.42077228384530879 0 0.039592872445116813 0.41366128960851278 0 0.042031847618489299 0.42900302958861591 0 0.011662179686007039 0.43998700034618798 0 0.02672042603967454 0.44340459917452962 0 0.01880611356046015 0.42168856381259778 0 0.02672042603967454 0.44340459917452962 0 0.042031847618489299 0.42900302958861591 0 0.01880611356046015 0.42168856381259778 0 0.02672042603967454 0.44340459917452962 0 0.01880611356046015 0.42168856381259778 0 0.01880611356046015 0.42168856381259778 0 0.01089180108124084 0.39997252845066772 0 0.027302248087317391 0.40356895017405447 0 0.039592872445116813 0.41366128960851278 0 0.01880611356046015 0.42168856381259778 0 0.027302248087317391 0.40356895017405447 0 -0.0072436027832006112 0.4123364379025341 0 0.0041628915828715758 0.42497939633799958 0 0.01089180108124084 0.39997252845066772 0 0.0041628915828715758 0.42497939633799958 0 0.01089180108124084 0.39997252845066772 0 0.01880611356046015 0.42168856381259778 0 0.01089180108124084 0.39997252845066772 0 0.01880611356046015 0.42168856381259778 0 0.0041628915828715758 0.42497939633799958 0 0.01089180108124084 0.39997252845066772 0 0.011662179686007039 0.43998700034618798 0 0.01880611356046015 0.42168856381259778 0 0.0041628915828715758 0.42497939633799958 0 -0.0025660179154935459 0.44998626422533278 0 0.0041628915828715758 0.42497939633799958 0 0.01028557946935251 0.37794781039764908 0 0.0043438629418587676 0.38196111157387103 0 0.01089180108124084 0.39997252845066772 0 0.01089180108124084 0.39997252845066772 0 0.017262790689934051 0.37629581003217549 0 0.01028557946935251 0.37794781039764908 0 0.01089180108124084 0.39997252845066772 0 0.017262790689934051 0.37629581003217549 0 0.01028557946935251 0.37794781039764908 0 0.017262790689934051 0.37629581003217549 0 0.0037288652009876042 0.37408999224015083 0 0.01028557946935251 0.37794781039764908 0 0.0043438629418587676 0.38196111157387103 0 0.003161894288261895 0.37876248276422902 0 0.01028557946935251 0.37794781039764908 0 0.003161894288261895 0.37876248276422902 0 0.0037288652009876042 0.37408999224015083 0 0.0043438629418587676 0.38196111157387103 0 0.003161894288261895 0.37876248276422902 0 0.0043438629418587676 0.38196111157387103 0 0.01089180108124084 0.39997252845066772 0 -0.0065706072671127469 0.39434828954426082 0 0.0043438629418587676 0.38196111157387103 0 0.01089180108124084 0.39997252845066772 0 0.01089180108124084 0.39997252845066772 0 0.021113599655943931 0.39361075693010539 0 0.027302248087317391 0.40356895017405447 0 0.021113599655943931 0.39361075693010539 0 0.027302248087317391 0.40356895017405447 0 0.030942964987117131 0.39322920146150708 0 0.021113599655943931 0.39361075693010539 0 0.030942964987117131 0.39322920146150708 0 0.024767953330320312 0.38506957042885442 0 0.024767953330320312 0.38506957042885442 0 0.021964806165335801 0.37864373932988948 0 0.039102338653667149 0.38720128552053751 0 0.01089180108124084 0.39997252845066772 0 0.021113599655943931 0.39361075693010539 0 0.017262790689934051 0.37629581003217549 0 0.021964806165335801 0.37864373932988948 0 0.039102338653667149 0.38720128552053751 0 0.021113599655943931 0.39361075693010539 0 0.024767953330320312 0.38506957042885442 0 0.017262790689934051 0.37629581003217549 0 0.024767953330320312 0.38506957042885442 0 0.017262790689934051 0.37629581003217549 0 0.021964806165335801 0.37864373932988948 0 0.017262790689934051 0.37629581003217549 0 0.021964806165335801 0.37864373932988948 0 0.018665890033715379 0.37108142575026348 0 0.024767953330320312 0.38506957042885442 0 0.021964806165335801 0.37864373932988948 0 0.017262790689934051 0.37629581003217549 0 0.021964806165335801 0.37864373932988948 0 0.021964806165335801 0.37864373932988948 0 0.039102338653667149 0.38720128552053751 0 0.036641666779038733 0.37496763192590571 0 0.039102338653667149 0.38720128552053751 0 0.052925629052967438 0.37684156341525438 0 0.036641666779038733 0.37496763192590571 0 0.030942964987117131 0.39322920146150708 0 0.024767953330320312 0.38506957042885442 0 0.039102338653667149 0.38720128552053751 0 0.039102338653667149 0.38720128552053751 0 0.042009305666462458 0.4003595109527926 0 0.056239871141998889 0.3957588317111847 0 0.027302248087317391 0.40356895017405447 0 0.030942964987117131 0.39322920146150708 0 0.042009305666462458 0.4003595109527926 0 0.039592872445116813 0.41366128960851278 0 0.027302248087317391 0.40356895017405447 0 0.042009305666462458 0.4003595109527926 0 0.030942964987117131 0.39322920146150708 0 0.039102338653667149 0.38720128552053751 0 0.042009305666462458 0.4003595109527926 0 0.056473778555659757 0.41206609916222831 0 0.042009305666462458 0.4003595109527926 0 0.056239871141998889 0.3957588317111847 0 0.056473778555659757 0.41206609916222831 0 0.056239871141998889 0.3957588317111847 0 0.0730933379272376 0.40311849350075901 0 0.039102338653667149 0.38720128552053751 0 0.056239871141998889 0.3957588317111847 0 0.039102338653667149 0.38720128552053751 0 0.056239871141998889 0.3957588317111847 0 0.052925629052967438 0.37684156341525438 0 0.056239871141998889 0.3957588317111847 0 0.052925629052967438 0.37684156341525438 0 0.068283391950731132 0.3844375804050662 0 0.068283391950731132 0.3844375804050662 0 0.088843117655318021 0.3777270315389431 0 0.070315003976133716 0.36874198185918983 0 0.052925629052967438 0.37684156341525438 0 0.068283391950731132 0.3844375804050662 0 0.070315003976133716 0.36874198185918983 0 0.068283391950731132 0.3844375804050662 0 0.088843117655318021 0.3777270315389431 0 0.0730933379272376 0.40311849350075901 0 0.088843117655318021 0.3777270315389431 0 0.0730933379272376 0.40311849350075901 0 0.088843117655318021 0.3777270315389431 0 0.0730933379272376 0.40311849350075901 0 0.092333703715745147 0.40693353528493381 0 0.056239871141998889 0.3957588317111847 0 0.068283391950731132 0.3844375804050662 0 0.0730933379272376 0.40311849350075901 0 0.057343558199154612 0.42850995546257331 0 0.0730933379272376 0.40311849350075901 0 0.057343558199154612 0.42850995546257331 0 0.0730933379272376 0.40311849350075901 0 0.07819067387403128 0.42433461765939068 0 0.073998213184684677 0.44647599745270278 0 0.057343558199154612 0.42850995546257331 0 0.073998213184684677 0.44647599745270278 0 0.057343558199154612 0.42850995546257331 0 0.07819067387403128 0.42433461765939068 0 0.073998213184684677 0.44647599745270278 0 0.07819067387403128 0.42433461765939068 0 0.097686139478707038 0.43114350914820698 0 0.07819067387403128 0.42433461765939068 0 0.092333703715745147 0.40693353528493381 0 0.097686139478707038 0.43114350914820698 0 0.0730933379272376 0.40311849350075901 0 0.07819067387403128 0.42433461765939068 0 0.092333703715745147 0.40693353528493381 0 0.092333703715745147 0.40693353528493381 0 0.10814765799570621 0.41254533555208828 0 0.097686139478707038 0.43114350914820698 0 0.10814765799570621 0.41254533555208828 0 0.097686139478707038 0.43114350914820698 0 0.1215228720538309 0.42702029116818491 0 0.1146202389540245 0.44194684444429871 0 0.097686139478707038 0.43114350914820698 0 0.1215228720538309 0.42702029116818491 0 0.10814765799570621 0.41254533555208828 0 0.1215228720538309 0.42702029116818491 0 0.12555135272407769 0.40559386789156621 0 0.1080412953634708 0.39273222431021521 0 0.12774738154290771 0.38685862698622647 0 0.12555135272407769 0.40559386789156621 0 0.10814765799570621 0.41254533555208828 0 0.1080412953634708 0.39273222431021521 0 0.12555135272407769 0.40559386789156621 0 0.1080412953634708 0.39273222431021521 0 0.11681627972552119 0.36973601613293111 0 0.12774738154290771 0.38685862698622647 0 0.088843117655318021 0.3777270315389431 0 0.1080412953634708 0.39273222431021521 0 0.11681627972552119 0.36973601613293111 0 0.092333703715745147 0.40693353528493381 0 0.10814765799570621 0.41254533555208828 0 0.1080412953634708 0.39273222431021521 0 0.088843117655318021 0.3777270315389431 0 0.092333703715745147 0.40693353528493381 0 0.1080412953634708 0.39273222431021521 0 0.088843117655318021 0.3777270315389431 0 0.1045928973833985 0.35233556957712719 0 0.11681627972552119 0.36973601613293111 0 0.088843117655318021 0.3777270315389431 0 0.1045928973833985 0.35233556957712719 0 0.11681627972552119 0.36973601613293111 0 0.1189335555640645 0.35396535855909572 0 0.1320713574980536 0.35657361291811679 0 0.1045928973833985 0.35233556957712719 0 0.1189335555640645 0.35396535855909572 0 0.1222536876492849 0.33721623560820801 0 0.1045928973833985 0.35233556957712719 0 0.11681627972552119 0.36973601613293111 0 0.1189335555640645 0.35396535855909572 0 0.1189335555640645 0.35396535855909572 0 0.1222536876492849 0.33721623560820801 0 0.1320713574980536 0.35657361291811679 0 0.1045928973833985 0.35233556957712719 0 0.1222536876492849 0.33721623560820801 0 0.12034267711147879 0.32694410761531151 0 0.1045928973833985 0.35233556957712719 0 0.12034267711147879 0.32694410761531151 0 0.12034267711147879 0.32694410761531151 0 0.10451026768777059 0.31740070659997521 0 0.1144660175850513 0.30146031137078749 0 0.10451026768777059 0.31740070659997521 0 0.091591083981234195 0.32290012751932418 0 0.088006576148096635 0.3062522419650337 0 0.12034267711147879 0.32694410761531151 0 0.10451026768777059 0.31740070659997521 0 0.1024092111275753 0.33147362881014608 0 0.10451026768777059 0.31740070659997521 0 0.1024092111275753 0.33147362881014608 0 0.091591083981234195 0.32290012751932418 0 0.1045928973833985 0.35233556957712719 0 0.1024092111275753 0.33147362881014608 0 0.088141243231286137 0.33880107487935618 0 0.1024092111275753 0.33147362881014608 0 0.088141243231286137 0.33880107487935618 0 0.091591083981234195 0.32290012751932418 0 0.1045928973833985 0.35233556957712719 0 0.12034267711147879 0.32694410761531151 0 0.1024092111275753 0.33147362881014608 0 0.088141243231286137 0.33880107487935618 0 0.091591083981234195 0.32290012751932418 0 0.075282385250370717 0.32544556887505838 0 0.091591083981234195 0.32290012751932418 0 0.075282385250370717 0.32544556887505838 0 0.088006576148096635 0.3062522419650337 0 0.060525799124810473 0.333529663681565 0 0.064494796627080742 0.30867890452466512 0 0.075282385250370717 0.32544556887505838 0 0.060525799124810473 0.333529663681565 0 0.064494796627080742 0.30867890452466512 0 0.075282385250370717 0.32544556887505838 0 0.064494796627080742 0.30867890452466512 0 0.088006576148096635 0.3062522419650337 0 0.075282385250370717 0.32544556887505838 0 0.070449267332544613 0.34156234256317702 0 0.060525799124810473 0.333529663681565 0 0.088141243231286137 0.33880107487935618 0 0.075282385250370717 0.32544556887505838 0 0.070449267332544613 0.34156234256317702 0 0.070449267332544613 0.34156234256317702 0 0.060525799124810473 0.333529663681565 0 0.070449267332544613 0.34156234256317702 0 0.070315003976133716 0.36874198185918983 0 0.056309120866446967 0.35993120608131168 0 0.070449267332544613 0.34156234256317702 0 0.084468305915736189 0.35583360008355869 0 0.070315003976133716 0.36874198185918983 0 0.1045928973833985 0.35233556957712719 0 0.088141243231286137 0.33880107487935618 0 0.084468305915736189 0.35583360008355869 0 0.088141243231286137 0.33880107487935618 0 0.070449267332544613 0.34156234256317702 0 0.084468305915736189 0.35583360008355869 0 0.088843117655318021 0.3777270315389431 0 0.1045928973833985 0.35233556957712719 0 0.084468305915736189 0.35583360008355869 0 0.088843117655318021 0.3777270315389431 0 0.084468305915736189 0.35583360008355869 0 0.070315003976133716 0.36874198185918983 0 0.052925629052967438 0.37684156341525438 0 0.070315003976133716 0.36874198185918983 0 0.056309120866446967 0.35993120608131168 0 0.052925629052967438 0.37684156341525438 0 0.056309120866446967 0.35993120608131168 0 0.040771242316977728 0.36370535118655228 0 0.070449267332544613 0.34156234256317702 0 0.056309120866446967 0.35993120608131168 0 0.060525799124810473 0.333529663681565 0 0.056309120866446967 0.35993120608131168 0 0.060525799124810473 0.333529663681565 0 0.056309120866446967 0.35993120608131168 0 0.043823706095071802 0.34427838492072971 0 0.060525799124810473 0.333529663681565 0 0.056309120866446967 0.35993120608131168 0 0.043823706095071802 0.34427838492072971 0 0.040771242316977728 0.36370535118655228 0 0.043823706095071802 0.34427838492072971 0 0.040771242316977728 0.36370535118655228 0 0.02392727072562726 0.3515283834780204 0 0.052925629052967438 0.37684156341525438 0 0.040771242316977728 0.36370535118655228 0 0.036641666779038733 0.37496763192590571 0 0.040771242316977728 0.36370535118655228 0 0.036641666779038733 0.37496763192590571 0 0.028444317706245829 0.36844622017729411 0 0.021964806165335801 0.37864373932988948 0 0.036641666779038733 0.37496763192590571 0 0.028444317706245829 0.36844622017729411 0 0.028444317706245829 0.36844622017729411 0 0.018665890033715379 0.37108142575026348 0 0.02392727072562726 0.3515283834780204 0 0.018665890033715379 0.37108142575026348 0 0.02392727072562726 0.3515283834780204 0 0.040771242316977728 0.36370535118655228 0 0.028444317706245829 0.36844622017729411 0 0.02392727072562726 0.3515283834780204 0 0.021964806165335801 0.37864373932988948 0 0.028444317706245829 0.36844622017729411 0 0.018665890033715379 0.37108142575026348 0 0.021964806165335801 0.37864373932988948 0 0.018665890033715379 0.37108142575026348 0 0.017262790689934051 0.37629581003217549 0 0.018665890033715379 0.37108142575026348 0 0.02392727072562726 0.3515283834780204 0 0.0079430069714572782 0.34650068439185039 0 0.0187629563977279 0.34002422230725909 0 0.018665890033715379 0.37108142575026348 0 0.02392727072562726 0.3515283834780204 0 0.0079430069714572782 0.34650068439185039 0 -0.0077270399645133223 0.34787393807981482 0 0.0079430069714572782 0.34650068439185039 0 0.00045783537429429209 0.35545048756526998 0 0.018665890033715379 0.37108142575026348 0 0.0079430069714572782 0.34650068439185039 0 0.0079430069714572782 0.34650068439185039 0 0.00045783537429429209 0.35545048756526998 0 0.0080041553117443844 0.36445591684528078 0 0.018665890033715379 0.37108142575026348 0 0.0079430069714572782 0.34650068439185039 0 0.0080041553117443844 0.36445591684528078 0 -0.0045112187503786819 0.3654230608970287 0 0.017262790689934051 0.37629581003217549 0 -0.0045112187503786819 0.3654230608970287 0 0.00045783537429429209 0.35545048756526998 0 0.0080041553117443844 0.36445591684528078 0 -0.0045112187503786819 0.3654230608970287 0 0.017262790689934051 0.37629581003217549 0 0.0037288652009876042 0.37408999224015083 0 -0.0045112187503786819 0.3654230608970287 0 0.017262790689934051 0.37629581003217549 0 0.0080041553117443844 0.36445591684528078 0 0.017262790689934051 0.37629581003217549 0 0.018665890033715379 0.37108142575026348 0 0.0080041553117443844 0.36445591684528078 0 -0.002779876090803129 0.3219199430334384 0 0.011184634355500701 0.315392824702043 0 0.01095689844870875 0.30401128476579459 0 0.011184634355500701 0.315392824702043 0 0.011508044977592341 0.32901732652806481 0 0.02242950325407898 0.32124895820573318 0 -0.002779876090803129 0.3219199430334384 0 0.011184634355500701 0.315392824702043 0 -0.002779876090803129 0.3219199430334384 0 0.011184634355500701 0.315392824702043 0 0.011508044977592341 0.32901732652806481 0 0.0079430069714572782 0.34650068439185039 0 0.011508044977592341 0.32901732652806481 0 0.0187629563977279 0.34002422230725909 0 -0.002779876090803129 0.3219199430334384 0 0.0079430069714572782 0.34650068439185039 0 -0.002779876090803129 0.3219199430334384 0 0.0079430069714572782 0.34650068439185039 0 0.011508044977592341 0.32901732652806481 0 0.02392727072562726 0.3515283834780204 0 0.02918865141754011 0.33197534120577749 0 0.02918865141754011 0.33197534120577749 0 0.0187629563977279 0.34002422230725909 0 0.02242950325407898 0.32124895820573318 0 0.011508044977592341 0.32901732652806481 0 0.0187629563977279 0.34002422230725909 0 0.02242950325407898 0.32124895820573318 0 0.02392727072562726 0.3515283834780204 0 0.02918865141754011 0.33197534120577749 0 0.0187629563977279 0.34002422230725909 0 0.02918865141754011 0.33197534120577749 0 0.02242950325407898 0.32124895820573318 0 0.034450032109452432 0.31242229893353451 0 0.011184634355500701 0.315392824702043 0 0.02242950325407898 0.32124895820573318 0 0.02514914480180459 0.3088657063706477 0 0.02242950325407898 0.32124895820573318 0 0.034450032109452432 0.31242229893353451 0 0.02514914480180459 0.3088657063706477 0 0.02918865141754011 0.33197534120577749 0 0.047487915617131553 0.32297598130754962 0 0.034450032109452432 0.31242229893353451 0 0.02918865141754011 0.33197534120577749 0 0.034450032109452432 0.31242229893353451 0 0.047487915617131553 0.32297598130754962 0 0.05124250575663284 0.3029622885225422 0 0.034450032109452432 0.31242229893353451 0 0.047487915617131553 0.32297598130754962 0 0.034450032109452432 0.31242229893353451 0 0.043823706095071802 0.34427838492072971 0 0.02918865141754011 0.33197534120577749 0 0.047487915617131553 0.32297598130754962 0 0.043823706095071802 0.34427838492072971 0 0.02392727072562726 0.3515283834780204 0 0.02918865141754011 0.33197534120577749 0 0.043823706095071802 0.34427838492072971 0 0.060525799124810473 0.333529663681565 0 0.047487915617131553 0.32297598130754962 0 0.060525799124810473 0.333529663681565 0 0.047487915617131553 0.32297598130754962 0 0.060525799124810473 0.333529663681565 0 0.047487915617131553 0.32297598130754962 0 0.064494796627080742 0.30867890452466512 0 0.047487915617131553 0.32297598130754962 0 0.05124250575663284 0.3029622885225422 0 0.064494796627080742 0.30867890452466512 0 0.05124250575663284 0.3029622885225422 0 0.068463794129351968 0.28382814536776529 0 0.064494796627080742 0.30867890452466512 0 0.05124250575663284 0.3029622885225422 0 0.041315990300147633 0.28690611247919612 0 0.068463794129351968 0.28382814536776529 0 0.041315990300147633 0.28690611247919612 0 0.023222554998636281 0.28703226390056041 0 0.030550608659473039 0.27506671391774762 0 0.041315990300147633 0.28690611247919612 0 0.034450032109452432 0.31242229893353451 0 0.05124250575663284 0.3029622885225422 0 0.041315990300147633 0.28690611247919612 0 0.034450032109452432 0.31242229893353451 0 0.041315990300147633 0.28690611247919612 0 0.034450032109452432 0.31242229893353451 0 0.02224567171784762 0.30254332255863903 0 0.034450032109452432 0.31242229893353451 0 0.02224567171784762 0.30254332255863903 0 0.034450032109452432 0.31242229893353451 0 0.02514914480180459 0.3088657063706477 0 0.02224567171784762 0.30254332255863903 0 0.011184634355500701 0.315392824702043 0 0.02514914480180459 0.3088657063706477 0 0.01095689844870875 0.30401128476579459 0 0.011184634355500701 0.315392824702043 0 0.02514914480180459 0.3088657063706477 0 0.02514914480180459 0.3088657063706477 0 0.02224567171784762 0.30254332255863903 0 0.01095689844870875 0.30401128476579459 0 0.02224567171784762 0.30254332255863903 0 0.010041311326242889 0.29266434618374332 0 0.041315990300147633 0.28690611247919612 0 0.02224567171784762 0.30254332255863903 0 0.023222554998636281 0.28703226390056041 0 0.023222554998636281 0.28703226390056041 0 0.010041311326242889 0.29266434618374332 0 0.01491983669257267 0.27688447969012842 0 0.02224567171784762 0.30254332255863903 0 0.023222554998636281 0.28703226390056041 0 0.010041311326242889 0.29266434618374332 0 0.010041311326242889 0.29266434618374332 0 0.00032744538039224569 0.28084305500771939 0 0.01491983669257267 0.27688447969012842 0 -0.01387783576021002 0.29647938990458911 0 0.010041311326242889 0.29266434618374332 0 0.01095689844870875 0.30401128476579459 0 0.02224567171784762 0.30254332255863903 0 0.010041311326242889 0.29266434618374332 0 0.01095689844870875 0.30401128476579459 0 0.012535972650186579 0.25844892490855959 0 0.001783118853633629 0.26687294430706471 0 0.01252237064784878 0.26688838450606039 0 0.012535972650186579 0.25844892490855959 0 0.014872567949103809 0.25043112220009289 0 3.4036501383808038e-05 0.25211346284330632 0 0.012535972650186579 0.25844892490855959 0 3.4036501383808038e-05 0.25211346284330632 0 0.001783118853633629 0.26687294430706471 0 0.001783118853633629 0.26687294430706471 0 0.00032744538039224569 0.28084305500771939 0 0.01491983669257267 0.27688447969012842 0 0.001783118853633629 0.26687294430706471 0 0.01491983669257267 0.27688447969012842 0 0.01252237064784878 0.26688838450606039 0 0.01491983669257267 0.27688447969012842 0 0.01252237064784878 0.26688838450606039 0 0.025112712815166291 0.2631207874939952 0 0.023222554998636281 0.28703226390056041 0 0.01491983669257267 0.27688447969012842 0 0.030550608659473039 0.27506671391774762 0 0.01491983669257267 0.27688447969012842 0 0.030550608659473039 0.27506671391774762 0 0.025112712815166291 0.2631207874939952 0 0.012535972650186579 0.25844892490855959 0 0.01252237064784878 0.26688838450606039 0 0.025112712815166291 0.2631207874939952 0 0.022179105737704811 0.24902080974435001 0 0.012535972650186579 0.25844892490855959 0 0.014872567949103809 0.25043112220009289 0 0.022179105737704811 0.24902080974435001 0 0.012535972650186579 0.25844892490855959 0 0.025112712815166291 0.2631207874939952 0 0.022179105737704811 0.24902080974435001 0 0.025112712815166291 0.2631207874939952 0 0.037365263241541463 0.25048195128351242 0 0.025112712815166291 0.2631207874939952 0 0.037365263241541463 0.25048195128351242 0 0.048181948490842272 0.26138992602485772 0 0.041315990300147633 0.28690611247919612 0 0.030550608659473039 0.27506671391774762 0 0.048181948490842272 0.26138992602485772 0 0.030550608659473039 0.27506671391774762 0 0.025112712815166291 0.2631207874939952 0 0.048181948490842272 0.26138992602485772 0 0.041315990300147633 0.28690611247919612 0 0.048181948490842272 0.26138992602485772 0 0.041315990300147633 0.28690611247919612 0 0.048181948490842272 0.26138992602485772 0 0.068463794129351968 0.28382814536776529 0 0.055047906681539117 0.23587373957051991 0 0.048181948490842272 0.26138992602485772 0 0.072432791631623195 0.25897738621086552 0 0.072432791631623195 0.25897738621086552 0 0.086665820663228116 0.26927628780633311 0 0.094691733425368935 0.25170817048520849 0 0.086665820663228116 0.26927628780633311 0 0.068463794129351968 0.28382814536776529 0 0.094369801533108658 0.28506537163802392 0 0.072432791631623195 0.25897738621086552 0 0.086665820663228116 0.26927628780633311 0 0.068463794129351968 0.28382814536776529 0 0.072432791631623195 0.25897738621086552 0 0.068463794129351968 0.28382814536776529 0 0.048181948490842272 0.26138992602485772 0 0.072432791631623195 0.25897738621086552 0 0.068463794129351968 0.28382814536776529 0 0.068463794129351968 0.28382814536776529 0 0.064494796627080742 0.30867890452466512 0 0.068463794129351968 0.28382814536776529 0 0.064494796627080742 0.30867890452466512 0 0.088006576148096635 0.3062522419650337 0 0.068463794129351968 0.28382814536776529 0 0.088006576148096635 0.3062522419650337 0 0.094369801533108658 0.28506537163802392 0 0.094369801533108658 0.28506537163802392 0 0.1144660175850513 0.30146031137078749 0 0.1122095182146091 0.28441892261402002 0 0.088006576148096635 0.3062522419650337 0 0.094369801533108658 0.28506537163802392 0 0.1144660175850513 0.30146031137078749 0 0.10451026768777059 0.31740070659997521 0 0.088006576148096635 0.3062522419650337 0 0.1144660175850513 0.30146031137078749 0 0.12034267711147879 0.32694410761531151 0 0.1144660175850513 0.30146031137078749 0 0.13609245683956189 0.30155264565349738 0 0.1144660175850513 0.30146031137078749 0 0.1122095182146091 0.28441892261402002 0 0.1260644077077484 0.28310649184541348 0 0.1139378460325282 0.26804351560185541 0 0.1260644077077484 0.28310649184541348 0 0.1139378460325282 0.26804351560185541 0 0.12552418005139659 0.26427261438432342 0 0.1260644077077484 0.28310649184541348 0 0.1122095182146091 0.28441892261402002 0 0.1139378460325282 0.26804351560185541 0 0.1260644077077484 0.28310649184541348 0 0.1169003344909078 0.24964346781480179 0 0.1139378460325282 0.26804351560185541 0 0.12552418005139659 0.26427261438432342 0 0.1169003344909078 0.24964346781480179 0 0.1139378460325282 0.26804351560185541 0 0.094691733425368935 0.25170817048520849 0 0.086665820663228116 0.26927628780633311 0 0.1139378460325282 0.26804351560185541 0 0.094691733425368935 0.25170817048520849 0 0.094369801533108658 0.28506537163802392 0 0.1122095182146091 0.28441892261402002 0 0.1139378460325282 0.26804351560185541 0 0.086665820663228116 0.26927628780633311 0 0.094369801533108658 0.28506537163802392 0 0.1139378460325282 0.26804351560185541 0 0.14637764218887489 0.27033837158674601 0 0.14498857739451579 0.2592554932365303 0 0.136030707006803 0.26910482287648563 0 0.14637764218887489 0.27033837158674601 0 0.136030707006803 0.26910482287648563 0 0.1401333400513067 0.27867936858444547 0 0.14637764218887489 0.27033837158674601 0 0.15400297397014451 0.27267768852460661 0 0.1401333400513067 0.27867936858444547 0 0.15317199656827771 0.27115285235746062 0 0.15400297397014451 0.27267768852460661 0 0.1533719274984835 0.2599673362032156 0 0.15317199656827771 0.27115285235746062 0 0.15400297397014451 0.27267768852460661 0 0.14637764218887489 0.27033837158674601 0 0.15317199656827771 0.27115285235746062 0 0.15400297397014451 0.27267768852460661 0 0.14637764218887489 0.27033837158674601 0 0.15317199656827771 0.27115285235746062 0 0.15008738286582271 0.26382170990475112 0 0.1533719274984835 0.2599673362032156 0 0.15008738286582271 0.26382170990475112 0 0.14498857739451579 0.2592554932365303 0 0.14930787253493141 0.24386890629328431 0 0.1533719274984835 0.2599673362032156 0 0.14498857739451579 0.2592554932365303 0 0.15317199656827771 0.27115285235746062 0 0.1533719274984835 0.2599673362032156 0 0.15008738286582271 0.26382170990475112 0 0.14930787253493141 0.24386890629328431 0 0.14498857739451579 0.2592554932365303 0 0.13379059300217011 0.25282610349580448 0 0.14637764218887489 0.27033837158674601 0 0.15008738286582271 0.26382170990475112 0 0.14498857739451579 0.2592554932365303 0 0.1169003344909078 0.24964346781480179 0 0.12552418005139659 0.26427261438432342 0 0.13379059300217011 0.25282610349580448 0 0.12552418005139659 0.26427261438432342 0 0.13379059300217011 0.25282610349580448 0 0.136030707006803 0.26910482287648563 0 0.14498857739451579 0.2592554932365303 0 0.13379059300217011 0.25282610349580448 0 0.136030707006803 0.26910482287648563 0 0.12552418005139659 0.26427261438432342 0 0.136030707006803 0.26910482287648563 0 0.1260644077077484 0.28310649184541348 0 0.136030707006803 0.26910482287648563 0 0.1401333400513067 0.27867936858444547 0 0.1260644077077484 0.28310649184541348 0 0.1144660175850513 0.30146031137078749 0 0.1260644077077484 0.28310649184541348 0 0.13609245683956189 0.30155264565349738 0 0.1260644077077484 0.28310649184541348 0 0.13819096938296321 0.29816946808897621 0 0.13609245683956189 0.30155264565349738 0 0.1401333400513067 0.27867936858444547 0 0.1260644077077484 0.28310649184541348 0 0.13819096938296321 0.29816946808897621 0 0.1260644077077484 0.28310649184541348 0 0.13819096938296321 0.29816946808897621 0 0.13609245683956189 0.30155264565349738 0 0.14093125369712309 0.30157330494150808 0 0.13843690769546221 0.31911711752765021 0 0.1144660175850513 0.30146031137078749 0 0.13609245683956189 0.30155264565349738 0 0.13819096938296321 0.29816946808897621 0 0.13609245683956189 0.30155264565349738 0 0.14093125369712309 0.30157330494150808 0 0.13819096938296321 0.29816946808897621 0 0.14093125369712309 0.30157330494150808 0 0.13819096938296321 0.29816946808897621 0 0.13609245683956189 0.30155264565349738 0 0.13609245683956189 0.30155264565349738 0 0.14093125369712309 0.30157330494150808 0 0.14093125369712309 0.30157330494150808 0 0.1496002352287695 0.29178931491075488 0 0.16925246347997769 0.30066036661296358 0 0.14093125369712309 0.30157330494150808 0 0.16925246347997769 0.30066036661296358 0 0.1561087489773933 0.32042599022579932 0 0.14093125369712309 0.30157330494150808 0 0.16925246347997769 0.30066036661296358 0 0.14093125369712309 0.30157330494150808 0 0.1561087489773933 0.32042599022579932 0 0.13819096938296321 0.29816946808897621 0 0.14093125369712309 0.30157330494150808 0 0.1496002352287695 0.29178931491075488 0 0.15400297397014451 0.27267768852460661 0 0.1401333400513067 0.27867936858444547 0 0.13819096938296321 0.29816946808897621 0 0.15400297397014451 0.27267768852460661 0 0.13819096938296321 0.29816946808897621 0 0.15400297397014451 0.27267768852460661 0 0.1496002352287695 0.29178931491075488 0 0.16162771872506049 0.28666902756878537 0 0.15400297397014451 0.27267768852460661 0 0.13819096938296321 0.29816946808897621 0 0.1496002352287695 0.29178931491075488 0 0.1496002352287695 0.29178931491075488 0 0.16162771872506049 0.28666902756878537 0 0.16925246347997769 0.30066036661296358 0 0.16162771872506049 0.28666902756878537 0 0.16925246347997769 0.30066036661296358 0 0.17483925902521369 0.29225889852513642 0 0.16162771872506049 0.28666902756878537 0 0.16925246347997769 0.30066036661296358 0 0.16162771872506049 0.28666902756878537 0 0.17170229056823541 0.28322812688427129 0 0.17483925902521369 0.29225889852513642 0 0.16162771872506049 0.28666902756878537 0 0.17170229056823541 0.28322812688427129 0 0.16806176415949661 0.27596580802514548 0 0.16925246347997769 0.30066036661296358 0 0.16905821782648209 0.31422064193607652 0 0.1561087489773933 0.32042599022579932 0 0.16925246347997769 0.30066036661296358 0 0.1561087489773933 0.32042599022579932 0 0.16925246347997769 0.30066036661296358 0 0.19956912108483549 0.30182365985946352 0 0.18797863939935289 0.31242822984233742 0 0.16925246347997769 0.30066036661296358 0 0.19956912108483549 0.30182365985946352 0 0.16925246347997769 0.30066036661296358 0 0.18051218052451831 0.32132184759042143 0 0.16905821782648209 0.31422064193607652 0 0.16925246347997769 0.30066036661296358 0 0.18051218052451831 0.32132184759042143 0 0.16925246347997769 0.30066036661296358 0 0.17483925902521369 0.29225889852513642 0 0.19956912108483549 0.30182365985946352 0 0.16925246347997769 0.30066036661296358 0 0.18797863939935289 0.31242822984233742 0 0.18051218052451831 0.32132184759042143 0 0.17483925902521369 0.29225889852513642 0 0.17998244995102949 0.28412748118832781 0 0.19956912108483549 0.30182365985946352 0 0.17170229056823541 0.28322812688427129 0 0.17483925902521369 0.29225889852513642 0 0.17998244995102949 0.28412748118832781 0 0.16925246347997769 0.30066036661296358 0 0.17483925902521369 0.29225889852513642 0 0.17998244995102949 0.28412748118832781 0 0.1783393165145189 0.27352202952648708 0 0.18946715544376841 0.27511403199402729 0 0.1783393165145189 0.27352202952648708 0 0.18605375978043609 0.26007645544556501 0 0.18946715544376841 0.27511403199402729 0 0.1783393165145189 0.27352202952648708 0 0.17209536206429971 0.26521569938109102 0 0.18605375978043609 0.26007645544556501 0 0.1783393165145189 0.27352202952648708 0 0.16806176415949661 0.27596580802514548 0 0.17209536206429971 0.26521569938109102 0 0.17170229056823541 0.28322812688427129 0 0.1783393165145189 0.27352202952648708 0 0.16806176415949661 0.27596580802514548 0 0.17170229056823541 0.28322812688427129 0 0.17998244995102949 0.28412748118832781 0 0.1783393165145189 0.27352202952648708 0 0.15400297397014451 0.27267768852460661 0 0.16806176415949661 0.27596580802514548 0 0.17209536206429971 0.26521569938109102 0 0.15400297397014451 0.27267768852460661 0 0.16162771872506049 0.28666902756878537 0 0.16806176415949661 0.27596580802514548 0 0.15400297397014451 0.27267768852460661 0 0.16162771872506049 0.28666902756878537 0 0.16867276165720749 0.24902736690266011 0 0.15400297397014451 0.27267768852460661 0 0.17209536206429971 0.26521569938109102 0 0.16867276165720749 0.24902736690266011 0 0.15400297397014451 0.27267768852460661 0 0.16867276165720749 0.24902736690266011 0 0.15400297397014451 0.27267768852460661 0 0.1533719274984835 0.2599673362032156 0 0.14930787253493141 0.24386890629328431 0 0.16867276165720749 0.24902736690266011 0 0.1533719274984835 0.2599673362032156 0 0.16867276165720749 0.24902736690266011 0 0.17209536206429971 0.26521569938109102 0 0.18605375978043609 0.26007645544556501 0 0.19200847820906361 0.24013056444975989 0 0.18605375978043609 0.26007645544556501 0 0.20129388103320339 0.25315965289432613 0 0.18605375978043609 0.26007645544556501 0 0.20129388103320339 0.25315965289432613 0 0.1997998721048696 0.2667942527079335 0 0.18946715544376841 0.27511403199402729 0 0.20001859796604041 0.27867785654040461 0 0.19573246599973279 0.28564554751424248 0 0.18605375978043609 0.26007645544556501 0 0.18946715544376841 0.27511403199402729 0 0.1997998721048696 0.2667942527079335 0 0.18946715544376841 0.27511403199402729 0 0.1997998721048696 0.2667942527079335 0 0.20001859796604041 0.27867785654040461 0 0.20001859796604041 0.27867785654040461 0 0.21125036978062781 0.27295437478583129 0 0.20962500555299071 0.28848470798898912 0 0.1997998721048696 0.2667942527079335 0 0.21125036978062781 0.27295437478583129 0 0.2118113739586302 0.26088742367904549 0 0.1997998721048696 0.2667942527079335 0 0.20001859796604041 0.27867785654040461 0 0.21125036978062781 0.27295437478583129 0 0.21125036978062781 0.27295437478583129 0 0.2118113739586302 0.26088742367904549 0 0.22558658164996129 0.26469674988926289 0 0.21125036978062781 0.27295437478583129 0 0.2219555474028769 0.27880044239698198 0 0.20962500555299071 0.28848470798898912 0 0.2170333870944314 0.24966219459793751 0 0.20129388103320339 0.25315965289432613 0 0.2118113739586302 0.26088742367904549 0 0.20129388103320339 0.25315965289432613 0 0.1997998721048696 0.2667942527079335 0 0.2118113739586302 0.26088742367904549 0 0.2170333870944314 0.24966219459793751 0 0.2118113739586302 0.26088742367904549 0 0.22558658164996129 0.26469674988926289 0 0.2170333870944314 0.24966219459793751 0 0.23185563173168419 0.24669504905584849 0 0.22558658164996129 0.26469674988926289 0 0.21125036978062781 0.27295437478583129 0 0.22558658164996129 0.26469674988926289 0 0.2219555474028769 0.27880044239698198 0 0.22558658164996129 0.26469674988926289 0 0.2219555474028769 0.27880044239698198 0 0.23909825501145021 0.28010024169124048 0 0.23909825501145021 0.28010024169124048 0 0.24664098988319569 0.26403384988780121 0 0.25235506011160957 0.2811552669666848 0 0.22558658164996129 0.26469674988926289 0 0.23909825501145021 0.28010024169124048 0 0.24664098988319569 0.26403384988780121 0 0.23185563173168419 0.24669504905584849 0 0.24664098988319569 0.26403384988780121 0 0.25099764385199508 0.24313445578590931 0 0.23185563173168419 0.24669504905584849 0 0.22558658164996129 0.26469674988926289 0 0.24664098988319569 0.26403384988780121 0 0.23528391893707071 0.30197614451970922 0 0.25727976144066339 0.29420992865078088 0 0.23528391893707071 0.30197614451970922 0 0.25194561914124791 0.31470249387852028 0 0.25511415382937591 0.30206080989126188 0 0.23528391893707071 0.30197614451970922 0 0.2355104367730721 0.31603039995389398 0 0.25194561914124791 0.31470249387852028 0 0.23528391893707071 0.30197614451970922 0 0.25511415382937591 0.30206080989126188 0 0.23528391893707071 0.30197614451970922 0 0.25727976144066339 0.29420992865078088 0 0.25511415382937591 0.30206080989126188 0 0.23528391893707071 0.30197614451970922 0 0.24262230146305139 0.28941481494666821 0 0.25727976144066339 0.29420992865078088 0 0.23909825501145021 0.28010024169124048 0 0.24262230146305139 0.28941481494666821 0 0.25235506011160957 0.2811552669666848 0 0.23909825501145021 0.28010024169124048 0 0.24262230146305139 0.28941481494666821 0 0.2287233330300853 0.28975749708302889 0 0.23528391893707071 0.30197614451970922 0 0.24262230146305139 0.28941481494666821 0 0.2287233330300853 0.28975749708302889 0 0.2219555474028769 0.27880044239698198 0 0.2287233330300853 0.28975749708302889 0 0.20962500555299071 0.28848470798898912 0 0.2219555474028769 0.27880044239698198 0 0.23909825501145021 0.28010024169124048 0 0.2287233330300853 0.28975749708302889 0 0.23528391893707071 0.30197614451970922 0 0.2287233330300853 0.28975749708302889 0 0.21742652001095311 0.30189990218958551 0 0.23528391893707071 0.30197614451970922 0 0.2097258745891355 0.31100009027497277 0 0.22534569800450899 0.31376592991235108 0 0.23528391893707071 0.30197614451970922 0 0.21742652001095311 0.30189990218958551 0 0.2097258745891355 0.31100009027497277 0 0.23528391893707071 0.30197614451970922 0 0.21742652001095311 0.30189990218958551 0 0.23528391893707071 0.30197614451970922 0 0.2097258745891355 0.31100009027497277 0 0.23528391893707071 0.30197614451970922 0 0.22534569800450899 0.31376592991235108 0 0.2355104367730721 0.31603039995389398 0 0.21742652001095311 0.30189990218958551 0 0.19956912108483549 0.30182365985946352 0 0.21742652001095311 0.30189990218958551 0 0.20962500555299071 0.28848470798898912 0 0.19956912108483549 0.30182365985946352 0 0.21742652001095311 0.30189990218958551 0 0.2097258745891355 0.31100009027497277 0 0.19956912108483549 0.30182365985946352 0 0.2078873726779587 0.31164922216047908 0 0.2097258745891355 0.31100009027497277 0 0.19956912108483549 0.30182365985946352 0 0.2097258745891355 0.31100009027497277 0 0.19956912108483549 0.30182365985946352 0 0.2078873726779587 0.31164922216047908 0 0.2097258745891355 0.31100009027497277 0 0.2287233330300853 0.28975749708302889 0 0.21742652001095311 0.30189990218958551 0 0.20962500555299071 0.28848470798898912 0 0.17998244995102949 0.28412748118832781 0 0.19956912108483549 0.30182365985946352 0 0.20962500555299071 0.28848470798898912 0 0.19573246599973279 0.28564554751424248 0 0.19956912108483549 0.30182365985946352 0 0.17998244995102949 0.28412748118832781 0 0.19573246599973279 0.28564554751424248 0 0.19956912108483549 0.30182365985946352 0 0.17998244995102949 0.28412748118832781 0 0.18946715544376841 0.27511403199402729 0 0.19573246599973279 0.28564554751424248 0 0.20001859796604041 0.27867785654040461 0 0.20962500555299071 0.28848470798898912 0 0.19573246599973279 0.28564554751424248 0 0.19956912108483549 0.30182365985946352 0 0.18797863939935289 0.31242822984233742 0 0.19886013797430779 0.31336857242505828 0 0.2078873726779587 0.31164922216047908 0 0.19956912108483549 0.30182365985946352 0 0.19886013797430779 0.31336857242505828 0 0.18797863939935289 0.31242822984233742 0 0.1940061881540063 0.32249343079166642 0 0.19886013797430779 0.31336857242505828 0 0.1940061881540063 0.32249343079166642 0 0.2009809328460174 0.32828504051233148 0 0.2044204384959307 0.31971491196970647 0 0.1940061881540063 0.32249343079166642 0 0.19886013797430779 0.31336857242505828 0 0.2044204384959307 0.31971491196970647 0 0.1940061881540063 0.32249343079166642 0 0.19120717162678499 0.34094706146919551 0 0.18051218052451831 0.32132184759042143 0 0.1940061881540063 0.32249343079166642 0 0.19120717162678499 0.34094706146919551 0 0.2009809328460174 0.32828504051233148 0 0.19120717162678499 0.34094706146919551 0 0.2102001569318713 0.34197470382555428 0 0.20559511270448741 0.33432623221246122 0 0.19120717162678499 0.34094706146919551 0 0.2102001569318713 0.34197470382555428 0 0.19120717162678499 0.34094706146919551 0 0.2009809328460174 0.32828504051233148 0 0.20559511270448741 0.33432623221246122 0 0.2102001569318713 0.34197470382555428 0 0.20559511270448741 0.33432623221246122 0 0.21246986796151909 0.33345073302498768 0 0.2009809328460174 0.32828504051233148 0 0.20559511270448741 0.33432623221246122 0 0.2093418271631064 0.32626977354901471 0 0.20559511270448741 0.33432623221246122 0 0.21246986796151909 0.33345073302498768 0 0.2093418271631064 0.32626977354901471 0 0.21246986796151909 0.33345073302498768 0 0.2166247191914312 0.32659785192268209 0 0.2193144146446756 0.33852327911469859 0 0.21246986796151909 0.33345073302498768 0 0.2093418271631064 0.32626977354901471 0 0.2166247191914312 0.32659785192268209 0 0.2102001569318713 0.34197470382555428 0 0.21246986796151909 0.33345073302498768 0 0.2193144146446756 0.33852327911469859 0 0.2097258745891355 0.31100009027497277 0 0.2166247191914312 0.32659785192268209 0 0.22616068757300639 0.32584862604720372 0 0.2097258745891355 0.31100009027497277 0 0.22616068757300639 0.32584862604720372 0 0.2078873726779587 0.31164922216047908 0 0.2097258745891355 0.31100009027497277 0 0.2044204384959307 0.31971491196970647 0 0.2097258745891355 0.31100009027497277 0 0.2044204384959307 0.31971491196970647 0 0.2093418271631064 0.32626977354901471 0 0.2078873726779587 0.31164922216047908 0 0.19886013797430779 0.31336857242505828 0 0.2044204384959307 0.31971491196970647 0 0.2009809328460174 0.32828504051233148 0 0.2044204384959307 0.31971491196970647 0 0.2093418271631064 0.32626977354901471 0 0.2097258745891355 0.31100009027497277 0 0.2093418271631064 0.32626977354901471 0 0.2166247191914312 0.32659785192268209 0 0.2097258745891355 0.31100009027497277 0 0.22534569800450899 0.31376592991235108 0 0.22616068757300639 0.32584862604720372 0 0.22534569800450899 0.31376592991235108 0 0.22616068757300639 0.32584862604720372 0 0.2355104367730721 0.31603039995389398 0 0.2166247191914312 0.32659785192268209 0 0.22616068757300639 0.32584862604720372 0 0.2193144146446756 0.33852327911469859 0 0.22616068757300639 0.32584862604720372 0 0.2193144146446756 0.33852327911469859 0 0.22975431512206529 0.33887276717204601 0 0.22616068757300639 0.32584862604720372 0 0.22975431512206529 0.33887276717204601 0 0.2425955005568764 0.34069716181943571 0 0.2193144146446756 0.33852327911469859 0 0.22975431512206529 0.33887276717204601 0 0.2255857392669828 0.35034540609503639 0 0.2425955005568764 0.34069716181943571 0 0.24396770865605821 0.32500806181017111 0 0.25356671903153238 0.33477257203762317 0 0.22616068757300639 0.32584862604720372 0 0.2425955005568764 0.34069716181943571 0 0.24396770865605821 0.32500806181017111 0 0.2425955005568764 0.34069716181943571 0 0.24396770865605821 0.32500806181017111 0 0.22616068757300639 0.32584862604720372 0 0.2425955005568764 0.34069716181943571 0 0.22975431512206529 0.33887276717204601 0 0.2425955005568764 0.34069716181943571 0 0.23357793884626421 0.34968560706985818 0 0.2425955005568764 0.34069716181943571 0 0.24893558204057381 0.34642530285772738 0 0.25356671903153238 0.33477257203762317 0 0.2425955005568764 0.34069716181943571 0 0.24893558204057381 0.34642530285772738 0 0.24396770865605821 0.32500806181017111 0 0.2355104367730721 0.31603039995389398 0 0.25194561914124791 0.31470249387852028 0 0.22616068757300639 0.32584862604720372 0 0.24396770865605821 0.32500806181017111 0 0.2355104367730721 0.31603039995389398 0 0.24015189975402951 0.36863599806551978 0 0.24893558204057381 0.34642530285772738 0 0.2568419711749631 0.36200264213042188 0 0.2425955005568764 0.34069716181943571 0 0.24015189975402951 0.36863599806551978 0 0.24893558204057381 0.34642530285772738 0 0.2425955005568764 0.34069716181943571 0 0.24015189975402951 0.36863599806551978 0 0.23357793884626421 0.34968560706985818 0 0.2425955005568764 0.34069716181943571 0 0.24015189975402951 0.36863599806551978 0 0.2193144146446756 0.33852327911469859 0 0.2255857392669828 0.35034540609503639 0 0.2160550476595676 0.36813014830598129 0 0.2292269800623413 0.35651522881259812 0 0.2255857392669828 0.35034540609503639 0 0.2160550476595676 0.36813014830598129 0 0.2292269800623413 0.35651522881259812 0 0.23357793884626421 0.34968560706985818 0 0.2255857392669828 0.35034540609503639 0 0.24015189975402951 0.36863599806551978 0 0.2292269800623413 0.35651522881259812 0 0.23357793884626421 0.34968560706985818 0 0.22975431512206529 0.33887276717204601 0 0.23357793884626421 0.34968560706985818 0 0.2255857392669828 0.35034540609503639 0 0.24015189975402951 0.36863599806551978 0 0.2160550476595676 0.36813014830598129 0 0.2278253020838048 0.3816341627232252 0 0.24015189975402951 0.36863599806551978 0 0.2292269800623413 0.35651522881259812 0 0.2160550476595676 0.36813014830598129 0 0.2160550476595676 0.36813014830598129 0 0.20260052328522321 0.36185376077869608 0 0.20161603555508339 0.38152342695067137 0 0.2193144146446756 0.33852327911469859 0 0.2160550476595676 0.36813014830598129 0 0.2102001569318713 0.34197470382555428 0 0.2193144146446756 0.33852327911469859 0 0.2160550476595676 0.36813014830598129 0 0.2102001569318713 0.34197470382555428 0 0.2160550476595676 0.36813014830598129 0 0.20260052328522321 0.36185376077869608 0 0.19120717162678499 0.34094706146919551 0 0.2102001569318713 0.34197470382555428 0 0.20260052328522321 0.36185376077869608 0 0.19120717162678499 0.34094706146919551 0 0.20260052328522321 0.36185376077869608 0 0.18160449343749011 0.35909159512916661 0 0.19120717162678499 0.34094706146919551 0 0.20260052328522321 0.36185376077869608 0 0.20260052328522321 0.36185376077869608 0 0.19113278302084119 0.3702694697640786 0 0.18160449343749011 0.35909159512916661 0 0.20260052328522321 0.36185376077869608 0 0.19113278302084119 0.3702694697640786 0 0.20161603555508339 0.38152342695067137 0 0.1575880140287802 0.36117652713680498 0 0.18160449343749011 0.35909159512916661 0 0.17871007980556841 0.3786090961977806 0 0.19113278302084119 0.3702694697640786 0 0.18160449343749011 0.35909159512916661 0 0.17871007980556841 0.3786090961977806 0 0.1575880140287802 0.36117652713680498 0 0.15844360674098931 0.38133565286146831 0 0.17871007980556841 0.3786090961977806 0 0.1575880140287802 0.36117652713680498 0 0.18160449343749011 0.35909159512916661 0 0.1676813736956764 0.33967416486907193 0 0.1575880140287802 0.36117652713680498 0 0.1676813736956764 0.33967416486907193 0 0.14415557576456781 0.33840126826894668 0 0.19120717162678499 0.34094706146919551 0 0.18160449343749011 0.35909159512916661 0 0.1676813736956764 0.33967416486907193 0 0.19120717162678499 0.34094706146919551 0 0.1676813736956764 0.33967416486907193 0 0.16959512529221729 0.33717805659733913 0 0.19120717162678499 0.34094706146919551 0 0.18051218052451831 0.32132184759042143 0 0.19120717162678499 0.34094706146919551 0 0.1676813736956764 0.33967416486907193 0 0.19120717162678499 0.34094706146919551 0 0.18051218052451831 0.32132184759042143 0 0.16959512529221729 0.33717805659733913 0 0.18051218052451831 0.32132184759042143 0 0.1692378493596203 0.32405257934442822 0 0.16959512529221729 0.33717805659733913 0 0.18797863939935289 0.31242822984233742 0 0.1940061881540063 0.32249343079166642 0 0.18051218052451831 0.32132184759042143 0 0.18051218052451831 0.32132184759042143 0 0.16905821782648209 0.31422064193607652 0 0.1692378493596203 0.32405257934442822 0 0.1692378493596203 0.32405257934442822 0 0.16959512529221729 0.33717805659733913 0 0.1561087489773933 0.32042599022579932 0 0.16905821782648209 0.31422064193607652 0 0.1692378493596203 0.32405257934442822 0 0.1561087489773933 0.32042599022579932 0 0.16959512529221729 0.33717805659733913 0 0.1561087489773933 0.32042599022579932 0 0.1676813736956764 0.33967416486907193 0 0.16959512529221729 0.33717805659733913 0 0.1561087489773933 0.32042599022579932 0 0.1676813736956764 0.33967416486907193 0 0.14415557576456781 0.33840126826894668 0 0.1676813736956764 0.33967416486907193 0 0.14415557576456781 0.33840126826894668 0 0.1561087489773933 0.32042599022579932 0 0.14415557576456781 0.33840126826894668 0 0.1561087489773933 0.32042599022579932 0 0.14093125369712309 0.30157330494150808 0 0.1561087489773933 0.32042599022579932 0 0.13843690769546221 0.31911711752765021 0 0.14415557576456781 0.33840126826894668 0 0.1561087489773933 0.32042599022579932 0 0.13843690769546221 0.31911711752765021 0 0.12034267711147879 0.32694410761531151 0 0.13609245683956189 0.30155264565349738 0 0.13843690769546221 0.31911711752765021 0 0.12034267711147879 0.32694410761531151 0 0.13609245683956189 0.30155264565349738 0 0.12034267711147879 0.32694410761531151 0 0.13843690769546221 0.31911711752765021 0 0.1324101189783346 0.33001292440175573 0 0.1222536876492849 0.33721623560820801 0 0.14415557576456781 0.33840126826894668 0 0.1324101189783346 0.33001292440175573 0 0.14415557576456781 0.33840126826894668 0 0.13843690769546221 0.31911711752765021 0 0.1324101189783346 0.33001292440175573 0 0.1222536876492849 0.33721623560820801 0 0.14415557576456781 0.33840126826894668 0 0.1222536876492849 0.33721623560820801 0 0.12034267711147879 0.32694410761531151 0 0.1324101189783346 0.33001292440175573 0 0.1222536876492849 0.33721623560820801 0 0.14415557576456781 0.33840126826894668 0 0.1320713574980536 0.35657361291811679 0 0.14415557576456781 0.33840126826894668 0 0.1320713574980536 0.35657361291811679 0 0.11681627972552119 0.36973601613293111 0 0.1320713574980536 0.35657361291811679 0 0.14077448166540041 0.3743515993071454 0 0.1575880140287802 0.36117652713680498 0 0.14077448166540041 0.3743515993071454 0 0.15844360674098931 0.38133565286146831 0 0.1575880140287802 0.36117652713680498 0 0.1320713574980536 0.35657361291811679 0 0.14077448166540041 0.3743515993071454 0 0.1575880140287802 0.36117652713680498 0 0.14415557576456781 0.33840126826894668 0 0.1320713574980536 0.35657361291811679 0 0.14077448166540041 0.3743515993071454 0 0.15030108932656411 0.39836130058058311 0 0.15844360674098931 0.38133565286146831 0 0.11681627972552119 0.36973601613293111 0 0.14077448166540041 0.3743515993071454 0 0.12774738154290771 0.38685862698622647 0 0.14077448166540041 0.3743515993071454 0 0.15030108932656411 0.39836130058058311 0 0.12774738154290771 0.38685862698622647 0 0.15030108932656411 0.39836130058058311 0 0.12774738154290771 0.38685862698622647 0 0.12555135272407769 0.40559386789156621 0 0.15030108932656411 0.39836130058058311 0 0.12555135272407769 0.40559386789156621 0 0.13848705386319671 0.42114057333597937 0 0.1215228720538309 0.42702029116818491 0 0.12555135272407769 0.40559386789156621 0 0.13848705386319671 0.42114057333597937 0 0.1215228720538309 0.42702029116818491 0 0.13848705386319671 0.42114057333597937 0 0.1266730183998292 0.4439198460913758 0 0.13848705386319671 0.42114057333597937 0 0.1266730183998292 0.4439198460913758 0 0.13848705386319671 0.42114057333597937 0 0.14310341883288369 0.43600887929147208 0 0.1266730183998292 0.4439198460913758 0 0.13848705386319671 0.42114057333597937 0 0.15404594190054161 0.43071161505100652 0 0.16310421779444789 0.41557794648764862 0 0.13848705386319671 0.42114057333597937 0 0.14310341883288369 0.43600887929147208 0 0.15404594190054161 0.43071161505100652 0 0.15030108932656411 0.39836130058058311 0 0.13848705386319671 0.42114057333597937 0 0.16310421779444789 0.41557794648764862 0 0.15030108932656411 0.39836130058058311 0 0.13848705386319671 0.42114057333597937 0 0.16310421779444789 0.41557794648764862 0 0.17932126621921771 0.40871722724924792 0 0.17034566292417669 0.39662930839281191 0 0.16310421779444789 0.41557794648764862 0 0.16956101125331041 0.43073043846540149 0 0.18113969054314849 0.42263545561822707 0 0.15404594190054161 0.43071161505100652 0 0.16956101125331041 0.43073043846540149 0 0.16257401288806519 0.43795330881534927 0 0.15404594190054161 0.43071161505100652 0 0.16310421779444789 0.41557794648764862 0 0.16956101125331041 0.43073043846540149 0 0.16956101125331041 0.43073043846540149 0 0.17348143723044149 0.44210769905746272 0 0.16257401288806519 0.43795330881534927 0 0.16956101125331041 0.43073043846540149 0 0.18255395919531611 0.43286267275727519 0 0.17348143723044149 0.44210769905746272 0 0.16956101125331041 0.43073043846540149 0 0.18113969054314849 0.42263545561822707 0 0.18255395919531611 0.43286267275727519 0 0.18113969054314849 0.42263545561822707 0 0.18255395919531611 0.43286267275727519 0 0.19263925928524331 0.42367606517666262 0 0.18255395919531611 0.43286267275727519 0 0.19258042259763869 0.43341204585911969 0 0.1861400405656968 0.44215808154055369 0 0.16310421779444789 0.41557794648764862 0 0.18113969054314849 0.42263545561822707 0 0.17932126621921771 0.40871722724924792 0 0.18113969054314849 0.42263545561822707 0 0.17932126621921771 0.40871722724924792 0 0.19172552810314611 0.41419425196963588 0 0.17932126621921771 0.40871722724924792 0 0.17034566292417669 0.39662930839281191 0 0.19282460000294571 0.39745554066222888 0 0.17034566292417669 0.39662930839281191 0 0.17871007980556841 0.3786090961977806 0 0.19282460000294571 0.39745554066222888 0 0.15030108932656411 0.39836130058058311 0 0.16310421779444789 0.41557794648764862 0 0.17034566292417669 0.39662930839281191 0 0.15030108932656411 0.39836130058058311 0 0.17034566292417669 0.39662930839281191 0 0.15844360674098931 0.38133565286146831 0 0.17034566292417669 0.39662930839281191 0 0.15844360674098931 0.38133565286146831 0 0.17871007980556841 0.3786090961977806 0 0.19113278302084119 0.3702694697640786 0 0.17871007980556841 0.3786090961977806 0 0.20161603555508339 0.38152342695067137 0 0.17871007980556841 0.3786090961977806 0 0.20161603555508339 0.38152342695067137 0 0.19282460000294571 0.39745554066222888 0 0.19282460000294571 0.39745554066222888 0 0.2127956806744595 0.39773701749726392 0 0.20297252635955959 0.4114514870400694 0 0.20161603555508339 0.38152342695067137 0 0.19282460000294571 0.39745554066222888 0 0.2127956806744595 0.39773701749726392 0 0.2160550476595676 0.36813014830598129 0 0.2127956806744595 0.39773701749726392 0 0.2160550476595676 0.36813014830598129 0 0.20161603555508339 0.38152342695067137 0 0.2127956806744595 0.39773701749726392 0 0.2160550476595676 0.36813014830598129 0 0.2127956806744595 0.39773701749726392 0 0.2278253020838048 0.3816341627232252 0 0.2127956806744595 0.39773701749726392 0 0.2278253020838048 0.3816341627232252 0 0.23770829895118251 0.39657483431160379 0 0.2127956806744595 0.39773701749726392 0 0.23770829895118251 0.39657483431160379 0 0.22500852581894651 0.4126468297844289 0 0.23770829895118251 0.39657483431160379 0 0.25009600843597041 0.40939687762789101 0 0.25803884276690808 0.38748449168907639 0 0.24015189975402951 0.36863599806551978 0 0.23770829895118251 0.39657483431160379 0 0.24015189975402951 0.36863599806551978 0 0.2278253020838048 0.3816341627232252 0 0.23770829895118251 0.39657483431160379 0 0.24015189975402951 0.36863599806551978 0 0.23770829895118251 0.39657483431160379 0 0.25803884276690808 0.38748449168907639 0 0.23526469814833539 0.42451367055768779 0 0.23694771408394061 0.43659622713039048 0 0.25255411516167198 0.42826386972808728 0 0.23770829895118251 0.39657483431160379 0 0.23526469814833539 0.42451367055768779 0 0.25009600843597041 0.40939687762789101 0 0.23526469814833539 0.42451367055768779 0 0.25009600843597041 0.40939687762789101 0 0.25255411516167198 0.42826386972808728 0 0.23770829895118251 0.39657483431160379 0 0.23526469814833539 0.42451367055768779 0 0.23526469814833539 0.42451367055768779 0 0.22500852581894651 0.4126468297844289 0 0.22608825810586561 0.42374752775375168 0 0.23770829895118251 0.39657483431160379 0 0.23526469814833539 0.42451367055768779 0 0.22500852581894651 0.4126468297844289 0 0.22500852581894651 0.4126468297844289 0 0.22608825810586561 0.42374752775375168 0 0.2161412329221008 0.41948654413835729 0 0.22608825810586561 0.42374752775375168 0 0.2225790842742191 0.42665617773991399 0 0.2161412329221008 0.41948654413835729 0 0.23694771408394061 0.43659622713039048 0 0.2111391319849697 0.42679441193715661 0 0.23694771408394061 0.43659622713039048 0 0.2225790842742191 0.42665617773991399 0 0.2111391319849697 0.42679441193715661 0 0.23694771408394061 0.43659622713039048 0 0.22249222661693011 0.4357720594467937 0 0.2111391319849697 0.42679441193715661 0 0.23694771408394061 0.43659622713039048 0 0.22608825810586561 0.42374752775375168 0 0.2225790842742191 0.42665617773991399 0 0.23526469814833539 0.42451367055768779 0 0.23694771408394061 0.43659622713039048 0 0.22608825810586561 0.42374752775375168 0 0.22249222661693011 0.4357720594467937 0 0.21419919222662059 0.43531708642013922 0 0.21730560567598001 0.43862663553671749 0 0.2118872456200932 0.43621244262655717 0 0.21314318286941891 0.43200096593738518 0 0.20953631368935141 0.42734388668854639 0 0.22249222661693011 0.4357720594467937 0 0.21419919222662059 0.43531708642013922 0 0.21314318286941891 0.43200096593738518 0 0.22249222661693011 0.4357720594467937 0 0.21314318286941891 0.43200096593738518 0 0.2111391319849697 0.42679441193715661 0 0.21419919222662059 0.43531708642013922 0 0.2118872456200932 0.43621244262655717 0 0.21382238221675079 0.43931235844569139 0 0.21419919222662059 0.43531708642013922 0 0.2118872456200932 0.43621244262655717 0 0.21314318286941891 0.43200096593738518 0 0.2225790842742191 0.42665617773991399 0 0.2111391319849697 0.42679441193715661 0 0.2161412329221008 0.41948654413835729 0 0.2111391319849697 0.42679441193715661 0 0.20953631368935141 0.42734388668854639 0 0.2161412329221008 0.41948654413835729 0 0.21314318286941891 0.43200096593738518 0 0.2111391319849697 0.42679441193715661 0 0.20953631368935141 0.42734388668854639 0 0.20953631368935141 0.42734388668854639 0 0.20351575224625479 0.42706938161529878 0 0.20145582620876201 0.42122973607137931 0 0.20953631368935141 0.42734388668854639 0 0.20553559549349029 0.42926873827570639 0 0.2057505592004433 0.43198758012665872 0 0.20953631368935141 0.42734388668854639 0 0.20553559549349029 0.42926873827570639 0 0.20351575224625479 0.42706938161529878 0 0.20553559549349029 0.42926873827570639 0 0.20351575224625479 0.42706938161529878 0 0.20342541647055401 0.43079823296402259 0 0.20553559549349029 0.42926873827570639 0 0.20342541647055401 0.43079823296402259 0 0.2057505592004433 0.43198758012665872 0 0.20953631368935141 0.42734388668854639 0 0.2057505592004433 0.43198758012665872 0 0.205315199224894 0.43630549559271831 0 0.2118872456200932 0.43621244262655717 0 0.20953631368935141 0.42734388668854639 0 0.2094885554985744 0.44287097982408402 0 0.20953631368935141 0.42734388668854639 0 0.205315199224894 0.43630549559271831 0 0.2055214291304964 0.44263082319416291 0 0.20342541647055401 0.43079823296402259 0 0.2057505592004433 0.43198758012665872 0 0.2025998698829484 0.43434682988673701 0 0.2057505592004433 0.43198758012665872 0 0.205315199224894 0.43630549559271831 0 0.2025998698829484 0.43434682988673701 0 0.2127956806744595 0.39773701749726392 0 0.20953631368935141 0.42734388668854639 0 0.20297252635955959 0.4114514870400694 0 0.20953631368935141 0.42734388668854639 0 0.20297252635955959 0.4114514870400694 0 0.20145582620876201 0.42122973607137931 0 0.2127956806744595 0.39773701749726392 0 0.22500852581894651 0.4126468297844289 0 0.2161412329221008 0.41948654413835729 0 0.2127956806744595 0.39773701749726392 0 0.20953631368935141 0.42734388668854639 0 0.2127956806744595 0.39773701749726392 0 0.20953631368935141 0.42734388668854639 0 0.2161412329221008 0.41948654413835729 0 0.19282460000294571 0.39745554066222888 0 0.20297252635955959 0.4114514870400694 0 0.19172552810314611 0.41419425196963588 0 0.17932126621921771 0.40871722724924792 0 0.19282460000294571 0.39745554066222888 0 0.19172552810314611 0.41419425196963588 0 0.20297252635955959 0.4114514870400694 0 0.20145582620876201 0.42122973607137931 0 0.19172552810314611 0.41419425196963588 0 0.18113969054314849 0.42263545561822707 0 0.19172552810314611 0.41419425196963588 0 0.19263925928524331 0.42367606517666262 0 0.20145582620876201 0.42122973607137931 0 0.19172552810314611 0.41419425196963588 0 0.19263925928524331 0.42367606517666262 0 0.199725305529633 0.43131863491571232 0 0.19795305578595901 0.42635654797067268 0 0.19258042259763869 0.43341204585911969 0 0.197550492686348 0.43585656816152479 0 0.199725305529633 0.43131863491571232 0 0.19258042259763869 0.43341204585911969 0 0.197550492686348 0.43585656816152479 0 0.2025998698829484 0.43434682988673701 0 0.199725305529633 0.43131863491571232 0 0.205315199224894 0.43630549559271831 0 0.2025998698829484 0.43434682988673701 0 0.2011974035750998 0.4385788349228521 0 0.197550492686348 0.43585656816152479 0 0.2025998698829484 0.43434682988673701 0 0.2011974035750998 0.4385788349228521 0 0.20351575224625479 0.42706938161529878 0 0.20342541647055401 0.43079823296402259 0 0.199725305529633 0.43131863491571232 0 0.20342541647055401 0.43079823296402259 0 0.2025998698829484 0.43434682988673701 0 0.199725305529633 0.43131863491571232 0 0.20145582620876201 0.42122973607137931 0 0.19795305578595901 0.42635654797067268 0 0.19263925928524331 0.42367606517666262 0 0.20351575224625479 0.42706938161529878 0 0.199725305529633 0.43131863491571232 0 0.19795305578595901 0.42635654797067268 0 0.20351575224625479 0.42706938161529878 0 0.20145582620876201 0.42122973607137931 0 0.19795305578595901 0.42635654797067268 0 0.19795305578595901 0.42635654797067268 0 0.19263925928524331 0.42367606517666262 0 0.19258042259763869 0.43341204585911969 0 0.197550492686348 0.43585656816152479 0 0.19258042259763869 0.43341204585911969 0 0.19523401513024449 0.44164313989724913 0 0.18255395919531611 0.43286267275727519 0 0.19263925928524331 0.42367606517666262 0 0.19258042259763869 0.43341204585911969 0 0.19258042259763869 0.43341204585911969 0 0.19523401513024449 0.44164313989724913 0 0.1861400405656968 0.44215808154055369 0 0.19523401513024449 0.44164313989724913 0 0.19280609440002799 0.44970076237901357 0 0.1861400405656968 0.44215808154055369 0 0.19280609440002799 0.44970076237901357 0 0.2062769467042434 0.45695075587982892 0 0.1797423039361053 0.45260711928367792 0 0.19523401513024449 0.44164313989724913 0 0.19280609440002799 0.44970076237901357 0 0.19749936862563761 0.44564339400451108 0 0.19280609440002799 0.44970076237901357 0 0.2019455274493549 0.44807275128668123 0 0.2062769467042434 0.45695075587982892 0 0.19280609440002799 0.44970076237901357 0 0.19749936862563761 0.44564339400451108 0 0.2019455274493549 0.44807275128668123 0 0.19749936862563761 0.44564339400451108 0 0.2019455274493549 0.44807275128668123 0 0.20001183752292301 0.44315692245510069 0 0.2019455274493549 0.44807275128668123 0 0.20262997243072639 0.44373657544118827 0 0.20001183752292301 0.44315692245510069 0 0.20262997243072639 0.44373657544118827 0 0.20001183752292301 0.44315692245510069 0 0.2030410956201312 0.44108580482880838 0 0.20001183752292301 0.44315692245510069 0 0.2030410956201312 0.44108580482880838 0 0.2011974035750998 0.4385788349228521 0 0.197550492686348 0.43585656816152479 0 0.19523401513024449 0.44164313989724913 0 0.2011974035750998 0.4385788349228521 0 0.19523401513024449 0.44164313989724913 0 0.20001183752292301 0.44315692245510069 0 0.2011974035750998 0.4385788349228521 0 0.19523401513024449 0.44164313989724913 0 0.19749936862563761 0.44564339400451108 0 0.20001183752292301 0.44315692245510069 0 0.2062769467042434 0.45695075587982892 0 0.1797423039361053 0.45260711928367792 0 0.1923482710801987 0.45881905422422409 0 0.2062769467042434 0.45695075587982892 0 0.1797423039361053 0.45260711928367792 0 0.1923482710801987 0.45881905422422409 0 0.1985880268135328 0.46940635162990169 0 0.18651925512055281 0.47240695531557209 0 0.1923482710801987 0.45881905422422409 0 0.20026735891702299 0.46234913478224859 0 0.2062769467042434 0.45695075587982892 0 0.1923482710801987 0.45881905422422409 0 0.20026735891702299 0.46234913478224859 0 0.1985880268135328 0.46940635162990169 0 0.20026735891702299 0.46234913478224859 0 0.20553694515745191 0.4636726528301584 0 0.1985880268135328 0.46940635162990169 0 0.20553694515745191 0.4636726528301584 0 0.2157383292316146 0.46323541384432498 0 0.21124981255942141 0.47235215635658012 0 0.20553694515745191 0.4636726528301584 0 0.21124981255942141 0.47235215635658012 0 0.1985880268135328 0.46940635162990169 0 0.20026735891702299 0.46234913478224859 0 0.20553694515745191 0.4636726528301584 0 0.2062769467042434 0.45695075587982892 0 0.20553694515745191 0.4636726528301584 0 0.2093412806297659 0.45745237759367802 0 0.21317278789968289 0.45804628573348549 0 0.20553694515745191 0.4636726528301584 0 0.2093412806297659 0.45745237759367802 0 0.2062769467042434 0.45695075587982892 0 0.2093412806297659 0.45745237759367802 0 0.2062769467042434 0.45695075587982892 0 0.20553694515745191 0.4636726528301584 0 0.2062769467042434 0.45695075587982892 0 0.2093412806297659 0.45745237759367802 0 0.2062769467042434 0.45695075587982892 0 0.208874019148723 0.45561819053158908 0 0.2062769467042434 0.45695075587982892 0 0.208890677809804 0.45322588184614532 0 0.208874019148723 0.45561819053158908 0 0.2093412806297659 0.45745237759367802 0 0.208874019148723 0.45561819053158908 0 0.21098717145107879 0.45484374680670442 0 0.208890677809804 0.45322588184614532 0 0.208874019148723 0.45561819053158908 0 0.21098717145107879 0.45484374680670442 0 0.21842851312516401 0.45413545642635339 0 0.21317278789968289 0.45804628573348549 0 0.2157383292316146 0.46323541384432498 0 0.21098717145107879 0.45484374680670442 0 0.21398923194610131 0.45402266012562781 0 0.21317278789968289 0.45804628573348549 0 0.21098717145107879 0.45484374680670442 0 0.21398923194610131 0.45402266012562781 0 0.2117316113384381 0.4512526872904713 0 0.2093412806297659 0.45745237759367802 0 0.21098717145107879 0.45484374680670442 0 0.21317278789968289 0.45804628573348549 0 0.21398923194610131 0.45402266012562781 0 0.21842851312516401 0.45413545642635339 0 0.21317278789968289 0.45804628573348549 0 0.20553694515745191 0.4636726528301584 0 0.21317278789968289 0.45804628573348549 0 0.2157383292316146 0.46323541384432498 0 0.2157383292316146 0.46323541384432498 0 0.22358978089226039 0.46939599886040512 0 0.21124981255942141 0.47235215635658012 0 0.20953631368935141 0.42734388668854639 0 0.2062769467042434 0.45695075587982892 0 0.2094885554985744 0.44287097982408402 0 0.20953631368935141 0.42734388668854639 0 0.2062769467042434 0.45695075587982892 0 0.2055214291304964 0.44263082319416291 0 0.20953631368935141 0.42734388668854639 0 0.2062769467042434 0.45695075587982892 0 0.205315199224894 0.43630549559271831 0 0.2030410956201312 0.44108580482880838 0 0.2055214291304964 0.44263082319416291 0 0.205315199224894 0.43630549559271831 0 0.2030410956201312 0.44108580482880838 0 0.2011974035750998 0.4385788349228521 0 0.2019455274493549 0.44807275128668123 0 0.20262997243072639 0.44373657544118827 0 0.2055214291304964 0.44263082319416291 0 0.20262997243072639 0.44373657544118827 0 0.2030410956201312 0.44108580482880838 0 0.2055214291304964 0.44263082319416291 0 0.2062769467042434 0.45695075587982892 0 0.2094885554985744 0.44287097982408402 0 0.20921926735801361 0.44858714340486222 0 0.2062769467042434 0.45695075587982892 0 0.208890677809804 0.45322588184614532 0 0.20921926735801361 0.44858714340486222 0 0.2019455274493549 0.44807275128668123 0 0.2062769467042434 0.45695075587982892 0 0.2055214291304964 0.44263082319416291 0 0.208890677809804 0.45322588184614532 0 0.20921926735801361 0.44858714340486222 0 0.2117316113384381 0.4512526872904713 0 0.208890677809804 0.45322588184614532 0 0.21098717145107879 0.45484374680670442 0 0.2117316113384381 0.4512526872904713 0 0.2094885554985744 0.44287097982408402 0 0.20921926735801361 0.44858714340486222 0 0.21215536546658309 0.4452844271470271 0 0.2151060201216885 0.44864252809545457 0 0.21578285464228919 0.44251922590354459 0 0.21215536546658309 0.4452844271470271 0 0.20921926735801361 0.44858714340486222 0 0.21214473619789229 0.44828437229071749 0 0.21215536546658309 0.4452844271470271 0 0.21214473619789229 0.44828437229071749 0 0.2151060201216885 0.44864252809545457 0 0.21215536546658309 0.4452844271470271 0 0.21398923194610131 0.45402266012562781 0 0.2117316113384381 0.4512526872904713 0 0.2151060201216885 0.44864252809545457 0 0.20921926735801361 0.44858714340486222 0 0.21214473619789229 0.44828437229071749 0 0.2117316113384381 0.4512526872904713 0 0.21214473619789229 0.44828437229071749 0 0.2117316113384381 0.4512526872904713 0 0.2151060201216885 0.44864252809545457 0 0.21398923194610131 0.45402266012562781 0 0.21842851312516401 0.45413545642635339 0 0.2151060201216885 0.44864252809545457 0 0.21842851312516401 0.45413545642635339 0 0.2151060201216885 0.44864252809545457 0 0.22051470334001139 0.44674277756094338 0 0.2151060201216885 0.44864252809545457 0 0.21578285464228919 0.44251922590354459 0 0.22051470334001139 0.44674277756094338 0 0.21578285464228919 0.44251922590354459 0 0.21258279051804421 0.44219647769634213 0 0.21215536546658309 0.4452844271470271 0 0.2094885554985744 0.44287097982408402 0 0.21258279051804421 0.44219647769634213 0 0.21170235971860771 0.44015347311855751 0 0.2094885554985744 0.44287097982408402 0 0.21258279051804421 0.44219647769634213 0 0.21215536546658309 0.4452844271470271 0 0.2118872456200932 0.43621244262655717 0 0.21170235971860771 0.44015347311855751 0 0.21382238221675079 0.43931235844569139 0 0.2118872456200932 0.43621244262655717 0 0.2094885554985744 0.44287097982408402 0 0.21170235971860771 0.44015347311855751 0 0.21258279051804421 0.44219647769634213 0 0.21170235971860771 0.44015347311855751 0 0.21382238221675079 0.43931235844569139 0 0.21578285464228919 0.44251922590354459 0 0.21258279051804421 0.44219647769634213 0 0.21382238221675079 0.43931235844569139 0 0.21578285464228919 0.44251922590354459 0 0.21730560567598001 0.43862663553671749 0 0.22055366280139849 0.44134211176250282 0 0.21419919222662059 0.43531708642013922 0 0.21382238221675079 0.43931235844569139 0 0.21730560567598001 0.43862663553671749 0 0.21578285464228919 0.44251922590354459 0 0.21382238221675079 0.43931235844569139 0 0.21730560567598001 0.43862663553671749 0 0.22249222661693011 0.4357720594467937 0 0.21730560567598001 0.43862663553671749 0 0.22055366280139849 0.44134211176250282 0 0.21578285464228919 0.44251922590354459 0 0.22055366280139849 0.44134211176250282 0 0.22051470334001139 0.44674277756094338 0 0.22055366280139849 0.44134211176250282 0 0.2275629692216857 0.44310302732333351 0 0.22051470334001139 0.44674277756094338 0 0.22249222661693011 0.4357720594467937 0 0.22055366280139849 0.44134211176250282 0 0.2275629692216857 0.44310302732333351 0 0.23694771408394061 0.43659622713039048 0 0.2275629692216857 0.44310302732333351 0 0.23851300251720139 0.449825795816718 0 0.23694771408394061 0.43659622713039048 0 0.22249222661693011 0.4357720594467937 0 0.2275629692216857 0.44310302732333351 0 0.2275629692216857 0.44310302732333351 0 0.22673065844680049 0.45237067973571821 0 0.23851300251720139 0.449825795816718 0 0.21842851312516401 0.45413545642635339 0 0.22673065844680049 0.45237067973571821 0 0.22051470334001139 0.44674277756094338 0 0.2275629692216857 0.44310302732333351 0 0.22673065844680049 0.45237067973571821 0 0.22051470334001139 0.44674277756094338 0 0.21842851312516401 0.45413545642635339 0 0.22673065844680049 0.45237067973571821 0 0.22326548449047781 0.45994864576183092 0 0.21842851312516401 0.45413545642635339 0 0.2157383292316146 0.46323541384432498 0 0.22326548449047781 0.45994864576183092 0 0.22326548449047781 0.45994864576183092 0 0.23184014075654941 0.46060567994235269 0 0.22358978089226039 0.46939599886040512 0 0.2157383292316146 0.46323541384432498 0 0.22326548449047781 0.45994864576183092 0 0.22358978089226039 0.46939599886040512 0 0.23184014075654941 0.46060567994235269 0 0.23764524468379969 0.47548463141940239 0 0.22358978089226039 0.46939599886040512 0 0.22673065844680049 0.45237067973571821 0 0.22326548449047781 0.45994864576183092 0 0.23184014075654941 0.46060567994235269 0 0.22673065844680049 0.45237067973571821 0 0.23184014075654941 0.46060567994235269 0 0.23851300251720139 0.449825795816718 0 0.23184014075654941 0.46060567994235269 0 0.24587167198532681 0.46151089884672652 0 0.23851300251720139 0.449825795816718 0 0.23184014075654941 0.46060567994235269 0 0.24587167198532681 0.46151089884672652 0 0.23764524468379969 0.47548463141940239 0 0.23694771408394061 0.43659622713039048 0 0.23851300251720139 0.449825795816718 0 0.26275629618291152 0.44639804232362451 0 0.23694771408394061 0.43659622713039048 0 0.26275629618291152 0.44639804232362451 0 0.24587167198532681 0.46151089884672652 0 0.23851300251720139 0.449825795816718 0 0.26275629618291152 0.44639804232362451 0 0.24437096827140059 0.5 0 0.23764524468379969 0.47548463141940239 0 0.22209716967083201 0.48345963540615672 0 0.24437096827140059 0.5 0 0.23764524468379969 0.47548463141940239 0 0.25686592675622982 0.47651771569279322 0 0.24587167198532681 0.46151089884672652 0 0.23764524468379969 0.47548463141940239 0 0.25686592675622982 0.47651771569279322 0 0.23764524468379969 0.47548463141940239 0 0.22358978089226039 0.46939599886040512 0 0.22209716967083201 0.48345963540615672 0 0.22358978089226039 0.46939599886040512 0 0.22209716967083201 0.48345963540615672 0 0.21124981255942141 0.47235215635658012 0 0.24437096827140059 0.5 0 0.22209716967083201 0.48345963540615672 0 0.21501439779747289 0.5 0 0.22209716967083201 0.48345963540615672 0 0.21501439779747289 0.5 0 0.20071281382063719 0.48352502580055268 0 0.22209716967083201 0.48345963540615672 0 0.21124981255942141 0.47235215635658012 0 0.20071281382063719 0.48352502580055268 0 0.21124981255942141 0.47235215635658012 0 0.1985880268135328 0.46940635162990169 0 0.20071281382063719 0.48352502580055268 0 0.20071281382063719 0.48352502580055268 0 0.1809564602552477 0.48267077675669562 0 0.18651925512055281 0.47240695531557209 0 0.1985880268135328 0.46940635162990169 0 0.20071281382063719 0.48352502580055268 0 0.18651925512055281 0.47240695531557209 0 0.21501439779747289 0.5 0 0.20071281382063719 0.48352502580055268 0 0.18565782732354519 0.5 0 0.20071281382063719 0.48352502580055268 0 0.18565782732354519 0.5 0 0.1809564602552477 0.48267077675669562 0 0.18565782732354519 0.5 0 0.166592590440611 0.48504836592465422 0 0.1809564602552477 0.48267077675669562 0 0.15630125684961749 0.5 0 0.166592590440611 0.48504836592465422 0 0.14777897133042009 0.48485261650658668 0 0.18565782732354519 0.5 0 0.15630125684961749 0.5 0 0.166592590440611 0.48504836592465422 0 0.166592590440611 0.48504836592465422 0 0.14777897133042009 0.48485261650658668 0 0.1559033907142508 0.4710371648700542 0 0.166592590440611 0.48504836592465422 0 0.17340719914309161 0.47261843224699868 0 0.1559033907142508 0.4710371648700542 0 0.166592590440611 0.48504836592465422 0 0.17340719914309161 0.47261843224699868 0 0.1809564602552477 0.48267077675669562 0 0.17340719914309161 0.47261843224699868 0 0.1809564602552477 0.48267077675669562 0 0.18651925512055281 0.47240695531557209 0 0.17340719914309161 0.47261843224699868 0 0.18651925512055281 0.47240695531557209 0 0.1800899390451377 0.46366613099141268 0 0.1923482710801987 0.45881905422422409 0 0.18651925512055281 0.47240695531557209 0 0.1800899390451377 0.46366613099141268 0 0.1923482710801987 0.45881905422422409 0 0.1800899390451377 0.46366613099141268 0 0.1797423039361053 0.45260711928367792 0 0.1800899390451377 0.46366613099141268 0 0.1797423039361053 0.45260711928367792 0 0.1684326659457403 0.46187909388659099 0 0.17340719914309161 0.47261843224699868 0 0.1800899390451377 0.46366613099141268 0 0.1684326659457403 0.46187909388659099 0 0.18255395919531611 0.43286267275727519 0 0.1861400405656968 0.44215808154055369 0 0.17348143723044149 0.44210769905746272 0 0.19280609440002799 0.44970076237901357 0 0.1861400405656968 0.44215808154055369 0 0.1797423039361053 0.45260711928367792 0 0.1861400405656968 0.44215808154055369 0 0.1797423039361053 0.45260711928367792 0 0.17348143723044149 0.44210769905746272 0 0.1797423039361053 0.45260711928367792 0 0.17348143723044149 0.44210769905746272 0 0.15320766116796719 0.44826348268752669 0 0.1797423039361053 0.45260711928367792 0 0.15320766116796719 0.44826348268752669 0 0.17348143723044149 0.44210769905746272 0 0.16257401288806519 0.43795330881534927 0 0.15320766116796719 0.44826348268752669 0 0.15404594190054161 0.43071161505100652 0 0.16257401288806519 0.43795330881534927 0 0.15320766116796719 0.44826348268752669 0 0.17340719914309161 0.47261843224699868 0 0.1684326659457403 0.46187909388659099 0 0.1559033907142508 0.4710371648700542 0 0.1684326659457403 0.46187909388659099 0 0.1448874952182056 0.45803866780622599 0 0.1684326659457403 0.46187909388659099 0 0.1448874952182056 0.45803866780622599 0 0.1559033907142508 0.4710371648700542 0 0.1797423039361053 0.45260711928367792 0 0.1684326659457403 0.46187909388659099 0 0.15320766116796719 0.44826348268752669 0 0.1684326659457403 0.46187909388659099 0 0.1448874952182056 0.45803866780622599 0 0.15320766116796719 0.44826348268752669 0 0.1448874952182056 0.45803866780622599 0 0.1559033907142508 0.4710371648700542 0 0.14406767769165521 0.47252931743164622 0 0.1448874952182056 0.45803866780622599 0 0.134094557286111 0.46989590979754398 0 0.14406767769165521 0.47252931743164622 0 0.1448874952182056 0.45803866780622599 0 0.15320766116796719 0.44826348268752669 0 0.1266730183998292 0.4439198460913758 0 0.14310341883288369 0.43600887929147208 0 0.15320766116796719 0.44826348268752669 0 0.1266730183998292 0.4439198460913758 0 0.14310341883288369 0.43600887929147208 0 0.15404594190054161 0.43071161505100652 0 0.15320766116796719 0.44826348268752669 0 0.12134232449067089 0.45419824172586021 0 0.1448874952182056 0.45803866780622599 0 0.1266730183998292 0.4439198460913758 0 0.15320766116796719 0.44826348268752669 0 0.1266730183998292 0.4439198460913758 0 0.12134232449067089 0.45419824172586021 0 0.1448874952182056 0.45803866780622599 0 0.12548597270264661 0.46479205655642702 0 0.1448874952182056 0.45803866780622599 0 0.12548597270264661 0.46479205655642702 0 0.134094557286111 0.46989590979754398 0 0.12134232449067089 0.45419824172586021 0 0.1448874952182056 0.45803866780622599 0 0.12307890761133319 0.47717759226895762 0 0.134094557286111 0.46989590979754398 0 0.13767397390928879 0.47882222817782 0 0.12307890761133319 0.47717759226895762 0 0.12548597270264661 0.46479205655642702 0 0.134094557286111 0.46989590979754398 0 0.13767397390928879 0.47882222817782 0 0.13104101678281729 0.4874035327719532 0 0.14777897133042009 0.48485261650658668 0 0.134094557286111 0.46989590979754398 0 0.13767397390928879 0.47882222817782 0 0.14406767769165521 0.47252931743164622 0 0.12307890761133319 0.47717759226895762 0 0.13767397390928879 0.47882222817782 0 0.13104101678281729 0.4874035327719532 0 0.13104101678281729 0.4874035327719532 0 0.14777897133042009 0.48485261650658668 0 0.13104101678281729 0.4874035327719532 0 0.12694468637568981 0.5 0 0.14777897133042009 0.48485261650658668 0 0.11980829636931289 0.4958931651322821 0 0.13104101678281729 0.4874035327719532 0 0.12694468637568981 0.5 0 0.15630125684961749 0.5 0 0.12694468637568981 0.5 0 0.14777897133042009 0.48485261650658668 0 0.14777897133042009 0.48485261650658668 0 0.1559033907142508 0.4710371648700542 0 0.14406767769165521 0.47252931743164622 0 0.13767397390928879 0.47882222817782 0 0.14777897133042009 0.48485261650658668 0 0.14406767769165521 0.47252931743164622 0 0.34706183837482718 0.4810662028974122 0 0.36168299705647111 0.46213240579482612 0 0.34706183837482718 0.4810662028974122 0 0.36168299705647111 0.46213240579482612 0 0.33891929358891781 0.46732673045907591 0 0.34706183837482718 0.4810662028974122 0 0.35799088390866901 0.5 0 0.3324406796931838 0.49999999999999878 0 0.34706183837482718 0.4810662028974122 0 0.35799088390866901 0.5 0 0.37497746445005159 0.47970082420069599 0 0.35799088390866901 0.5 0 0.37497746445005159 0.47970082420069599 0 0.38354108812415411 0.5 0 0.34706183837482718 0.4810662028974122 0 0.37497746445005159 0.47970082420069599 0 0.36168299705647111 0.46213240579482612 0 0.36168299705647111 0.46213240579482612 0 0.36402576007575238 0.44519913078094908 0 0.38023811072368852 0.45528438267371318 0 0.37497746445005159 0.47970082420069599 0 0.36168299705647111 0.46213240579482612 0 0.38023811072368852 0.45528438267371318 0 0.36402576007575238 0.44519913078094908 0 0.37847536945977639 0.43809187827637081 0 0.38023811072368852 0.45528438267371318 0 0.36402576007575238 0.44519913078094908 0 0.36864555751711131 0.43245583926158099 0 0.37847536945977639 0.43809187827637081 0 0.36402576007575238 0.44519913078094908 0 0.34281428723742557 0.45064564462336831 0 0.35229823846004121 0.43258463405583469 0 0.36168299705647111 0.46213240579482612 0 0.36402576007575238 0.44519913078094908 0 0.34281428723742557 0.45064564462336831 0 0.36168299705647111 0.46213240579482612 0 0.33891929358891781 0.46732673045907591 0 0.34281428723742557 0.45064564462336831 0 0.33891929358891781 0.46732673045907591 0 0.34281428723742557 0.45064564462336831 0 0.31949159457059428 0.46170551501643908 0 0.34281428723742557 0.45064564462336831 0 0.32829944634978581 0.43105322499276583 0 0.35229823846004121 0.43258463405583469 0 0.34281428723742557 0.45064564462336831 0 0.31949159457059428 0.46170551501643908 0 0.32829944634978581 0.43105322499276583 0 0.31949159457059428 0.46170551501643908 0 0.30216344912989418 0.4347052239742118 0 0.32829944634978581 0.43105322499276583 0 0.33891929358891781 0.46732673045907591 0 0.31949159457059428 0.46170551501643908 0 0.3235457507052707 0.48108388396333401 0 0.31949159457059428 0.46170551501643908 0 0.3235457507052707 0.48108388396333401 0 0.30192353390276339 0.47580079277296611 0 0.34706183837482718 0.4810662028974122 0 0.33891929358891781 0.46732673045907591 0 0.3235457507052707 0.48108388396333401 0 0.34706183837482718 0.4810662028974122 0 0.3235457507052707 0.48108388396333401 0 0.3324406796931838 0.49999999999999878 0 0.34706183837482718 0.4810662028974122 0 0.3324406796931838 0.49999999999999878 0 0.3235457507052707 0.48108388396333401 0 0.3324406796931838 0.49999999999999878 0 0.30308410921925599 0.5 0 0.3235457507052707 0.48108388396333401 0 0.30308410921925599 0.5 0 0.30192353390276339 0.47580079277296611 0 0.30308410921925599 0.5 0 0.30192353390276339 0.47580079277296611 0 0.27940528630978601 0.47607001148046929 0 0.30192353390276339 0.47580079277296611 0 0.27940528630978601 0.47607001148046929 0 0.28856487828188249 0.45619985751685838 0 0.30308410921925599 0.5 0 0.27372753874532829 0.5 0 0.27940528630978601 0.47607001148046929 0 0.27372753874532829 0.5 0 0.27940528630978601 0.47607001148046929 0 0.25686592675622982 0.47651771569279322 0 0.24437096827140059 0.5 0 0.27372753874532829 0.5 0 0.25686592675622982 0.47651771569279322 0 0.24587167198532681 0.46151089884672652 0 0.25686592675622982 0.47651771569279322 0 0.26275629618291152 0.44639804232362451 0 0.27940528630978601 0.47607001148046929 0 0.25686592675622982 0.47651771569279322 0 0.26275629618291152 0.44639804232362451 0 0.27940528630978601 0.47607001148046929 0 0.26275629618291152 0.44639804232362451 0 0.28856487828188249 0.45619985751685838 0 0.26275629618291152 0.44639804232362451 0 0.28856487828188249 0.45619985751685838 0 0.27696970678618238 0.43126688258106038 0 0.26275629618291152 0.44639804232362451 0 0.28856487828188249 0.45619985751685838 0 0.28856487828188249 0.45619985751685838 0 0.30216344912989418 0.4347052239742118 0 0.27696970678618238 0.43126688258106038 0 0.31949159457059428 0.46170551501643908 0 0.30192353390276339 0.47580079277296611 0 0.28856487828188249 0.45619985751685838 0 0.31949159457059428 0.46170551501643908 0 0.28856487828188249 0.45619985751685838 0 0.30216344912989418 0.4347052239742118 0 0.30216344912989418 0.4347052239742118 0 0.3107078705106272 0.41340792259000853 0 0.2888654148089807 0.41188678009058088 0 0.30216344912989418 0.4347052239742118 0 0.2888654148089807 0.41188678009058088 0 0.27696970678618238 0.43126688258106038 0 0.2888654148089807 0.41188678009058088 0 0.27696970678618238 0.43126688258106038 0 0.26691408715175408 0.41014752185299991 0 0.26691408715175408 0.41014752185299991 0 0.25009600843597041 0.40939687762789101 0 0.25255411516167198 0.42826386972808728 0 0.23694771408394061 0.43659622713039048 0 0.26275629618291152 0.44639804232362451 0 0.25255411516167198 0.42826386972808728 0 0.26275629618291152 0.44639804232362451 0 0.27696970678618238 0.43126688258106038 0 0.25255411516167198 0.42826386972808728 0 0.27696970678618238 0.43126688258106038 0 0.26691408715175408 0.41014752185299991 0 0.25255411516167198 0.42826386972808728 0 0.26691408715175408 0.41014752185299991 0 0.25009600843597041 0.40939687762789101 0 0.25803884276690808 0.38748449168907639 0 0.2888654148089807 0.41188678009058088 0 0.26691408715175408 0.41014752185299991 0 0.28190007463496508 0.39259831671053103 0 0.26691408715175408 0.41014752185299991 0 0.25803884276690808 0.38748449168907639 0 0.28190007463496508 0.39259831671053103 0 0.25803884276690808 0.38748449168907639 0 0.28190007463496508 0.39259831671053103 0 0.27925956745125857 0.37125974754354413 0 0.28190007463496508 0.39259831671053103 0 0.30538191511691071 0.38640630624211408 0 0.27925956745125857 0.37125974754354413 0 0.2888654148089807 0.41188678009058088 0 0.28190007463496508 0.39259831671053103 0 0.30538191511691071 0.38640630624211408 0 0.3107078705106272 0.41340792259000853 0 0.2888654148089807 0.41188678009058088 0 0.30538191511691071 0.38640630624211408 0 0.30538191511691071 0.38640630624211408 0 0.33496179783540758 0.37512076228400859 0 0.32882912714756418 0.40298807765036943 0 0.33496179783540758 0.37512076228400859 0 0.35151903976475041 0.39306756948395899 0 0.33496179783540758 0.37512076228400859 0 0.32882912714756418 0.40298807765036943 0 0.35151903976475041 0.39306756948395899 0 0.32882912714756418 0.40298807765036943 0 0.34860611324994262 0.41560850345946748 0 0.35151903976475041 0.39306756948395899 0 0.3107078705106272 0.41340792259000853 0 0.30538191511691071 0.38640630624211408 0 0.32882912714756418 0.40298807765036943 0 0.3107078705106272 0.41340792259000853 0 0.32882912714756418 0.40298807765036943 0 0.32829944634978581 0.43105322499276583 0 0.30216344912989418 0.4347052239742118 0 0.3107078705106272 0.41340792259000853 0 0.32829944634978581 0.43105322499276583 0 0.32829944634978581 0.43105322499276583 0 0.34860611324994262 0.41560850345946748 0 0.35229823846004121 0.43258463405583469 0 0.32882912714756418 0.40298807765036943 0 0.32829944634978581 0.43105322499276583 0 0.34860611324994262 0.41560850345946748 0 0.34860611324994262 0.41560850345946748 0 0.36807628169409312 0.41101437668390939 0 0.35151903976475041 0.39306756948395899 0 0.34860611324994262 0.41560850345946748 0 0.35229823846004121 0.43258463405583469 0 0.36261454608342142 0.4229431378899674 0 0.36402576007575238 0.44519913078094908 0 0.35229823846004121 0.43258463405583469 0 0.36864555751711131 0.43245583926158099 0 0.35229823846004121 0.43258463405583469 0 0.36261454608342142 0.4229431378899674 0 0.36864555751711131 0.43245583926158099 0 0.36261454608342142 0.4229431378899674 0 0.36864555751711131 0.43245583926158099 0 0.37638722081423792 0.42316938585626601 0 0.36864555751711131 0.43245583926158099 0 0.37638722081423792 0.42316938585626601 0 0.37847536945977639 0.43809187827637081 0 0.34860611324994262 0.41560850345946748 0 0.36261454608342142 0.4229431378899674 0 0.36807628169409312 0.41101437668390939 0 0.36807628169409312 0.41101437668390939 0 0.37851431845855671 0.40915855582036997 0 0.37638722081423792 0.42316938585626601 0 0.36261454608342142 0.4229431378899674 0 0.36807628169409312 0.41101437668390939 0 0.37638722081423792 0.42316938585626601 0 0.36807628169409312 0.41101437668390939 0 0.36835141586495018 0.39380003178311118 0 0.35151903976475041 0.39306756948395899 0 0.36807628169409312 0.41101437668390939 0 0.35151903976475041 0.39306756948395899 0 0.36807628169409312 0.41101437668390939 0 0.36835141586495018 0.39380003178311118 0 0.37851431845855671 0.40915855582036997 0 0.36835141586495018 0.39380003178311118 0 0.35992624183289079 0.37866274069236872 0 0.35151903976475041 0.39306756948395899 0 0.36835141586495018 0.39380003178311118 0 0.35992624183289079 0.37866274069236872 0 0.37962587482454851 0.37952071621100641 0 0.33496179783540758 0.37512076228400859 0 0.35992624183289079 0.37866274069236872 0 0.35151903976475041 0.39306756948395899 0 0.33496179783540758 0.37512076228400859 0 0.35864190176814459 0.36064714127849201 0 0.33817921764557268 0.34286197997921769 0 0.35864190176814459 0.36064714127849201 0 0.35767185885024588 0.33884782208375569 0 0.33817921764557268 0.34286197997921769 0 0.33496179783540758 0.37512076228400859 0 0.35992624183289079 0.37866274069236872 0 0.35864190176814459 0.36064714127849201 0 0.35992624183289079 0.37866274069236872 0 0.35864190176814459 0.36064714127849201 0 0.37962587482454851 0.37952071621100641 0 0.35864190176814459 0.36064714127849201 0 0.38073743119054021 0.34988287660164258 0 0.37962587482454851 0.37952071621100641 0 0.35864190176814459 0.36064714127849201 0 0.35767185885024588 0.33884782208375569 0 0.38073743119054021 0.34988287660164258 0 0.36658252680600872 0.32610018065837482 0 0.35767185885024588 0.33884782208375569 0 0.38073743119054021 0.34988287660164258 0 0.36308485050021538 0.30927480907403843 0 0.37656607900536809 0.30874367214310311 0 0.38184898755653113 0.32024503699227902 0 0.36658252680600872 0.32610018065837482 0 0.36308485050021538 0.30927480907403843 0 0.38184898755653113 0.32024503699227902 0 0.36308485050021538 0.30927480907403843 0 0.38184898755653113 0.32024503699227902 0 0.36658252680600872 0.32610018065837482 0 0.34659409883712522 0.31989015275902222 0 0.36308485050021538 0.30927480907403843 0 0.36658252680600872 0.32610018065837482 0 0.34659409883712522 0.31989015275902222 0 0.35767185885024588 0.33884782208375569 0 0.34659409883712522 0.31989015275902222 0 0.35767185885024588 0.33884782208375569 0 0.33817921764557268 0.34286197997921769 0 0.34659409883712522 0.31989015275902222 0 0.33817921764557268 0.34286197997921769 0 0.32440361417172231 0.32270999180820198 0 0.34659409883712522 0.31989015275902222 0 0.32440361417172231 0.32270999180820198 0 0.33042820689451902 0.30495160166320112 0 0.32440361417172231 0.32270999180820198 0 0.30317939345541639 0.31684943862765103 0 0.31770631280062489 0.31027973311964829 0 0.32440361417172231 0.32270999180820198 0 0.31770631280062489 0.31027973311964829 0 0.33042820689451902 0.30495160166320112 0 0.32440361417172231 0.32270999180820198 0 0.32070867542502052 0.3404932686888964 0 0.30184731397672199 0.33922714788410768 0 0.33817921764557268 0.34286197997921769 0 0.32440361417172231 0.32270999180820198 0 0.32070867542502052 0.3404932686888964 0 0.32070867542502052 0.3404932686888964 0 0.31840455590606481 0.35717395508405808 0 0.30184731397672199 0.33922714788410768 0 0.33496179783540758 0.37512076228400859 0 0.33817921764557268 0.34286197997921769 0 0.31840455590606481 0.35717395508405808 0 0.33817921764557268 0.34286197997921769 0 0.32070867542502052 0.3404932686888964 0 0.31840455590606481 0.35717395508405808 0 0.30538191511691071 0.38640630624211408 0 0.33496179783540758 0.37512076228400859 0 0.31840455590606481 0.35717395508405808 0 0.33496179783540758 0.37512076228400859 0 0.31840455590606481 0.35717395508405808 0 0.30538191511691071 0.38640630624211408 0 0.31840455590606481 0.35717395508405808 0 0.29634885671078748 0.35950774496867832 0 0.31840455590606481 0.35717395508405808 0 0.30184731397672199 0.33922714788410768 0 0.31840455590606481 0.35717395508405808 0 0.29634885671078748 0.35950774496867832 0 0.30184731397672199 0.33922714788410768 0 0.29634885671078748 0.35950774496867832 0 0.28173423606631631 0.33900451896660461 0 0.30184731397672199 0.33922714788410768 0 0.29634885671078748 0.35950774496867832 0 0.27490706158444062 0.35532774908547898 0 0.28173423606631631 0.33900451896660461 0 0.30538191511691071 0.38640630624211408 0 0.29634885671078748 0.35950774496867832 0 0.27925956745125857 0.37125974754354413 0 0.29634885671078748 0.35950774496867832 0 0.27925956745125857 0.37125974754354413 0 0.27490706158444062 0.35532774908547898 0 0.27925956745125857 0.37125974754354413 0 0.27490706158444062 0.35532774908547898 0 0.2568419711749631 0.36200264213042188 0 0.27490706158444062 0.35532774908547898 0 0.26407908807837271 0.34418051255246768 0 0.28173423606631631 0.33900451896660461 0 0.27490706158444062 0.35532774908547898 0 0.26407908807837271 0.34418051255246768 0 0.2568419711749631 0.36200264213042188 0 0.24893558204057381 0.34642530285772738 0 0.26407908807837271 0.34418051255246768 0 0.2568419711749631 0.36200264213042188 0 0.25803884276690808 0.38748449168907639 0 0.27925956745125857 0.37125974754354413 0 0.2568419711749631 0.36200264213042188 0 0.24015189975402951 0.36863599806551978 0 0.25803884276690808 0.38748449168907639 0 0.2568419711749631 0.36200264213042188 0 0.26497405097209409 0.31503678436980331 0 0.25658861127466859 0.32341404046661348 0 0.26848895857241062 0.3275502902369502 0 0.26497405097209409 0.31503678436980331 0 0.25194561914124791 0.31470249387852028 0 0.26174455316609968 0.30848639085060031 0 0.26497405097209409 0.31503678436980331 0 0.25194561914124791 0.31470249387852028 0 0.25658861127466859 0.32341404046661348 0 0.24396770865605821 0.32500806181017111 0 0.25658861127466859 0.32341404046661348 0 0.25356671903153238 0.33477257203762317 0 0.24396770865605821 0.32500806181017111 0 0.25194561914124791 0.31470249387852028 0 0.25658861127466859 0.32341404046661348 0 0.26407908807837271 0.34418051255246768 0 0.25356671903153238 0.33477257203762317 0 0.26848895857241062 0.3275502902369502 0 0.24893558204057381 0.34642530285772738 0 0.26407908807837271 0.34418051255246768 0 0.25356671903153238 0.33477257203762317 0 0.25658861127466859 0.32341404046661348 0 0.25356671903153238 0.33477257203762317 0 0.26848895857241062 0.3275502902369502 0 0.26848895857241062 0.3275502902369502 0 0.28529007204737927 0.32128034068415728 0 0.28173423606631631 0.33900451896660461 0 0.26407908807837271 0.34418051255246768 0 0.26848895857241062 0.3275502902369502 0 0.28173423606631631 0.33900451896660461 0 0.26848895857241062 0.3275502902369502 0 0.27646726512485181 0.31362455264190442 0 0.28529007204737927 0.32128034068415728 0 0.26497405097209409 0.31503678436980331 0 0.26848895857241062 0.3275502902369502 0 0.27646726512485181 0.31362455264190442 0 0.27646726512485181 0.31362455264190442 0 0.28529007204737927 0.32128034068415728 0 0.28779557337569772 0.30969301511101333 0 0.28529007204737927 0.32128034068415728 0 0.30317939345541639 0.31684943862765103 0 0.28779557337569772 0.30969301511101333 0 0.28529007204737927 0.32128034068415728 0 0.30184731397672199 0.33922714788410768 0 0.30317939345541639 0.31684943862765103 0 0.28529007204737927 0.32128034068415728 0 0.30184731397672199 0.33922714788410768 0 0.28529007204737927 0.32128034068415728 0 0.28173423606631631 0.33900451896660461 0 0.30184731397672199 0.33922714788410768 0 0.32440361417172231 0.32270999180820198 0 0.30184731397672199 0.33922714788410768 0 0.30317939345541639 0.31684943862765103 0 0.30317939345541639 0.31684943862765103 0 0.30791483502163108 0.30776406766835113 0 0.31770631280062489 0.31027973311964829 0 0.30791483502163108 0.30776406766835113 0 0.30780470084055139 0.30021378769401669 0 0.31388338333907961 0.30347416436189778 0 0.30791483502163108 0.30776406766835113 0 0.30780470084055139 0.30021378769401669 0 0.29874565350595439 0.30533867333503339 0 0.30780470084055139 0.30021378769401669 0 0.31343553318983508 0.29474305045998977 0 0.31474602796965417 0.29647386877006182 0 0.30780470084055139 0.30021378769401669 0 0.31343553318983508 0.29474305045998977 0 0.30780470084055139 0.30021378769401669 0 0.31474602796965417 0.29647386877006182 0 0.31388338333907961 0.30347416436189778 0 0.30780470084055139 0.30021378769401669 0 0.29874565350595439 0.30533867333503339 0 0.29965644007770148 0.29192746915782758 0 0.30317939345541639 0.31684943862765103 0 0.30791483502163108 0.30776406766835113 0 0.29874565350595439 0.30533867333503339 0 0.29965644007770148 0.29192746915782758 0 0.30127144644784742 0.27867749691292121 0 0.31343553318983508 0.29474305045998977 0 0.30127144644784742 0.27867749691292121 0 0.31343553318983508 0.29474305045998977 0 0.30127144644784742 0.27867749691292121 0 0.31713089795023652 0.28173388432166829 0 0.31343553318983508 0.29474305045998977 0 0.30780470084055139 0.30021378769401669 0 0.29965644007770148 0.29192746915782758 0 0.31343553318983508 0.29474305045998977 0 0.29965644007770148 0.29192746915782758 0 0.27927560394425571 0.28644371278185182 0 0.30127144644784742 0.27867749691292121 0 0.29965644007770148 0.29192746915782758 0 0.28814666739890338 0.2989196101145179 0 0.27927560394425571 0.28644371278185182 0 0.27927560394425571 0.28644371278185182 0 0.30127144644784742 0.27867749691292121 0 0.30317939345541639 0.31684943862765103 0 0.29874565350595439 0.30533867333503339 0 0.28779557337569772 0.30969301511101333 0 0.29874565350595439 0.30533867333503339 0 0.29965644007770148 0.29192746915782758 0 0.28814666739890338 0.2989196101145179 0 0.29874565350595439 0.30533867333503339 0 0.28814666739890338 0.2989196101145179 0 0.28779557337569772 0.30969301511101333 0 0.28814666739890338 0.2989196101145179 0 0.28779557337569772 0.30969301511101333 0 0.27494438872168098 0.30214547526281582 0 0.27646726512485181 0.31362455264190442 0 0.28779557337569772 0.30969301511101333 0 0.27494438872168098 0.30214547526281582 0 0.26497405097209409 0.31503678436980331 0 0.27494438872168098 0.30214547526281582 0 0.26174455316609968 0.30848639085060031 0 0.26497405097209409 0.31503678436980331 0 0.27646726512485181 0.31362455264190442 0 0.27494438872168098 0.30214547526281582 0 0.27494438872168098 0.30214547526281582 0 0.27927560394425571 0.28644371278185182 0 0.25727976144066339 0.29420992865078088 0 0.28814666739890338 0.2989196101145179 0 0.27494438872168098 0.30214547526281582 0 0.27927560394425571 0.28644371278185182 0 0.27927560394425571 0.28644371278185182 0 0.25727976144066339 0.29420992865078088 0 0.26539512125012632 0.28107576489019342 0 0.27927560394425571 0.28644371278185182 0 0.25727976144066339 0.29420992865078088 0 0.25727976144066339 0.29420992865078088 0 0.25235506011160957 0.2811552669666848 0 0.26539512125012632 0.28107576489019342 0 0.24262230146305139 0.28941481494666821 0 0.25727976144066339 0.29420992865078088 0 0.25235506011160957 0.2811552669666848 0 0.27494438872168098 0.30214547526281582 0 0.25727976144066339 0.29420992865078088 0 0.25511415382937591 0.30206080989126188 0 0.27494438872168098 0.30214547526281582 0 0.25511415382937591 0.30206080989126188 0 0.26174455316609968 0.30848639085060031 0 0.27494438872168098 0.30214547526281582 0 0.25511415382937591 0.30206080989126188 0 0.25194561914124791 0.31470249387852028 0 0.25511415382937591 0.30206080989126188 0 0.26174455316609968 0.30848639085060031 0 0.24664098988319569 0.26403384988780121 0 0.26073376849726559 0.27196774127610712 0 0.26633255678366302 0.25915529429061179 0 0.24664098988319569 0.26403384988780121 0 0.26633255678366302 0.25915529429061179 0 0.25099764385199508 0.24313445578590931 0 0.24664098988319569 0.26403384988780121 0 0.25235506011160957 0.2811552669666848 0 0.26073376849726559 0.27196774127610712 0 0.25235506011160957 0.2811552669666848 0 0.26539512125012632 0.28107576489019342 0 0.26073376849726559 0.27196774127610712 0 0.26073376849726559 0.27196774127610712 0 0.27733141225683727 0.27160217477554238 0 0.26633255678366302 0.25915529429061179 0 0.26539512125012632 0.28107576489019342 0 0.26073376849726559 0.27196774127610712 0 0.27733141225683727 0.27160217477554238 0 0.27927560394425571 0.28644371278185182 0 0.26539512125012632 0.28107576489019342 0 0.27733141225683727 0.27160217477554238 0 0.28785432422017743 0.26095701364374402 0 0.27443720199250721 0.24323653037456719 0 0.27733141225683727 0.27160217477554238 0 0.26633255678366302 0.25915529429061179 0 0.28785432422017743 0.26095701364374402 0 0.26633255678366302 0.25915529429061179 0 0.28785432422017743 0.26095701364374402 0 0.27443720199250721 0.24323653037456719 0 0.28785432422017743 0.26095701364374402 0 0.27443720199250721 0.24323653037456719 0 0.29686236257483722 0.2474805952846385 0 0.28785432422017743 0.26095701364374402 0 0.30127144644784742 0.27867749691292121 0 0.27927560394425571 0.28644371278185182 0 0.27733141225683727 0.27160217477554238 0 0.30127144644784742 0.27867749691292121 0 0.27733141225683727 0.27160217477554238 0 0.28785432422017743 0.26095701364374402 0 0.30127144644784742 0.27867749691292121 0 0.30127144644784742 0.27867749691292121 0 0.30869772514353311 0.2593080827544838 0 0.32381321818493319 0.27071852624154491 0 0.28785432422017743 0.26095701364374402 0 0.30127144644784742 0.27867749691292121 0 0.30869772514353311 0.2593080827544838 0 0.28785432422017743 0.26095701364374402 0 0.30869772514353311 0.2593080827544838 0 0.29686236257483722 0.2474805952846385 0 0.30869772514353311 0.2593080827544838 0 0.32911855669721352 0.25489471412132347 0 0.32381321818493319 0.27071852624154491 0 0.30869772514353311 0.2593080827544838 0 0.32911855669721352 0.25489471412132347 0 0.31619694167337459 0.24192394235601081 0 0.32911855669721352 0.25489471412132347 0 0.32381321818493319 0.27071852624154491 0 0.3463549899220188 0.26275955557016772 0 0.32911855669721352 0.25489471412132347 0 0.3463549899220188 0.26275955557016772 0 0.34886237431619538 0.24448060393976689 0 0.32989526155592669 0.27875130301507861 0 0.32381321818493319 0.27071852624154491 0 0.3463549899220188 0.26275955557016772 0 0.32989526155592669 0.27875130301507861 0 0.3463549899220188 0.26275955557016772 0 0.34992778830742233 0.28079347609499589 0 0.32989526155592669 0.27875130301507861 0 0.3463549899220188 0.26275955557016772 0 0.32381321818493319 0.27071852624154491 0 0.3463549899220188 0.26275955557016772 0 0.32989526155592669 0.27875130301507861 0 0.32381321818493319 0.27071852624154491 0 0.31713089795023652 0.28173388432166829 0 0.30127144644784742 0.27867749691292121 0 0.32381321818493319 0.27071852624154491 0 0.31713089795023652 0.28173388432166829 0 0.30127144644784742 0.27867749691292121 0 0.32381321818493319 0.27071852624154491 0 0.32989526155592669 0.27875130301507861 0 0.32144650154326071 0.30064104376443312 0 0.33042820689451902 0.30495160166320112 0 0.32989526155592669 0.27875130301507861 0 0.31713089795023652 0.28173388432166829 0 0.31343553318983508 0.29474305045998977 0 0.32989526155592669 0.27875130301507861 0 0.31474602796965417 0.29647386877006182 0 0.32144650154326071 0.30064104376443312 0 0.32989526155592669 0.27875130301507861 0 0.31343553318983508 0.29474305045998977 0 0.31474602796965417 0.29647386877006182 0 0.32989526155592669 0.27875130301507861 0 0.31343553318983508 0.29474305045998977 0 0.31343553318983508 0.29474305045998977 0 0.31474602796965417 0.29647386877006182 0 0.31770631280062489 0.31027973311964829 0 0.31388338333907961 0.30347416436189778 0 0.32144650154326071 0.30064104376443312 0 0.30791483502163108 0.30776406766835113 0 0.31770631280062489 0.31027973311964829 0 0.31388338333907961 0.30347416436189778 0 0.31474602796965417 0.29647386877006182 0 0.31388338333907961 0.30347416436189778 0 0.32144650154326071 0.30064104376443312 0 0.31770631280062489 0.31027973311964829 0 0.32144650154326071 0.30064104376443312 0 0.33042820689451902 0.30495160166320112 0 0.34659409883712522 0.31989015275902222 0 0.33042820689451902 0.30495160166320112 0 0.34432071344389997 0.29830458115579761 0 0.32989526155592669 0.27875130301507861 0 0.33042820689451902 0.30495160166320112 0 0.34432071344389997 0.29830458115579761 0 0.32989526155592669 0.27875130301507861 0 0.34432071344389997 0.29830458115579761 0 0.34992778830742233 0.28079347609499589 0 0.35803176669322923 0.29405540906685268 0 0.34432071344389997 0.29830458115579761 0 0.34992778830742233 0.28079347609499589 0 0.35803176669322923 0.29405540906685268 0 0.3633844818428198 0.28154546631920191 0 0.34992778830742233 0.28079347609499589 0 0.34432071344389997 0.29830458115579761 0 0.36308485050021538 0.30927480907403843 0 0.35803176669322923 0.29405540906685268 0 0.34432071344389997 0.29830458115579761 0 0.36308485050021538 0.30927480907403843 0 0.34659409883712522 0.31989015275902222 0 0.34432071344389997 0.29830458115579761 0 0.36308485050021538 0.30927480907403843 0 0.35803176669322923 0.29405540906685268 0 0.36308485050021538 0.30927480907403843 0 0.36977095643538288 0.29995470389244222 0 0.36308485050021538 0.30927480907403843 0 0.36977095643538288 0.29995470389244222 0 0.37656607900536809 0.30874367214310311 0 0.35803176669322923 0.29405540906685268 0 0.3633844818428198 0.28154546631920191 0 0.36890759514865762 0.29021585027969238 0 0.35803176669322923 0.29405540906685268 0 0.36977095643538288 0.29995470389244222 0 0.36890759514865762 0.29021585027969238 0 0.36977095643538288 0.29995470389244222 0 0.36890759514865762 0.29021585027969238 0 0.37657470784798819 0.29400651271503492 0 0.36890759514865762 0.29021585027969238 0 0.37593575542882862 0.28661449164666147 0 0.37657470784798819 0.29400651271503492 0 0.36890759514865762 0.29021585027969238 0 0.37094778167377612 0.28322617138873718 0 0.37593575542882862 0.28661449164666147 0 0.3633844818428198 0.28154546631920191 0 0.36890759514865762 0.29021585027969238 0 0.37094778167377612 0.28322617138873718 0 0.37094778167377612 0.28322617138873718 0 0.37613106976406008 0.28079578350991102 0 0.37593575542882862 0.28661449164666147 0 0.3633844818428198 0.28154546631920191 0 0.37094778167377612 0.28322617138873718 0 0.37185276758731722 0.276352538420779 0 0.37094778167377612 0.28322617138873718 0 0.37185276758731722 0.276352538420779 0 0.37613106976406008 0.28079578350991102 0 0.3633844818428198 0.28154546631920191 0 0.37185276758731722 0.276352538420779 0 0.36595744717649431 0.26906016926339921 0 0.3633844818428198 0.28154546631920191 0 0.36595744717649431 0.26906016926339921 0 0.35815069671963251 0.26915330654446068 0 0.37389508246648351 0.2700173891353651 0 0.37034286786374632 0.26355243936435341 0 0.3805222411416912 0.26806373397379468 0 0.37185276758731722 0.276352538420779 0 0.36595744717649431 0.26906016926339921 0 0.37389508246648351 0.2700173891353651 0 0.36595744717649431 0.26906016926339921 0 0.37389508246648351 0.2700173891353651 0 0.37034286786374632 0.26355243936435341 0 0.37499946885479513 0.25941504506444829 0 0.37034286786374632 0.26355243936435341 0 0.36689291458651291 0.25550809628106669 0 0.36595744717649431 0.26906016926339921 0 0.37034286786374632 0.26355243936435341 0 0.36689291458651291 0.25550809628106669 0 0.36689291458651291 0.25550809628106669 0 0.3463549899220188 0.26275955557016772 0 0.36720602747749242 0.24250135208496509 0 0.37499946885479513 0.25941504506444829 0 0.36689291458651291 0.25550809628106669 0 0.38203381227652339 0.25258147293087208 0 0.36595744717649431 0.26906016926339921 0 0.36689291458651291 0.25550809628106669 0 0.35815069671963251 0.26915330654446068 0 0.3463549899220188 0.26275955557016772 0 0.36720602747749242 0.24250135208496509 0 0.36689291458651291 0.25550809628106669 0 0.3463549899220188 0.26275955557016772 0 0.35815069671963251 0.26915330654446068 0 0.36689291458651291 0.25550809628106669 0 0.3463549899220188 0.26275955557016772 0 0.3463549899220188 0.26275955557016772 0 0.34992778830742233 0.28079347609499589 0 0.35815069671963251 0.26915330654446068 0 0.3633844818428198 0.28154546631920191 0 0.34992778830742233 0.28079347609499589 0 0.35815069671963251 0.26915330654446068 0 0.39352294834158957 0.26811584024932922 0 0.39436409226928731 0.27355918667898349 0 0.4014877482467471 0.26668212014171738 0 0.39352294834158957 0.26811584024932922 0 0.39436409226928731 0.27355918667898349 0 0.38805777958868243 0.27031248815875919 0 0.39436409226928731 0.27355918667898349 0 0.38775401800237841 0.27785884734067562 0 0.39409849427587351 0.2816719624436429 0 0.39436409226928731 0.27355918667898349 0 0.4011134640872332 0.27647937295101571 0 0.39409849427587351 0.2816719624436429 0 0.4011134640872332 0.27647937295101571 0 0.39409849427587351 0.2816719624436429 0 0.40158372554162097 0.28475974448073382 0 0.4011134640872332 0.27647937295101571 0 0.40158372554162097 0.28475974448073382 0 0.40959366261362667 0.2759701373669558 0 0.39436409226928731 0.27355918667898349 0 0.4011134640872332 0.27647937295101571 0 0.4014877482467471 0.26668212014171738 0 0.4011134640872332 0.27647937295101571 0 0.4014877482467471 0.26668212014171738 0 0.40959366261362667 0.2759701373669558 0 0.39018217326164151 0.26190956601785681 0 0.41002147865953648 0.2602666926713606 0 0.4014877482467471 0.26668212014171738 0 0.39018217326164151 0.26190956601785681 0 0.41002147865953648 0.2602666926713606 0 0.39018217326164151 0.26190956601785681 0 0.38710158673244799 0.25397304876845839 0 0.41002147865953648 0.2602666926713606 0 0.40028832984864138 0.2531567014991386 0 0.38710158673244799 0.25397304876845839 0 0.40805876316201861 0.24454917125733991 0 0.40028832984864138 0.2531567014991386 0 0.38710158673244799 0.25397304876845839 0 0.41002147865953648 0.2602666926713606 0 0.38710158673244799 0.25397304876845839 0 0.41002147865953648 0.2602666926713606 0 0.40028832984864138 0.2531567014991386 0 0.4063717063049434 0.25145482945124908 0 0.41002147865953648 0.2602666926713606 0 0.39352294834158957 0.26811584024932922 0 0.4014877482467471 0.26668212014171738 0 0.39018217326164151 0.26190956601785681 0 0.37034286786374632 0.26355243936435341 0 0.39018217326164151 0.26190956601785681 0 0.37034286786374632 0.26355243936435341 0 0.39018217326164151 0.26190956601785681 0 0.3805222411416912 0.26806373397379468 0 0.37499946885479513 0.25941504506444829 0 0.39018217326164151 0.26190956601785681 0 0.38710158673244799 0.25397304876845839 0 0.36689291458651291 0.25550809628106669 0 0.38743083925100702 0.24825663699196601 0 0.36689291458651291 0.25550809628106669 0 0.38203381227652339 0.25258147293087208 0 0.38743083925100702 0.24825663699196601 0 0.37499946885479513 0.25941504506444829 0 0.37034286786374632 0.26355243936435341 0 0.39018217326164151 0.26190956601785681 0 0.38710158673244799 0.25397304876845839 0 0.38203381227652339 0.25258147293087208 0 0.38825911952508718 0.2496888568010899 0 0.38710158673244799 0.25397304876845839 0 0.38203381227652339 0.25258147293087208 0 0.38203381227652339 0.25258147293087208 0 0.38743083925100702 0.24825663699196601 0 0.38825911952508718 0.2496888568010899 0 0.37499946885479513 0.25941504506444829 0 0.38710158673244799 0.25397304876845839 0 0.38203381227652339 0.25258147293087208 0 0.37499946885479513 0.25941504506444829 0 0.38710158673244799 0.25397304876845839 0 0.37389508246648351 0.2700173891353651 0 0.3805222411416912 0.26806373397379468 0 0.38013330252790251 0.27452678719263962 0 0.3805222411416912 0.26806373397379468 0 0.38805777958868243 0.27031248815875919 0 0.38013330252790251 0.27452678719263962 0 0.39352294834158957 0.26811584024932922 0 0.39018217326164151 0.26190956601785681 0 0.38805777958868243 0.27031248815875919 0 0.39018217326164151 0.26190956601785681 0 0.3805222411416912 0.26806373397379468 0 0.38805777958868243 0.27031248815875919 0 0.38805777958868243 0.27031248815875919 0 0.38775401800237841 0.27785884734067562 0 0.38013330252790251 0.27452678719263962 0 0.39436409226928731 0.27355918667898349 0 0.38805777958868243 0.27031248815875919 0 0.38775401800237841 0.27785884734067562 0 0.38775401800237841 0.27785884734067562 0 0.38013330252790251 0.27452678719263962 0 0.38189131454075692 0.28211546475886662 0 0.37185276758731722 0.276352538420779 0 0.38013330252790251 0.27452678719263962 0 0.37613106976406008 0.28079578350991102 0 0.37185276758731722 0.276352538420779 0 0.37389508246648351 0.2700173891353651 0 0.38013330252790251 0.27452678719263962 0 0.38013330252790251 0.27452678719263962 0 0.37613106976406008 0.28079578350991102 0 0.38189131454075692 0.28211546475886662 0 0.37613106976406008 0.28079578350991102 0 0.38189131454075692 0.28211546475886662 0 0.37593575542882862 0.28661449164666147 0 0.38189131454075692 0.28211546475886662 0 0.381898444299134 0.28902380384400678 0 0.37593575542882862 0.28661449164666147 0 0.37657470784798819 0.29400651271503492 0 0.38548111370278321 0.29548520028765479 0 0.37898247376955169 0.30107255632978253 0 0.381898444299134 0.28902380384400678 0 0.37657470784798819 0.29400651271503492 0 0.38548111370278321 0.29548520028765479 0 0.381898444299134 0.28902380384400678 0 0.37593575542882862 0.28661449164666147 0 0.37657470784798819 0.29400651271503492 0 0.38548111370278321 0.29548520028765479 0 0.39219375908210102 0.30120984564087899 0 0.39366990350670727 0.29094662122067139 0 0.381898444299134 0.28902380384400678 0 0.38548111370278321 0.29548520028765479 0 0.38808130572254468 0.28608409291914522 0 0.38548111370278321 0.29548520028765479 0 0.38808130572254468 0.28608409291914522 0 0.39366990350670727 0.29094662122067139 0 0.38775401800237841 0.27785884734067562 0 0.38189131454075692 0.28211546475886662 0 0.38808130572254468 0.28608409291914522 0 0.38775401800237841 0.27785884734067562 0 0.38808130572254468 0.28608409291914522 0 0.39409849427587351 0.2816719624436429 0 0.38189131454075692 0.28211546475886662 0 0.381898444299134 0.28902380384400678 0 0.38808130572254468 0.28608409291914522 0 0.37656607900536809 0.30874367214310311 0 0.38511473399159701 0.30636272655262797 0 0.38206186109256102 0.31456911095655338 0 0.37656607900536809 0.30874367214310311 0 0.37898247376955169 0.30107255632978253 0 0.38511473399159701 0.30636272655262797 0 0.36977095643538288 0.29995470389244222 0 0.37656607900536809 0.30874367214310311 0 0.37898247376955169 0.30107255632978253 0 0.36977095643538288 0.29995470389244222 0 0.37657470784798819 0.29400651271503492 0 0.37898247376955169 0.30107255632978253 0 0.38548111370278321 0.29548520028765479 0 0.38511473399159701 0.30636272655262797 0 0.39219375908210102 0.30120984564087899 0 0.38548111370278321 0.29548520028765479 0 0.37898247376955169 0.30107255632978253 0 0.38511473399159701 0.30636272655262797 0 0.38511473399159701 0.30636272655262797 0 0.39283435857914889 0.30952892182526148 0 0.39219375908210102 0.30120984564087899 0 0.38511473399159701 0.30636272655262797 0 0.38759327503574181 0.31190925681896359 0 0.38206186109256102 0.31456911095655338 0 0.38511473399159701 0.30636272655262797 0 0.38759327503574181 0.31190925681896359 0 0.39283435857914889 0.30952892182526148 0 0.39283435857914889 0.30952892182526148 0 0.40089423838248872 0.30558450090424272 0 0.39881072065890649 0.31551060171562267 0 0.39283435857914889 0.30952892182526148 0 0.39219375908210102 0.30120984564087899 0 0.40089423838248872 0.30558450090424272 0 0.39219375908210102 0.30120984564087899 0 0.40089423838248872 0.30558450090424272 0 0.40184384380456228 0.29508495592348782 0 0.40089423838248872 0.30558450090424272 0 0.40184384380456228 0.29508495592348782 0 0.41229276252893821 0.29996668675960642 0 0.40089423838248872 0.30558450090424272 0 0.40945181260797442 0.31321096750837168 0 0.39881072065890649 0.31551060171562267 0 0.39409849427587351 0.2816719624436429 0 0.39366990350670727 0.29094662122067139 0 0.40158372554162097 0.28475974448073382 0 0.38808130572254468 0.28608409291914522 0 0.39409849427587351 0.2816719624436429 0 0.39366990350670727 0.29094662122067139 0 0.39219375908210102 0.30120984564087899 0 0.39366990350670727 0.29094662122067139 0 0.40184384380456228 0.29508495592348782 0 0.40184384380456228 0.29508495592348782 0 0.40158372554162097 0.28475974448073382 0 0.41078662985612557 0.28821681117850451 0 0.39366990350670727 0.29094662122067139 0 0.40184384380456228 0.29508495592348782 0 0.40158372554162097 0.28475974448073382 0 0.41078662985612557 0.28821681117850451 0 0.42048250760180961 0.28190045170406669 0 0.40959366261362667 0.2759701373669558 0 0.40158372554162097 0.28475974448073382 0 0.41078662985612557 0.28821681117850451 0 0.40959366261362667 0.2759701373669558 0 0.40184384380456228 0.29508495592348782 0 0.41078662985612557 0.28821681117850451 0 0.41229276252893821 0.29996668675960642 0 0.41940938545171552 0.29115974339294248 0 0.41229276252893821 0.29996668675960642 0 0.42516371066954561 0.29778148763403961 0 0.41078662985612557 0.28821681117850451 0 0.41940938545171552 0.29115974339294248 0 0.41229276252893821 0.29996668675960642 0 0.41078662985612557 0.28821681117850451 0 0.41940938545171552 0.29115974339294248 0 0.42048250760180961 0.28190045170406669 0 0.40089423838248872 0.30558450090424272 0 0.41229276252893821 0.29996668675960642 0 0.40945181260797442 0.31321096750837168 0 0.41229276252893821 0.29996668675960642 0 0.42240959752377277 0.31047077031402021 0 0.42516371066954561 0.29778148763403961 0 0.41229276252893821 0.29996668675960642 0 0.42240959752377277 0.31047077031402021 0 0.40945181260797442 0.31321096750837168 0 0.42240959752377277 0.31047077031402021 0 0.42516371066954561 0.29778148763403961 0 0.43763723285093897 0.30850928475196471 0 0.42516371066954561 0.29778148763403961 0 0.43752998696844542 0.29558853831412712 0 0.43763723285093897 0.30850928475196471 0 0.41940938545171552 0.29115974339294248 0 0.42048250760180961 0.28190045170406669 0 0.42832131660215839 0.28793327968849519 0 0.42048250760180961 0.28190045170406669 0 0.42832131660215839 0.28793327968849519 0 0.42983535958819902 0.27731642286274771 0 0.41940938545171552 0.29115974339294248 0 0.42516371066954561 0.29778148763403961 0 0.42832131660215839 0.28793327968849519 0 0.42516371066954561 0.29778148763403961 0 0.42832131660215839 0.28793327968849519 0 0.43752998696844542 0.29558853831412712 0 0.42832131660215839 0.28793327968849519 0 0.42983535958819902 0.27731642286274771 0 0.43829637567645519 0.28354199978699562 0 0.42832131660215839 0.28793327968849519 0 0.43752998696844542 0.29558853831412712 0 0.43829637567645519 0.28354199978699562 0 0.43588144364891651 0.27546644129807663 0 0.42983535958819902 0.27731642286274771 0 0.43829637567645519 0.28354199978699562 0 0.43588144364891651 0.27546644129807663 0 0.43281028560698992 0.26652434154490429 0 0.4425837537240217 0.27448300099765882 0 0.43588144364891651 0.27546644129807663 0 0.42983535958819902 0.27731642286274771 0 0.43281028560698992 0.26652434154490429 0 0.42983535958819902 0.27731642286274771 0 0.43281028560698992 0.26652434154490429 0 0.42051221116881038 0.27196905603986687 0 0.42048250760180961 0.28190045170406669 0 0.42983535958819902 0.27731642286274771 0 0.42051221116881038 0.27196905603986687 0 0.4014877482467471 0.26668212014171738 0 0.40959366261362667 0.2759701373669558 0 0.41002147865953648 0.2602666926713606 0 0.43281028560698992 0.26652434154490429 0 0.42051221116881038 0.27196905603986687 0 0.41002147865953648 0.2602666926713606 0 0.42051221116881038 0.27196905603986687 0 0.40959366261362667 0.2759701373669558 0 0.41002147865953648 0.2602666926713606 0 0.42048250760180961 0.28190045170406669 0 0.42051221116881038 0.27196905603986687 0 0.40959366261362667 0.2759701373669558 0 0.41002147865953648 0.2602666926713606 0 0.43150535227097658 0.25848763425031868 0 0.43281028560698992 0.26652434154490429 0 0.41002147865953648 0.2602666926713606 0 0.41099676279550601 0.25134095280765473 0 0.41002147865953648 0.2602666926713606 0 0.41932865494196331 0.24883874102536499 0 0.41099676279550601 0.25134095280765473 0 0.4063717063049434 0.25145482945124908 0 0.41002147865953648 0.2602666926713606 0 0.41002147865953648 0.2602666926713606 0 0.42560231519730157 0.25340816509022912 0 0.41932865494196331 0.24883874102536499 0 0.41002147865953648 0.2602666926713606 0 0.42560231519730157 0.25340816509022912 0 0.43150535227097658 0.25848763425031868 0 0.43281028560698992 0.26652434154490429 0 0.41002147865953648 0.2602666926713606 0 0.43150535227097658 0.25848763425031868 0 0.43281028560698992 0.26652434154490429 0 0.43150535227097658 0.25848763425031868 0 0.44779142952250739 0.26474497466581581 0 0.42560231519730157 0.25340816509022912 0 0.43813325040641182 0.25110539576759139 0 0.43023462224611481 0.24697649924138429 0 0.42560231519730157 0.25340816509022912 0 0.43150535227097658 0.25848763425031868 0 0.43813325040641182 0.25110539576759139 0 0.43150535227097658 0.25848763425031868 0 0.43813325040641182 0.25110539576759139 0 0.45298922588241691 0.25670857582927731 0 0.43150535227097658 0.25848763425031868 0 0.45298922588241691 0.25670857582927731 0 0.43150535227097658 0.25848763425031868 0 0.44779142952250739 0.26474497466581581 0 0.45298922588241691 0.25670857582927731 0 0.44779142952250739 0.26474497466581581 0 0.45298922588241691 0.25670857582927731 0 0.45535249488276891 0.26211498533438388 0 0.43813325040641182 0.25110539576759139 0 0.45298922588241691 0.25670857582927731 0 0.44968272882243682 0.2472523439071648 0 0.43281028560698992 0.26652434154490429 0 0.4425837537240217 0.27448300099765882 0 0.45559909255444331 0.27278199041844747 0 0.43281028560698992 0.26652434154490429 0 0.44779142952250739 0.26474497466581581 0 0.45559909255444331 0.27278199041844747 0 0.43281028560698992 0.26652434154490429 0 0.45559909255444331 0.27278199041844747 0 0.4425837537240217 0.27448300099765882 0 0.44843270590670309 0.28128019222931838 0 0.43829637567645519 0.28354199978699562 0 0.43588144364891651 0.27546644129807663 0 0.4425837537240217 0.27448300099765882 0 0.43829637567645519 0.28354199978699562 0 0.4425837537240217 0.27448300099765882 0 0.45559909255444331 0.27278199041844747 0 0.44843270590670309 0.28128019222931838 0 0.44779142952250739 0.26474497466581581 0 0.46498520201820898 0.27981997677882481 0 0.44779142952250739 0.26474497466581581 0 0.46012870687690732 0.26745980677309489 0 0.46498520201820898 0.27981997677882481 0 0.44779142952250739 0.26474497466581581 0 0.45559909255444331 0.27278199041844747 0 0.46498520201820898 0.27981997677882481 0 0.45868561710062072 0.27808352421068622 0 0.45559909255444331 0.27278199041844747 0 0.46498520201820898 0.27981997677882481 0 0.45868561710062072 0.27808352421068622 0 0.45559909255444331 0.27278199041844747 0 0.44843270590670309 0.28128019222931838 0 0.45868561710062072 0.27808352421068622 0 0.46185628212016472 0.27983696835915839 0 0.45978011537707042 0.28411966269876288 0 0.46012870687690732 0.26745980677309489 0 0.46675201566967311 0.27123303718991298 0 0.46872443671619418 0.26149473204168727 0 0.46012870687690732 0.26745980677309489 0 0.46675201566967311 0.27123303718991298 0 0.46498520201820898 0.27981997677882481 0 0.46675201566967311 0.27123303718991298 0 0.46498520201820898 0.27981997677882481 0 0.47099365637589419 0.27527676629061099 0 0.46498520201820898 0.27981997677882481 0 0.46185628212016472 0.27983696835915839 0 0.46297045645086049 0.28331422645790538 0 0.45868561710062072 0.27808352421068622 0 0.46498520201820898 0.27981997677882481 0 0.46185628212016472 0.27983696835915839 0 0.45298922588241691 0.25670857582927731 0 0.46050061724924413 0.259546584069348 0 0.46274340138698961 0.25127112480823849 0 0.45298922588241691 0.25670857582927731 0 0.46274340138698961 0.25127112480823849 0 0.44968272882243682 0.2472523439071648 0 0.44779142952250739 0.26474497466581581 0 0.46012870687690732 0.26745980677309489 0 0.45535249488276891 0.26211498533438388 0 0.46012870687690732 0.26745980677309489 0 0.45535249488276891 0.26211498533438388 0 0.46050061724924413 0.259546584069348 0 0.45298922588241691 0.25670857582927731 0 0.45535249488276891 0.26211498533438388 0 0.46050061724924413 0.259546584069348 0 0.46012870687690732 0.26745980677309489 0 0.46050061724924413 0.259546584069348 0 0.46872443671619418 0.26149473204168727 0 0.46050061724924413 0.259546584069348 0 0.46872443671619418 0.26149473204168727 0 0.46274340138698961 0.25127112480823849 0 0.46872443671619418 0.26149473204168727 0 0.47931551584260401 0.26610804969208979 0 0.47615849545698918 0.24281085992579499 0 0.47931551584260401 0.26610804969208979 0 0.49120942515367838 0.26344189065657192 0 0.47615849545698918 0.24281085992579499 0 0.46872443671619418 0.26149473204168727 0 0.46274340138698961 0.25127112480823849 0 0.47615849545698918 0.24281085992579499 0 0.49120942515367838 0.26344189065657192 0 0.47615849545698918 0.24281085992579499 0 0.47237675158187059 0.27035702364420661 0 0.47594149191050861 0.27435784990487427 0 0.47931551584260401 0.26610804969208979 0 0.46872443671619418 0.26149473204168727 0 0.47237675158187059 0.27035702364420661 0 0.47931551584260401 0.26610804969208979 0 0.46675201566967311 0.27123303718991298 0 0.46872443671619418 0.26149473204168727 0 0.47237675158187059 0.27035702364420661 0 0.46675201566967311 0.27123303718991298 0 0.47237675158187059 0.27035702364420661 0 0.47099365637589419 0.27527676629061099 0 0.47237675158187059 0.27035702364420661 0 0.47099365637589419 0.27527676629061099 0 0.47594149191050861 0.27435784990487427 0 0.46498520201820898 0.27981997677882481 0 0.47099365637589419 0.27527676629061099 0 0.47428268421048569 0.28035212075986388 0 0.47099365637589419 0.27527676629061099 0 0.47594149191050861 0.27435784990487427 0 0.47428268421048569 0.28035212075986388 0 0.47428268421048569 0.28035212075986388 0 0.48189674722450138 0.27759194626011779 0 0.48245520019788929 0.28447424369284502 0 0.47594149191050861 0.27435784990487427 0 0.47428268421048569 0.28035212075986388 0 0.48189674722450138 0.27759194626011779 0 0.48189674722450138 0.27759194626011779 0 0.47931551584260401 0.26610804969208979 0 0.48843518155201893 0.27477695698851301 0 0.47594149191050861 0.27435784990487427 0 0.48189674722450138 0.27759194626011779 0 0.47931551584260401 0.26610804969208979 0 0.47931551584260401 0.26610804969208979 0 0.48843518155201893 0.27477695698851301 0 0.49120942515367838 0.26344189065657192 0 0.5 0.28064652793311118 0 0.5 0.25368661965148542 0 0.49120942515367838 0.26344189065657192 0 0.48843518155201893 0.27477695698851301 0 0.5 0.28064652793311118 0 0.49120942515367838 0.26344189065657192 0 0.48189674722450138 0.27759194626011779 0 0.48843518155201893 0.27477695698851301 0 0.48975421953931092 0.28609637040067459 0 0.48843518155201893 0.27477695698851301 0 0.5 0.28064652793311118 0 0.48975421953931092 0.28609637040067459 0 0.5 0.25368661965148542 0 0.49120942515367838 0.26344189065657192 0 0.47615849545698918 0.24281085992579499 0 0.50000000000000155 0.30760643621473682 0 0.48689558629809437 0.30673705665715212 0 0.48259714317417057 0.29331928236509591 0 0.50000000000000155 0.30760643621473682 0 0.48259714317417057 0.29331928236509591 0 0.5 0.28064652793311118 0 0.50000000000000155 0.30760643621473682 0 0.48975421953931092 0.28609637040067459 0 0.50000000000000155 0.30760643621473682 0 0.48975421953931092 0.28609637040067459 0 0.48259714317417057 0.29331928236509591 0 0.48975421953931092 0.28609637040067459 0 0.48259714317417057 0.29331928236509591 0 0.48245520019788929 0.28447424369284502 0 0.48189674722450138 0.27759194626011779 0 0.48975421953931092 0.28609637040067459 0 0.48245520019788929 0.28447424369284502 0 0.46498520201820898 0.27981997677882481 0 0.48259714317417057 0.29331928236509591 0 0.46498520201820898 0.27981997677882481 0 0.476656801345472 0.30194749494253348 0 0.46542451870735863 0.28984521049950979 0 0.46498520201820898 0.27981997677882481 0 0.48259714317417057 0.29331928236509591 0 0.476656801345472 0.30194749494253348 0 0.46498520201820898 0.27981997677882481 0 0.476656801345472 0.30194749494253348 0 0.46498520201820898 0.27981997677882481 0 0.47428268421048569 0.28035212075986388 0 0.48259714317417057 0.29331928236509591 0 0.47428268421048569 0.28035212075986388 0 0.48259714317417057 0.29331928236509591 0 0.48245520019788929 0.28447424369284502 0 0.48689558629809437 0.30673705665715212 0 0.476656801345472 0.30194749494253348 0 0.48832840067273497 0.3240750131062422 0 0.476656801345472 0.30194749494253348 0 0.46729650697379987 0.29891110874104909 0 0.46542451870735863 0.28984521049950979 0 0.476656801345472 0.30194749494253348 0 0.4651072012686448 0.30863148358557729 0 0.46729650697379987 0.29891110874104909 0 0.48689558629809437 0.30673705665715212 0 0.48259714317417057 0.29331928236509591 0 0.476656801345472 0.30194749494253348 0 0.476656801345472 0.30194749494253348 0 0.4651072012686448 0.30863148358557729 0 0.4743848792555464 0.3172484229555223 0 0.4651072012686448 0.30863148358557729 0 0.46729650697379987 0.29891110874104909 0 0.45635951824298998 0.29851173277959903 0 0.4651072012686448 0.30863148358557729 0 0.45635951824298998 0.29851173277959903 0 0.45213967739722571 0.31138101109000532 0 0.46498520201820898 0.27981997677882481 0 0.46297045645086049 0.28331422645790538 0 0.46542451870735863 0.28984521049950979 0 0.46185628212016472 0.27983696835915839 0 0.46297045645086049 0.28331422645790538 0 0.45978011537707042 0.28411966269876288 0 0.46297045645086049 0.28331422645790538 0 0.46542451870735863 0.28984521049950979 0 0.45978011537707042 0.28411966269876288 0 0.46095396215506379 0.29170776045063718 0 0.46542451870735863 0.28984521049950979 0 0.45978011537707042 0.28411966269876288 0 0.46729650697379987 0.29891110874104909 0 0.45635951824298998 0.29851173277959903 0 0.46095396215506379 0.29170776045063718 0 0.46729650697379987 0.29891110874104909 0 0.46095396215506379 0.29170776045063718 0 0.46542451870735863 0.28984521049950979 0 0.45635951824298998 0.29851173277959903 0 0.45587936628030978 0.29115191308199823 0 0.44728292695647942 0.29276728511037592 0 0.45635951824298998 0.29851173277959903 0 0.46095396215506379 0.29170776045063718 0 0.45587936628030978 0.29115191308199823 0 0.45868561710062072 0.27808352421068622 0 0.45322325150545573 0.28572831496727091 0 0.44843270590670309 0.28128019222931838 0 0.46095396215506379 0.29170776045063718 0 0.45587936628030978 0.29115191308199823 0 0.45978011537707042 0.28411966269876288 0 0.45587936628030978 0.29115191308199823 0 0.45322325150545573 0.28572831496727091 0 0.45978011537707042 0.28411966269876288 0 0.45868561710062072 0.27808352421068622 0 0.45322325150545573 0.28572831496727091 0 0.45978011537707042 0.28411966269876288 0 0.45322325150545573 0.28572831496727091 0 0.44843270590670309 0.28128019222931838 0 0.44728292695647942 0.29276728511037592 0 0.45587936628030978 0.29115191308199823 0 0.45322325150545573 0.28572831496727091 0 0.44728292695647942 0.29276728511037592 0 0.44728292695647942 0.29276728511037592 0 0.43752998696844542 0.29558853831412712 0 0.43829637567645519 0.28354199978699562 0 0.44728292695647942 0.29276728511037592 0 0.43752998696844542 0.29558853831412712 0 0.4461898684832159 0.3013515704092144 0 0.44843270590670309 0.28128019222931838 0 0.44728292695647942 0.29276728511037592 0 0.43829637567645519 0.28354199978699562 0 0.45213967739722571 0.31138101109000532 0 0.4461898684832159 0.3013515704092144 0 0.43763723285093897 0.30850928475196471 0 0.45635951824298998 0.29851173277959903 0 0.45213967739722571 0.31138101109000532 0 0.4461898684832159 0.3013515704092144 0 0.45635951824298998 0.29851173277959903 0 0.44728292695647942 0.29276728511037592 0 0.4461898684832159 0.3013515704092144 0 0.43752998696844542 0.29558853831412712 0 0.4461898684832159 0.3013515704092144 0 0.43763723285093897 0.30850928475196471 0 0.43763723285093897 0.30850928475196471 0 0.44794918712943321 0.32322962533144312 0 0.43315558753294497 0.32030153240077502 0 0.44794918712943321 0.32322962533144312 0 0.4397911498486784 0.33581250940990681 0 0.43315558753294497 0.32030153240077502 0 0.45213967739722571 0.31138101109000532 0 0.43763723285093897 0.30850928475196471 0 0.44794918712943321 0.32322962533144312 0 0.4397911498486784 0.33581250940990681 0 0.4547653995247421 0.33873392179840239 0 0.43970528554372762 0.35395384700726151 0 0.44794918712943321 0.32322962533144312 0 0.4397911498486784 0.33581250940990681 0 0.4547653995247421 0.33873392179840239 0 0.44794918712943321 0.32322962533144312 0 0.4547653995247421 0.33873392179840239 0 0.46436247941099112 0.32365172287732391 0 0.4547653995247421 0.33873392179840239 0 0.46436247941099112 0.32365172287732391 0 0.47161265677343561 0.33984498105801952 0 0.45213967739722571 0.31138101109000532 0 0.44794918712943321 0.32322962533144312 0 0.46436247941099112 0.32365172287732391 0 0.4651072012686448 0.30863148358557729 0 0.45213967739722571 0.31138101109000532 0 0.46436247941099112 0.32365172287732391 0 0.4651072012686448 0.30863148358557729 0 0.46436247941099112 0.32365172287732391 0 0.4743848792555464 0.3172484229555223 0 0.476656801345472 0.30194749494253348 0 0.48832840067273497 0.3240750131062422 0 0.476656801345472 0.30194749494253348 0 0.4743848792555464 0.3172484229555223 0 0.48832840067273497 0.3240750131062422 0 0.4743848792555464 0.3172484229555223 0 0.47746934364207227 0.32806290016437861 0 0.48832840067273497 0.3240750131062422 0 0.46436247941099112 0.32365172287732391 0 0.4743848792555464 0.3172484229555223 0 0.47746934364207227 0.32806290016437861 0 0.46436247941099112 0.32365172287732391 0 0.47746934364207227 0.32806290016437861 0 0.47161265677343561 0.33984498105801952 0 0.47746934364207227 0.32806290016437861 0 0.47161265677343561 0.33984498105801952 0 0.48383955751363522 0.33839164488496021 0 0.47746934364207227 0.32806290016437861 0 0.48383955751363522 0.33839164488496021 0 0.48832840067273497 0.3240750131062422 0 0.5 0.32690448374234371 0 0.48832840067273497 0.3240750131062422 0 0.49999999999999889 0.3462025312699506 0 0.48383955751363522 0.33839164488496021 0 0.48832840067273497 0.3240750131062422 0 0.49999999999999889 0.3462025312699506 0 0.48832840067273497 0.3240750131062422 0 0.49999999999999889 0.3462025312699506 0 0.50000000000000155 0.30760643621473682 0 0.5 0.32690448374234371 0 0.48832840067273497 0.3240750131062422 0 0.50000000000000155 0.30760643621473682 0 0.48689558629809437 0.30673705665715212 0 0.48832840067273497 0.3240750131062422 0 0.48383955751363522 0.33839164488496021 0 0.49999999999999889 0.3462025312699506 0 0.48178738647993302 0.35377279882620971 0 0.5 0.37021413535264652 0 0.49999999999999889 0.3462025312699506 0 0.48178738647993302 0.35377279882620971 0 0.47161265677343561 0.33984498105801952 0 0.48178738647993302 0.35377279882620971 0 0.46273680668757111 0.35549927441467638 0 0.47161265677343561 0.33984498105801952 0 0.48383955751363522 0.33839164488496021 0 0.48178738647993302 0.35377279882620971 0 0.5 0.37021413535264652 0 0.48178738647993302 0.35377279882620971 0 0.46988463751921178 0.3750276432341671 0 0.48178738647993302 0.35377279882620971 0 0.46273680668757111 0.35549927441467638 0 0.46988463751921178 0.3750276432341671 0 0.46273680668757111 0.35549927441467638 0 0.45055210419082292 0.36669524195375031 0 0.46988463751921178 0.3750276432341671 0 0.45055210419082292 0.36669524195375031 0 0.45038845493779511 0.38236347589553721 0 0.46988463751921178 0.3750276432341671 0 0.4547653995247421 0.33873392179840239 0 0.47161265677343561 0.33984498105801952 0 0.46273680668757111 0.35549927441467638 0 0.4547653995247421 0.33873392179840239 0 0.46273680668757111 0.35549927441467638 0 0.43970528554372762 0.35395384700726151 0 0.46273680668757111 0.35549927441467638 0 0.43970528554372762 0.35395384700726151 0 0.45055210419082292 0.36669524195375031 0 0.43970528554372762 0.35395384700726151 0 0.45055210419082292 0.36669524195375031 0 0.43366957844317677 0.37594532694537203 0 0.43970528554372762 0.35395384700726151 0 0.42219307913786502 0.3624827804838508 0 0.43366957844317677 0.37594532694537203 0 0.42219307913786502 0.3624827804838508 0 0.41444519823838971 0.37801297254149202 0 0.43366957844317677 0.37594532694537203 0 0.42219307913786502 0.3624827804838508 0 0.40210169051929812 0.36134203324839492 0 0.41444519823838971 0.37801297254149202 0 0.42104364294473301 0.34315972267673339 0 0.40144631525063201 0.3317023798345064 0 0.40210169051929812 0.36134203324839492 0 0.42219307913786502 0.3624827804838508 0 0.42104364294473301 0.34315972267673339 0 0.40210169051929812 0.36134203324839492 0 0.4397911498486784 0.33581250940990681 0 0.43970528554372762 0.35395384700726151 0 0.42104364294473301 0.34315972267673339 0 0.43970528554372762 0.35395384700726151 0 0.42219307913786502 0.3624827804838508 0 0.42104364294473301 0.34315972267673339 0 0.43315558753294497 0.32030153240077502 0 0.41675647895229462 0.32305466282936379 0 0.42104364294473301 0.34315972267673339 0 0.4397911498486784 0.33581250940990681 0 0.43315558753294497 0.32030153240077502 0 0.42104364294473301 0.34315972267673339 0 0.42240959752377277 0.31047077031402021 0 0.43315558753294497 0.32030153240077502 0 0.41675647895229462 0.32305466282936379 0 0.42240959752377277 0.31047077031402021 0 0.43763723285093897 0.30850928475196471 0 0.43315558753294497 0.32030153240077502 0 0.41675647895229462 0.32305466282936379 0 0.40945181260797442 0.31321096750837168 0 0.40144631525063201 0.3317023798345064 0 0.42240959752377277 0.31047077031402021 0 0.41675647895229462 0.32305466282936379 0 0.40945181260797442 0.31321096750837168 0 0.41675647895229462 0.32305466282936379 0 0.42104364294473301 0.34315972267673339 0 0.40144631525063201 0.3317023798345064 0 0.42104364294473301 0.34315972267673339 0 0.40144631525063201 0.3317023798345064 0 0.40144631525063201 0.3317023798345064 0 0.38184898755653113 0.32024503699227902 0 0.40945181260797442 0.31321096750837168 0 0.40144631525063201 0.3317023798345064 0 0.39881072065890649 0.31551060171562267 0 0.40144631525063201 0.3317023798345064 0 0.39072782788276361 0.31723780763872739 0 0.38184898755653113 0.32024503699227902 0 0.40144631525063201 0.3317023798345064 0 0.39881072065890649 0.31551060171562267 0 0.39072782788276361 0.31723780763872739 0 0.39283435857914889 0.30952892182526148 0 0.39881072065890649 0.31551060171562267 0 0.39072782788276361 0.31723780763872739 0 0.38759327503574181 0.31190925681896359 0 0.39072782788276361 0.31723780763872739 0 0.38206186109256102 0.31456911095655338 0 0.39072782788276361 0.31723780763872739 0 0.38184898755653113 0.32024503699227902 0 0.38206186109256102 0.31456911095655338 0 0.38759327503574181 0.31190925681896359 0 0.39283435857914889 0.30952892182526148 0 0.39072782788276361 0.31723780763872739 0 0.37656607900536809 0.30874367214310311 0 0.38184898755653113 0.32024503699227902 0 0.38206186109256102 0.31456911095655338 0 0.38184898755653113 0.32024503699227902 0 0.38206186109256102 0.31456911095655338 0 0.38184898755653113 0.32024503699227902 0 0.38073743119054021 0.34988287660164258 0 0.40144631525063201 0.3317023798345064 0 0.38184898755653113 0.32024503699227902 0 0.38073743119054021 0.34988287660164258 0 0.36658252680600872 0.32610018065837482 0 0.38184898755653113 0.32024503699227902 0 0.38073743119054021 0.34988287660164258 0 0.38073743119054021 0.34988287660164258 0 0.40210169051929812 0.36134203324839492 0 0.37962587482454851 0.37952071621100641 0 0.38073743119054021 0.34988287660164258 0 0.37962587482454851 0.37952071621100641 0 0.40144631525063201 0.3317023798345064 0 0.38073743119054021 0.34988287660164258 0 0.40210169051929812 0.36134203324839492 0 0.4000747642284721 0.4003396260953187 0 0.39654802114844379 0.39022934603201892 0 0.3918275744570191 0.40797408847764122 0 0.4000747642284721 0.4003396260953187 0 0.40676501574912299 0.41032383945577688 0 0.41013933279790699 0.39560403969897823 0 0.4000747642284721 0.4003396260953187 0 0.3918275744570191 0.40797408847764122 0 0.40676501574912299 0.41032383945577688 0 0.4000747642284721 0.4003396260953187 0 0.39654802114844379 0.39022934603201892 0 0.41013933279790699 0.39560403969897823 0 0.40210169051929812 0.36134203324839492 0 0.39654802114844379 0.39022934603201892 0 0.41444519823838971 0.37801297254149202 0 0.40210169051929812 0.36134203324839492 0 0.39654802114844379 0.39022934603201892 0 0.37962587482454851 0.37952071621100641 0 0.36835141586495018 0.39380003178311118 0 0.37962587482454851 0.37952071621100641 0 0.37851431845855671 0.40915855582036997 0 0.39654802114844379 0.39022934603201892 0 0.37851431845855671 0.40915855582036997 0 0.3918275744570191 0.40797408847764122 0 0.39654802114844379 0.39022934603201892 0 0.37962587482454851 0.37952071621100641 0 0.37851431845855671 0.40915855582036997 0 0.37962587482454851 0.37952071621100641 0 0.37851431845855671 0.40915855582036997 0 0.37851431845855671 0.40915855582036997 0 0.38692985631910748 0.41866997237696091 0 0.37638722081423792 0.42316938585626601 0 0.37851431845855671 0.40915855582036997 0 0.38692985631910748 0.41866997237696091 0 0.3918275744570191 0.40797408847764122 0 0.38904154405315811 0.42929685890192598 0 0.39583088212908668 0.44000432996290062 0 0.37847536945977639 0.43809187827637081 0 0.37638722081423792 0.42316938585626601 0 0.38904154405315811 0.42929685890192598 0 0.37847536945977639 0.43809187827637081 0 0.38692985631910748 0.41866997237696091 0 0.37638722081423792 0.42316938585626601 0 0.38904154405315811 0.42929685890192598 0 0.38904154405315811 0.42929685890192598 0 0.40015788579480882 0.42298148920578788 0 0.39583088212908668 0.44000432996290062 0 0.40015788579480882 0.42298148920578788 0 0.40970812131092449 0.43289973887146249 0 0.39583088212908668 0.44000432996290062 0 0.38692985631910748 0.41866997237696091 0 0.38904154405315811 0.42929685890192598 0 0.40015788579480882 0.42298148920578788 0 0.38692985631910748 0.41866997237696091 0 0.40015788579480882 0.42298148920578788 0 0.3918275744570191 0.40797408847764122 0 0.40015788579480882 0.42298148920578788 0 0.3918275744570191 0.40797408847764122 0 0.40676501574912299 0.41032383945577688 0 0.40015788579480882 0.42298148920578788 0 0.40676501574912299 0.41032383945577688 0 0.41930677916438369 0.42159825144780583 0 0.40676501574912299 0.41032383945577688 0 0.41930677916438369 0.42159825144780583 0 0.42002518112989901 0.40479562829132593 0 0.41930677916438369 0.42159825144780583 0 0.40970812131092449 0.43289973887146249 0 0.42804053322212032 0.43885402660538553 0 0.40015788579480882 0.42298148920578788 0 0.41930677916438369 0.42159825144780583 0 0.40970812131092449 0.43289973887146249 0 0.43633644548164108 0.42657026010151061 0 0.44771721854242658 0.43422027791250511 0 0.42804053322212032 0.43885402660538553 0 0.41930677916438369 0.42159825144780583 0 0.43633644548164108 0.42657026010151061 0 0.42804053322212032 0.43885402660538553 0 0.41930677916438369 0.42159825144780583 0 0.43742536989173458 0.41122427700009151 0 0.42002518112989901 0.40479562829132593 0 0.41930677916438369 0.42159825144780583 0 0.43633644548164108 0.42657026010151061 0 0.43742536989173458 0.41122427700009151 0 0.43677538472084249 0.39426730550239142 0 0.42002518112989901 0.40479562829132593 0 0.42297781629311459 0.38992282577793669 0 0.43742536989173458 0.41122427700009151 0 0.43677538472084249 0.39426730550239142 0 0.42002518112989901 0.40479562829132593 0 0.42002518112989901 0.40479562829132593 0 0.41013933279790699 0.39560403969897823 0 0.42297781629311459 0.38992282577793669 0 0.40676501574912299 0.41032383945577688 0 0.42002518112989901 0.40479562829132593 0 0.41013933279790699 0.39560403969897823 0 0.39654802114844379 0.39022934603201892 0 0.41013933279790699 0.39560403969897823 0 0.41444519823838971 0.37801297254149202 0 0.41013933279790699 0.39560403969897823 0 0.41444519823838971 0.37801297254149202 0 0.42297781629311459 0.38992282577793669 0 0.43677538472084249 0.39426730550239142 0 0.43366957844317677 0.37594532694537203 0 0.42297781629311459 0.38992282577793669 0 0.41444519823838971 0.37801297254149202 0 0.43366957844317677 0.37594532694537203 0 0.42297781629311459 0.38992282577793669 0 0.45055210419082292 0.36669524195375031 0 0.43366957844317677 0.37594532694537203 0 0.45038845493779511 0.38236347589553721 0 0.43677538472084249 0.39426730550239142 0 0.43366957844317677 0.37594532694537203 0 0.45038845493779511 0.38236347589553721 0 0.43742536989173458 0.41122427700009151 0 0.43677538472084249 0.39426730550239142 0 0.45838088599099053 0.40067371736662899 0 0.43677538472084249 0.39426730550239142 0 0.45038845493779511 0.38236347589553721 0 0.45838088599099053 0.40067371736662899 0 0.45038845493779511 0.38236347589553721 0 0.45838088599099053 0.40067371736662899 0 0.46988463751921178 0.3750276432341671 0 0.45838088599099053 0.40067371736662899 0 0.46988463751921178 0.3750276432341671 0 0.48202727111062738 0.39106726308810352 0 0.5 0.37021413535264652 0 0.46988463751921178 0.3750276432341671 0 0.48202727111062738 0.39106726308810352 0 0.45838088599099053 0.40067371736662899 0 0.48202727111062738 0.39106726308810352 0 0.47919044299549463 0.40945553044233379 0 0.45838088599099053 0.40067371736662899 0 0.47919044299549463 0.40945553044233379 0 0.48202727111062738 0.39106726308810352 0 0.5 0.39422573943534239 0 0.47919044299549463 0.40945553044233379 0 0.5 0.37021413535264652 0 0.48202727111062738 0.39106726308810352 0 0.5 0.39422573943534239 0 0.49999999999999889 0.41823734351803832 0 0.47919044299549463 0.40945553044233379 0 0.4747131122581254 0.42624022433959452 0 0.5 0.39422573943534239 0 0.49999999999999889 0.41823734351803832 0 0.47919044299549463 0.40945553044233379 0 0.49999999999999889 0.41823734351803832 0 0.47919044299549463 0.40945553044233379 0 0.47919044299549463 0.40945553044233379 0 0.4747131122581254 0.42624022433959452 0 0.45372754286265082 0.41944049929088639 0 0.49999999999999889 0.41823734351803832 0 0.4747131122581254 0.42624022433959452 0 0.47602409232796111 0.44150119073165373 0 0.4747131122581254 0.42624022433959452 0 0.46301510404765789 0.43639888698834939 0 0.47602409232796111 0.44150119073165373 0 0.46301510404765789 0.43639888698834939 0 0.45372754286265082 0.41944049929088639 0 0.44771721854242658 0.43422027791250511 0 0.4747131122581254 0.42624022433959452 0 0.46301510404765789 0.43639888698834939 0 0.45372754286265082 0.41944049929088639 0 0.45838088599099053 0.40067371736662899 0 0.47919044299549463 0.40945553044233379 0 0.45372754286265082 0.41944049929088639 0 0.43633644548164108 0.42657026010151061 0 0.43742536989173458 0.41122427700009151 0 0.45372754286265082 0.41944049929088639 0 0.43742536989173458 0.41122427700009151 0 0.45838088599099053 0.40067371736662899 0 0.45372754286265082 0.41944049929088639 0 0.43633644548164108 0.42657026010151061 0 0.45372754286265082 0.41944049929088639 0 0.44771721854242658 0.43422027791250511 0 0.44771721854242658 0.43422027791250511 0 0.44338303665719853 0.44858736745960021 0 0.42804053322212032 0.43885402660538553 0 0.46301510404765789 0.43639888698834939 0 0.44771721854242658 0.43422027791250511 0 0.44338303665719853 0.44858736745960021 0 0.49999999999999889 0.41823734351803832 0 0.47895244381485019 0.46793427242341379 0 0.5 0.5 0 0.44338303665719853 0.44858736745960021 0 0.4496718875776507 0.46766977543523403 0 0.46207396962197511 0.45759925799223289 0 0.44338303665719853 0.44858736745960021 0 0.4496718875776507 0.46766977543523403 0 0.43371178172432129 0.4669612687278108 0 0.46207396962197511 0.45759925799223289 0 0.47895244381485019 0.46793427242341379 0 0.46113283519629211 0.47879962899611639 0 0.4496718875776507 0.46766977543523403 0 0.46207396962197511 0.45759925799223289 0 0.46113283519629211 0.47879962899611639 0 0.46207396962197511 0.45759925799223289 0 0.46113283519629211 0.47879962899611639 0 0.46301510404765789 0.43639888698834939 0 0.44338303665719853 0.44858736745960021 0 0.46207396962197511 0.45759925799223289 0 0.46301510404765789 0.43639888698834939 0 0.46207396962197511 0.45759925799223289 0 0.46301510404765789 0.43639888698834939 0 0.46207396962197511 0.45759925799223289 0 0.47602409232796111 0.44150119073165373 0 0.49999999999999889 0.41823734351803832 0 0.47602409232796111 0.44150119073165373 0 0.47895244381485019 0.46793427242341379 0 0.46207396962197511 0.45759925799223289 0 0.47602409232796111 0.44150119073165373 0 0.47895244381485019 0.46793427242341379 0 0.47895244381485019 0.46793427242341379 0 0.5 0.5 0 0.46019170077060922 0.49999999999999989 0 0.46019170077060922 0.49999999999999989 0 0.46113283519629211 0.47879962899611639 0 0.46019170077060922 0.49999999999999989 0 0.46113283519629211 0.47879962899611639 0 0.44363685497185912 0.48271925579662289 0 0.47895244381485019 0.46793427242341379 0 0.46019170077060922 0.49999999999999989 0 0.46113283519629211 0.47879962899611639 0 0.4496718875776507 0.46766977543523403 0 0.44363685497185912 0.48271925579662289 0 0.43371178172432129 0.4669612687278108 0 0.4496718875776507 0.46766977543523403 0 0.46113283519629211 0.47879962899611639 0 0.44363685497185912 0.48271925579662289 0 0.46019170077060922 0.49999999999999989 0 0.44363685497185912 0.48271925579662289 0 0.43464149655512407 0.5 0 0.43464149655512407 0.5 0 0.40909129233963909 0.5 0 0.42247142800715692 0.48288486162057659 0 0.44363685497185912 0.48271925579662289 0 0.43464149655512407 0.5 0 0.42247142800715692 0.48288486162057659 0 0.40909129233963909 0.5 0 0.42247142800715692 0.48288486162057659 0 0.39934237769435582 0.48242528899690279 0 0.42247142800715692 0.48288486162057659 0 0.41284596431242321 0.46513775100853788 0 0.39934237769435582 0.48242528899690279 0 0.44363685497185912 0.48271925579662289 0 0.42247142800715692 0.48288486162057659 0 0.43371178172432129 0.4669612687278108 0 0.42247142800715692 0.48288486162057659 0 0.43371178172432129 0.4669612687278108 0 0.41284596431242321 0.46513775100853788 0 0.43371178172432129 0.4669612687278108 0 0.4261774318390581 0.45322919626747971 0 0.41284596431242321 0.46513775100853788 0 0.44338303665719853 0.44858736745960021 0 0.43371178172432129 0.4669612687278108 0 0.4261774318390581 0.45322919626747971 0 0.44338303665719853 0.44858736745960021 0 0.4261774318390581 0.45322919626747971 0 0.42804053322212032 0.43885402660538553 0 0.4261774318390581 0.45322919626747971 0 0.42804053322212032 0.43885402660538553 0 0.41290584327922708 0.44660556753606401 0 0.40970812131092449 0.43289973887146249 0 0.42804053322212032 0.43885402660538553 0 0.41290584327922708 0.44660556753606401 0 0.41290584327922708 0.44660556753606401 0 0.41284596431242321 0.46513775100853788 0 0.39986125918655729 0.45466506155793768 0 0.4261774318390581 0.45322919626747971 0 0.41290584327922708 0.44660556753606401 0 0.41284596431242321 0.46513775100853788 0 0.39312702893271012 0.46682829715160662 0 0.39986125918655729 0.45466506155793768 0 0.38023811072368852 0.45528438267371318 0 0.41284596431242321 0.46513775100853788 0 0.39312702893271012 0.46682829715160662 0 0.39986125918655729 0.45466506155793768 0 0.41290584327922708 0.44660556753606401 0 0.39986125918655729 0.45466506155793768 0 0.39583088212908668 0.44000432996290062 0 0.40970812131092449 0.43289973887146249 0 0.41290584327922708 0.44660556753606401 0 0.39583088212908668 0.44000432996290062 0 0.39986125918655729 0.45466506155793768 0 0.39583088212908668 0.44000432996290062 0 0.38023811072368852 0.45528438267371318 0 0.39583088212908668 0.44000432996290062 0 0.37847536945977639 0.43809187827637081 0 0.38023811072368852 0.45528438267371318 0 0.37497746445005159 0.47970082420069599 0 0.39312702893271012 0.46682829715160662 0 0.38023811072368852 0.45528438267371318 0 0.37497746445005159 0.47970082420069599 0 0.39312702893271012 0.46682829715160662 0 0.39934237769435582 0.48242528899690279 0 0.37497746445005159 0.47970082420069599 0 0.38354108812415411 0.5 0 0.39934237769435582 0.48242528899690279 0 0.40909129233963909 0.5 0 0.38354108812415411 0.5 0 0.39934237769435582 0.48242528899690279 0 0.41284596431242321 0.46513775100853788 0 0.39312702893271012 0.46682829715160662 0 0.39934237769435582 0.48242528899690279 0 0.33179498512492328 0.065528686768267189 0 0.32787927193079952 0.096524897533876844 0 0.35462536571662912 0.086291324138580414 0 0.33179498512492328 0.065528686768267189 0 0.30515986321958433 0.067920512164222888 0 0.33179498512492328 0.065528686768267189 0 0.30671719674199371 0.087249915701973796 0 0.30515986321958433 0.067920512164222888 0 0.33179498512492328 0.065528686768267189 0 0.32787927193079952 0.096524897533876844 0 0.30671719674199371 0.087249915701973796 0 0.32787927193079952 0.096524897533876844 0 0.30671719674199371 0.087249915701973796 0 0.30871763680902331 0.1099616071387159 0 0.32787927193079952 0.096524897533876844 0 0.32776194051788382 0.1156708372280906 0 0.30871763680902331 0.1099616071387159 0 0.32776194051788382 0.1156708372280906 0 0.30871763680902331 0.1099616071387159 0 0.31936076079223302 0.12982502937519891 0 0.32776194051788382 0.1156708372280906 0 0.34600314883793132 0.1115776246470238 0 0.33834141819609043 0.1306514005167432 0 0.32787927193079952 0.096524897533876844 0 0.32776194051788382 0.1156708372280906 0 0.34600314883793132 0.1115776246470238 0 0.32787927193079952 0.096524897533876844 0 0.34600314883793132 0.1115776246470238 0 0.35462536571662912 0.086291324138580414 0 0.34600314883793132 0.1115776246470238 0 0.3684218295691099 0.1088980363629322 0 0.35462536571662912 0.086291324138580414 0 0.34600314883793132 0.1115776246470238 0 0.33834141819609043 0.1306514005167432 0 0.35926879239963178 0.1310453541691062 0 0.34600314883793132 0.1115776246470238 0 0.3684218295691099 0.1088980363629322 0 0.35926879239963178 0.1310453541691062 0 0.3684218295691099 0.1088980363629322 0 0.35926879239963178 0.1310453541691062 0 0.3684218295691099 0.1088980363629322 0 0.35926879239963178 0.1310453541691062 0 0.38040268001195021 0.1251160331139205 0 0.3684218295691099 0.1088980363629322 0 0.35462536571662912 0.086291324138580414 0 0.37757486673858798 0.086750718556758116 0 0.3684218295691099 0.1088980363629322 0 0.37757486673858798 0.086750718556758116 0 0.35462536571662912 0.086291324138580414 0 0.37218066484668322 0.071556363146405774 0 0.37757486673858798 0.086750718556758116 0 0.33179498512492328 0.065528686768267189 0 0.35843010703026201 0.063136861372311531 0 0.33179498512492328 0.065528686768267189 0 0.35462536571662912 0.086291324138580414 0 0.35843010703026201 0.063136861372311531 0 0.35462536571662912 0.086291324138580414 0 0.35843010703026201 0.063136861372311531 0 0.37218066484668322 0.071556363146405774 0 0.35843010703026201 0.063136861372311531 0 0.37218066484668322 0.071556363146405774 0 0.3850652289356008 0.060745035976355853 0 0.35843010703026201 0.063136861372311531 0 0.36674866338864692 0.046406419455025237 0 0.37522327912169939 0.054381046480790222 0 0.35843010703026201 0.063136861372311531 0 0.37522327912169939 0.054381046480790222 0 0.3850652289356008 0.060745035976355853 0 0.36674866338864692 0.046406419455025237 0 0.37522327912169939 0.054381046480790222 0 0.38290950858464862 0.047182100964964307 0 0.35843010703026201 0.063136861372311531 0 0.3850652289356008 0.060745035976355853 0 0.36662321767476691 0.03537186301540314 0 0.36674866338864692 0.046406419455025237 0 0.37734786905831008 0.037695570486944698 0 0.36662321767476691 0.03537186301540314 0 0.36849572231199829 0.022033052291418231 0 0.37734786905831008 0.037695570486944698 0 0.36662321767476691 0.03537186301540314 0 0.36674866338864692 0.046406419455025237 0 0.35390061594011218 0.035352409828224407 0 0.36674866338864692 0.046406419455025237 0 0.35390061594011218 0.035352409828224407 0 0.34639521856088079 0.050837388844107427 0 0.35390061594011218 0.035352409828224407 0 0.34639521856088079 0.050837388844107427 0 0.33108162234846922 0.043951030380322761 0 0.33179498512492328 0.065528686768267189 0 0.35843010703026201 0.063136861372311531 0 0.34639521856088079 0.050837388844107427 0 0.35843010703026201 0.063136861372311531 0 0.36674866338864692 0.046406419455025237 0 0.34639521856088079 0.050837388844107427 0 0.3654642924504018 0.0061638334601938349 0 0.36849572231199829 0.022033052291418231 0 0.38252354203690109 0.0067354487879814646 0 0.3654642924504018 0.0061638334601938349 0 0.38252354203690109 0.0067354487879814646 0 0.37245117985273513 -0.0043477990582807607 0 0.3654642924504018 0.0061638334601938349 0 0.36849572231199829 0.022033052291418231 0 0.3481515512902057 0.0094337117626711146 0 0.36662321767476691 0.03537186301540314 0 0.35390061594011218 0.035352409828224407 0 0.36849572231199829 0.022033052291418231 0 0.35390061594011218 0.035352409828224407 0 0.36849572231199829 0.022033052291418231 0 0.3481515512902057 0.0094337117626711146 0 0.36849572231199829 0.022033052291418231 0 0.3481515512902057 0.0094337117626711146 0 0.35390061594011218 0.035352409828224407 0 0.3481515512902057 0.0094337117626711146 0 0.33988516951015951 0.015710131957556699 0 0.35390061594011218 0.035352409828224407 0 0.3481515512902057 0.0094337117626711146 0 0.3654642924504018 0.0061638334601938349 0 0.3481515512902057 0.0094337117626711146 0 0.35674185338391229 -0.0051836605579625864 0 0.3481515512902057 0.0094337117626711146 0 0.34182094924321188 0.0055131091066776688 0 0.34276048597613251 -0.014871006071638619 0 0.3481515512902057 0.0094337117626711146 0 0.34182094924321188 0.0055131091066776688 0 0.34182094924321188 0.0055131091066776688 0 0.33127157248101202 0.01164439691832493 0 0.3300625678273989 -0.005156065376405658 0 0.34182094924321188 0.0055131091066776688 0 0.33127157248101202 0.01164439691832493 0 0.33988516951015951 0.015710131957556699 0 0.3481515512902057 0.0094337117626711146 0 0.34182094924321188 0.0055131091066776688 0 0.33988516951015951 0.015710131957556699 0 0.35390061594011218 0.035352409828224407 0 0.33988516951015951 0.015710131957556699 0 0.33247442093660118 0.026221605965691591 0 0.33127157248101202 0.01164439691832493 0 0.33988516951015951 0.015710131957556699 0 0.33247442093660118 0.026221605965691591 0 0.33127157248101202 0.01164439691832493 0 0.33247442093660118 0.026221605965691591 0 0.3213845664759189 0.017257093516383729 0 0.33247442093660118 0.026221605965691591 0 0.31499997486425979 0.03081220990774278 0 0.3213845664759189 0.017257093516383729 0 0.31499997486425979 0.03081220990774278 0 0.3213845664759189 0.017257093516383729 0 0.3074944344823875 0.011496651727256489 0 0.33127157248101202 0.01164439691832493 0 0.32068242961533377 0.0061106030629028869 0 0.3300625678273989 -0.005156065376405658 0 0.32068242961533377 0.0061106030629028869 0 0.3074944344823875 0.011496651727256489 0 0.31326154193058459 -0.0060169499919069582 0 0.33127157248101202 0.01164439691832493 0 0.3213845664759189 0.017257093516383729 0 0.32068242961533377 0.0061106030629028869 0 0.3213845664759189 0.017257093516383729 0 0.32068242961533377 0.0061106030629028869 0 0.3074944344823875 0.011496651727256489 0 0.33179498512492328 0.065528686768267189 0 0.34639521856088079 0.050837388844107427 0 0.33108162234846922 0.043951030380322761 0 0.35390061594011218 0.035352409828224407 0 0.33247442093660118 0.026221605965691591 0 0.33108162234846922 0.043951030380322761 0 0.33247442093660118 0.026221605965691591 0 0.31499997486425979 0.03081220990774278 0 0.33108162234846922 0.043951030380322761 0 0.31499997486425979 0.03081220990774278 0 0.33108162234846922 0.043951030380322761 0 0.30893261671879252 0.048355862331557239 0 0.33179498512492328 0.065528686768267189 0 0.30893261671879252 0.048355862331557239 0 0.30515986321958433 0.067920512164222888 0 0.33179498512492328 0.065528686768267189 0 0.33108162234846922 0.043951030380322761 0 0.30893261671879252 0.048355862331557239 0 0.30893261671879252 0.048355862331557239 0 0.29144951978005429 0.058743806230799181 0 0.30515986321958433 0.067920512164222888 0 0.31499997486425979 0.03081220990774278 0 0.30893261671879252 0.048355862331557239 0 0.30046949891330937 0.028023346167998609 0 0.30893261671879252 0.048355862331557239 0 0.28590750808183751 0.04009179297200615 0 0.30046949891330937 0.028023346167998609 0 0.30893261671879252 0.048355862331557239 0 0.28590750808183751 0.04009179297200615 0 0.29144951978005429 0.058743806230799181 0 0.28590750808183751 0.04009179297200615 0 0.29144951978005429 0.058743806230799181 0 0.27029975126315148 0.060964026276644809 0 0.3074944344823875 0.011496651727256489 0 0.30046949891330937 0.028023346167998609 0 0.28501296041926999 0.0093602139014304017 0 0.31499997486425979 0.03081220990774278 0 0.3074944344823875 0.011496651727256489 0 0.30046949891330937 0.028023346167998609 0 0.28590750808183751 0.04009179297200615 0 0.30046949891330937 0.028023346167998609 0 0.28501296041926999 0.0093602139014304017 0 0.3074944344823875 0.011496651727256489 0 0.28501296041926999 0.0093602139014304017 0 0.29760161202640079 -0.0085083226429117434 0 0.28501296041926999 0.0093602139014304017 0 0.25425597451158072 0.012088783861486979 0 0.27253607000717928 -0.0036294663830757521 0 0.28501296041926999 0.0093602139014304017 0 0.25425597451158072 0.012088783861486979 0 0.26290070026616108 0.034848373697861243 0 0.28590750808183751 0.04009179297200615 0 0.28501296041926999 0.0093602139014304017 0 0.26290070026616108 0.034848373697861243 0 0.23727068837385579 0.039648874162388492 0 0.25425597451158072 0.012088783861486979 0 0.26290070026616108 0.034848373697861243 0 0.25425597451158072 0.012088783861486979 0 0.2578183078052394 -0.0046775058104196422 0 0.27253607000717928 -0.0036294663830757521 0 0.28590750808183751 0.04009179297200615 0 0.27029975126315148 0.060964026276644809 0 0.26290070026616108 0.034848373697861243 0 0.23727068837385579 0.039648874162388492 0 0.26290070026616108 0.034848373697861243 0 0.25081120588605921 0.055896535270252852 0 0.27029975126315148 0.060964026276644809 0 0.26290070026616108 0.034848373697861243 0 0.25081120588605921 0.055896535270252852 0 0.27029975126315148 0.060964026276644809 0 0.25107041730997021 0.076146770429481356 0 0.26960048802055647 0.082213803640248773 0 0.27029975126315148 0.060964026276644809 0 0.25081120588605921 0.055896535270252852 0 0.25107041730997021 0.076146770429481356 0 0.25107041730997021 0.076146770429481356 0 0.26960048802055647 0.082213803640248773 0 0.2612497628965883 0.099776682379263543 0 0.26960048802055647 0.082213803640248773 0 0.28644679208110702 0.095776602945591108 0 0.2612497628965883 0.099776682379263543 0 0.26960048802055647 0.082213803640248773 0 0.28694785961690578 0.076386837409564839 0 0.28644679208110702 0.095776602945591108 0 0.27029975126315148 0.060964026276644809 0 0.26960048802055647 0.082213803640248773 0 0.28694785961690578 0.076386837409564839 0 0.29144951978005429 0.058743806230799181 0 0.28694785961690578 0.076386837409564839 0 0.30515986321958433 0.067920512164222888 0 0.29144951978005429 0.058743806230799181 0 0.27029975126315148 0.060964026276644809 0 0.28694785961690578 0.076386837409564839 0 0.28694785961690578 0.076386837409564839 0 0.30671719674199371 0.087249915701973796 0 0.28644679208110702 0.095776602945591108 0 0.28694785961690578 0.076386837409564839 0 0.30671719674199371 0.087249915701973796 0 0.30515986321958433 0.067920512164222888 0 0.30871763680902331 0.1099616071387159 0 0.30313585209747851 0.12785953469376149 0 0.31936076079223302 0.12982502937519891 0 0.30871763680902331 0.1099616071387159 0 0.28972164350166763 0.11682443249251891 0 0.30313585209747851 0.12785953469376149 0 0.30671719674199371 0.087249915701973796 0 0.30871763680902331 0.1099616071387159 0 0.28644679208110702 0.095776602945591108 0 0.30871763680902331 0.1099616071387159 0 0.28644679208110702 0.095776602945591108 0 0.28972164350166763 0.11682443249251891 0 0.28972164350166763 0.11682443249251891 0 0.26973980476021092 0.1242330656072252 0 0.2612497628965883 0.099776682379263543 0 0.28644679208110702 0.095776602945591108 0 0.28972164350166763 0.11682443249251891 0 0.2612497628965883 0.099776682379263543 0 0.2466991958758139 0.1232347989630867 0 0.2612497628965883 0.099776682379263543 0 0.2466991958758139 0.1232347989630867 0 0.26973980476021092 0.1242330656072252 0 0.2612497628965883 0.099776682379263543 0 0.2466991958758139 0.1232347989630867 0 0.26973980476021092 0.1242330656072252 0 0.26606106232729959 0.1455897390653936 0 0.24899860534032439 0.15212894843547389 0 0.2466991958758139 0.1232347989630867 0 0.26606106232729959 0.1455897390653936 0 0.26973980476021092 0.1242330656072252 0 0.26606106232729959 0.1455897390653936 0 0.28518704300235342 0.13573253504784541 0 0.26606106232729959 0.1455897390653936 0 0.28518704300235342 0.13573253504784541 0 0.28545257245678479 0.1550897172496786 0 0.26606106232729959 0.1455897390653936 0 0.27190767327014997 0.1591292292279502 0 0.28545257245678479 0.1550897172496786 0 0.24899860534032439 0.15212894843547389 0 0.26606106232729959 0.1455897390653936 0 0.25993023620439348 0.16768951731488221 0 0.2494776261920125 0.18849616454771709 0 0.25993023620439348 0.16768951731488221 0 0.27068225099268839 0.18404301706431039 0 0.25993023620439348 0.16768951731488221 0 0.27068225099268839 0.18404301706431039 0 0.27608699823381982 0.17102361571848421 0 0.27068225099268839 0.18404301706431039 0 0.27608699823381982 0.17102361571848421 0 0.28410519648003552 0.18306717186681221 0 0.27190767327014997 0.1591292292279502 0 0.27608699823381982 0.17102361571848421 0 0.28545257245678479 0.1550897172496786 0 0.25993023620439348 0.16768951731488221 0 0.27190767327014997 0.1591292292279502 0 0.27608699823381982 0.17102361571848421 0 0.26606106232729959 0.1455897390653936 0 0.25993023620439348 0.16768951731488221 0 0.27190767327014997 0.1591292292279502 0 0.28987788470996101 0.17176171823224851 0 0.29861163320713119 0.16316061314068589 0 0.28545257245678479 0.1550897172496786 0 0.27608699823381982 0.17102361571848421 0 0.28987788470996101 0.17176171823224851 0 0.28545257245678479 0.1550897172496786 0 0.29861163320713119 0.16316061314068589 0 0.29886891360038931 0.1538401698247292 0 0.28545257245678479 0.1550897172496786 0 0.27608699823381982 0.17102361571848421 0 0.28987788470996101 0.17176171823224851 0 0.28410519648003552 0.18306717186681221 0 0.28987788470996101 0.17176171823224851 0 0.29513194979236762 0.1856018691894229 0 0.30284623088475882 0.17476395406250539 0 0.28987788470996101 0.17176171823224851 0 0.28410519648003552 0.18306717186681221 0 0.29513194979236762 0.1856018691894229 0 0.29513194979236762 0.1856018691894229 0 0.30284623088475882 0.17476395406250539 0 0.30709309235905641 0.1869570340640502 0 0.30284623088475882 0.17476395406250539 0 0.31210373096038613 0.1784360676417554 0 0.3121162015775123 0.1703784892653567 0 0.30284623088475882 0.17476395406250539 0 0.31210373096038613 0.1784360676417554 0 0.30709309235905641 0.1869570340640502 0 0.29861163320713119 0.16316061314068589 0 0.30637062816642829 0.1658591404929555 0 0.30651563693567008 0.15806819308482351 0 0.29861163320713119 0.16316061314068589 0 0.30651563693567008 0.15806819308482351 0 0.29886891360038931 0.1538401698247292 0 0.28987788470996101 0.17176171823224851 0 0.30284623088475882 0.17476395406250539 0 0.29861163320713119 0.16316061314068589 0 0.30284623088475882 0.17476395406250539 0 0.29861163320713119 0.16316061314068589 0 0.30637062816642829 0.1658591404929555 0 0.30284623088475882 0.17476395406250539 0 0.30637062816642829 0.1658591404929555 0 0.3121162015775123 0.1703784892653567 0 0.30637062816642829 0.1658591404929555 0 0.3121162015775123 0.1703784892653567 0 0.31176343822706909 0.16292445291140581 0 0.30637062816642829 0.1658591404929555 0 0.31176343822706909 0.16292445291140581 0 0.30651563693567008 0.15806819308482351 0 0.31176343822706909 0.16292445291140581 0 0.30651563693567008 0.15806819308482351 0 0.31209569557027161 0.15797093572074411 0 0.30651563693567008 0.15806819308482351 0 0.31209569557027161 0.15797093572074411 0 0.31072952580640389 0.1539076321181426 0 0.30675340253168121 0.14808360446996299 0 0.31647091427306762 0.14701787532380389 0 0.31289091139011987 0.15036288577791829 0 0.30675340253168121 0.14808360446996299 0 0.30313585209747851 0.12785953469376149 0 0.31647091427306762 0.14701787532380389 0 0.30651563693567008 0.15806819308482351 0 0.31072952580640389 0.1539076321181426 0 0.30675340253168121 0.14808360446996299 0 0.31072952580640389 0.1539076321181426 0 0.30675340253168121 0.14808360446996299 0 0.31289091139011987 0.15036288577791829 0 0.31072952580640389 0.1539076321181426 0 0.31289091139011987 0.15036288577791829 0 0.31361008956645231 0.15236693682385 0 0.29886891360038931 0.1538401698247292 0 0.29701132287067888 0.1447987211784946 0 0.30675340253168121 0.14808360446996299 0 0.30651563693567008 0.15806819308482351 0 0.29886891360038931 0.1538401698247292 0 0.30675340253168121 0.14808360446996299 0 0.29701132287067888 0.1447987211784946 0 0.30675340253168121 0.14808360446996299 0 0.30313585209747851 0.12785953469376149 0 0.30313585209747851 0.12785953469376149 0 0.31647091427306762 0.14701787532380389 0 0.28972164350166763 0.11682443249251891 0 0.26973980476021092 0.1242330656072252 0 0.28518704300235342 0.13573253504784541 0 0.29701132287067888 0.1447987211784946 0 0.30313585209747851 0.12785953469376149 0 0.28518704300235342 0.13573253504784541 0 0.28972164350166763 0.11682443249251891 0 0.30313585209747851 0.12785953469376149 0 0.28518704300235342 0.13573253504784541 0 0.29701132287067888 0.1447987211784946 0 0.28518704300235342 0.13573253504784541 0 0.28545257245678479 0.1550897172496786 0 0.29886891360038931 0.1538401698247292 0 0.29701132287067888 0.1447987211784946 0 0.28545257245678479 0.1550897172496786 0 0.27443720199250721 0.24323653037456719 0 0.26102007976483688 0.22551604710539039 0 0.26633255678366302 0.25915529429061179 0 0.27443720199250721 0.24323653037456719 0 0.25099764385199508 0.24313445578590931 0 0.27443720199250721 0.24323653037456719 0 0.25099764385199508 0.24313445578590931 0 0.26102007976483688 0.22551604710539039 0 0.27443720199250721 0.24323653037456719 0 0.26102007976483688 0.22551604710539039 0 0.27872766505811841 0.22591295163731601 0 0.26102007976483688 0.22551604710539039 0 0.27872766505811841 0.22591295163731601 0 0.26909599605434381 0.21381519789739639 0 0.26909599605434381 0.21381519789739639 0 0.2684306071746318 0.19772189428192141 0 0.28391954767721128 0.21262707745315379 0 0.27872766505811841 0.22591295163731601 0 0.26909599605434381 0.21381519789739639 0 0.28391954767721128 0.21262707745315379 0 0.26102007976483688 0.22551604710539039 0 0.26909599605434381 0.21381519789739639 0 0.25172225287358252 0.20891730451015739 0 0.26909599605434381 0.21381519789739639 0 0.25172225287358252 0.20891730451015739 0 0.2684306071746318 0.19772189428192141 0 0.2494776261920125 0.18849616454771709 0 0.27068225099268839 0.18404301706431039 0 0.2684306071746318 0.19772189428192141 0 0.2494776261920125 0.18849616454771709 0 0.25172225287358252 0.20891730451015739 0 0.2684306071746318 0.19772189428192141 0 0.2684306071746318 0.19772189428192141 0 0.28606284167123741 0.19625973865604529 0 0.28391954767721128 0.21262707745315379 0 0.27068225099268839 0.18404301706431039 0 0.2684306071746318 0.19772189428192141 0 0.28606284167123741 0.19625973865604529 0 0.27068225099268839 0.18404301706431039 0 0.28410519648003552 0.18306717186681221 0 0.28606284167123741 0.19625973865604529 0 0.28410519648003552 0.18306717186681221 0 0.29513194979236762 0.1856018691894229 0 0.28606284167123741 0.19625973865604529 0 0.28606284167123741 0.19625973865604529 0 0.30081791093740778 0.19754788983856131 0 0.29930906452848199 0.21161419408738549 0 0.29513194979236762 0.1856018691894229 0 0.28606284167123741 0.19625973865604529 0 0.30081791093740778 0.19754788983856131 0 0.29513194979236762 0.1856018691894229 0 0.30709309235905641 0.1869570340640502 0 0.30081791093740778 0.19754788983856131 0 0.30709309235905641 0.1869570340640502 0 0.30081791093740778 0.19754788983856131 0 0.31639135524910339 0.2005268542432399 0 0.30081791093740778 0.19754788983856131 0 0.29930906452848199 0.21161419408738549 0 0.31639135524910339 0.2005268542432399 0 0.29930906452848199 0.21161419408738549 0 0.29782279525976529 0.22858821257667139 0 0.31295539079481272 0.2153445174164105 0 0.29930906452848199 0.21161419408738549 0 0.31295539079481272 0.2153445174164105 0 0.31639135524910339 0.2005268542432399 0 0.29930906452848199 0.21161419408738549 0 0.28391954767721128 0.21262707745315379 0 0.29782279525976529 0.22858821257667139 0 0.28606284167123741 0.19625973865604529 0 0.29930906452848199 0.21161419408738549 0 0.28391954767721128 0.21262707745315379 0 0.27872766505811841 0.22591295163731601 0 0.28391954767721128 0.21262707745315379 0 0.29782279525976529 0.22858821257667139 0 0.27443720199250721 0.24323653037456719 0 0.27872766505811841 0.22591295163731601 0 0.29782279525976529 0.22858821257667139 0 0.29782279525976529 0.22858821257667139 0 0.31838245093118261 0.22777789978470611 0 0.31295539079481272 0.2153445174164105 0 0.29782279525976529 0.22858821257667139 0 0.31619694167337459 0.24192394235601081 0 0.31838245093118261 0.22777789978470611 0 0.30869772514353311 0.2593080827544838 0 0.29686236257483722 0.2474805952846385 0 0.31619694167337459 0.24192394235601081 0 0.29782279525976529 0.22858821257667139 0 0.29686236257483722 0.2474805952846385 0 0.31619694167337459 0.24192394235601081 0 0.27443720199250721 0.24323653037456719 0 0.29782279525976529 0.22858821257667139 0 0.29686236257483722 0.2474805952846385 0 0.33404490678619919 0.24023796860917501 0 0.34398383381953512 0.22717191102872669 0 0.34886237431619538 0.24448060393976689 0 0.32911855669721352 0.25489471412132347 0 0.33404490678619919 0.24023796860917501 0 0.34886237431619538 0.24448060393976689 0 0.32911855669721352 0.25489471412132347 0 0.33404490678619919 0.24023796860917501 0 0.31619694167337459 0.24192394235601081 0 0.33404490678619919 0.24023796860917501 0 0.31619694167337459 0.24192394235601081 0 0.32830159539841119 0.23096171069145011 0 0.31619694167337459 0.24192394235601081 0 0.31838245093118261 0.22777789978470611 0 0.32830159539841119 0.23096171069145011 0 0.31838245093118261 0.22777789978470611 0 0.3288998437817644 0.21769683167863199 0 0.31295539079481272 0.2153445174164105 0 0.31838245093118261 0.22777789978470611 0 0.32830159539841119 0.23096171069145011 0 0.3288998437817644 0.21769683167863199 0 0.32830159539841119 0.23096171069145011 0 0.3288998437817644 0.21769683167863199 0 0.34398383381953512 0.22717191102872669 0 0.33404490678619919 0.24023796860917501 0 0.32830159539841119 0.23096171069145011 0 0.34398383381953512 0.22717191102872669 0 0.34249764588973602 0.2093693761166836 0 0.3288998437817644 0.21769683167863199 0 0.34398383381953512 0.22717191102872669 0 0.34249764588973602 0.2093693761166836 0 0.3288998437817644 0.21769683167863199 0 0.33188821182441491 0.20216642697192019 0 0.3288998437817644 0.21769683167863199 0 0.31295539079481272 0.2153445174164105 0 0.32253370041252383 0.2089336575775507 0 0.31295539079481272 0.2153445174164105 0 0.32253370041252383 0.2089336575775507 0 0.31639135524910339 0.2005268542432399 0 0.3288998437817644 0.21769683167863199 0 0.32253370041252383 0.2089336575775507 0 0.33188821182441491 0.20216642697192019 0 0.32253370041252383 0.2089336575775507 0 0.31639135524910339 0.2005268542432399 0 0.33188821182441491 0.20216642697192019 0 0.31639135524910339 0.2005268542432399 0 0.32681509260403913 0.1920219692402507 0 0.33188821182441491 0.20216642697192019 0 0.30709309235905641 0.1869570340640502 0 0.31639135524910339 0.2005268542432399 0 0.31881889761036569 0.1854219373277422 0 0.31639135524910339 0.2005268542432399 0 0.32681509260403913 0.1920219692402507 0 0.31881889761036569 0.1854219373277422 0 0.32681509260403913 0.1920219692402507 0 0.33502444193091119 0.18977492897867859 0 0.32831745427908171 0.18279300438700771 0 0.32681509260403913 0.1920219692402507 0 0.33502444193091119 0.18977492897867859 0 0.33188821182441491 0.20216642697192019 0 0.34249764588973602 0.2093693761166836 0 0.33188821182441491 0.20216642697192019 0 0.34091090633618432 0.1967175043519192 0 0.33502444193091119 0.18977492897867859 0 0.33188821182441491 0.20216642697192019 0 0.34091090633618432 0.1967175043519192 0 0.33502444193091119 0.18977492897867859 0 0.34091090633618432 0.1967175043519192 0 0.34118273693947071 0.1825210855824565 0 0.34091090633618432 0.1967175043519192 0 0.35353864827267212 0.2002726907117828 0 0.34118273693947071 0.1825210855824565 0 0.36389254841458141 0.20755543057207329 0 0.35212340299636841 0.1872048273621269 0 0.35353864827267212 0.2002726907117828 0 0.36389254841458141 0.20755543057207329 0 0.35212340299636841 0.1872048273621269 0 0.35353864827267212 0.2002726907117828 0 0.34118273693947071 0.1825210855824565 0 0.35353864827267212 0.2002726907117828 0 0.34118273693947071 0.1825210855824565 0 0.35212340299636841 0.1872048273621269 0 0.34249764588973602 0.2093693761166836 0 0.34091090633618432 0.1967175043519192 0 0.35353864827267212 0.2002726907117828 0 0.36322280575464377 0.19436429240703471 0 0.36389254841458141 0.20755543057207329 0 0.35212340299636841 0.1872048273621269 0 0.36322280575464377 0.19436429240703471 0 0.37197708108182242 0.19631020153447981 0 0.36804754566750858 0.1850702049493122 0 0.37197708108182242 0.19631020153447981 0 0.36804754566750858 0.1850702049493122 0 0.37529403419154378 0.18772634304468541 0 0.37197708108182242 0.19631020153447981 0 0.36389254841458141 0.20755543057207329 0 0.37889865730974348 0.2042801973367217 0 0.36322280575464377 0.19436429240703471 0 0.37197708108182242 0.19631020153447981 0 0.36389254841458141 0.20755543057207329 0 0.36389254841458141 0.20755543057207329 0 0.37566169383279441 0.2279060337820196 0 0.37590819707959822 0.2144039440121849 0 0.36389254841458141 0.20755543057207329 0 0.37566169383279441 0.2279060337820196 0 0.36389254841458141 0.20755543057207329 0 0.37590819707959822 0.2144039440121849 0 0.37889865730974348 0.2042801973367217 0 0.34249764588973602 0.2093693761166836 0 0.35359574370385738 0.21365108808783129 0 0.34398383381953512 0.22717191102872669 0 0.36389254841458141 0.20755543057207329 0 0.35359574370385738 0.21365108808783129 0 0.35906556948285823 0.22353884303650259 0 0.35353864827267212 0.2002726907117828 0 0.36389254841458141 0.20755543057207329 0 0.35359574370385738 0.21365108808783129 0 0.34249764588973602 0.2093693761166836 0 0.35353864827267212 0.2002726907117828 0 0.35359574370385738 0.21365108808783129 0 0.34398383381953512 0.22717191102872669 0 0.35906556948285823 0.22353884303650259 0 0.35720584778748499 0.2358138235884393 0 0.35359574370385738 0.21365108808783129 0 0.34398383381953512 0.22717191102872669 0 0.35906556948285823 0.22353884303650259 0 0.36389254841458141 0.20755543057207329 0 0.35906556948285823 0.22353884303650259 0 0.37566169383279441 0.2279060337820196 0 0.35906556948285823 0.22353884303650259 0 0.35720584778748499 0.2358138235884393 0 0.37566169383279441 0.2279060337820196 0 0.36720602747749242 0.24250135208496509 0 0.35720584778748499 0.2358138235884393 0 0.37566169383279441 0.2279060337820196 0 0.36720602747749242 0.24250135208496509 0 0.37651171172395248 0.24044944526756429 0 0.37566169383279441 0.2279060337820196 0 0.37467765881038639 0.24619981178543321 0 0.36720602747749242 0.24250135208496509 0 0.37651171172395248 0.24044944526756429 0 0.36689291458651291 0.25550809628106669 0 0.37467765881038639 0.24619981178543321 0 0.36720602747749242 0.24250135208496509 0 0.3463549899220188 0.26275955557016772 0 0.36720602747749242 0.24250135208496509 0 0.34886237431619538 0.24448060393976689 0 0.34398383381953512 0.22717191102872669 0 0.34886237431619538 0.24448060393976689 0 0.35720584778748499 0.2358138235884393 0 0.36720602747749242 0.24250135208496509 0 0.34886237431619538 0.24448060393976689 0 0.35720584778748499 0.2358138235884393 0 0.32974606878186241 0.15551729457715691 0 0.31647091427306762 0.14701787532380389 0 0.34572334863831078 0.15298562255011061 0 0.3405875503442698 0.1414820375070987 0 0.32687629883838581 0.14046270706700861 0 0.34572334863831078 0.15298562255011061 0 0.32974606878186241 0.15551729457715691 0 0.33505459291583217 0.15966199929104161 0 0.34572334863831078 0.15298562255011061 0 0.31647091427306762 0.14701787532380389 0 0.34572334863831078 0.15298562255011061 0 0.32687629883838581 0.14046270706700861 0 0.31647091427306762 0.14701787532380389 0 0.34572334863831078 0.15298562255011061 0 0.3405875503442698 0.1414820375070987 0 0.33834141819609043 0.1306514005167432 0 0.35140913570429239 0.1418284198945324 0 0.33834141819609043 0.1306514005167432 0 0.32687629883838581 0.14046270706700861 0 0.31936076079223302 0.12982502937519891 0 0.32776194051788382 0.1156708372280906 0 0.33834141819609043 0.1306514005167432 0 0.31936076079223302 0.12982502937519891 0 0.3405875503442698 0.1414820375070987 0 0.33834141819609043 0.1306514005167432 0 0.32687629883838581 0.14046270706700861 0 0.30313585209747851 0.12785953469376149 0 0.31936076079223302 0.12982502937519891 0 0.31647091427306762 0.14701787532380389 0 0.32687629883838581 0.14046270706700861 0 0.31936076079223302 0.12982502937519891 0 0.31647091427306762 0.14701787532380389 0 0.32974606878186241 0.15551729457715691 0 0.31647091427306762 0.14701787532380389 0 0.32882682560626919 0.1647694804531302 0 0.31647091427306762 0.14701787532380389 0 0.32882682560626919 0.1647694804531302 0 0.31647091427306762 0.14701787532380389 0 0.31576474273497518 0.14985035126902771 0 0.31859831326341431 0.15709600802269319 0 0.31576474273497518 0.14985035126902771 0 0.31505517833431013 0.1553468781303112 0 0.31859831326341431 0.15709600802269319 0 0.31647091427306762 0.14701787532380389 0 0.31576474273497518 0.14985035126902771 0 0.31289091139011987 0.15036288577791829 0 0.31576474273497518 0.14985035126902771 0 0.31289091139011987 0.15036288577791829 0 0.31361008956645231 0.15236693682385 0 0.31209569557027161 0.15797093572074411 0 0.31072952580640389 0.1539076321181426 0 0.31505517833431013 0.1553468781303112 0 0.31576474273497518 0.14985035126902771 0 0.31505517833431013 0.1553468781303112 0 0.31361008956645231 0.15236693682385 0 0.31072952580640389 0.1539076321181426 0 0.31505517833431013 0.1553468781303112 0 0.31361008956645231 0.15236693682385 0 0.31647091427306762 0.14701787532380389 0 0.31859831326341431 0.15709600802269319 0 0.32882682560626919 0.1647694804531302 0 0.31505517833431013 0.1553468781303112 0 0.31537120756423692 0.15986383778677421 0 0.31859831326341431 0.15709600802269319 0 0.31209569557027161 0.15797093572074411 0 0.31505517833431013 0.1553468781303112 0 0.31537120756423692 0.15986383778677421 0 0.31537120756423692 0.15986383778677421 0 0.31859831326341431 0.15709600802269319 0 0.31934341242611919 0.16598091414871649 0 0.31176343822706909 0.16292445291140581 0 0.31209569557027161 0.15797093572074411 0 0.31537120756423692 0.15986383778677421 0 0.31176343822706909 0.16292445291140581 0 0.31537120756423692 0.15986383778677421 0 0.31934341242611919 0.16598091414871649 0 0.3121162015775123 0.1703784892653567 0 0.31934341242611919 0.16598091414871649 0 0.31964423237023748 0.1746589234891226 0 0.3121162015775123 0.1703784892653567 0 0.31176343822706909 0.16292445291140581 0 0.31934341242611919 0.16598091414871649 0 0.31934341242611919 0.16598091414871649 0 0.32746293232423568 0.17414468161208671 0 0.32882682560626919 0.1647694804531302 0 0.31934341242611919 0.16598091414871649 0 0.31964423237023748 0.1746589234891226 0 0.32746293232423568 0.17414468161208671 0 0.31859831326341431 0.15709600802269319 0 0.31934341242611919 0.16598091414871649 0 0.32882682560626919 0.1647694804531302 0 0.31210373096038613 0.1784360676417554 0 0.30709309235905641 0.1869570340640502 0 0.31881889761036569 0.1854219373277422 0 0.31210373096038613 0.1784360676417554 0 0.31881889761036569 0.1854219373277422 0 0.31964423237023748 0.1746589234891226 0 0.31210373096038613 0.1784360676417554 0 0.3121162015775123 0.1703784892653567 0 0.31964423237023748 0.1746589234891226 0 0.31964423237023748 0.1746589234891226 0 0.32746293232423568 0.17414468161208671 0 0.32831745427908171 0.18279300438700771 0 0.32681509260403913 0.1920219692402507 0 0.31881889761036569 0.1854219373277422 0 0.32831745427908171 0.18279300438700771 0 0.31881889761036569 0.1854219373277422 0 0.31964423237023748 0.1746589234891226 0 0.32831745427908171 0.18279300438700771 0 0.32746293232423568 0.17414468161208671 0 0.34118273693947071 0.1825210855824565 0 0.32882682560626919 0.1647694804531302 0 0.34118273693947071 0.1825210855824565 0 0.32882682560626919 0.1647694804531302 0 0.32746293232423568 0.17414468161208671 0 0.32831745427908171 0.18279300438700771 0 0.34118273693947071 0.1825210855824565 0 0.33502444193091119 0.18977492897867859 0 0.32831745427908171 0.18279300438700771 0 0.34118273693947071 0.1825210855824565 0 0.34118273693947071 0.1825210855824565 0 0.32882682560626919 0.1647694804531302 0 0.34035425757815541 0.16685422415218051 0 0.33505459291583217 0.15966199929104161 0 0.32882682560626919 0.1647694804531302 0 0.34035425757815541 0.16685422415218051 0 0.32974606878186241 0.15551729457715691 0 0.33505459291583217 0.15966199929104161 0 0.32882682560626919 0.1647694804531302 0 0.33505459291583217 0.15966199929104161 0 0.34035425757815541 0.16685422415218051 0 0.34572334863831078 0.15298562255011061 0 0.35250575787515048 0.16940623343080391 0 0.35564509875190092 0.16043819800958939 0 0.34572334863831078 0.15298562255011061 0 0.34035425757815541 0.16685422415218051 0 0.35250575787515048 0.16940623343080391 0 0.34572334863831078 0.15298562255011061 0 0.35564509875190092 0.16043819800958939 0 0.374975783003554 0.15895336977641719 0 0.34572334863831078 0.15298562255011061 0 0.35250575787515048 0.16940623343080391 0 0.35564509875190092 0.16043819800958939 0 0.36107132056506308 0.1692092488678712 0 0.35250575787515048 0.16940623343080391 0 0.35212340299636841 0.1872048273621269 0 0.36011711872110441 0.17974527964294501 0 0.34035425757815541 0.16685422415218051 0 0.35250575787515048 0.16940623343080391 0 0.35212340299636841 0.1872048273621269 0 0.34118273693947071 0.1825210855824565 0 0.34035425757815541 0.16685422415218051 0 0.35212340299636841 0.1872048273621269 0 0.34035425757815541 0.16685422415218051 0 0.35212340299636841 0.1872048273621269 0 0.35250575787515048 0.16940623343080391 0 0.36011711872110441 0.17974527964294501 0 0.36107132056506308 0.1692092488678712 0 0.36322280575464377 0.19436429240703471 0 0.35212340299636841 0.1872048273621269 0 0.36011711872110441 0.17974527964294501 0 0.36322280575464377 0.19436429240703471 0 0.36011711872110441 0.17974527964294501 0 0.36804754566750858 0.1850702049493122 0 0.36011711872110441 0.17974527964294501 0 0.36791354215017552 0.175886167894624 0 0.36804754566750858 0.1850702049493122 0 0.36011711872110441 0.17974527964294501 0 0.36791354215017552 0.175886167894624 0 0.36107132056506308 0.1692092488678712 0 0.37390813841001957 0.1731272104850364 0 0.36791354215017552 0.175886167894624 0 0.36915014928040218 0.16790300847465531 0 0.37390813841001957 0.1731272104850364 0 0.36791354215017552 0.175886167894624 0 0.37486535111461827 0.18058254961959391 0 0.36791354215017552 0.175886167894624 0 0.37486535111461827 0.18058254961959391 0 0.36804754566750858 0.1850702049493122 0 0.37486535111461827 0.18058254961959391 0 0.36804754566750858 0.1850702049493122 0 0.37529403419154378 0.18772634304468541 0 0.35564509875190092 0.16043819800958939 0 0.36507645137992623 0.16248058682792799 0 0.374975783003554 0.15895336977641719 0 0.35564509875190092 0.16043819800958939 0 0.36507645137992623 0.16248058682792799 0 0.36107132056506308 0.1692092488678712 0 0.36507645137992623 0.16248058682792799 0 0.36107132056506308 0.1692092488678712 0 0.36915014928040218 0.16790300847465531 0 0.36791354215017552 0.175886167894624 0 0.36107132056506308 0.1692092488678712 0 0.36915014928040218 0.16790300847465531 0 0.37390813841001957 0.1731272104850364 0 0.36915014928040218 0.16790300847465531 0 0.37522228866324497 0.16521920190555969 0 0.36507645137992623 0.16248058682792799 0 0.36915014928040218 0.16790300847465531 0 0.37110616808178182 0.16363904174614 0 0.36915014928040218 0.16790300847465531 0 0.37110616808178182 0.16363904174614 0 0.37522228866324497 0.16521920190555969 0 0.37110616808178182 0.16363904174614 0 0.374975783003554 0.15895336977641719 0 0.37522228866324497 0.16521920190555969 0 0.36507645137992623 0.16248058682792799 0 0.37110616808178182 0.16363904174614 0 0.374975783003554 0.15895336977641719 0 0.374975783003554 0.15895336977641719 0 0.34572334863831078 0.15298562255011061 0 0.374975783003554 0.15895336977641719 0 0.37281441208475657 0.1488256075388924 0 0.36206270574735933 0.14803185033278621 0 0.374975783003554 0.15895336977641719 0 0.36206270574735933 0.14803185033278621 0 0.34572334863831078 0.15298562255011061 0 0.37281441208475657 0.1488256075388924 0 0.36206270574735933 0.14803185033278621 0 0.37387538596952352 0.14031521578252801 0 0.36206270574735933 0.14803185033278621 0 0.35140913570429239 0.1418284198945324 0 0.34572334863831078 0.15298562255011061 0 0.3405875503442698 0.1414820375070987 0 0.35140913570429239 0.1418284198945324 0 0.34572334863831078 0.15298562255011061 0 0.36206270574735933 0.14803185033278621 0 0.35140913570429239 0.1418284198945324 0 0.35926879239963178 0.1310453541691062 0 0.33834141819609043 0.1306514005167432 0 0.35140913570429239 0.1418284198945324 0 0.35926879239963178 0.1310453541691062 0 0.35926879239963178 0.1310453541691062 0 0.37387538596952352 0.14031521578252801 0 0.38040268001195021 0.1251160331139205 0 0.36206270574735933 0.14803185033278621 0 0.35926879239963178 0.1310453541691062 0 0.37387538596952352 0.14031521578252801 0 0.37387538596952352 0.14031521578252801 0 0.38040268001195021 0.1251160331139205 0 0.38709039337764822 0.1392017780304875 0 0.38040268001195021 0.1251160331139205 0 0.38709039337764822 0.1392017780304875 0 0.39601398960537432 0.129408072964493 0 0.38709039337764822 0.1392017780304875 0 0.39601398960537432 0.129408072964493 0 0.40006448229325758 0.14134306032912181 0 0.39601398960537432 0.129408072964493 0 0.40006448229325758 0.14134306032912181 0 0.41074987336253982 0.13122837004622651 0 0.39601398960537432 0.129408072964493 0 0.41074987336253982 0.13122837004622651 0 0.40408438037122918 0.1211878451396604 0 0.40242815090187029 0.15080119693130889 0 0.39184204876719381 0.1510262917290236 0 0.40422821736879722 0.1649211170027238 0 0.40242815090187029 0.15080119693130889 0 0.40006448229325758 0.14134306032912181 0 0.41130564603455022 0.1428822030409001 0 0.40242815090187029 0.15080119693130889 0 0.40006448229325758 0.14134306032912181 0 0.39184204876719381 0.1510262917290236 0 0.38709039337764822 0.1392017780304875 0 0.40006448229325758 0.14134306032912181 0 0.39184204876719381 0.1510262917290236 0 0.374975783003554 0.15895336977641719 0 0.39184204876719381 0.1510262917290236 0 0.38034377361858968 0.14800199426383831 0 0.38709039337764822 0.1392017780304875 0 0.39184204876719381 0.1510262917290236 0 0.38034377361858968 0.14800199426383831 0 0.37387538596952352 0.14031521578252801 0 0.38709039337764822 0.1392017780304875 0 0.38034377361858968 0.14800199426383831 0 0.37281441208475657 0.1488256075388924 0 0.37387538596952352 0.14031521578252801 0 0.38034377361858968 0.14800199426383831 0 0.374975783003554 0.15895336977641719 0 0.37281441208475657 0.1488256075388924 0 0.38034377361858968 0.14800199426383831 0 0.374975783003554 0.15895336977641719 0 0.37522228866324497 0.16521920190555969 0 0.38853807344717128 0.16735999291507089 0 0.37522228866324497 0.16521920190555969 0 0.38853807344717128 0.16735999291507089 0 0.39778477696709441 0.17994835067664761 0 0.374975783003554 0.15895336977641719 0 0.39184204876719381 0.1510262917290236 0 0.40422821736879722 0.1649211170027238 0 0.374975783003554 0.15895336977641719 0 0.40422821736879722 0.1649211170027238 0 0.374975783003554 0.15895336977641719 0 0.38853807344717128 0.16735999291507089 0 0.40422821736879722 0.1649211170027238 0 0.37390813841001957 0.1731272104850364 0 0.37522228866324497 0.16521920190555969 0 0.3813329315531423 0.17654846723240589 0 0.3826959147153205 0.1851369041114993 0 0.3813329315531423 0.17654846723240589 0 0.39778477696709441 0.17994835067664761 0 0.37522228866324497 0.16521920190555969 0 0.3813329315531423 0.17654846723240589 0 0.39778477696709441 0.17994835067664761 0 0.37522228866324497 0.16521920190555969 0 0.39778477696709441 0.17994835067664761 0 0.37486535111461827 0.18058254961959391 0 0.3826959147153205 0.1851369041114993 0 0.3813329315531423 0.17654846723240589 0 0.37486535111461827 0.18058254961959391 0 0.3826959147153205 0.1851369041114993 0 0.37529403419154378 0.18772634304468541 0 0.37390813841001957 0.1731272104850364 0 0.37486535111461827 0.18058254961959391 0 0.3813329315531423 0.17654846723240589 0 0.3826959147153205 0.1851369041114993 0 0.39778477696709441 0.17994835067664761 0 0.38795441814569259 0.19231246784505479 0 0.39778477696709441 0.17994835067664761 0 0.40422821736879722 0.1649211170027238 0 0.41418358905558811 0.17947370308762201 0 0.38853807344717128 0.16735999291507089 0 0.39778477696709441 0.17994835067664761 0 0.40422821736879722 0.1649211170027238 0 0.40242815090187029 0.15080119693130889 0 0.40422821736879722 0.1649211170027238 0 0.41075659096563027 0.15314279776828801 0 0.40422821736879722 0.1649211170027238 0 0.41505972532049962 0.16173256508244829 0 0.41075659096563027 0.15314279776828801 0 0.40422821736879722 0.1649211170027238 0 0.41592178723989898 0.16850454948661389 0 0.41418358905558811 0.17947370308762201 0 0.40422821736879722 0.1649211170027238 0 0.41592178723989898 0.16850454948661389 0 0.41505972532049962 0.16173256508244829 0 0.41592178723989898 0.16850454948661389 0 0.41931685088467519 0.1643115550870996 0 0.41505972532049962 0.16173256508244829 0 0.41592178723989898 0.16850454948661389 0 0.41931685088467519 0.1643115550870996 0 0.42498133191290433 0.16712238423355641 0 0.41592178723989898 0.16850454948661389 0 0.41418358905558811 0.17947370308762201 0 0.42498133191290433 0.16712238423355641 0 0.41931685088467519 0.1643115550870996 0 0.42057130711481938 0.15897849046915569 0 0.41505972532049962 0.16173256508244829 0 0.41931685088467519 0.1643115550870996 0 0.42057130711481938 0.15897849046915569 0 0.42498133191290433 0.16712238423355641 0 0.42057130711481938 0.15897849046915569 0 0.41505972532049962 0.16173256508244829 0 0.41782038421840623 0.15374586653373021 0 0.41418358905558811 0.17947370308762201 0 0.42498133191290433 0.16712238423355641 0 0.42034726527094501 0.1946774994477336 0 0.39778477696709441 0.17994835067664761 0 0.41418358905558811 0.17947370308762201 0 0.42034726527094501 0.1946774994477336 0 0.39778477696709441 0.17994835067664761 0 0.42034726527094501 0.1946774994477336 0 0.42888967479028678 0.17479688357581169 0 0.43100570636692148 0.1809177677334641 0 0.42034726527094501 0.1946774994477336 0 0.42888967479028678 0.17479688357581169 0 0.42498133191290433 0.16712238423355641 0 0.42034726527094501 0.1946774994477336 0 0.42498133191290433 0.16712238423355641 0 0.42034726527094501 0.1946774994477336 0 0.42888967479028678 0.17479688357581169 0 0.43100570636692148 0.1809177677334641 0 0.43976355205206807 0.1727286608720876 0 0.42057130711481938 0.15897849046915569 0 0.42498133191290433 0.16712238423355641 0 0.42220719377609589 0.15013316776017499 0 0.42888967479028678 0.17479688357581169 0 0.42498133191290433 0.16712238423355641 0 0.43171912272805801 0.16725335808442021 0 0.42738199739281763 0.16181066184046269 0 0.42498133191290433 0.16712238423355641 0 0.43171912272805801 0.16725335808442021 0 0.42738199739281763 0.16181066184046269 0 0.43171912272805801 0.16725335808442021 0 0.43813911667114691 0.1633639447848502 0 0.43171912272805801 0.16725335808442021 0 0.43813911667114691 0.1633639447848502 0 0.43976355205206807 0.1727286608720876 0 0.42888967479028678 0.17479688357581169 0 0.43171912272805801 0.16725335808442021 0 0.43976355205206807 0.1727286608720876 0 0.42738199739281763 0.16181066184046269 0 0.44155046526719322 0.1514816482118071 0 0.43813911667114691 0.1633639447848502 0 0.42738199739281763 0.16181066184046269 0 0.43779890304548419 0.14424627101430759 0 0.44155046526719322 0.1514816482118071 0 0.42738199739281763 0.16181066184046269 0 0.43283551401758358 0.1351146572481752 0 0.42738199739281763 0.16181066184046269 0 0.43283551401758358 0.1351146572481752 0 0.42961539855486269 0.1395672690193788 0 0.42738199739281763 0.16181066184046269 0 0.42498133191290433 0.16712238423355641 0 0.42961539855486269 0.1395672690193788 0 0.42738199739281763 0.16181066184046269 0 0.43283551401758358 0.1351146572481752 0 0.43779890304548419 0.14424627101430759 0 0.42498133191290433 0.16712238423355641 0 0.42220719377609589 0.15013316776017499 0 0.42961539855486269 0.1395672690193788 0 0.42498133191290433 0.16712238423355641 0 0.42961539855486269 0.1395672690193788 0 0.42220719377609589 0.15013316776017499 0 0.4248334350215186 0.14168492498928939 0 0.42050665267728571 0.14199714850859979 0 0.42220719377609589 0.15013316776017499 0 0.4248334350215186 0.14168492498928939 0 0.42961539855486269 0.1395672690193788 0 0.42961539855486269 0.1395672690193788 0 0.43424946519682123 0.1120121538052013 0 0.43283551401758358 0.1351146572481752 0 0.43979864371996141 0.13510529519752271 0 0.43779890304548419 0.14424627101430759 0 0.42501587302512539 0.1321478482608468 0 0.42961539855486269 0.1395672690193788 0 0.42883013797835862 0.1238833212465956 0 0.42961539855486269 0.1395672690193788 0 0.43424946519682123 0.1120121538052013 0 0.42883013797835862 0.1238833212465956 0 0.43283551401758358 0.1351146572481752 0 0.42961539855486269 0.1395672690193788 0 0.43424946519682123 0.1120121538052013 0 0.43283551401758358 0.1351146572481752 0 0.43931385365439579 0.1250328920743275 0 0.43979864371996141 0.13510529519752271 0 0.42501587302512539 0.1321478482608468 0 0.42206675942826571 0.12689177369750901 0 0.42883013797835862 0.1238833212465956 0 0.42501587302512539 0.1321478482608468 0 0.42206675942826571 0.12689177369750901 0 0.41964970470782198 0.13396958013369101 0 0.4248334350215186 0.14168492498928939 0 0.42961539855486269 0.1395672690193788 0 0.42399172808542568 0.13776284544312459 0 0.42501587302512539 0.1321478482608468 0 0.42961539855486269 0.1395672690193788 0 0.42399172808542568 0.13776284544312459 0 0.42501587302512539 0.1321478482608468 0 0.42399172808542568 0.13776284544312459 0 0.41964970470782198 0.13396958013369101 0 0.4248334350215186 0.14168492498928939 0 0.42399172808542568 0.13776284544312459 0 0.42050665267728571 0.14199714850859979 0 0.42399172808542568 0.13776284544312459 0 0.41964970470782198 0.13396958013369101 0 0.42050665267728571 0.14199714850859979 0 0.41964970470782198 0.13396958013369101 0 0.41130564603455022 0.1428822030409001 0 0.42050665267728571 0.14199714850859979 0 0.41964970470782198 0.13396958013369101 0 0.41691670812843151 0.12871536388956331 0 0.41074987336253982 0.13122837004622651 0 0.41691670812843151 0.12871536388956331 0 0.41074987336253982 0.13122837004622651 0 0.41520049501509843 0.1227717316808269 0 0.42206675942826571 0.12689177369750901 0 0.41691670812843151 0.12871536388956331 0 0.41520049501509843 0.1227717316808269 0 0.42206675942826571 0.12689177369750901 0 0.41964970470782198 0.13396958013369101 0 0.41691670812843151 0.12871536388956331 0 0.41074987336253982 0.13122837004622651 0 0.41520049501509843 0.1227717316808269 0 0.40408438037122918 0.1211878451396604 0 0.41964970470782198 0.13396958013369101 0 0.41074987336253982 0.13122837004622651 0 0.41130564603455022 0.1428822030409001 0 0.40006448229325758 0.14134306032912181 0 0.41074987336253982 0.13122837004622651 0 0.41130564603455022 0.1428822030409001 0 0.41130564603455022 0.1428822030409001 0 0.41075659096563027 0.15314279776828801 0 0.41712184693287457 0.14783609056751451 0 0.40242815090187029 0.15080119693130889 0 0.41130564603455022 0.1428822030409001 0 0.41075659096563027 0.15314279776828801 0 0.41505972532049962 0.16173256508244829 0 0.41075659096563027 0.15314279776828801 0 0.41782038421840623 0.15374586653373021 0 0.42057130711481938 0.15897849046915569 0 0.42220719377609589 0.15013316776017499 0 0.41782038421840623 0.15374586653373021 0 0.41075659096563027 0.15314279776828801 0 0.41782038421840623 0.15374586653373021 0 0.41712184693287457 0.14783609056751451 0 0.42220719377609589 0.15013316776017499 0 0.41782038421840623 0.15374586653373021 0 0.41712184693287457 0.14783609056751451 0 0.42220719377609589 0.15013316776017499 0 0.42050665267728571 0.14199714850859979 0 0.41712184693287457 0.14783609056751451 0 0.41130564603455022 0.1428822030409001 0 0.42050665267728571 0.14199714850859979 0 0.41712184693287457 0.14783609056751451 0 0.38743083925100702 0.24825663699196601 0 0.40984635127942348 0.24034224566111209 0 0.40805876316201861 0.24454917125733991 0 0.38743083925100702 0.24825663699196601 0 0.40984635127942348 0.24034224566111209 0 0.38710158673244799 0.25397304876845839 0 0.38825911952508718 0.2496888568010899 0 0.40805876316201861 0.24454917125733991 0 0.40011810480571119 0.23736522047936509 0 0.38743083925100702 0.24825663699196601 0 0.40984635127942348 0.24034224566111209 0 0.38710158673244799 0.25397304876845839 0 0.40805876316201861 0.24454917125733991 0 0.38743083925100702 0.24825663699196601 0 0.38825911952508718 0.2496888568010899 0 0.40805876316201861 0.24454917125733991 0 0.40028832984864138 0.2531567014991386 0 0.4063717063049434 0.25145482945124908 0 0.40805876316201861 0.24454917125733991 0 0.40011810480571119 0.23736522047936509 0 0.40594187901925688 0.22991579436425921 0 0.40984635127942348 0.24034224566111209 0 0.40011810480571119 0.23736522047936509 0 0.39151936224226502 0.2370605755519628 0 0.39443191015558671 0.2290173818390408 0 0.40011810480571119 0.23736522047936509 0 0.39151936224226502 0.2370605755519628 0 0.38743083925100702 0.24825663699196601 0 0.36689291458651291 0.25550809628106669 0 0.37467765881038639 0.24619981178543321 0 0.38743083925100702 0.24825663699196601 0 0.38743083925100702 0.24825663699196601 0 0.37566169383279441 0.2279060337820196 0 0.39151936224226502 0.2370605755519628 0 0.38743083925100702 0.24825663699196601 0 0.38605955482234799 0.23247440975969599 0 0.38743083925100702 0.24825663699196601 0 0.38605955482234799 0.23247440975969599 0 0.37566169383279441 0.2279060337820196 0 0.38743083925100702 0.24825663699196601 0 0.37651171172395248 0.24044944526756429 0 0.37566169383279441 0.2279060337820196 0 0.38743083925100702 0.24825663699196601 0 0.38825911952508718 0.2496888568010899 0 0.37467765881038639 0.24619981178543321 0 0.38743083925100702 0.24825663699196601 0 0.37651171172395248 0.24044944526756429 0 0.38605955482234799 0.23247440975969599 0 0.37566169383279441 0.2279060337820196 0 0.38517988876127351 0.217874114357925 0 0.37566169383279441 0.2279060337820196 0 0.38517988876127351 0.217874114357925 0 0.37590819707959822 0.2144039440121849 0 0.38605955482234799 0.23247440975969599 0 0.39443191015558671 0.2290173818390408 0 0.38517988876127351 0.217874114357925 0 0.39443191015558671 0.2290173818390408 0 0.40003140131726039 0.21806185485484469 0 0.38517988876127351 0.217874114357925 0 0.39151936224226502 0.2370605755519628 0 0.38605955482234799 0.23247440975969599 0 0.39443191015558671 0.2290173818390408 0 0.40011810480571119 0.23736522047936509 0 0.39443191015558671 0.2290173818390408 0 0.40594187901925688 0.22991579436425921 0 0.39443191015558671 0.2290173818390408 0 0.40594187901925688 0.22991579436425921 0 0.40003140131726039 0.21806185485484469 0 0.40003140131726039 0.21806185485484469 0 0.39344278470359961 0.205254990837338 0 0.40641922960401727 0.20685976105329901 0 0.40003140131726039 0.21806185485484469 0 0.39344278470359961 0.205254990837338 0 0.38517988876127351 0.217874114357925 0 0.38517988876127351 0.217874114357925 0 0.37590819707959822 0.2144039440121849 0 0.37889865730974348 0.2042801973367217 0 0.39344278470359961 0.205254990837338 0 0.38517988876127351 0.217874114357925 0 0.37889865730974348 0.2042801973367217 0 0.39344278470359961 0.205254990837338 0 0.37889865730974348 0.2042801973367217 0 0.38795441814569259 0.19231246784505479 0 0.37197708108182242 0.19631020153447981 0 0.37889865730974348 0.2042801973367217 0 0.38795441814569259 0.19231246784505479 0 0.37197708108182242 0.19631020153447981 0 0.37529403419154378 0.18772634304468541 0 0.38795441814569259 0.19231246784505479 0 0.3826959147153205 0.1851369041114993 0 0.37529403419154378 0.18772634304468541 0 0.38795441814569259 0.19231246784505479 0 0.39778477696709441 0.17994835067664761 0 0.38795441814569259 0.19231246784505479 0 0.40118969493826973 0.1958106139720146 0 0.39344278470359961 0.205254990837338 0 0.38795441814569259 0.19231246784505479 0 0.40118969493826973 0.1958106139720146 0 0.39344278470359961 0.205254990837338 0 0.40118969493826973 0.1958106139720146 0 0.40641922960401727 0.20685976105329901 0 0.39778477696709441 0.17994835067664761 0 0.40118969493826973 0.1958106139720146 0 0.42034726527094501 0.1946774994477336 0 0.40118969493826973 0.1958106139720146 0 0.42034726527094501 0.1946774994477336 0 0.40641922960401727 0.20685976105329901 0 0.43100570636692148 0.1809177677334641 0 0.42034726527094501 0.1946774994477336 0 0.43271459852590061 0.19509361126115499 0 0.43100570636692148 0.1809177677334641 0 0.43271459852590061 0.19509361126115499 0 0.44605663606361079 0.20154879846424101 0 0.43271459852590061 0.19509361126115499 0 0.43344878640212492 0.20323037939918129 0 0.44605663606361079 0.20154879846424101 0 0.42034726527094501 0.1946774994477336 0 0.43271459852590061 0.19509361126115499 0 0.43344878640212492 0.20323037939918129 0 0.42034726527094501 0.1946774994477336 0 0.43344878640212492 0.20323037939918129 0 0.42034726527094501 0.1946774994477336 0 0.43344878640212492 0.20323037939918129 0 0.41564922007101068 0.22261304435196511 0 0.43344878640212492 0.20323037939918129 0 0.43147365790485831 0.21857375747917901 0 0.41564922007101068 0.22261304435196511 0 0.43344878640212492 0.20323037939918129 0 0.43732757266130368 0.21159981822864291 0 0.43147365790485831 0.21857375747917901 0 0.43732757266130368 0.21159981822864291 0 0.43147365790485831 0.21857375747917901 0 0.44036623403508968 0.22043109725053239 0 0.42034726527094501 0.1946774994477336 0 0.40641922960401727 0.20685976105329901 0 0.41564922007101068 0.22261304435196511 0 0.42034726527094501 0.1946774994477336 0 0.41564922007101068 0.22261304435196511 0 0.40003140131726039 0.21806185485484469 0 0.40641922960401727 0.20685976105329901 0 0.41564922007101068 0.22261304435196511 0 0.40594187901925688 0.22991579436425921 0 0.40003140131726039 0.21806185485484469 0 0.41564922007101068 0.22261304435196511 0 0.40594187901925688 0.22991579436425921 0 0.41511334749031997 0.2319990945308894 0 0.40984635127942348 0.24034224566111209 0 0.40594187901925688 0.22991579436425921 0 0.41511334749031997 0.2319990945308894 0 0.41564922007101068 0.22261304435196511 0 0.41511334749031997 0.2319990945308894 0 0.41564922007101068 0.22261304435196511 0 0.42901593959158901 0.23512529374622121 0 0.43147365790485831 0.21857375747917901 0 0.42901593959158901 0.23512529374622121 0 0.44036623403508968 0.22043109725053239 0 0.43147365790485831 0.21857375747917901 0 0.41564922007101068 0.22261304435196511 0 0.42901593959158901 0.23512529374622121 0 0.42901593959158901 0.23512529374622121 0 0.43023462224611481 0.24697649924138429 0 0.43878525801922391 0.2437991562871745 0 0.43813325040641182 0.25110539576759139 0 0.43023462224611481 0.24697649924138429 0 0.43878525801922391 0.2437991562871745 0 0.42901593959158901 0.23512529374622121 0 0.43023462224611481 0.24697649924138429 0 0.41932865494196331 0.24883874102536499 0 0.42560231519730157 0.25340816509022912 0 0.43023462224611481 0.24697649924138429 0 0.41932865494196331 0.24883874102536499 0 0.42901593959158901 0.23512529374622121 0 0.41932865494196331 0.24883874102536499 0 0.40805876316201861 0.24454917125733991 0 0.42901593959158901 0.23512529374622121 0 0.40984635127942348 0.24034224566111209 0 0.40805876316201861 0.24454917125733991 0 0.42901593959158901 0.23512529374622121 0 0.40805876316201861 0.24454917125733991 0 0.41511334749031997 0.2319990945308894 0 0.42901593959158901 0.23512529374622121 0 0.40984635127942348 0.24034224566111209 0 0.41099676279550601 0.25134095280765473 0 0.41932865494196331 0.24883874102536499 0 0.40805876316201861 0.24454917125733991 0 0.41099676279550601 0.25134095280765473 0 0.4063717063049434 0.25145482945124908 0 0.40805876316201861 0.24454917125733991 0 0.45911608151752431 0.24175090365698851 0 0.45850495180863238 0.23317828074918279 0 0.47615849545698918 0.24281085992579499 0 0.46274340138698961 0.25127112480823849 0 0.45911608151752431 0.24175090365698851 0 0.47615849545698918 0.24281085992579499 0 0.45911608151752431 0.24175090365698851 0 0.44754093826054892 0.23751304459859349 0 0.45850495180863238 0.23317828074918279 0 0.46274340138698961 0.25127112480823849 0 0.45911608151752431 0.24175090365698851 0 0.44968272882243682 0.2472523439071648 0 0.42901593959158901 0.23512529374622121 0 0.43878525801922391 0.2437991562871745 0 0.44754093826054892 0.23751304459859349 0 0.44968272882243682 0.2472523439071648 0 0.43878525801922391 0.2437991562871745 0 0.44754093826054892 0.23751304459859349 0 0.43813325040641182 0.25110539576759139 0 0.44968272882243682 0.2472523439071648 0 0.43878525801922391 0.2437991562871745 0 0.45911608151752431 0.24175090365698851 0 0.44968272882243682 0.2472523439071648 0 0.44754093826054892 0.23751304459859349 0 0.44754093826054892 0.23751304459859349 0 0.44997311602115952 0.2257014162351024 0 0.45850495180863238 0.23317828074918279 0 0.42901593959158901 0.23512529374622121 0 0.44997311602115952 0.2257014162351024 0 0.42901593959158901 0.23512529374622121 0 0.44036623403508968 0.22043109725053239 0 0.44997311602115952 0.2257014162351024 0 0.42901593959158901 0.23512529374622121 0 0.44754093826054892 0.23751304459859349 0 0.44997311602115952 0.2257014162351024 0 0.44036623403508968 0.22043109725053239 0 0.44997311602115952 0.2257014162351024 0 0.44655030753330621 0.21178325935062689 0 0.44997311602115952 0.2257014162351024 0 0.46110756576029999 0.222179829195018 0 0.44655030753330621 0.21178325935062689 0 0.45850495180863238 0.23317828074918279 0 0.46110756576029999 0.222179829195018 0 0.47615849545698918 0.24281085992579499 0 0.46110756576029999 0.222179829195018 0 0.47615849545698918 0.24281085992579499 0 0.44997311602115952 0.2257014162351024 0 0.45850495180863238 0.23317828074918279 0 0.46110756576029999 0.222179829195018 0 0.46110756576029999 0.222179829195018 0 0.46256168465873693 0.20560687871125929 0 0.47879332259294599 0.2158064917313707 0 0.46110756576029999 0.222179829195018 0 0.44605663606361079 0.20154879846424101 0 0.46110756576029999 0.222179829195018 0 0.46256168465873693 0.20560687871125929 0 0.44605663606361079 0.20154879846424101 0 0.46110756576029999 0.222179829195018 0 0.44655030753330621 0.21178325935062689 0 0.44605663606361079 0.20154879846424101 0 0.43732757266130368 0.21159981822864291 0 0.44036623403508968 0.22043109725053239 0 0.44655030753330621 0.21178325935062689 0 0.43344878640212492 0.20323037939918129 0 0.44655030753330621 0.21178325935062689 0 0.44605663606361079 0.20154879846424101 0 0.43344878640212492 0.20323037939918129 0 0.43732757266130368 0.21159981822864291 0 0.44655030753330621 0.21178325935062689 0 0.43344878640212492 0.20323037939918129 0 0.44655030753330621 0.21178325935062689 0 0.44605663606361079 0.20154879846424101 0 0.45858509325620289 0.1917625784065192 0 0.44621931633813322 0.18469908509922031 0 0.43100570636692148 0.1809177677334641 0 0.44605663606361079 0.20154879846424101 0 0.44621931633813322 0.18469908509922031 0 0.43100570636692148 0.1809177677334641 0 0.44605663606361079 0.20154879846424101 0 0.46256168465873693 0.20560687871125929 0 0.44605663606361079 0.20154879846424101 0 0.45858509325620289 0.1917625784065192 0 0.46256168465873693 0.20560687871125929 0 0.45858509325620289 0.1917625784065192 0 0.47293218968165052 0.1977478680980585 0 0.47293218968165052 0.1977478680980585 0 0.5 0.199766803088234 0 0.47651930974504542 0.1769670978085035 0 0.45858509325620289 0.1917625784065192 0 0.47293218968165052 0.1977478680980585 0 0.47651930974504542 0.1769670978085035 0 0.5 0.199766803088234 0 0.47879332259294599 0.2158064917313707 0 0.5 0.22672671136985981 0 0.46256168465873693 0.20560687871125929 0 0.47293218968165052 0.1977478680980585 0 0.47879332259294599 0.2158064917313707 0 0.47293218968165052 0.1977478680980585 0 0.5 0.199766803088234 0 0.47879332259294599 0.2158064917313707 0 0.46110756576029999 0.222179829195018 0 0.47879332259294599 0.2158064917313707 0 0.47615849545698918 0.24281085992579499 0 0.47879332259294599 0.2158064917313707 0 0.5 0.22672671136985981 0 0.47615849545698918 0.24281085992579499 0 0.5 0.25368661965148542 0 0.5 0.22672671136985981 0 0.47615849545698918 0.24281085992579499 0 0.45804178051783367 0.15241722768743621 0 0.45875151015138621 0.13240064708376151 0 0.44742789482986522 0.1377190925735701 0 0.45804178051783367 0.15241722768743621 0 0.4738363016510147 0.1296466833962964 0 0.45804178051783367 0.15241722768743621 0 0.45875151015138621 0.13240064708376151 0 0.4738363016510147 0.1296466833962964 0 0.45875151015138621 0.13240064708376151 0 0.4738363016510147 0.1296466833962964 0 0.46207304366949697 0.11701831589105779 0 0.45875151015138621 0.13240064708376151 0 0.44742789482986522 0.1377190925735701 0 0.45237853008872042 0.12520191587044671 0 0.44742789482986522 0.1377190925735701 0 0.45237853008872042 0.12520191587044671 0 0.44361772409678119 0.1270007300823271 0 0.44361772409678119 0.1270007300823271 0 0.43931385365439579 0.1250328920743275 0 0.43979864371996141 0.13510529519752271 0 0.44742789482986522 0.1377190925735701 0 0.44361772409678119 0.1270007300823271 0 0.43979864371996141 0.13510529519752271 0 0.44742789482986522 0.1377190925735701 0 0.43979864371996141 0.13510529519752271 0 0.43779890304548419 0.14424627101430759 0 0.44742789482986522 0.1377190925735701 0 0.43779890304548419 0.14424627101430759 0 0.44155046526719322 0.1514816482118071 0 0.45804178051783367 0.15241722768743621 0 0.44742789482986522 0.1377190925735701 0 0.44155046526719322 0.1514816482118071 0 0.45804178051783367 0.15241722768743621 0 0.44155046526719322 0.1514816482118071 0 0.44663610169202078 0.16330582031519411 0 0.44663610169202078 0.16330582031519411 0 0.43976355205206807 0.1727286608720876 0 0.45568559395186259 0.17653762001978959 0 0.44155046526719322 0.1514816482118071 0 0.43813911667114691 0.1633639447848502 0 0.44663610169202078 0.16330582031519411 0 0.43813911667114691 0.1633639447848502 0 0.44663610169202078 0.16330582031519411 0 0.43976355205206807 0.1727286608720876 0 0.43976355205206807 0.1727286608720876 0 0.44621931633813322 0.18469908509922031 0 0.45568559395186259 0.17653762001978959 0 0.43100570636692148 0.1809177677334641 0 0.43976355205206807 0.1727286608720876 0 0.44621931633813322 0.18469908509922031 0 0.45858509325620289 0.1917625784065192 0 0.45568559395186259 0.17653762001978959 0 0.47651930974504542 0.1769670978085035 0 0.45858509325620289 0.1917625784065192 0 0.44621931633813322 0.18469908509922031 0 0.45568559395186259 0.17653762001978959 0 0.45804178051783367 0.15241722768743621 0 0.44663610169202078 0.16330582031519411 0 0.45568559395186259 0.17653762001978959 0 0.45804178051783367 0.15241722768743621 0 0.45568559395186259 0.17653762001978959 0 0.47651930974504542 0.1769670978085035 0 0.45804178051783367 0.15241722768743621 0 0.47651930974504542 0.1769670978085035 0 0.47919197963227611 0.15022470101577379 0 0.5 0.199766803088234 0 0.47651930974504542 0.1769670978085035 0 0.5 0.17280689480660821 0 0.5 0.17280689480660821 0 0.5 0.14584698652498229 0 0.47919197963227611 0.15022470101577379 0 0.47651930974504542 0.1769670978085035 0 0.5 0.17280689480660821 0 0.47919197963227611 0.15022470101577379 0 0.5 0.14584698652498229 0 0.47919197963227611 0.15022470101577379 0 0.48848009831081712 0.13286224168127711 0 0.45804178051783367 0.15241722768743621 0 0.47919197963227611 0.15022470101577379 0 0.4738363016510147 0.1296466833962964 0 0.47919197963227611 0.15022470101577379 0 0.4738363016510147 0.1296466833962964 0 0.48848009831081712 0.13286224168127711 0 0.4738363016510147 0.1296466833962964 0 0.48848009831081712 0.13286224168127711 0 0.48937221027079469 0.11970575922597659 0 0.5 0.14584698652498229 0 0.48848009831081712 0.13286224168127711 0 0.5 0.11888707824335649 0 0.48848009831081712 0.13286224168127711 0 0.5 0.11888707824335649 0 0.48937221027079469 0.11970575922597659 0 0.48937221027079469 0.11970575922597659 0 0.48963082278419562 0.1068761391051567 0 0.5 0.11888707824335649 0 0.48937221027079469 0.11970575922597659 0 0.48963082278419562 0.1068761391051567 0 0.5 0.11888707824335649 0 0.48963082278419562 0.1068761391051567 0 0.49999999999999922 0.09192716996173067 0 0.48963082278419562 0.1068761391051567 0 0.49999999999999922 0.09192716996173067 0 0.47372831752986561 0.109110077157241 0 0.47786315193325779 0.092273565197005511 0 0.46469976227972709 0.1005253842510737 0 0.48963082278419562 0.1068761391051567 0 0.47372831752986561 0.109110077157241 0 0.47786315193325779 0.092273565197005511 0 0.4738363016510147 0.1296466833962964 0 0.48963082278419562 0.1068761391051567 0 0.4738363016510147 0.1296466833962964 0 0.48963082278419562 0.1068761391051567 0 0.47372831752986561 0.109110077157241 0 0.4738363016510147 0.1296466833962964 0 0.48937221027079469 0.11970575922597659 0 0.48963082278419562 0.1068761391051567 0 0.4738363016510147 0.1296466833962964 0 0.47372831752986561 0.109110077157241 0 0.46207304366949697 0.11701831589105779 0 0.49022206983604688 0.077544708181510172 0 0.49081331688789831 0.048213277257863313 0 0.49022206983604688 0.077544708181510172 0 0.49081331688789831 0.048213277257863313 0 0.5 0.062077003155106343 0 0.49022206983604688 0.077544708181510172 0 0.49999999999999922 0.09192716996173067 0 0.5 0.062077003155106343 0 0.48963082278419562 0.1068761391051567 0 0.49022206983604688 0.077544708181510172 0 0.47786315193325779 0.092273565197005511 0 0.48963082278419562 0.1068761391051567 0 0.49022206983604688 0.077544708181510172 0 0.48963082278419562 0.1068761391051567 0 0.49022206983604688 0.077544708181510172 0 0.49999999999999922 0.09192716996173067 0 0.49022206983604688 0.077544708181510172 0 0.47786315193325779 0.092273565197005511 0 0.46338370348457503 0.078531604078750261 0 0.49022206983604688 0.077544708181510172 0 0.46338370348457503 0.078531604078750261 0 0.47068833065323901 0.053273203562075711 0 0.46338370348457503 0.078531604078750261 0 0.44801256871555462 0.056286247113651211 0 0.47068833065323901 0.053273203562075711 0 0.46338370348457503 0.078531604078750261 0 0.46469976227972709 0.1005253842510737 0 0.4496091988538124 0.095763246627087351 0 0.47786315193325779 0.092273565197005511 0 0.46338370348457503 0.078531604078750261 0 0.46469976227972709 0.1005253842510737 0 0.46338370348457503 0.078531604078750261 0 0.44374254726711559 0.081722648063599662 0 0.4496091988538124 0.095763246627087351 0 0.44374254726711559 0.081722648063599662 0 0.43454821507124852 0.069021432910899752 0 0.44801256871555462 0.056286247113651211 0 0.46338370348457503 0.078531604078750261 0 0.44374254726711559 0.081722648063599662 0 0.44801256871555462 0.056286247113651211 0 0.46207304366949697 0.11701831589105779 0 0.45364394732066748 0.1079142264518604 0 0.45200387085814719 0.1163219748678912 0 0.45875151015138621 0.13240064708376151 0 0.45237853008872042 0.12520191587044671 0 0.46207304366949697 0.11701831589105779 0 0.45237853008872042 0.12520191587044671 0 0.46207304366949697 0.11701831589105779 0 0.45200387085814719 0.1163219748678912 0 0.47372831752986561 0.109110077157241 0 0.46207304366949697 0.11701831589105779 0 0.46469976227972709 0.1005253842510737 0 0.46207304366949697 0.11701831589105779 0 0.46469976227972709 0.1005253842510737 0 0.45364394732066748 0.1079142264518604 0 0.46469976227972709 0.1005253842510737 0 0.45364394732066748 0.1079142264518604 0 0.4496091988538124 0.095763246627087351 0 0.45364394732066748 0.1079142264518604 0 0.44656553109810893 0.10575195861325511 0 0.4496091988538124 0.095763246627087351 0 0.44374254726711559 0.081722648063599662 0 0.43828903064234959 0.1084186526558874 0 0.44374254726711559 0.081722648063599662 0 0.4496091988538124 0.095763246627087351 0 0.43828903064234959 0.1084186526558874 0 0.45364394732066748 0.1079142264518604 0 0.44656553109810893 0.10575195861325511 0 0.44596531578671827 0.1122087012385295 0 0.44656553109810893 0.10575195861325511 0 0.43828903064234959 0.1084186526558874 0 0.44596531578671827 0.1122087012385295 0 0.44656553109810893 0.10575195861325511 0 0.4496091988538124 0.095763246627087351 0 0.43828903064234959 0.1084186526558874 0 0.43931385365439579 0.1250328920743275 0 0.43828903064234959 0.1084186526558874 0 0.44202835579530292 0.11952512518772521 0 0.43828903064234959 0.1084186526558874 0 0.44596531578671827 0.1122087012385295 0 0.44202835579530292 0.11952512518772521 0 0.44596531578671827 0.1122087012385295 0 0.44595851742513271 0.1192667148875614 0 0.44202835579530292 0.11952512518772521 0 0.45364394732066748 0.1079142264518604 0 0.44596531578671827 0.1122087012385295 0 0.45200387085814719 0.1163219748678912 0 0.44596531578671827 0.1122087012385295 0 0.45200387085814719 0.1163219748678912 0 0.44595851742513271 0.1192667148875614 0 0.45237853008872042 0.12520191587044671 0 0.44361772409678119 0.1270007300823271 0 0.44595851742513271 0.1192667148875614 0 0.45237853008872042 0.12520191587044671 0 0.45200387085814719 0.1163219748678912 0 0.44595851742513271 0.1192667148875614 0 0.44361772409678119 0.1270007300823271 0 0.43931385365439579 0.1250328920743275 0 0.44202835579530292 0.11952512518772521 0 0.44361772409678119 0.1270007300823271 0 0.44595851742513271 0.1192667148875614 0 0.44202835579530292 0.11952512518772521 0 0.43283551401758358 0.1351146572481752 0 0.43931385365439579 0.1250328920743275 0 0.43828903064234959 0.1084186526558874 0 0.43283551401758358 0.1351146572481752 0 0.43828903064234959 0.1084186526558874 0 0.43283551401758358 0.1351146572481752 0 0.43828903064234959 0.1084186526558874 0 0.43424946519682123 0.1120121538052013 0 0.43828903064234959 0.1084186526558874 0 0.43424946519682123 0.1120121538052013 0 0.42885647177024011 0.10859523695790869 0 0.43424946519682123 0.1120121538052013 0 0.42626173578224602 0.1155592583917304 0 0.42883013797835862 0.1238833212465956 0 0.43424946519682123 0.1120121538052013 0 0.42626173578224602 0.1155592583917304 0 0.42885647177024011 0.10859523695790869 0 0.42626173578224602 0.1155592583917304 0 0.42031919315042399 0.10925566655091069 0 0.42885647177024011 0.10859523695790869 0 0.42626173578224602 0.1155592583917304 0 0.42883013797835862 0.1238833212465956 0 0.42212801783333198 0.1211792462749661 0 0.42626173578224602 0.1155592583917304 0 0.42212801783333198 0.1211792462749661 0 0.41888069576159109 0.1165853372313182 0 0.42206675942826571 0.12689177369750901 0 0.42883013797835862 0.1238833212465956 0 0.42212801783333198 0.1211792462749661 0 0.42206675942826571 0.12689177369750901 0 0.42212801783333198 0.1211792462749661 0 0.41520049501509843 0.1227717316808269 0 0.41520049501509843 0.1227717316808269 0 0.41888069576159109 0.1165853372313182 0 0.41169350662465548 0.1137511650044568 0 0.42212801783333198 0.1211792462749661 0 0.41520049501509843 0.1227717316808269 0 0.41888069576159109 0.1165853372313182 0 0.42626173578224602 0.1155592583917304 0 0.41888069576159109 0.1165853372313182 0 0.42031919315042399 0.10925566655091069 0 0.41888069576159109 0.1165853372313182 0 0.41169350662465548 0.1137511650044568 0 0.42031919315042399 0.10925566655091069 0 0.41520049501509843 0.1227717316808269 0 0.41169350662465548 0.1137511650044568 0 0.40408438037122918 0.1211878451396604 0 0.41169350662465548 0.1137511650044568 0 0.41055392064863339 0.10253129573622349 0 0.39968308329822272 0.1099632880212707 0 0.41169350662465548 0.1137511650044568 0 0.41055392064863339 0.10253129573622349 0 0.42031919315042399 0.10925566655091069 0 0.41055392064863339 0.10253129573622349 0 0.42031919315042399 0.10925566655091069 0 0.42516293407936001 0.097730453385813668 0 0.41055392064863339 0.10253129573622349 0 0.42516293407936001 0.097730453385813668 0 0.40969959730959521 0.088754308951437863 0 0.44374254726711559 0.081722648063599662 0 0.43828903064234959 0.1084186526558874 0 0.42516293407936001 0.097730453385813668 0 0.42031919315042399 0.10925566655091069 0 0.42516293407936001 0.097730453385813668 0 0.42885647177024011 0.10859523695790869 0 0.43828903064234959 0.1084186526558874 0 0.42516293407936001 0.097730453385813668 0 0.42885647177024011 0.10859523695790869 0 0.44374254726711559 0.081722648063599662 0 0.42516293407936001 0.097730453385813668 0 0.42342839080985539 0.079289830379034879 0 0.44374254726711559 0.081722648063599662 0 0.42342839080985539 0.079289830379034879 0 0.43454821507124852 0.069021432910899752 0 0.42342839080985539 0.079289830379034879 0 0.43454821507124852 0.069021432910899752 0 0.42315532539957218 0.058661843334024001 0 0.42342839080985539 0.079289830379034879 0 0.40914545194209911 0.071485609564843705 0 0.42315532539957218 0.058661843334024001 0 0.40914545194209911 0.071485609564843705 0 0.40843039223626287 0.059475539213269341 0 0.42315532539957218 0.058661843334024001 0 0.42516293407936001 0.097730453385813668 0 0.42342839080985539 0.079289830379034879 0 0.40969959730959521 0.088754308951437863 0 0.42342839080985539 0.079289830379034879 0 0.40914545194209911 0.071485609564843705 0 0.40969959730959521 0.088754308951437863 0 0.40969959730959521 0.088754308951437863 0 0.39594830929984681 0.079127968291099679 0 0.3967652094295433 0.095732892503451475 0 0.40914545194209911 0.071485609564843705 0 0.40969959730959521 0.088754308951437863 0 0.39594830929984681 0.079127968291099679 0 0.40914545194209911 0.071485609564843705 0 0.39790594320102518 0.066876343511378264 0 0.40843039223626287 0.059475539213269341 0 0.40914545194209911 0.071485609564843705 0 0.39594830929984681 0.079127968291099679 0 0.39790594320102518 0.066876343511378264 0 0.39594830929984681 0.079127968291099679 0 0.39790594320102518 0.066876343511378264 0 0.38672790390806622 0.064603400750583906 0 0.39790594320102518 0.066876343511378264 0 0.38672790390806622 0.064603400750583906 0 0.39538345588891899 0.057339288122103579 0 0.37218066484668322 0.071556363146405774 0 0.38672790390806622 0.064603400750583906 0 0.37757486673858798 0.086750718556758116 0 0.38672790390806622 0.064603400750583906 0 0.37757486673858798 0.086750718556758116 0 0.39594830929984681 0.079127968291099679 0 0.38672790390806622 0.064603400750583906 0 0.37757486673858798 0.086750718556758116 0 0.37218066484668322 0.071556363146405774 0 0.38672790390806622 0.064603400750583906 0 0.3850652289356008 0.060745035976355853 0 0.39594830929984681 0.079127968291099679 0 0.37757486673858798 0.086750718556758116 0 0.3967652094295433 0.095732892503451475 0 0.37757486673858798 0.086750718556758116 0 0.38509247298073962 0.107262758924239 0 0.3967652094295433 0.095732892503451475 0 0.3684218295691099 0.1088980363629322 0 0.37757486673858798 0.086750718556758116 0 0.38509247298073962 0.107262758924239 0 0.38040268001195021 0.1251160331139205 0 0.38509247298073962 0.107262758924239 0 0.39251543912936571 0.1188510421925682 0 0.3684218295691099 0.1088980363629322 0 0.38040268001195021 0.1251160331139205 0 0.38509247298073962 0.107262758924239 0 0.38040268001195021 0.1251160331139205 0 0.39601398960537432 0.129408072964493 0 0.39251543912936571 0.1188510421925682 0 0.38509247298073962 0.107262758924239 0 0.39251543912936571 0.1188510421925682 0 0.39968308329822272 0.1099632880212707 0 0.39601398960537432 0.129408072964493 0 0.39251543912936571 0.1188510421925682 0 0.40408438037122918 0.1211878451396604 0 0.39251543912936571 0.1188510421925682 0 0.40408438037122918 0.1211878451396604 0 0.39968308329822272 0.1099632880212707 0 0.41169350662465548 0.1137511650044568 0 0.40408438037122918 0.1211878451396604 0 0.39968308329822272 0.1099632880212707 0 0.41055392064863339 0.10253129573622349 0 0.39968308329822272 0.1099632880212707 0 0.3967652094295433 0.095732892503451475 0 0.41055392064863339 0.10253129573622349 0 0.40969959730959521 0.088754308951437863 0 0.3967652094295433 0.095732892503451475 0 0.38509247298073962 0.107262758924239 0 0.39968308329822272 0.1099632880212707 0 0.3967652094295433 0.095732892503451475 0 0.40225499104735712 0.0055571414600919487 0 0.38982781875799322 0.02013798340487748 0 0.40095923432652281 0.032892883588255747 0 0.40225499104735712 0.0055571414600919487 0 0.40095923432652281 0.032892883588255747 0 0.41489447587880279 0.026578092158714661 0 0.40225499104735712 0.0055571414600919487 0 0.40095923432652281 0.032892883588255747 0 0.38982781875799322 0.02013798340487748 0 0.38883989333379149 0.034632392820164448 0 0.40095923432652281 0.032892883588255747 0 0.40225499104735712 0.0055571414600919487 0 0.38252354203690109 0.0067354487879814646 0 0.39361439243422369 -0.0085510178686497174 0 0.40225499104735712 0.0055571414600919487 0 0.38252354203690109 0.0067354487879814646 0 0.38982781875799322 0.02013798340487748 0 0.36849572231199829 0.022033052291418231 0 0.38982781875799322 0.02013798340487748 0 0.38883989333379149 0.034632392820164448 0 0.36849572231199829 0.022033052291418231 0 0.38883989333379149 0.034632392820164448 0 0.36849572231199829 0.022033052291418231 0 0.38252354203690109 0.0067354487879814646 0 0.38982781875799322 0.02013798340487748 0 0.36674866338864692 0.046406419455025237 0 0.37734786905831008 0.037695570486944698 0 0.38290950858464862 0.047182100964964307 0 0.36849572231199829 0.022033052291418231 0 0.37734786905831008 0.037695570486944698 0 0.38883989333379149 0.034632392820164448 0 0.37734786905831008 0.037695570486944698 0 0.38624455301357358 0.040491536804120799 0 0.38290950858464862 0.047182100964964307 0 0.38624455301357358 0.040491536804120799 0 0.38883989333379149 0.034632392820164448 0 0.3958809410775444 0.042456082944409751 0 0.38624455301357358 0.040491536804120799 0 0.38290950858464862 0.047182100964964307 0 0.3958809410775444 0.042456082944409751 0 0.37734786905831008 0.037695570486944698 0 0.38624455301357358 0.040491536804120799 0 0.38883989333379149 0.034632392820164448 0 0.38672790390806622 0.064603400750583906 0 0.3850652289356008 0.060745035976355853 0 0.3958809410775444 0.042456082944409751 0 0.38425349606972048 0.052117851746962637 0 0.3850652289356008 0.060745035976355853 0 0.3958809410775444 0.042456082944409751 0 0.37522327912169939 0.054381046480790222 0 0.38425349606972048 0.052117851746962637 0 0.3850652289356008 0.060745035976355853 0 0.37522327912169939 0.054381046480790222 0 0.38425349606972048 0.052117851746962637 0 0.38290950858464862 0.047182100964964307 0 0.38425349606972048 0.052117851746962637 0 0.38290950858464862 0.047182100964964307 0 0.3958809410775444 0.042456082944409751 0 0.38672790390806622 0.064603400750583906 0 0.3958809410775444 0.042456082944409751 0 0.38672790390806622 0.064603400750583906 0 0.39538345588891899 0.057339288122103579 0 0.3958809410775444 0.042456082944409751 0 0.39790594320102518 0.066876343511378264 0 0.39538345588891899 0.057339288122103579 0 0.40101903536904021 0.055421325282042383 0 0.39538345588891899 0.057339288122103579 0 0.40101903536904021 0.055421325282042383 0 0.3958809410775444 0.042456082944409751 0 0.40101903536904021 0.055421325282042383 0 0.3958809410775444 0.042456082944409751 0 0.40918406435558469 0.047231733348910628 0 0.40101903536904021 0.055421325282042383 0 0.40843039223626287 0.059475539213269341 0 0.40918406435558469 0.047231733348910628 0 0.39790594320102518 0.066876343511378264 0 0.40101903536904021 0.055421325282042383 0 0.40843039223626287 0.059475539213269341 0 0.38883989333379149 0.034632392820164448 0 0.40095923432652281 0.032892883588255747 0 0.40918406435558469 0.047231733348910628 0 0.38883989333379149 0.034632392820164448 0 0.40918406435558469 0.047231733348910628 0 0.38883989333379149 0.034632392820164448 0 0.3958809410775444 0.042456082944409751 0 0.40918406435558469 0.047231733348910628 0 0.40095923432652281 0.032892883588255747 0 0.41114177683204961 0.036580455481660161 0 0.40918406435558469 0.047231733348910628 0 0.40095923432652281 0.032892883588255747 0 0.41114177683204961 0.036580455481660161 0 0.41489447587880279 0.026578092158714661 0 0.41114177683204961 0.036580455481660161 0 0.40918406435558469 0.047231733348910628 0 0.42424284770812742 0.041128751104945682 0 0.41114177683204961 0.036580455481660161 0 0.42424284770812742 0.041128751104945682 0 0.41489447587880279 0.026578092158714661 0 0.40918406435558469 0.047231733348910628 0 0.42315532539957218 0.058661843334024001 0 0.42424284770812742 0.041128751104945682 0 0.40843039223626287 0.059475539213269341 0 0.40918406435558469 0.047231733348910628 0 0.42315532539957218 0.058661843334024001 0 0.42315532539957218 0.058661843334024001 0 0.42424284770812742 0.041128751104945682 0 0.43800387248573952 0.042656567500015057 0 0.43454821507124852 0.069021432910899752 0 0.42315532539957218 0.058661843334024001 0 0.44801256871555462 0.056286247113651211 0 0.42315532539957218 0.058661843334024001 0 0.44801256871555462 0.056286247113651211 0 0.43800387248573952 0.042656567500015057 0 0.42424284770812742 0.041128751104945682 0 0.43867634788033238 0.02716906047474902 0 0.43800387248573952 0.042656567500015057 0 0.42424284770812742 0.041128751104945682 0 0.42492746993046132 0.01324191339265 0 0.42424284770812742 0.041128751104945682 0 0.42492746993046132 0.01324191339265 0 0.43867634788033238 0.02716906047474902 0 0.42424284770812742 0.041128751104945682 0 0.41489447587880279 0.026578092158714661 0 0.42492746993046132 0.01324191339265 0 0.40225499104735712 0.0055571414600919487 0 0.42492746993046132 0.01324191339265 0 0.41271323756968847 -0.0068874300950638031 0 0.40225499104735712 0.0055571414600919487 0 0.41489447587880279 0.026578092158714661 0 0.42492746993046132 0.01324191339265 0 0.42492746993046132 0.01324191339265 0 0.44900602116003419 0.0088929668807739004 0 0.44202564452823778 -0.01084437810448592 0 0.44900602116003419 0.0088929668807739004 0 0.43867634788033238 0.02716906047474902 0 0.45593227272511111 0.030036935472705441 0 0.42492746993046132 0.01324191339265 0 0.44900602116003419 0.0088929668807739004 0 0.43867634788033238 0.02716906047474902 0 0.45593227272511111 0.030036935472705441 0 0.47590773347159288 0.032074295231092863 0 0.47070018315196638 0.0099662135286033657 0 0.44900602116003419 0.0088929668807739004 0 0.45593227272511111 0.030036935472705441 0 0.47070018315196638 0.0099662135286033657 0 0.44900602116003419 0.0088929668807739004 0 0.47070018315196638 0.0099662135286033657 0 0.46339264056249801 -0.0101062496848357 0 0.45593227272511111 0.030036935472705441 0 0.44801256871555462 0.056286247113651211 0 0.43800387248573952 0.042656567500015057 0 0.43867634788033238 0.02716906047474902 0 0.45593227272511111 0.030036935472705441 0 0.43800387248573952 0.042656567500015057 0 0.45593227272511111 0.030036935472705441 0 0.44801256871555462 0.056286247113651211 0 0.47068833065323901 0.053273203562075711 0 0.45593227272511111 0.030036935472705441 0 0.47068833065323901 0.053273203562075711 0 0.47590773347159288 0.032074295231092863 0 0.49022206983604688 0.077544708181510172 0 0.47068833065323901 0.053273203562075711 0 0.49081331688789831 0.048213277257863313 0 0.47068833065323901 0.053273203562075711 0 0.47590773347159288 0.032074295231092863 0 0.49081331688789831 0.048213277257863313 0 0.5 0.032226836348481891 0 0.49081331688789831 0.048213277257863313 0 0.49140456393974957 0.018881846334216482 0 0.49081331688789831 0.048213277257863313 0 0.49140456393974957 0.018881846334216482 0 0.47590773347159288 0.032074295231092863 0 0.49081331688789831 0.048213277257863313 0 0.49140456393974957 0.018881846334216482 0 0.5 0.032226836348481891 0 0.49081331688789831 0.048213277257863313 0 0.5 0.062077003155106343 0 0.47590773347159288 0.032074295231092863 0 0.47070018315196638 0.0099662135286033657 0 0.49140456393974957 0.018881846334216482 0 0.5 0.032226836348481891 0 0.49140456393974957 0.018881846334216482 0 0.5 0.0023766695418576682 0 0.49140456393974957 0.018881846334216482 0 0.49199581099160089 -0.01044958458943023 0 0.49140456393974957 0.018881846334216482 0 0.5 0.0023766695418576682 0 0.49199581099160089 -0.01044958458943023 0 0.47070018315196638 0.0099662135286033657 0 0.49140456393974957 0.018881846334216482 0 0.49199581099160089 -0.01044958458943023 0 0.5 0.0023766695418576682 0 0.49199581099160089 -0.01044958458943023 0 0.49999999999999972 -0.027473497264766542 0 0.47070018315196638 0.0099662135286033657 0 0.49199581099160089 -0.01044958458943023 0 0.46339264056249801 -0.0101062496848357 0 0.49199581099160089 -0.01044958458943023 0 0.47395164194643979 -0.027618900916845761 0 0.46339264056249801 -0.0101062496848357 0 0.49199581099160089 -0.01044958458943023 0 0.49258705804345149 -0.039781015513076938 0 0.49199581099160089 -0.01044958458943023 0 0.49999999999999972 -0.027473497264766542 0 0.49258705804345149 -0.039781015513076938 0 0.49199581099160089 -0.01044958458943023 0 0.47395164194643979 -0.027618900916845761 0 0.49258705804345149 -0.039781015513076938 0 0.49999999999999972 -0.027473497264766542 0 0.49258705804345149 -0.039781015513076938 0 0.49999999999999972 -0.027473497264766542 0 0.49258705804345149 -0.039781015513076938 0 0.5 -0.054532796285212737 0 0.49258705804345149 -0.039781015513076938 0 0.49297427798567162 -0.058990777239412331 0 0.49258705804345149 -0.039781015513076938 0 0.48285586217512372 -0.055937471536790233 0 0.49258705804345149 -0.039781015513076938 0 0.5 -0.054532796285212737 0 0.49297427798567162 -0.058990777239412331 0 0.49258705804345149 -0.039781015513076938 0 0.49297427798567162 -0.058990777239412331 0 0.48285586217512372 -0.055937471536790233 0 0.49297427798567162 -0.058990777239412331 0 0.48285586217512372 -0.055937471536790233 0 0.48584991916044579 -0.064307872690691409 0 0.48285586217512372 -0.055937471536790233 0 0.47601940503349649 -0.043150262197270792 0 0.46541916161217078 -0.058364836084716702 0 0.48285586217512372 -0.055937471536790233 0 0.46541916161217078 -0.058364836084716702 0 0.47312466630679639 -0.072093927560503882 0 0.47395164194643979 -0.027618900916845761 0 0.49258705804345149 -0.039781015513076938 0 0.47601940503349649 -0.043150262197270792 0 0.49258705804345149 -0.039781015513076938 0 0.48285586217512372 -0.055937471536790233 0 0.47601940503349649 -0.043150262197270792 0 0.47395164194643979 -0.027618900916845761 0 0.47601940503349649 -0.043150262197270792 0 0.46311578374710061 -0.042802706603644942 0 0.47395164194643979 -0.027618900916845761 0 0.46311578374710061 -0.042802706603644942 0 0.45267654159670939 -0.03058381490762958 0 0.46311578374710061 -0.042802706603644942 0 0.45274985795020523 -0.045892694107953713 0 0.45267654159670939 -0.03058381490762958 0 0.46311578374710061 -0.042802706603644942 0 0.45774887341260972 -0.051093270398134598 0 0.45274985795020523 -0.045892694107953713 0 0.46541916161217078 -0.058364836084716702 0 0.45774887341260972 -0.051093270398134598 0 0.44971069034096228 -0.057312844796223103 0 0.46311578374710061 -0.042802706603644942 0 0.46541916161217078 -0.058364836084716702 0 0.45774887341260972 -0.051093270398134598 0 0.47601940503349649 -0.043150262197270792 0 0.46311578374710061 -0.042802706603644942 0 0.46541916161217078 -0.058364836084716702 0 0.45774887341260972 -0.051093270398134598 0 0.44971069034096228 -0.057312844796223103 0 0.45274985795020523 -0.045892694107953713 0 0.44971069034096228 -0.057312844796223103 0 0.44296949673594072 -0.042056236220664088 0 0.42629671437512878 -0.042531762031941457 0 0.45115835640751878 -0.065744208719247951 0 0.43214376282896882 -0.054493830639847252 0 0.44971069034096228 -0.057312844796223103 0 0.42629671437512878 -0.042531762031941457 0 0.44971069034096228 -0.057312844796223103 0 0.45115835640751878 -0.065744208719247951 0 0.43214376282896882 -0.054493830639847252 0 0.44971069034096228 -0.057312844796223103 0 0.45274985795020523 -0.045892694107953713 0 0.44296949673594072 -0.042056236220664088 0 0.45274985795020523 -0.045892694107953713 0 0.44296949673594072 -0.042056236220664088 0 0.45267654159670939 -0.03058381490762958 0 0.44296949673594072 -0.042056236220664088 0 0.43805354695881837 -0.028810858820005138 0 0.45267654159670939 -0.03058381490762958 0 0.45267654159670939 -0.03058381490762958 0 0.44202564452823778 -0.01084437810448592 0 0.46339264056249801 -0.0101062496848357 0 0.43805354695881837 -0.028810858820005138 0 0.45267654159670939 -0.03058381490762958 0 0.44202564452823778 -0.01084437810448592 0 0.44900602116003419 0.0088929668807739004 0 0.44202564452823778 -0.01084437810448592 0 0.46339264056249801 -0.0101062496848357 0 0.47395164194643979 -0.027618900916845761 0 0.45267654159670939 -0.03058381490762958 0 0.46339264056249801 -0.0101062496848357 0 0.47848832985178802 -0.1102183821819377 0 0.46376518391457972 -0.12981095665039361 0 0.48339705170826602 -0.13035982314943859 0 0.47848832985178802 -0.1102183821819377 0 0.46376518391457972 -0.12981095665039361 0 0.46980359469853572 -0.1197897076648328 0 0.47848832985178802 -0.1102183821819377 0 0.46376518391457972 -0.12981095665039361 0 0.46980359469853572 -0.1197897076648328 0 0.47848832985178802 -0.1102183821819377 0 0.46825575941164532 -0.10965945059734419 0 0.47848832985178802 -0.1102183821819377 0 0.5 -0.1198691799125074 0 0.48339705170826602 -0.13035982314943859 0 0.47848832985178802 -0.1102183821819377 0 0.5 -0.1198691799125074 0 0.49999999999999861 -0.094642378651977235 0 0.47848832985178802 -0.1102183821819377 0 0.49999999999999861 -0.094642378651977235 0 0.49321147578899482 -0.090625807713480916 0 0.47848832985178802 -0.1102183821819377 0 0.49321147578899482 -0.090625807713480916 0 0.47848832985178802 -0.1102183821819377 0 0.46995229443574082 -0.1014309660595869 0 0.4742594496689021 -0.092615343864389202 0 0.47848832985178802 -0.1102183821819377 0 0.4742594496689021 -0.092615343864389202 0 0.49321147578899482 -0.090625807713480916 0 0.47848832985178802 -0.1102183821819377 0 0.46995229443574082 -0.1014309660595869 0 0.46825575941164532 -0.10965945059734419 0 0.46995229443574082 -0.1014309660595869 0 0.4742594496689021 -0.092615343864389202 0 0.46646562634055633 -0.09386346017358313 0 0.4742594496689021 -0.092615343864389202 0 0.49321147578899482 -0.090625807713480916 0 0.47017294998607029 -0.076994586798646125 0 0.49321147578899482 -0.090625807713480916 0 0.47312466630679639 -0.072093927560503882 0 0.47017294998607029 -0.076994586798646125 0 0.49321147578899482 -0.090625807713480916 0 0.47017294998607029 -0.076994586798646125 0 0.4742594496689021 -0.092615343864389202 0 0.46634457919384692 -0.083350733071309635 0 0.46646562634055633 -0.09386346017358313 0 0.4742594496689021 -0.092615343864389202 0 0.47017294998607029 -0.076994586798646125 0 0.46634457919384692 -0.083350733071309635 0 0.49619370675653612 -0.086657254894478092 0 0.47312466630679639 -0.072093927560503882 0 0.49321147578899482 -0.090625807713480916 0 0.49619370675653612 -0.086657254894478092 0 0.47312466630679639 -0.072093927560503882 0 0.49321147578899482 -0.090625807713480916 0 0.49619370675653612 -0.086657254894478092 0 0.49321147578899482 -0.090625807713480916 0 0.49619370675653612 -0.086657254894478092 0 0.49735129563638281 -0.090246395756465217 0 0.49619370675653612 -0.086657254894478092 0 0.49999999999999861 -0.089060141765924417 0 0.49735129563638281 -0.090246395756465217 0 0.49619370675653612 -0.086657254894478092 0 0.49999999999999861 -0.089060141765924417 0 0.49999999999999861 -0.094642378651977235 0 0.49321147578899482 -0.090625807713480916 0 0.49735129563638281 -0.090246395756465217 0 0.49999999999999861 -0.094642378651977235 0 0.49321147578899482 -0.090625807713480916 0 0.49999999999999861 -0.094642378651977235 0 0.49999999999999861 -0.089060141765924417 0 0.49735129563638281 -0.090246395756465217 0 0.49619370675653612 -0.086657254894478092 0 0.50000000000000211 -0.081592095305658974 0 0.48962851404189012 -0.072728385538148962 0 0.49619370675653612 -0.086657254894478092 0 0.49999999999999861 -0.089060141765924417 0 0.50000000000000211 -0.081592095305658974 0 0.49619370675653612 -0.086657254894478092 0 0.50000000000000211 -0.081592095305658974 0 0.49619370675653612 -0.086657254894478092 0 0.48962851404189012 -0.072728385538148962 0 0.47312466630679639 -0.072093927560503882 0 0.49297427798567162 -0.058990777239412331 0 0.50000000000000211 -0.081592095305658974 0 0.48962851404189012 -0.072728385538148962 0 0.5 -0.054532796285212737 0 0.49297427798567162 -0.058990777239412331 0 0.50000000000000211 -0.081592095305658974 0 0.49297427798567162 -0.058990777239412331 0 0.48962851404189012 -0.072728385538148962 0 0.48584991916044579 -0.064307872690691409 0 0.48285586217512372 -0.055937471536790233 0 0.48584991916044579 -0.064307872690691409 0 0.47312466630679639 -0.072093927560503882 0 0.48962851404189012 -0.072728385538148962 0 0.48584991916044579 -0.064307872690691409 0 0.47312466630679639 -0.072093927560503882 0 0.48285586217512372 -0.055937471536790233 0 0.47312466630679639 -0.072093927560503882 0 0.47312466630679639 -0.072093927560503882 0 0.47017294998607029 -0.076994586798646125 0 0.46541916161217078 -0.058364836084716702 0 0.44971069034096228 -0.057312844796223103 0 0.47312466630679639 -0.072093927560503882 0 0.44971069034096228 -0.057312844796223103 0 0.47312466630679639 -0.072093927560503882 0 0.47312466630679639 -0.072093927560503882 0 0.47017294998607029 -0.076994586798646125 0 0.45115835640751878 -0.065744208719247951 0 0.44971069034096228 -0.057312844796223103 0 0.47312466630679639 -0.072093927560503882 0 0.45115835640751878 -0.065744208719247951 0 0.47017294998607029 -0.076994586798646125 0 0.45115835640751878 -0.065744208719247951 0 0.47017294998607029 -0.076994586798646125 0 0.4573311064707532 -0.077714381449990572 0 0.45115835640751878 -0.065744208719247951 0 0.45115835640751878 -0.065744208719247951 0 0.4362301830162208 -0.070473512679485151 0 0.43214376282896882 -0.054493830639847252 0 0.45115835640751878 -0.065744208719247951 0 0.4471189013521234 -0.075506172208895814 0 0.4362301830162208 -0.070473512679485151 0 0.4471189013521234 -0.075506172208895814 0 0.44057101865035803 -0.083260789943837885 0 0.4362301830162208 -0.070473512679485151 0 0.4573311064707532 -0.077714381449990572 0 0.45115835640751878 -0.065744208719247951 0 0.4471189013521234 -0.075506172208895814 0 0.44057101865035803 -0.083260789943837885 0 0.4504557485420152 -0.086363137462727294 0 0.44136974605144308 -0.1008360367532723 0 0.4471189013521234 -0.075506172208895814 0 0.44057101865035803 -0.083260789943837885 0 0.4504557485420152 -0.086363137462727294 0 0.4573311064707532 -0.077714381449990572 0 0.4471189013521234 -0.075506172208895814 0 0.4504557485420152 -0.086363137462727294 0 0.4504557485420152 -0.086363137462727294 0 0.45882149751924051 -0.091005038427720647 0 0.45823823293146387 -0.084608322602937033 0 0.4504557485420152 -0.086363137462727294 0 0.45882149751924051 -0.091005038427720647 0 0.45478999863151759 -0.10122892611880011 0 0.4573311064707532 -0.077714381449990572 0 0.45823823293146387 -0.084608322602937033 0 0.46634457919384692 -0.083350733071309635 0 0.4573311064707532 -0.077714381449990572 0 0.4504557485420152 -0.086363137462727294 0 0.45823823293146387 -0.084608322602937033 0 0.47017294998607029 -0.076994586798646125 0 0.4573311064707532 -0.077714381449990572 0 0.46634457919384692 -0.083350733071309635 0 0.47017294998607029 -0.076994586798646125 0 0.46634457919384692 -0.083350733071309635 0 0.45882149751924051 -0.091005038427720647 0 0.46634457919384692 -0.083350733071309635 0 0.46646562634055633 -0.09386346017358313 0 0.45882149751924051 -0.091005038427720647 0 0.45823823293146387 -0.084608322602937033 0 0.46634457919384692 -0.083350733071309635 0 0.45882149751924051 -0.091005038427720647 0 0.46229230690581252 -0.1007981934806805 0 0.46646562634055633 -0.09386346017358313 0 0.46995229443574082 -0.1014309660595869 0 0.46229230690581252 -0.1007981934806805 0 0.46646562634055633 -0.09386346017358313 0 0.46995229443574082 -0.1014309660595869 0 0.46229230690581252 -0.1007981934806805 0 0.46825575941164532 -0.10965945059734419 0 0.46229230690581252 -0.1007981934806805 0 0.46074171495769511 -0.109824167696665 0 0.46825575941164532 -0.10965945059734419 0 0.46229230690581252 -0.1007981934806805 0 0.45478999863151759 -0.10122892611880011 0 0.46074171495769511 -0.109824167696665 0 0.45882149751924051 -0.091005038427720647 0 0.46229230690581252 -0.1007981934806805 0 0.45478999863151759 -0.10122892611880011 0 0.4504557485420152 -0.086363137462727294 0 0.45478999863151759 -0.10122892611880011 0 0.44136974605144308 -0.1008360367532723 0 0.45478999863151759 -0.10122892611880011 0 0.44136974605144308 -0.1008360367532723 0 0.45505897781290011 -0.11854698289173481 0 0.44136974605144308 -0.1008360367532723 0 0.45505897781290011 -0.11854698289173481 0 0.45505897781290011 -0.11854698289173481 0 0.42820915951309818 -0.1162839919565892 0 0.44136974605144308 -0.1008360367532723 0 0.45505897781290011 -0.11854698289173481 0 0.42820915951309818 -0.1162839919565892 0 0.45505897781290011 -0.11854698289173481 0 0.42820915951309818 -0.1162839919565892 0 0.44057562190611399 -0.12997369199362011 0 0.45505897781290011 -0.11854698289173481 0 0.46376518391457972 -0.12981095665039361 0 0.45478999863151759 -0.10122892611880011 0 0.45505897781290011 -0.11854698289173481 0 0.46074171495769511 -0.109824167696665 0 0.46980359469853572 -0.1197897076648328 0 0.45505897781290011 -0.11854698289173481 0 0.46074171495769511 -0.109824167696665 0 0.46980359469853572 -0.1197897076648328 0 0.46074171495769511 -0.109824167696665 0 0.46825575941164532 -0.10965945059734419 0 0.46980359469853572 -0.1197897076648328 0 0.45505897781290011 -0.11854698289173481 0 0.46980359469853572 -0.1197897076648328 0 0.45505897781290011 -0.11854698289173481 0 0.46376518391457972 -0.12981095665039361 0 0.42820915951309818 -0.1162839919565892 0 0.40135934121329608 -0.11402100102144599 0 0.42820915951309818 -0.1162839919565892 0 0.41557082861872602 -0.1015099959664085 0 0.40135934121329608 -0.11402100102144599 0 0.41175386903683969 -0.1248553976370905 0 0.42820915951309818 -0.1162839919565892 0 0.40135934121329608 -0.11402100102144599 0 0.44136974605144308 -0.1008360367532723 0 0.42820915951309818 -0.1162839919565892 0 0.41557082861872602 -0.1015099959664085 0 0.44136974605144308 -0.1008360367532723 0 0.41557082861872602 -0.1015099959664085 0 0.42768051428998738 -0.083125090614808855 0 0.41557082861872602 -0.1015099959664085 0 0.40135934121329608 -0.11402100102144599 0 0.41557082861872602 -0.1015099959664085 0 0.40614226120986008 -0.076450084924399364 0 0.40117119400379841 -0.099952937508594589 0 0.41557082861872602 -0.1015099959664085 0 0.42768051428998738 -0.083125090614808855 0 0.40614226120986008 -0.076450084924399364 0 0.44136974605144308 -0.1008360367532723 0 0.42768051428998738 -0.083125090614808855 0 0.44057101865035803 -0.083260789943837885 0 0.44136974605144308 -0.1008360367532723 0 0.42768051428998738 -0.083125090614808855 0 0.44057101865035803 -0.083260789943837885 0 0.42768051428998738 -0.083125090614808855 0 0.4362301830162208 -0.070473512679485151 0 0.42768051428998738 -0.083125090614808855 0 0.4362301830162208 -0.070473512679485151 0 0.42116249697035107 -0.069848903487581201 0 0.4362301830162208 -0.070473512679485151 0 0.42116249697035107 -0.069848903487581201 0 0.43214376282896882 -0.054493830639847252 0 0.42768051428998738 -0.083125090614808855 0 0.42116249697035107 -0.069848903487581201 0 0.40614226120986008 -0.076450084924399364 0 0.42116249697035107 -0.069848903487581201 0 0.40614226120986008 -0.076450084924399364 0 0.41841841219472159 -0.056339065240192318 0 0.40614226120986008 -0.076450084924399364 0 0.38764276873729592 -0.076866116550238214 0 0.39256525790004138 -0.062403065823825023 0 0.40614226120986008 -0.076450084924399364 0 0.40484650448902582 -0.049114342796235652 0 0.40614226120986008 -0.076450084924399364 0 0.40484650448902582 -0.049114342796235652 0 0.39256525790004138 -0.062403065823825023 0 0.37680564080728779 -0.068723262782962341 0 0.38764276873729592 -0.076866116550238214 0 0.39256525790004138 -0.062403065823825023 0 0.37680564080728779 -0.068723262782962341 0 0.38764276873729592 -0.076866116550238214 0 0.37490085054651162 -0.082155585246791674 0 0.38764276873729592 -0.076866116550238214 0 0.3883991410789166 -0.094986109923514847 0 0.37490085054651162 -0.082155585246791674 0 0.3883991410789166 -0.094986109923514847 0 0.37490085054651162 -0.082155585246791674 0 0.36922409297354142 -0.096701827198606455 0 0.40614226120986008 -0.076450084924399364 0 0.38764276873729592 -0.076866116550238214 0 0.3883991410789166 -0.094986109923514847 0 0.40614226120986008 -0.076450084924399364 0 0.40117119400379841 -0.099952937508594589 0 0.3883991410789166 -0.094986109923514847 0 0.40117119400379841 -0.099952937508594589 0 0.3883991410789166 -0.094986109923514847 0 0.38860235979811641 -0.11294580069867111 0 0.41557082861872602 -0.1015099959664085 0 0.40117119400379841 -0.099952937508594589 0 0.40135934121329608 -0.11402100102144599 0 0.40117119400379841 -0.099952937508594589 0 0.38860235979811641 -0.11294580069867111 0 0.40135934121329608 -0.11402100102144599 0 0.37947436298086301 -0.1045240376017042 0 0.3883991410789166 -0.094986109923514847 0 0.38860235979811641 -0.11294580069867111 0 0.3883991410789166 -0.094986109923514847 0 0.36922409297354142 -0.096701827198606455 0 0.37947436298086301 -0.1045240376017042 0 0.3883991410789166 -0.094986109923514847 0 0.36922409297354142 -0.096701827198606455 0 0.37947436298086301 -0.1045240376017042 0 0.38860235979811641 -0.11294580069867111 0 0.37167185807287761 -0.11346241258602451 0 0.38860235979811641 -0.11294580069867111 0 0.37167185807287761 -0.11346241258602451 0 0.38295297505005249 -0.1302249446019971 0 0.38860235979811641 -0.11294580069867111 0 0.40135934121329608 -0.11402100102144599 0 0.38295297505005249 -0.1302249446019971 0 0.41175386903683969 -0.1248553976370905 0 0.40135934121329608 -0.11402100102144599 0 0.40095730074538971 -0.1320645110756441 0 0.40135934121329608 -0.11402100102144599 0 0.38295297505005249 -0.1302249446019971 0 0.38860235979811641 -0.11294580069867111 0 0.40135934121329608 -0.11402100102144599 0 0.41456033186622132 -0.021578167952180882 0 0.41846660029514471 -0.029031036874195379 0 0.42561209215279511 -0.01464492431964568 0 0.41456033186622132 -0.021578167952180882 0 0.40710064828154058 -0.030413416899445479 0 0.40355074776819139 -0.02177860066807185 0 0.41456033186622132 -0.021578167952180882 0 0.41846660029514471 -0.029031036874195379 0 0.40710064828154058 -0.030413416899445479 0 0.41456033186622132 -0.021578167952180882 0 0.41271323756968847 -0.0068874300950638031 0 0.40355074776819139 -0.02177860066807185 0 0.42492746993046132 0.01324191339265 0 0.41271323756968847 -0.0068874300950638031 0 0.42561209215279511 -0.01464492431964568 0 0.41456033186622132 -0.021578167952180882 0 0.41271323756968847 -0.0068874300950638031 0 0.42561209215279511 -0.01464492431964568 0 0.42492746993046132 0.01324191339265 0 0.42561209215279511 -0.01464492431964568 0 0.42492746993046132 0.01324191339265 0 0.44202564452823778 -0.01084437810448592 0 0.42561209215279511 -0.01464492431964568 0 0.43805354695881837 -0.028810858820005138 0 0.44202564452823778 -0.01084437810448592 0 0.42561209215279511 -0.01464492431964568 0 0.41846660029514471 -0.029031036874195379 0 0.42561209215279511 -0.01464492431964568 0 0.42629671437512878 -0.042531762031941457 0 0.43805354695881837 -0.028810858820005138 0 0.42561209215279511 -0.01464492431964568 0 0.42629671437512878 -0.042531762031941457 0 0.42561209215279511 -0.01464492431964568 0 0.42629671437512878 -0.042531762031941457 0 0.44296949673594072 -0.042056236220664088 0 0.43805354695881837 -0.028810858820005138 0 0.42629671437512878 -0.042531762031941457 0 0.42629671437512878 -0.042531762031941457 0 0.42634966159281851 -0.044688470387087183 0 0.42634966159281851 -0.044688470387087183 0 0.42263067023141532 -0.04959421298909767 0 0.41948282516863111 -0.042564886349376649 0 0.42629671437512878 -0.042531762031941457 0 0.42634966159281851 -0.044688470387087183 0 0.41948282516863111 -0.042564886349376649 0 0.44971069034096228 -0.057312844796223103 0 0.42629671437512878 -0.042531762031941457 0 0.43214376282896882 -0.054493830639847252 0 0.42629671437512878 -0.042531762031941457 0 0.42634966159281851 -0.044688470387087183 0 0.43214376282896882 -0.054493830639847252 0 0.43214376282896882 -0.054493830639847252 0 0.42263067023141532 -0.04959421298909767 0 0.41841841219472159 -0.056339065240192318 0 0.42634966159281851 -0.044688470387087183 0 0.43214376282896882 -0.054493830639847252 0 0.42263067023141532 -0.04959421298909767 0 0.42116249697035107 -0.069848903487581201 0 0.43214376282896882 -0.054493830639847252 0 0.41841841219472159 -0.056339065240192318 0 0.40614226120986008 -0.076450084924399364 0 0.41841841219472159 -0.056339065240192318 0 0.40484650448902582 -0.049114342796235652 0 0.42263067023141532 -0.04959421298909767 0 0.41841841219472159 -0.056339065240192318 0 0.41503643136225221 -0.045596569439311459 0 0.41841841219472159 -0.056339065240192318 0 0.41503643136225221 -0.045596569439311459 0 0.40484650448902582 -0.049114342796235652 0 0.40710064828154058 -0.030413416899445479 0 0.41503643136225221 -0.045596569439311459 0 0.40484650448902582 -0.049114342796235652 0 0.41846660029514471 -0.029031036874195379 0 0.40710064828154058 -0.030413416899445479 0 0.42629671437512878 -0.042531762031941457 0 0.40710064828154058 -0.030413416899445479 0 0.42629671437512878 -0.042531762031941457 0 0.41948282516863111 -0.042564886349376649 0 0.40710064828154058 -0.030413416899445479 0 0.42629671437512878 -0.042531762031941457 0 0.42263067023141532 -0.04959421298909767 0 0.41948282516863111 -0.042564886349376649 0 0.41503643136225221 -0.045596569439311459 0 0.40710064828154058 -0.030413416899445479 0 0.41948282516863111 -0.042564886349376649 0 0.41503643136225221 -0.045596569439311459 0 0.40484650448902582 -0.049114342796235652 0 0.39036741755932308 -0.040607851373931192 0 0.393561829139917 -0.030178618156218119 0 0.40484650448902582 -0.049114342796235652 0 0.393561829139917 -0.030178618156218119 0 0.40355074776819139 -0.02177860066807185 0 0.40484650448902582 -0.049114342796235652 0 0.40355074776819139 -0.02177860066807185 0 0.40710064828154058 -0.030413416899445479 0 0.40484650448902582 -0.049114342796235652 0 0.40355074776819139 -0.02177860066807185 0 0.40484650448902582 -0.049114342796235652 0 0.3907718625089332 -0.050853657939036623 0 0.39036741755932308 -0.040607851373931192 0 0.40484650448902582 -0.049114342796235652 0 0.3907718625089332 -0.050853657939036623 0 0.39256525790004138 -0.062403065823825023 0 0.37680564080728779 -0.068723262782962341 0 0.39256525790004138 -0.062403065823825023 0 0.37923132925844483 -0.055197270129045559 0 0.3907718625089332 -0.050853657939036623 0 0.39256525790004138 -0.062403065823825023 0 0.37923132925844483 -0.055197270129045559 0 0.3907718625089332 -0.050853657939036623 0 0.37923132925844483 -0.055197270129045559 0 0.38058755405000361 -0.044086579031588899 0 0.37923132925844483 -0.055197270129045559 0 0.38058755405000361 -0.044086579031588899 0 0.3688709770808889 -0.047684126888789813 0 0.39036741755932308 -0.040607851373931192 0 0.38253389456265152 -0.033339779655561383 0 0.393561829139917 -0.030178618156218119 0 0.3907718625089332 -0.050853657939036623 0 0.39036741755932308 -0.040607851373931192 0 0.38058755405000361 -0.044086579031588899 0 0.39036741755932308 -0.040607851373931192 0 0.38058755405000361 -0.044086579031588899 0 0.38253389456265152 -0.033339779655561383 0 0.38253389456265152 -0.033339779655561383 0 0.37412152348603689 -0.027676838713283219 0 0.37174984332978012 -0.036836788203168921 0 0.38058755405000361 -0.044086579031588899 0 0.38253389456265152 -0.033339779655561383 0 0.37174984332978012 -0.036836788203168921 0 0.37580749604373148 -0.01634456818302113 0 0.38528302211247978 -0.022243302254165011 0 0.39361439243422369 -0.0085510178686497174 0 0.38253389456265152 -0.033339779655561383 0 0.38528302211247978 -0.022243302254165011 0 0.37412152348603689 -0.027676838713283219 0 0.37580749604373148 -0.01634456818302113 0 0.38528302211247978 -0.022243302254165011 0 0.37412152348603689 -0.027676838713283219 0 0.38253389456265152 -0.033339779655561383 0 0.38528302211247978 -0.022243302254165011 0 0.393561829139917 -0.030178618156218119 0 0.38528302211247978 -0.022243302254165011 0 0.393561829139917 -0.030178618156218119 0 0.39404996256296099 -0.018569633851383532 0 0.393561829139917 -0.030178618156218119 0 0.39404996256296099 -0.018569633851383532 0 0.40355074776819139 -0.02177860066807185 0 0.39404996256296099 -0.018569633851383532 0 0.40355074776819139 -0.02177860066807185 0 0.39361439243422369 -0.0085510178686497174 0 0.38528302211247978 -0.022243302254165011 0 0.39404996256296099 -0.018569633851383532 0 0.39361439243422369 -0.0085510178686497174 0 0.40225499104735712 0.0055571414600919487 0 0.41271323756968847 -0.0068874300950638031 0 0.40355074776819139 -0.02177860066807185 0 0.40225499104735712 0.0055571414600919487 0 0.40355074776819139 -0.02177860066807185 0 0.39361439243422369 -0.0085510178686497174 0 0.40225499104735712 0.0055571414600919487 0 0.40355074776819139 -0.02177860066807185 0 0.37580749604373148 -0.01634456818302113 0 0.39361439243422369 -0.0085510178686497174 0 0.37245117985273513 -0.0043477990582807607 0 0.38252354203690109 0.0067354487879814646 0 0.39361439243422369 -0.0085510178686497174 0 0.37245117985273513 -0.0043477990582807607 0 0.37245117985273513 -0.0043477990582807607 0 0.3650754398300603 -0.012948292001264331 0 0.35674185338391229 -0.0051836605579625864 0 0.3654642924504018 0.0061638334601938349 0 0.37245117985273513 -0.0043477990582807607 0 0.35674185338391229 -0.0051836605579625864 0 0.37580749604373148 -0.01634456818302113 0 0.37245117985273513 -0.0043477990582807607 0 0.3650754398300603 -0.012948292001264331 0 0.3650754398300603 -0.012948292001264331 0 0.35681303624600141 -0.016774284202452899 0 0.35674185338391229 -0.0051836605579625864 0 0.37412152348603689 -0.027676838713283219 0 0.36503520346978668 -0.022509170400363172 0 0.36482451149080358 -0.03107430615188439 0 0.37580749604373148 -0.01634456818302113 0 0.37412152348603689 -0.027676838713283219 0 0.36503520346978668 -0.022509170400363172 0 0.37580749604373148 -0.01634456818302113 0 0.3650754398300603 -0.012948292001264331 0 0.36503520346978668 -0.022509170400363172 0 0.3650754398300603 -0.012948292001264331 0 0.36503520346978668 -0.022509170400363172 0 0.35681303624600141 -0.016774284202452899 0 0.36503520346978668 -0.022509170400363172 0 0.36482451149080358 -0.03107430615188439 0 0.35518798349304798 -0.028568303178915209 0 0.35518798349304798 -0.028568303178915209 0 0.34621007899342371 -0.031060747997419039 0 0.34276048597613251 -0.014871006071638619 0 0.35518798349304798 -0.028568303178915209 0 0.35681303624600141 -0.016774284202452899 0 0.34276048597613251 -0.014871006071638619 0 0.36503520346978668 -0.022509170400363172 0 0.35518798349304798 -0.028568303178915209 0 0.35681303624600141 -0.016774284202452899 0 0.3481515512902057 0.0094337117626711146 0 0.35674185338391229 -0.0051836605579625864 0 0.34276048597613251 -0.014871006071638619 0 0.3481515512902057 0.0094337117626711146 0 0.34276048597613251 -0.014871006071638619 0 0.35681303624600141 -0.016774284202452899 0 0.35674185338391229 -0.0051836605579625864 0 0.34276048597613251 -0.014871006071638619 0 0.3300625678273989 -0.005156065376405658 0 0.34276048597613251 -0.014871006071638619 0 0.33489971093878212 -0.022565209460597511 0 0.34182094924321188 0.0055131091066776688 0 0.3300625678273989 -0.005156065376405658 0 0.34276048597613251 -0.014871006071638619 0 0.3300625678273989 -0.005156065376405658 0 0.33489971093878212 -0.022565209460597511 0 0.32362041585567147 -0.01451512086194484 0 0.34621007899342371 -0.031060747997419039 0 0.34276048597613251 -0.014871006071638619 0 0.33736942066205849 -0.039175723905948152 0 0.34276048597613251 -0.014871006071638619 0 0.33489971093878212 -0.022565209460597511 0 0.33736942066205849 -0.039175723905948152 0 0.34276048597613251 -0.014871006071638619 0 0.33736942066205849 -0.039175723905948152 0 0.32819112396193961 -0.03087776820930908 0 0.33489971093878212 -0.022565209460597511 0 0.32394794688159179 -0.023590594273305291 0 0.32819112396193961 -0.03087776820930908 0 0.33489971093878212 -0.022565209460597511 0 0.33209224902456569 -0.034546112454866787 0 0.32394794688159179 -0.023590594273305291 0 0.3153337047573595 -0.017473649535025119 0 0.32362041585567147 -0.01451512086194484 0 0.33489971093878212 -0.022565209460597511 0 0.32394794688159179 -0.023590594273305291 0 0.32362041585567147 -0.01451512086194484 0 0.32394794688159179 -0.023590594273305291 0 0.31648645991877677 -0.025863277597234419 0 0.3214208946373453 -0.031521328021920342 0 0.32819112396193961 -0.03087776820930908 0 0.32394794688159179 -0.023590594273305291 0 0.3214208946373453 -0.031521328021920342 0 0.31648645991877677 -0.025863277597234419 0 0.31332669801664459 -0.032653999646228463 0 0.3214208946373453 -0.031521328021920342 0 0.31648645991877677 -0.025863277597234419 0 0.31332669801664459 -0.032653999646228463 0 0.30840305530094259 -0.024076816509692851 0 0.31648645991877677 -0.025863277597234419 0 0.3153337047573595 -0.017473649535025119 0 0.30840305530094259 -0.024076816509692851 0 0.32394794688159179 -0.023590594273305291 0 0.31648645991877677 -0.025863277597234419 0 0.3153337047573595 -0.017473649535025119 0 0.3153337047573595 -0.017473649535025119 0 0.31326154193058459 -0.0060169499919069582 0 0.32362041585567147 -0.01451512086194484 0 0.32068242961533377 0.0061106030629028869 0 0.3300625678273989 -0.005156065376405658 0 0.31326154193058459 -0.0060169499919069582 0 0.3300625678273989 -0.005156065376405658 0 0.31326154193058459 -0.0060169499919069582 0 0.32362041585567147 -0.01451512086194484 0 0.31699137168635971 -0.050533812814234469 0 0.3183622264696756 -0.064376166803237572 0 0.30260626249585187 -0.058003311883603047 0 0.32607404864551293 -0.053514074645597251 0 0.31699137168635971 -0.050533812814234469 0 0.32446903249845932 -0.044805052297630349 0 0.32607404864551293 -0.053514074645597251 0 0.31699137168635971 -0.050533812814234469 0 0.3183622264696756 -0.064376166803237572 0 0.31699137168635971 -0.050533812814234469 0 0.31927875260037508 -0.039865513329840757 0 0.32446903249845932 -0.044805052297630349 0 0.31699137168635971 -0.050533812814234469 0 0.31927875260037508 -0.039865513329840757 0 0.30895673260811007 -0.041586294683428088 0 0.31927875260037508 -0.039865513329840757 0 0.31332669801664459 -0.032653999646228463 0 0.30895673260811007 -0.041586294683428088 0 0.31927875260037508 -0.039865513329840757 0 0.31332669801664459 -0.032653999646228463 0 0.3214208946373453 -0.031521328021920342 0 0.31927875260037508 -0.039865513329840757 0 0.3214208946373453 -0.031521328021920342 0 0.32697396105589638 -0.038065847139854718 0 0.32819112396193961 -0.03087776820930908 0 0.3214208946373453 -0.031521328021920342 0 0.32697396105589638 -0.038065847139854718 0 0.32607404864551293 -0.053514074645597251 0 0.32446903249845932 -0.044805052297630349 0 0.33302702850415222 -0.042046013558624543 0 0.31927875260037508 -0.039865513329840757 0 0.32697396105589638 -0.038065847139854718 0 0.32446903249845932 -0.044805052297630349 0 0.33302702850415222 -0.042046013558624543 0 0.33736942066205849 -0.039175723905948152 0 0.34952242584245569 -0.041627958833174147 0 0.33489971093878212 -0.022565209460597511 0 0.33209224902456569 -0.034546112454866787 0 0.33736942066205849 -0.039175723905948152 0 0.32697396105589638 -0.038065847139854718 0 0.32446903249845932 -0.044805052297630349 0 0.33302702850415222 -0.042046013558624543 0 0.32819112396193961 -0.03087776820930908 0 0.32697396105589638 -0.038065847139854718 0 0.33209224902456569 -0.034546112454866787 0 0.32697396105589638 -0.038065847139854718 0 0.33302702850415222 -0.042046013558624543 0 0.33209224902456569 -0.034546112454866787 0 0.33302702850415222 -0.042046013558624543 0 0.33209224902456569 -0.034546112454866787 0 0.33736942066205849 -0.039175723905948152 0 0.33302702850415222 -0.042046013558624543 0 0.35535226919907931 -0.052569709949439963 0 0.34153803668615851 -0.070231779016161747 0 0.32607404864551293 -0.053514074645597251 0 0.33302702850415222 -0.042046013558624543 0 0.34153803668615851 -0.070231779016161747 0 0.33302702850415222 -0.042046013558624543 0 0.34153803668615851 -0.070231779016161747 0 0.35535226919907931 -0.052569709949439963 0 0.36379097136456401 -0.06223545454115488 0 0.34153803668615851 -0.070231779016161747 0 0.33302702850415222 -0.042046013558624543 0 0.35535226919907931 -0.052569709949439963 0 0.34952242584245569 -0.041627958833174147 0 0.34621007899342371 -0.031060747997419039 0 0.33736942066205849 -0.039175723905948152 0 0.34952242584245569 -0.041627958833174147 0 0.35518798349304798 -0.028568303178915209 0 0.34621007899342371 -0.031060747997419039 0 0.34952242584245569 -0.041627958833174147 0 0.35535226919907931 -0.052569709949439963 0 0.34952242584245569 -0.041627958833174147 0 0.3609138217500219 -0.039635606238651103 0 0.35518798349304798 -0.028568303178915209 0 0.34952242584245569 -0.041627958833174147 0 0.3609138217500219 -0.039635606238651103 0 0.36482451149080358 -0.03107430615188439 0 0.35518798349304798 -0.028568303178915209 0 0.3609138217500219 -0.039635606238651103 0 0.36482451149080358 -0.03107430615188439 0 0.3609138217500219 -0.039635606238651103 0 0.37174984332978012 -0.036836788203168921 0 0.3609138217500219 -0.039635606238651103 0 0.37174984332978012 -0.036836788203168921 0 0.3688709770808889 -0.047684126888789813 0 0.35535226919907931 -0.052569709949439963 0 0.3609138217500219 -0.039635606238651103 0 0.3688709770808889 -0.047684126888789813 0 0.38058755405000361 -0.044086579031588899 0 0.37174984332978012 -0.036836788203168921 0 0.3688709770808889 -0.047684126888789813 0 0.37412152348603689 -0.027676838713283219 0 0.36482451149080358 -0.03107430615188439 0 0.37174984332978012 -0.036836788203168921 0 0.35535226919907931 -0.052569709949439963 0 0.36379097136456401 -0.06223545454115488 0 0.3688709770808889 -0.047684126888789813 0 0.37923132925844483 -0.055197270129045559 0 0.36379097136456401 -0.06223545454115488 0 0.3688709770808889 -0.047684126888789813 0 0.37680564080728779 -0.068723262782962341 0 0.37923132925844483 -0.055197270129045559 0 0.36379097136456401 -0.06223545454115488 0 0.37680564080728779 -0.068723262782962341 0 0.36379097136456401 -0.06223545454115488 0 0.36094757515552439 -0.079006578480529915 0 0.37680564080728779 -0.068723262782962341 0 0.37490085054651162 -0.082155585246791674 0 0.36094757515552439 -0.079006578480529915 0 0.36094757515552439 -0.079006578480529915 0 0.36922409297354142 -0.096701827198606455 0 0.35004904486816618 -0.098417544473698382 0 0.37490085054651162 -0.082155585246791674 0 0.36094757515552439 -0.079006578480529915 0 0.36922409297354142 -0.096701827198606455 0 0.35004904486816618 -0.098417544473698382 0 0.34153803668615851 -0.070231779016161747 0 0.36094757515552439 -0.079006578480529915 0 0.35004904486816618 -0.098417544473698382 0 0.34153803668615851 -0.070231779016161747 0 0.36379097136456401 -0.06223545454115488 0 0.36094757515552439 -0.079006578480529915 0 0.34153803668615851 -0.070231779016161747 0 0.37167185807287761 -0.11346241258602451 0 0.35729782687748668 -0.1224232163281227 0 0.36834301720830293 -0.1321852586222127 0 0.37167185807287761 -0.11346241258602451 0 0.35004904486816618 -0.098417544473698382 0 0.35729782687748668 -0.1224232163281227 0 0.37947436298086301 -0.1045240376017042 0 0.37167185807287761 -0.11346241258602451 0 0.36922409297354142 -0.096701827198606455 0 0.37167185807287761 -0.11346241258602451 0 0.36922409297354142 -0.096701827198606455 0 0.35004904486816618 -0.098417544473698382 0 0.36922409297354142 -0.096701827198606455 0 0.35004904486816618 -0.098417544473698382 0 0.35004904486816618 -0.098417544473698382 0 0.35729782687748668 -0.1224232163281227 0 0.35729782687748668 -0.1224232163281227 0 0.33937323648176448 -0.11833606120292429 0 0.34515188335384589 -0.13015137162225771 0 0.35004904486816618 -0.098417544473698382 0 0.35729782687748668 -0.1224232163281227 0 0.33937323648176448 -0.11833606120292429 0 0.33937323648176448 -0.11833606120292429 0 0.32572246360517171 -0.1005942031964024 0 0.32197047621050567 -0.12202724385873261 0 0.35004904486816618 -0.098417544473698382 0 0.33937323648176448 -0.11833606120292429 0 0.32572246360517171 -0.1005942031964024 0 0.35004904486816618 -0.098417544473698382 0 0.32572246360517171 -0.1005942031964024 0 0.32572246360517171 -0.1005942031964024 0 0.30139588234217729 -0.1027708619191067 0 0.32572246360517171 -0.1005942031964024 0 0.31224787802278048 -0.083135552257780521 0 0.30139588234217729 -0.1027708619191067 0 0.32572246360517171 -0.1005942031964024 0 0.32197047621050567 -0.12202724385873261 0 0.30139588234217729 -0.1027708619191067 0 0.32607404864551293 -0.053514074645597251 0 0.34153803668615851 -0.070231779016161747 0 0.3183622264696756 -0.064376166803237572 0 0.35004904486816618 -0.098417544473698382 0 0.32572246360517171 -0.1005942031964024 0 0.34153803668615851 -0.070231779016161747 0 0.32572246360517171 -0.1005942031964024 0 0.34153803668615851 -0.070231779016161747 0 0.31224787802278048 -0.083135552257780521 0 0.34153803668615851 -0.070231779016161747 0 0.3183622264696756 -0.064376166803237572 0 0.31224787802278048 -0.083135552257780521 0 0.3183622264696756 -0.064376166803237572 0 0.31224787802278048 -0.083135552257780521 0 0.30260626249585187 -0.058003311883603047 0 0.31224787802278048 -0.083135552257780521 0 0.28768564897897708 -0.079212431896236196 0 0.30260626249585187 -0.058003311883603047 0 0.31224787802278048 -0.083135552257780521 0 0.28768564897897708 -0.079212431896236196 0 0.30139588234217729 -0.1027708619191067 0 0.28768564897897708 -0.079212431896236196 0 0.30139588234217729 -0.1027708619191067 0 0.27882909727820898 -0.098431872915506646 0 0.28768564897897708 -0.079212431896236196 0 0.28679475279240813 -0.049688216630347323 0 0.28768564897897708 -0.079212431896236196 0 0.27074249253182359 -0.062234080741053417 0 0.28679475279240813 -0.049688216630347323 0 0.32197047621050567 -0.12202724385873261 0 0.30139588234217729 -0.1027708619191067 0 0.3055284986724322 -0.13187167800030389 0 0.30139588234217729 -0.1027708619191067 0 0.27894370479650821 -0.1235005680661046 0 0.27882909727820898 -0.098431872915506646 0 0.30139588234217729 -0.1027708619191067 0 0.27894370479650821 -0.1235005680661046 0 0.3055284986724322 -0.13187167800030389 0 0.27894370479650821 -0.1235005680661046 0 0.25813406033465791 -0.10474764002266811 0 0.24568474533025289 -0.1324058594048389 0 0.27882909727820898 -0.098431872915506646 0 0.25813406033465791 -0.10474764002266811 0 0.26338486502251762 -0.082721516093943043 0 0.27894370479650821 -0.1235005680661046 0 0.27882909727820898 -0.098431872915506646 0 0.25813406033465791 -0.10474764002266811 0 0.28768564897897708 -0.079212431896236196 0 0.26338486502251762 -0.082721516093943043 0 0.27074249253182359 -0.062234080741053417 0 0.28768564897897708 -0.079212431896236196 0 0.27882909727820898 -0.098431872915506646 0 0.26338486502251762 -0.082721516093943043 0 0.25813406033465791 -0.10474764002266811 0 0.26338486502251762 -0.082721516093943043 0 0.2346456727933289 -0.088972169602324333 0 0.26338486502251762 -0.082721516093943043 0 0.25027221821810919 -0.062730901385869536 0 0.27074249253182359 -0.062234080741053417 0 0.25027221821810919 -0.062730901385869536 0 0.25866620113783989 -0.046757675169255372 0 0.24214582632319651 -0.041520736204954882 0 0.25027221821810919 -0.062730901385869536 0 0.27074249253182359 -0.062234080741053417 0 0.25866620113783989 -0.046757675169255372 0 0.27074249253182359 -0.062234080741053417 0 0.27274943607909707 -0.04555071074447007 0 0.25866620113783989 -0.046757675169255372 0 0.27074249253182359 -0.062234080741053417 0 0.27274943607909707 -0.04555071074447007 0 0.28679475279240813 -0.049688216630347323 0 0.2767143356650838 -0.032292132107032023 0 0.27274943607909707 -0.04555071074447007 0 0.28679475279240813 -0.049688216630347323 0 0.2767143356650838 -0.032292132107032023 0 0.27274943607909707 -0.04555071074447007 0 0.26220933985042849 -0.032433202213526531 0 0.26220933985042849 -0.032433202213526531 0 0.25866620113783989 -0.046757675169255372 0 0.2532759523207152 -0.036614299393221493 0 0.25866620113783989 -0.046757675169255372 0 0.2532759523207152 -0.036614299393221493 0 0.24214582632319651 -0.041520736204954882 0 0.27274943607909707 -0.04555071074447007 0 0.26220933985042849 -0.032433202213526531 0 0.25866620113783989 -0.046757675169255372 0 0.26220933985042849 -0.032433202213526531 0 0.2532759523207152 -0.036614299393221493 0 0.25008244197139601 -0.025745583985149201 0 0.26220933985042849 -0.032433202213526531 0 0.25008244197139601 -0.025745583985149201 0 0.25276484127923371 -0.019516755232441469 0 0.25276484127923371 -0.019516755232441469 0 0.2631263141168535 -0.01125441421893807 0 0.26938603737576161 -0.017193929449815432 0 0.2767143356650838 -0.032292132107032023 0 0.26220933985042849 -0.032433202213526531 0 0.25276484127923371 -0.019516755232441469 0 0.2767143356650838 -0.032292132107032023 0 0.25276484127923371 -0.019516755232441469 0 0.25276484127923371 -0.019516755232441469 0 0.2631263141168535 -0.01125441421893807 0 0.2578183078052394 -0.0046775058104196422 0 0.2631263141168535 -0.01125441421893807 0 0.2578183078052394 -0.0046775058104196422 0 0.27253607000717928 -0.0036294663830757521 0 0.28501296041926999 0.0093602139014304017 0 0.27253607000717928 -0.0036294663830757521 0 0.28590385660583911 -0.020164001364458319 0 0.27253607000717928 -0.0036294663830757521 0 0.26938603737576161 -0.017193929449815432 0 0.28590385660583911 -0.020164001364458319 0 0.2631263141168535 -0.01125441421893807 0 0.27253607000717928 -0.0036294663830757521 0 0.26938603737576161 -0.017193929449815432 0 0.2767143356650838 -0.032292132107032023 0 0.25276484127923371 -0.019516755232441469 0 0.26938603737576161 -0.017193929449815432 0 0.2767143356650838 -0.032292132107032023 0 0.26938603737576161 -0.017193929449815432 0 0.28590385660583911 -0.020164001364458319 0 0.28590385660583911 -0.020164001364458319 0 0.29760161202640079 -0.0085083226429117434 0 0.29806866300600232 -0.02335687215564727 0 0.28590385660583911 -0.020164001364458319 0 0.29806866300600232 -0.02335687215564727 0 0.29464805436186231 -0.035657180291698107 0 0.28501296041926999 0.0093602139014304017 0 0.28590385660583911 -0.020164001364458319 0 0.29760161202640079 -0.0085083226429117434 0 0.28501296041926999 0.0093602139014304017 0 0.28590385660583911 -0.020164001364458319 0 0.31326154193058459 -0.0060169499919069582 0 0.29760161202640079 -0.0085083226429117434 0 0.30577042202405452 -0.01501283471095622 0 0.3074944344823875 0.011496651727256489 0 0.31326154193058459 -0.0060169499919069582 0 0.29760161202640079 -0.0085083226429117434 0 0.3153337047573595 -0.017473649535025119 0 0.31326154193058459 -0.0060169499919069582 0 0.30577042202405452 -0.01501283471095622 0 0.29806866300600232 -0.02335687215564727 0 0.30401943581703561 -0.03187052840786414 0 0.29464805436186231 -0.035657180291698107 0 0.29806866300600232 -0.02335687215564727 0 0.30840305530094259 -0.024076816509692851 0 0.30401943581703561 -0.03187052840786414 0 0.30577042202405452 -0.01501283471095622 0 0.29806866300600232 -0.02335687215564727 0 0.30840305530094259 -0.024076816509692851 0 0.29760161202640079 -0.0085083226429117434 0 0.30577042202405452 -0.01501283471095622 0 0.29806866300600232 -0.02335687215564727 0 0.3153337047573595 -0.017473649535025119 0 0.30577042202405452 -0.01501283471095622 0 0.30840305530094259 -0.024076816509692851 0 0.31332669801664459 -0.032653999646228463 0 0.30840305530094259 -0.024076816509692851 0 0.30401943581703561 -0.03187052840786414 0 0.30895673260811007 -0.041586294683428088 0 0.30260626249585187 -0.058003311883603047 0 0.29464805436186231 -0.035657180291698107 0 0.31332669801664459 -0.032653999646228463 0 0.30401943581703561 -0.03187052840786414 0 0.30895673260811007 -0.041586294683428088 0 0.30401943581703561 -0.03187052840786414 0 0.30895673260811007 -0.041586294683428088 0 0.29464805436186231 -0.035657180291698107 0 0.31699137168635971 -0.050533812814234469 0 0.30895673260811007 -0.041586294683428088 0 0.30260626249585187 -0.058003311883603047 0 0.30260626249585187 -0.058003311883603047 0 0.28679475279240813 -0.049688216630347323 0 0.29464805436186231 -0.035657180291698107 0 0.28768564897897708 -0.079212431896236196 0 0.30260626249585187 -0.058003311883603047 0 0.28679475279240813 -0.049688216630347323 0 0.28590385660583911 -0.020164001364458319 0 0.28679475279240813 -0.049688216630347323 0 0.29464805436186231 -0.035657180291698107 0 0.2767143356650838 -0.032292132107032023 0 0.28590385660583911 -0.020164001364458319 0 0.28679475279240813 -0.049688216630347323 0 0.28590385660583911 -0.020164001364458319 0 0.28679475279240813 -0.049688216630347323 0 0.29312572746286258 -0.20464563655242321 0 0.2848905136040118 -0.21720780253161859 0 0.2748317695671269 -0.2029203773905677 0 0.29312572746286258 -0.20464563655242321 0 0.2848905136040118 -0.21720780253161859 0 0.29989462272369211 -0.21714261987732519 0 0.29312572746286258 -0.20464563655242321 0 0.29510061914484631 -0.18758566281289751 0 0.2748317695671269 -0.2029203773905677 0 0.29510061914484631 -0.18758566281289751 0 0.30810068829884613 -0.2023073199081532 0 0.31352743949684381 -0.19134333435782239 0 0.29312572746286258 -0.20464563655242321 0 0.29510061914484631 -0.18758566281289751 0 0.30810068829884613 -0.2023073199081532 0 0.30810068829884613 -0.2023073199081532 0 0.29989462272369211 -0.21714261987732519 0 0.31544247245285928 -0.21292718535401231 0 0.29312572746286258 -0.20464563655242321 0 0.30810068829884613 -0.2023073199081532 0 0.29989462272369211 -0.21714261987732519 0 0.29989462272369211 -0.21714261987732519 0 0.30560114146447892 -0.2332258170388897 0 0.28820716764299942 -0.23139212569834081 0 0.29989462272369211 -0.21714261987732519 0 0.30560114146447892 -0.2332258170388897 0 0.31544247245285928 -0.21292718535401231 0 0.30560114146447892 -0.2332258170388897 0 0.31544247245285928 -0.21292718535401231 0 0.30560114146447892 -0.2332258170388897 0 0.29480530898933488 -0.25549319402309201 0 0.30560114146447892 -0.2332258170388897 0 0.30635858180106529 -0.24734379049848129 0 0.29480530898933488 -0.25549319402309201 0 0.30560114146447892 -0.2332258170388897 0 0.28826513947595322 -0.25029027606684112 0 0.30560114146447892 -0.2332258170388897 0 0.30635858180106529 -0.24734379049848129 0 0.31780496560718419 -0.24087842070372761 0 0.28820716764299942 -0.23139212569834081 0 0.27883740060271311 -0.2401928824517327 0 0.28826513947595322 -0.25029027606684112 0 0.30560114146447892 -0.2332258170388897 0 0.28820716764299942 -0.23139212569834081 0 0.28826513947595322 -0.25029027606684112 0 0.30560114146447892 -0.2332258170388897 0 0.29480530898933488 -0.25549319402309201 0 0.28826513947595322 -0.25029027606684112 0 0.2848905136040118 -0.21720780253161859 0 0.29989462272369211 -0.21714261987732519 0 0.28820716764299942 -0.23139212569834081 0 0.2848905136040118 -0.21720780253161859 0 0.28820716764299942 -0.23139212569834081 0 0.26839328062337792 -0.22993825313943619 0 0.28820716764299942 -0.23139212569834081 0 0.26839328062337792 -0.22993825313943619 0 0.27883740060271311 -0.2401928824517327 0 0.27048401466852201 -0.24915087490231269 0 0.27883740060271311 -0.2401928824517327 0 0.28826513947595322 -0.25029027606684112 0 0.26839328062337792 -0.22993825313943619 0 0.27048401466852201 -0.24915087490231269 0 0.27883740060271311 -0.2401928824517327 0 0.26839328062337792 -0.22993825313943619 0 0.27048401466852201 -0.24915087490231269 0 0.25616369049222548 -0.24239128145182301 0 0.26839328062337792 -0.22993825313943619 0 0.25616369049222548 -0.24239128145182301 0 0.24900600388781791 -0.2290071461893943 0 0.26839328062337792 -0.22993825313943619 0 0.25273416985964109 -0.2120531155792281 0 0.24900600388781791 -0.2290071461893943 0 0.26839328062337792 -0.22993825313943619 0 0.25273416985964109 -0.2120531155792281 0 0.2748317695671269 -0.2029203773905677 0 0.2848905136040118 -0.21720780253161859 0 0.26839328062337792 -0.22993825313943619 0 0.2748317695671269 -0.2029203773905677 0 0.2748317695671269 -0.2029203773905677 0 0.25725343700597442 -0.19058501030067529 0 0.27225077538701159 -0.17699572447292669 0 0.29510061914484631 -0.18758566281289751 0 0.2748317695671269 -0.2029203773905677 0 0.27225077538701159 -0.17699572447292669 0 0.25273416985964109 -0.2120531155792281 0 0.2748317695671269 -0.2029203773905677 0 0.25725343700597442 -0.19058501030067529 0 0.25725343700597442 -0.19058501030067529 0 0.27225077538701159 -0.17699572447292669 0 0.24849357928226631 -0.1676643122024345 0 0.27225077538701159 -0.17699572447292669 0 0.27100995347559198 -0.1482826141826081 0 0.24849357928226631 -0.1676643122024345 0 0.27225077538701159 -0.17699572447292669 0 0.27100995347559198 -0.1482826141826081 0 0.2963351616209311 -0.16415936896037731 0 0.27100995347559198 -0.1482826141826081 0 0.24568474533025289 -0.1324058594048389 0 0.24849357928226631 -0.1676643122024345 0 0.27894370479650821 -0.1235005680661046 0 0.27100995347559198 -0.1482826141826081 0 0.24568474533025289 -0.1324058594048389 0 0.27100995347559198 -0.1482826141826081 0 0.24568474533025289 -0.1324058594048389 0 0.27894370479650821 -0.1235005680661046 0 0.27100995347559198 -0.1482826141826081 0 0.29157677225247458 -0.14475492780598631 0 0.27894370479650821 -0.1235005680661046 0 0.29157677225247458 -0.14475492780598631 0 0.3055284986724322 -0.13187167800030389 0 0.27100995347559198 -0.1482826141826081 0 0.29157677225247458 -0.14475492780598631 0 0.2963351616209311 -0.16415936896037731 0 0.27100995347559198 -0.1482826141826081 0 0.2963351616209311 -0.16415936896037731 0 0.29157677225247458 -0.14475492780598631 0 0.31050680525198321 -0.15435951756777611 0 0.2963351616209311 -0.16415936896037731 0 0.29157677225247458 -0.14475492780598631 0 0.31050680525198321 -0.15435951756777611 0 0.3055284986724322 -0.13187167800030389 0 0.29510061914484631 -0.18758566281289751 0 0.27225077538701159 -0.17699572447292669 0 0.2963351616209311 -0.16415936896037731 0 0.31050680525198321 -0.15435951756777611 0 0.2963351616209311 -0.16415936896037731 0 0.31611074439250769 -0.172274431936218 0 0.29510061914484631 -0.18758566281289751 0 0.2963351616209311 -0.16415936896037731 0 0.3062066529752917 -0.17966192442265569 0 0.29510061914484631 -0.18758566281289751 0 0.3062066529752917 -0.17966192442265569 0 0.31352743949684381 -0.19134333435782239 0 0.2963351616209311 -0.16415936896037731 0 0.3062066529752917 -0.17966192442265569 0 0.31611074439250769 -0.172274431936218 0 0.3062066529752917 -0.17966192442265569 0 0.31611074439250769 -0.172274431936218 0 0.31352743949684381 -0.19134333435782239 0 0.33512513442961972 -0.17232992198425751 0 0.32528380344123969 -0.19262855366913509 0 0.31352743949684381 -0.19134333435782239 0 0.31611074439250769 -0.172274431936218 0 0.33512513442961972 -0.17232992198425751 0 0.31352743949684381 -0.19134333435782239 0 0.33512513442961972 -0.17232992198425751 0 0.31352743949684381 -0.19134333435782239 0 0.31611074439250769 -0.172274431936218 0 0.32746654159065369 -0.16169162856024241 0 0.33512513442961972 -0.17232992198425751 0 0.31050680525198321 -0.15435951756777611 0 0.31611074439250769 -0.172274431936218 0 0.32746654159065369 -0.16169162856024241 0 0.32746654159065369 -0.16169162856024241 0 0.3392974456473824 -0.1637241542497887 0 0.33512513442961972 -0.17232992198425751 0 0.32746654159065369 -0.16169162856024241 0 0.3392974456473824 -0.1637241542497887 0 0.33695891029772101 -0.15065815465988691 0 0.3392974456473824 -0.1637241542497887 0 0.34243102869239028 -0.15637169274733401 0 0.33695891029772101 -0.15065815465988691 0 0.3392974456473824 -0.1637241542497887 0 0.33512513442961972 -0.17232992198425751 0 0.3392974456473824 -0.1637241542497887 0 0.33512513442961972 -0.17232992198425751 0 0.34983587165821339 -0.1593794050834019 0 0.33512513442961972 -0.17232992198425751 0 0.34983587165821339 -0.1593794050834019 0 0.33512513442961972 -0.17232992198425751 0 0.32528380344123969 -0.19262855366913509 0 0.33717063597825148 -0.18473263600813189 0 0.33512513442961972 -0.17232992198425751 0 0.35006875833889439 -0.17444774385257469 0 0.33717063597825148 -0.18473263600813189 0 0.33512513442961972 -0.17232992198425751 0 0.32528380344123969 -0.19262855366913509 0 0.32197047621050567 -0.12202724385873261 0 0.32290404469847772 -0.14281985405472711 0 0.33499303616757059 -0.1363109016814206 0 0.32197047621050567 -0.12202724385873261 0 0.3055284986724322 -0.13187167800030389 0 0.32290404469847772 -0.14281985405472711 0 0.31050680525198321 -0.15435951756777611 0 0.32746654159065369 -0.16169162856024241 0 0.32290404469847772 -0.14281985405472711 0 0.31050680525198321 -0.15435951756777611 0 0.3055284986724322 -0.13187167800030389 0 0.32290404469847772 -0.14281985405472711 0 0.32746654159065369 -0.16169162856024241 0 0.32290404469847772 -0.14281985405472711 0 0.33695891029772101 -0.15065815465988691 0 0.34243102869239028 -0.15637169274733401 0 0.33695891029772101 -0.15065815465988691 0 0.34894343388856169 -0.14353530727656319 0 0.33695891029772101 -0.15065815465988691 0 0.33499303616757059 -0.1363109016814206 0 0.34894343388856169 -0.14353530727656319 0 0.32290404469847772 -0.14281985405472711 0 0.33695891029772101 -0.15065815465988691 0 0.33499303616757059 -0.1363109016814206 0 0.33937323648176448 -0.11833606120292429 0 0.32197047621050567 -0.12202724385873261 0 0.33499303616757059 -0.1363109016814206 0 0.33937323648176448 -0.11833606120292429 0 0.33499303616757059 -0.1363109016814206 0 0.34515188335384589 -0.13015137162225771 0 0.33499303616757059 -0.1363109016814206 0 0.34515188335384589 -0.13015137162225771 0 0.34894343388856169 -0.14353530727656319 0 0.35729782687748668 -0.1224232163281227 0 0.34515188335384589 -0.13015137162225771 0 0.34894343388856169 -0.14353530727656319 0 0.35729782687748668 -0.1224232163281227 0 0.34894343388856169 -0.14353530727656319 0 0.36454660888680779 -0.1464288881825469 0 0.34894343388856169 -0.14353530727656319 0 0.36454660888680779 -0.1464288881825469 0 0.34983587165821339 -0.1593794050834019 0 0.34243102869239028 -0.15637169274733401 0 0.34894343388856169 -0.14353530727656319 0 0.34983587165821339 -0.1593794050834019 0 0.36454660888680779 -0.1464288881825469 0 0.34983587165821339 -0.1593794050834019 0 0.36454660888680779 -0.1464288881825469 0 0.34983587165821339 -0.1593794050834019 0 0.36773353450711338 -0.15698297720979479 0 0.36454660888680779 -0.1464288881825469 0 0.38295297505005249 -0.1302249446019971 0 0.37561091871899799 -0.1480533809211643 0 0.36454660888680779 -0.1464288881825469 0 0.36773353450711338 -0.15698297720979479 0 0.36454660888680779 -0.1464288881825469 0 0.36773353450711338 -0.15698297720979479 0 0.37561091871899799 -0.1480533809211643 0 0.36773353450711338 -0.15698297720979479 0 0.37561091871899799 -0.1480533809211643 0 0.3771247630648128 -0.157885923951923 0 0.37167185807287761 -0.11346241258602451 0 0.36834301720830293 -0.1321852586222127 0 0.38295297505005249 -0.1302249446019971 0 0.35729782687748668 -0.1224232163281227 0 0.36454660888680779 -0.1464288881825469 0 0.35729782687748668 -0.1224232163281227 0 0.36454660888680779 -0.1464288881825469 0 0.36834301720830293 -0.1321852586222127 0 0.36454660888680779 -0.1464288881825469 0 0.36834301720830293 -0.1321852586222127 0 0.38295297505005249 -0.1302249446019971 0 0.36454660888680779 -0.1464288881825469 0 0.38295297505005249 -0.1302249446019971 0 0.35006875833889439 -0.17444774385257469 0 0.36919280359451911 -0.17063022471860559 0 0.34799558288450572 -0.1914954221587003 0 0.36919280359451911 -0.17063022471860559 0 0.34799558288450572 -0.1914954221587003 0 0.33717063597825148 -0.18473263600813189 0 0.35006875833889439 -0.17444774385257469 0 0.34799558288450572 -0.1914954221587003 0 0.34983587165821339 -0.1593794050834019 0 0.35966390461759279 -0.16474748626513849 0 0.36773353450711338 -0.15698297720979479 0 0.33512513442961972 -0.17232992198425751 0 0.35006875833889439 -0.17444774385257469 0 0.34983587165821339 -0.1593794050834019 0 0.3392974456473824 -0.1637241542497887 0 0.34243102869239028 -0.15637169274733401 0 0.34983587165821339 -0.1593794050834019 0 0.35006875833889439 -0.17444774385257469 0 0.34983587165821339 -0.1593794050834019 0 0.35966390461759279 -0.16474748626513849 0 0.35006875833889439 -0.17444774385257469 0 0.35966390461759279 -0.16474748626513849 0 0.36919280359451911 -0.17063022471860559 0 0.35966390461759279 -0.16474748626513849 0 0.36773353450711338 -0.15698297720979479 0 0.36919280359451911 -0.17063022471860559 0 0.36773353450711338 -0.15698297720979479 0 0.36919280359451911 -0.17063022471860559 0 0.3771247630648128 -0.157885923951923 0 0.36919280359451911 -0.17063022471860559 0 0.37433615171217749 -0.1899152871006021 0 0.38068989614137638 -0.17718137460984781 0 0.36919280359451911 -0.17063022471860559 0 0.37433615171217749 -0.1899152871006021 0 0.34799558288450572 -0.1914954221587003 0 0.37433615171217749 -0.1899152871006021 0 0.35965771244492362 -0.20119467706344871 0 0.34799558288450572 -0.1914954221587003 0 0.37433615171217749 -0.1899152871006021 0 0.36145195539903402 -0.21573726187366571 0 0.37433615171217749 -0.1899152871006021 0 0.37488268491145182 -0.1997144233745772 0 0.36145195539903402 -0.21573726187366571 0 0.37433615171217749 -0.1899152871006021 0 0.35965771244492362 -0.20119467706344871 0 0.36145195539903402 -0.21573726187366571 0 0.37488268491145182 -0.1997144233745772 0 0.36892526057749597 -0.22217252143789229 0 0.37936788332702509 -0.21107609881352871 0 0.37488268491145182 -0.1997144233745772 0 0.36892526057749597 -0.22217252143789229 0 0.37488268491145182 -0.1997144233745772 0 0.36145195539903402 -0.21573726187366571 0 0.36892526057749597 -0.22217252143789229 0 0.34552599748785329 -0.20986131213380141 0 0.34799558288450572 -0.1914954221587003 0 0.33952527505532609 -0.208620316996424 0 0.36145195539903402 -0.21573726187366571 0 0.35426572798371092 -0.20742177173867321 0 0.35114379269118012 -0.2167653945540978 0 0.35965771244492362 -0.20119467706344871 0 0.36145195539903402 -0.21573726187366571 0 0.35426572798371092 -0.20742177173867321 0 0.34552599748785329 -0.20986131213380141 0 0.35114379269118012 -0.2167653945540978 0 0.3377811576744531 -0.22076391409439919 0 0.35426572798371092 -0.20742177173867321 0 0.34552599748785329 -0.20986131213380141 0 0.35114379269118012 -0.2167653945540978 0 0.35426572798371092 -0.20742177173867321 0 0.34552599748785329 -0.20986131213380141 0 0.34799558288450572 -0.1914954221587003 0 0.35965771244492362 -0.20119467706344871 0 0.35426572798371092 -0.20742177173867321 0 0.34799558288450572 -0.1914954221587003 0 0.34799558288450572 -0.1914954221587003 0 0.32679836217449232 -0.21236061959879499 0 0.32528380344123969 -0.19262855366913509 0 0.33717063597825148 -0.18473263600813189 0 0.34799558288450572 -0.1914954221587003 0 0.32528380344123969 -0.19262855366913509 0 0.34799558288450572 -0.1914954221587003 0 0.32679836217449232 -0.21236061959879499 0 0.34799558288450572 -0.1914954221587003 0 0.33952527505532609 -0.208620316996424 0 0.32679836217449232 -0.21236061959879499 0 0.34552599748785329 -0.20986131213380141 0 0.33952527505532609 -0.208620316996424 0 0.3377811576744531 -0.22076391409439919 0 0.33952527505532609 -0.208620316996424 0 0.32679836217449232 -0.21236061959879499 0 0.3377811576744531 -0.22076391409439919 0 0.32679836217449232 -0.21236061959879499 0 0.31544247245285928 -0.21292718535401231 0 0.32528380344123969 -0.19262855366913509 0 0.30810068829884613 -0.2023073199081532 0 0.32528380344123969 -0.19262855366913509 0 0.31352743949684381 -0.19134333435782239 0 0.31544247245285928 -0.21292718535401231 0 0.32528380344123969 -0.19262855366913509 0 0.30810068829884613 -0.2023073199081532 0 0.31544247245285928 -0.21292718535401231 0 0.32528380344123969 -0.19262855366913509 0 0.31780496560718419 -0.24087842070372761 0 0.33011892513046681 -0.232669956800061 0 0.3298455907982431 -0.24615516722296901 0 0.31780496560718419 -0.24087842070372761 0 0.3298455907982431 -0.24615516722296901 0 0.31852702710394631 -0.25367689820505651 0 0.30635858180106529 -0.24734379049848129 0 0.31780496560718419 -0.24087842070372761 0 0.31852702710394631 -0.25367689820505651 0 0.30560114146447892 -0.2332258170388897 0 0.31780496560718419 -0.24087842070372761 0 0.32120384770231519 -0.22915653257474031 0 0.30560114146447892 -0.2332258170388897 0 0.32679836217449232 -0.21236061959879499 0 0.31544247245285928 -0.21292718535401231 0 0.30560114146447892 -0.2332258170388897 0 0.32679836217449232 -0.21236061959879499 0 0.32120384770231519 -0.22915653257474031 0 0.30560114146447892 -0.2332258170388897 0 0.32679836217449232 -0.21236061959879499 0 0.32679836217449232 -0.21236061959879499 0 0.32120384770231519 -0.22915653257474031 0 0.32861115883315661 -0.2240610994298021 0 0.32120384770231519 -0.22915653257474031 0 0.33011892513046681 -0.232669956800061 0 0.32861115883315661 -0.2240610994298021 0 0.31780496560718419 -0.24087842070372761 0 0.32120384770231519 -0.22915653257474031 0 0.33011892513046681 -0.232669956800061 0 0.33011892513046681 -0.232669956800061 0 0.3377811576744531 -0.22076391409439919 0 0.33894680765940233 -0.229761904922024 0 0.33011892513046681 -0.232669956800061 0 0.33894680765940233 -0.229761904922024 0 0.33806278575233828 -0.23887599820319419 0 0.32679836217449232 -0.21236061959879499 0 0.32861115883315661 -0.2240610994298021 0 0.3377811576744531 -0.22076391409439919 0 0.33011892513046681 -0.232669956800061 0 0.32861115883315661 -0.2240610994298021 0 0.3377811576744531 -0.22076391409439919 0 0.3377811576744531 -0.22076391409439919 0 0.33894680765940233 -0.229761904922024 0 0.349824362080351 -0.22673775059044179 0 0.33894680765940233 -0.229761904922024 0 0.33806278575233828 -0.23887599820319419 0 0.349824362080351 -0.22673775059044179 0 0.33806278575233828 -0.23887599820319419 0 0.34310357933249258 -0.24863535911735701 0 0.349824362080351 -0.22673775059044179 0 0.33011892513046681 -0.232669956800061 0 0.33806278575233828 -0.23887599820319419 0 0.3298455907982431 -0.24615516722296901 0 0.33806278575233828 -0.23887599820319419 0 0.3298455907982431 -0.24615516722296901 0 0.34310357933249258 -0.24863535911735701 0 0.34310357933249258 -0.24863535911735701 0 0.34856775908589038 -0.24155923664672929 0 0.35347629889361332 -0.250997389944911 0 0.34310357933249258 -0.24863535911735701 0 0.34856775908589038 -0.24155923664672929 0 0.349824362080351 -0.22673775059044179 0 0.34310357933249258 -0.24863535911735701 0 0.349824362080351 -0.22673775059044179 0 0.35467766277839641 -0.23682228319012841 0 0.36296783624354029 -0.24463061950120751 0 0.35467766277839641 -0.23682228319012841 0 0.3553660711969055 -0.24401908912064729 0 0.36296783624354029 -0.24463061950120751 0 0.34856775908589038 -0.24155923664672929 0 0.35467766277839641 -0.23682228319012841 0 0.3553660711969055 -0.24401908912064729 0 0.34856775908589038 -0.24155923664672929 0 0.3553660711969055 -0.24401908912064729 0 0.35347629889361332 -0.250997389944911 0 0.3553660711969055 -0.24401908912064729 0 0.36296783624354029 -0.24463061950120751 0 0.35347629889361332 -0.250997389944911 0 0.36145195539903402 -0.21573726187366571 0 0.34856775908589038 -0.24155923664672929 0 0.36145195539903402 -0.21573726187366571 0 0.34856775908589038 -0.24155923664672929 0 0.349824362080351 -0.22673775059044179 0 0.36145195539903402 -0.21573726187366571 0 0.34856775908589038 -0.24155923664672929 0 0.35467766277839641 -0.23682228319012841 0 0.35114379269118012 -0.2167653945540978 0 0.3377811576744531 -0.22076391409439919 0 0.349824362080351 -0.22673775059044179 0 0.36145195539903402 -0.21573726187366571 0 0.35114379269118012 -0.2167653945540978 0 0.349824362080351 -0.22673775059044179 0 0.36892526057749597 -0.22217252143789229 0 0.36296783624354029 -0.24463061950120751 0 0.3701274247105833 -0.2318109389480793 0 0.36892526057749597 -0.22217252143789229 0 0.36296783624354029 -0.24463061950120751 0 0.36145195539903402 -0.21573726187366571 0 0.35467766277839641 -0.23682228319012841 0 0.36892526057749597 -0.22217252143789229 0 0.3701274247105833 -0.2318109389480793 0 0.36892526057749597 -0.22217252143789229 0 0.37722542122783942 -0.2309392844275053 0 0.35467766277839641 -0.23682228319012841 0 0.36892526057749597 -0.22217252143789229 0 0.36296783624354029 -0.24463061950120751 0 0.3701274247105833 -0.2318109389480793 0 0.36296783624354029 -0.24463061950120751 0 0.37095131159797418 -0.25215008344978762 0 0.3701274247105833 -0.2318109389480793 0 0.37095131159797418 -0.25215008344978762 0 0.3701274247105833 -0.2318109389480793 0 0.37800101613023152 -0.24517721695337161 0 0.37095131159797418 -0.25215008344978762 0 0.36296783624354029 -0.24463061950120751 0 0.37095131159797418 -0.25215008344978762 0 0.3701274247105833 -0.2318109389480793 0 0.37800101613023152 -0.24517721695337161 0 0.38119180725770357 -0.2384634855932774 0 0.37800101613023152 -0.24517721695337161 0 0.38119180725770357 -0.2384634855932774 0 0.38893676448669923 -0.2421808899085969 0 0.38893676448669923 -0.2421808899085969 0 0.39301192452087791 -0.23206755156330311 0 0.38496364938306371 -0.2319445176641344 0 0.38119180725770357 -0.2384634855932774 0 0.38893676448669923 -0.2421808899085969 0 0.38496364938306371 -0.2319445176641344 0 0.37800101613023152 -0.24517721695337161 0 0.38893676448669923 -0.2421808899085969 0 0.38307300162638303 -0.25123603607322542 0 0.38893676448669923 -0.2421808899085969 0 0.38307300162638303 -0.25123603607322542 0 0.39496829309798548 -0.2505260588971524 0 0.38893676448669923 -0.2421808899085969 0 0.40006198367648932 -0.2447207128058459 0 0.39496829309798548 -0.2505260588971524 0 0.38893676448669923 -0.2421808899085969 0 0.39902215130848012 -0.23724304055131301 0 0.39301192452087791 -0.23206755156330311 0 0.38893676448669923 -0.2421808899085969 0 0.39902215130848012 -0.23724304055131301 0 0.40006198367648932 -0.2447207128058459 0 0.39902215130848012 -0.23724304055131301 0 0.40552197070579032 -0.23590380556907681 0 0.40006198367648932 -0.2447207128058459 0 0.40552197070579032 -0.23590380556907681 0 0.40006198367648932 -0.2447207128058459 0 0.41169383919295749 -0.24102956592291119 0 0.40006198367648932 -0.2447207128058459 0 0.40591759153700602 -0.24992151464819001 0 0.39496829309798548 -0.2505260588971524 0 0.40006198367648932 -0.2447207128058459 0 0.40591759153700602 -0.24992151464819001 0 0.41169383919295749 -0.24102956592291119 0 0.40413117098234658 -0.22252069674927041 0 0.40435734824181851 -0.22095650609010459 0 0.39301192452087791 -0.23206755156330311 0 0.40435734824181851 -0.22095650609010459 0 0.39301192452087791 -0.23206755156330311 0 0.40413117098234658 -0.22252069674927041 0 0.40435734824181851 -0.22095650609010459 0 0.40413117098234658 -0.22252069674927041 0 0.40435734824181851 -0.22095650609010459 0 0.40691327453436521 -0.22373410570723959 0 0.40413117098234658 -0.22252069674927041 0 0.40609235663667559 -0.2261783122881279 0 0.40287199595868722 -0.2287953837658035 0 0.40413117098234658 -0.22252069674927041 0 0.40609235663667559 -0.2261783122881279 0 0.40691327453436521 -0.22373410570723959 0 0.40609235663667559 -0.2261783122881279 0 0.40287199595868722 -0.2287953837658035 0 0.4079835195510918 -0.2298215348869562 0 0.40413117098234658 -0.22252069674927041 0 0.40287199595868722 -0.2287953837658035 0 0.39301192452087791 -0.23206755156330311 0 0.39902215130848012 -0.23724304055131301 0 0.40552197070579032 -0.23590380556907681 0 0.40287199595868722 -0.2287953837658035 0 0.40552197070579032 -0.23590380556907681 0 0.40287199595868722 -0.2287953837658035 0 0.4079835195510918 -0.2298215348869562 0 0.39902215130848012 -0.23724304055131301 0 0.40287199595868722 -0.2287953837658035 0 0.39301192452087791 -0.23206755156330311 0 0.40435734824181851 -0.22095650609010459 0 0.3950685198838455 -0.22274209439333451 0 0.39458814263651482 -0.2157681001456693 0 0.40435734824181851 -0.22095650609010459 0 0.39301192452087791 -0.23206755156330311 0 0.3950685198838455 -0.22274209439333451 0 0.39301192452087791 -0.23206755156330311 0 0.3950685198838455 -0.22274209439333451 0 0.38773930617134561 -0.2226773224713359 0 0.3950685198838455 -0.22274209439333451 0 0.38773930617134561 -0.2226773224713359 0 0.39458814263651482 -0.2157681001456693 0 0.38773930617134561 -0.2226773224713359 0 0.38496364938306371 -0.2319445176641344 0 0.37938190300046498 -0.22496583543413079 0 0.39301192452087791 -0.23206755156330311 0 0.38773930617134561 -0.2226773224713359 0 0.38496364938306371 -0.2319445176641344 0 0.3701274247105833 -0.2318109389480793 0 0.38119180725770357 -0.2384634855932774 0 0.37722542122783942 -0.2309392844275053 0 0.38119180725770357 -0.2384634855932774 0 0.38496364938306371 -0.2319445176641344 0 0.37722542122783942 -0.2309392844275053 0 0.38496364938306371 -0.2319445176641344 0 0.37722542122783942 -0.2309392844275053 0 0.37938190300046498 -0.22496583543413079 0 0.36892526057749597 -0.22217252143789229 0 0.37938190300046498 -0.22496583543413079 0 0.38040788154911759 -0.21804503213654741 0 0.36892526057749597 -0.22217252143789229 0 0.37722542122783942 -0.2309392844275053 0 0.37938190300046498 -0.22496583543413079 0 0.38773930617134561 -0.2226773224713359 0 0.37938190300046498 -0.22496583543413079 0 0.38040788154911759 -0.21804503213654741 0 0.36892526057749597 -0.22217252143789229 0 0.38040788154911759 -0.21804503213654741 0 0.37936788332702509 -0.21107609881352871 0 0.38040788154911759 -0.21804503213654741 0 0.37936788332702509 -0.21107609881352871 0 0.38661852847357259 -0.21318626406596139 0 0.37488268491145182 -0.1997144233745772 0 0.37936788332702509 -0.21107609881352871 0 0.38600506112348743 -0.20226225305266499 0 0.37936788332702509 -0.21107609881352871 0 0.38661852847357259 -0.21318626406596139 0 0.38600506112348743 -0.20226225305266499 0 0.38661852847357259 -0.21318626406596139 0 0.38600506112348743 -0.20226225305266499 0 0.39221499435735552 -0.2077546258111243 0 0.38773930617134561 -0.2226773224713359 0 0.38040788154911759 -0.21804503213654741 0 0.38661852847357259 -0.21318626406596139 0 0.38773930617134561 -0.2226773224713359 0 0.38661852847357259 -0.21318626406596139 0 0.39458814263651482 -0.2157681001456693 0 0.37488268491145182 -0.1997144233745772 0 0.38506895474284308 -0.19044896164302089 0 0.38068989614137638 -0.17718137460984781 0 0.37433615171217749 -0.1899152871006021 0 0.37488268491145182 -0.1997144233745772 0 0.38068989614137638 -0.17718137460984781 0 0.37488268491145182 -0.1997144233745772 0 0.38068989614137638 -0.17718137460984781 0 0.37488268491145182 -0.1997144233745772 0 0.38600506112348743 -0.20226225305266499 0 0.38506895474284308 -0.19044896164302089 0 0.38506895474284308 -0.19044896164302089 0 0.39338906313706029 -0.19154107519989741 0 0.38984616529131022 -0.18094306328490101 0 0.38600506112348743 -0.20226225305266499 0 0.38506895474284308 -0.19044896164302089 0 0.39338906313706029 -0.19154107519989741 0 0.38600506112348743 -0.20226225305266499 0 0.39338906313706029 -0.19154107519989741 0 0.39401498605862251 -0.2003447419525386 0 0.39401498605862251 -0.2003447419525386 0 0.39992219717652949 -0.20603874368935779 0 0.40840145705307029 -0.1929883662249639 0 0.39338906313706029 -0.19154107519989741 0 0.39401498605862251 -0.2003447419525386 0 0.40840145705307029 -0.1929883662249639 0 0.40435734824181851 -0.22095650609010459 0 0.39992219717652949 -0.20603874368935779 0 0.40840145705307029 -0.1929883662249639 0 0.38661852847357259 -0.21318626406596139 0 0.39458814263651482 -0.2157681001456693 0 0.39221499435735552 -0.2077546258111243 0 0.39458814263651482 -0.2157681001456693 0 0.39221499435735552 -0.2077546258111243 0 0.39992219717652949 -0.20603874368935779 0 0.38600506112348743 -0.20226225305266499 0 0.39401498605862251 -0.2003447419525386 0 0.39221499435735552 -0.2077546258111243 0 0.39401498605862251 -0.2003447419525386 0 0.39221499435735552 -0.2077546258111243 0 0.39992219717652949 -0.20603874368935779 0 0.40435734824181851 -0.22095650609010459 0 0.39458814263651482 -0.2157681001456693 0 0.39992219717652949 -0.20603874368935779 0 0.40435734824181851 -0.22095650609010459 0 0.41780311928902691 -0.2167643167330755 0 0.42404002497752008 -0.2016804418703993 0 0.40435734824181851 -0.22095650609010459 0 0.40840145705307029 -0.1929883662249639 0 0.40435734824181851 -0.22095650609010459 0 0.42404002497752008 -0.2016804418703993 0 0.40435734824181851 -0.22095650609010459 0 0.40840145705307029 -0.1929883662249639 0 0.42404002497752008 -0.2016804418703993 0 0.40840145705307029 -0.1929883662249639 0 0.42404002497752008 -0.2016804418703993 0 0.42452123635744943 -0.18233469880287501 0 0.42404002497752008 -0.2016804418703993 0 0.44372270171322142 -0.18240437765069351 0 0.42404002497752008 -0.2016804418703993 0 0.44372270171322142 -0.18240437765069351 0 0.4386822046398039 -0.2031531987561366 0 0.42404002497752008 -0.2016804418703993 0 0.42452123635744943 -0.18233469880287501 0 0.44372270171322142 -0.18240437765069351 0 0.41780311928902691 -0.2167643167330755 0 0.42835028801948272 -0.21393997704602499 0 0.42054048785123749 -0.22409776322134439 0 0.41780311928902691 -0.2167643167330755 0 0.42404002497752008 -0.2016804418703993 0 0.42835028801948272 -0.21393997704602499 0 0.42404002497752008 -0.2016804418703993 0 0.42835028801948272 -0.21393997704602499 0 0.4386822046398039 -0.2031531987561366 0 0.42835028801948272 -0.21393997704602499 0 0.43177793310838269 -0.22474738263700439 0 0.44345739491074088 -0.21664454916153289 0 0.42835028801948272 -0.21393997704602499 0 0.44345739491074088 -0.21664454916153289 0 0.4386822046398039 -0.2031531987561366 0 0.42835028801948272 -0.21393997704602499 0 0.43177793310838269 -0.22474738263700439 0 0.42054048785123749 -0.22409776322134439 0 0.43177793310838269 -0.22474738263700439 0 0.42536356231791422 -0.23187883064709669 0 0.42054048785123749 -0.22409776322134439 0 0.43177793310838269 -0.22474738263700439 0 0.43317842050885919 -0.23605113817466869 0 0.44083607628648008 -0.22992286100420339 0 0.43177793310838269 -0.22474738263700439 0 0.42536356231791422 -0.23187883064709669 0 0.43317842050885919 -0.23605113817466869 0 0.43317842050885919 -0.23605113817466869 0 0.43352159872874269 -0.24725831033418741 0 0.42360257686609493 -0.2410859229044485 0 0.43317842050885919 -0.23605113817466869 0 0.43352159872874269 -0.24725831033418741 0 0.44210866996674941 -0.2435162957473786 0 0.43352159872874269 -0.24725831033418741 0 0.42360257686609493 -0.2410859229044485 0 0.42551217877313807 -0.25075895756755467 0 0.42536356231791422 -0.23187883064709669 0 0.43317842050885919 -0.23605113817466869 0 0.42360257686609493 -0.2410859229044485 0 0.42536356231791422 -0.23187883064709669 0 0.42360257686609493 -0.2410859229044485 0 0.41771839325499638 -0.2334119462980172 0 0.42360257686609493 -0.2410859229044485 0 0.41169383919295749 -0.24102956592291119 0 0.41771839325499638 -0.2334119462980172 0 0.42360257686609493 -0.2410859229044485 0 0.41634669363834959 -0.24963579672108979 0 0.41169383919295749 -0.24102956592291119 0 0.42360257686609493 -0.2410859229044485 0 0.41634669363834959 -0.24963579672108979 0 0.42551217877313807 -0.25075895756755467 0 0.40591759153700602 -0.24992151464819001 0 0.41634669363834959 -0.24963579672108979 0 0.41169383919295749 -0.24102956592291119 0 0.41169383919295749 -0.24102956592291119 0 0.41149833454703622 -0.23381259548163061 0 0.41771839325499638 -0.2334119462980172 0 0.40552197070579032 -0.23590380556907681 0 0.41169383919295749 -0.24102956592291119 0 0.41149833454703622 -0.23381259548163061 0 0.40552197070579032 -0.23590380556907681 0 0.41149833454703622 -0.23381259548163061 0 0.4079835195510918 -0.2298215348869562 0 0.41149833454703622 -0.23381259548163061 0 0.41311536365083162 -0.22864616098025589 0 0.4079835195510918 -0.2298215348869562 0 0.41311536365083162 -0.22864616098025589 0 0.4079835195510918 -0.2298215348869562 0 0.40886559485786439 -0.22617156269154981 0 0.40609235663667559 -0.2261783122881279 0 0.4079835195510918 -0.2298215348869562 0 0.40886559485786439 -0.22617156269154981 0 0.40691327453436521 -0.22373410570723959 0 0.40886559485786439 -0.22617156269154981 0 0.41172744735507572 -0.22314689543750441 0 0.40609235663667559 -0.2261783122881279 0 0.40691327453436521 -0.22373410570723959 0 0.40886559485786439 -0.22617156269154981 0 0.40435734824181851 -0.22095650609010459 0 0.41780311928902691 -0.2167643167330755 0 0.41172744735507572 -0.22314689543750441 0 0.40435734824181851 -0.22095650609010459 0 0.40691327453436521 -0.22373410570723959 0 0.41172744735507572 -0.22314689543750441 0 0.41311536365083162 -0.22864616098025589 0 0.40886559485786439 -0.22617156269154981 0 0.41172744735507572 -0.22314689543750441 0 0.41311536365083162 -0.22864616098025589 0 0.41172744735507572 -0.22314689543750441 0 0.42054048785123749 -0.22409776322134439 0 0.41780311928902691 -0.2167643167330755 0 0.41172744735507572 -0.22314689543750441 0 0.42054048785123749 -0.22409776322134439 0 0.42536356231791422 -0.23187883064709669 0 0.42054048785123749 -0.22409776322134439 0 0.41771839325499638 -0.2334119462980172 0 0.41311536365083162 -0.22864616098025589 0 0.42054048785123749 -0.22409776322134439 0 0.41771839325499638 -0.2334119462980172 0 0.41149833454703622 -0.23381259548163061 0 0.41311536365083162 -0.22864616098025589 0 0.41771839325499638 -0.2334119462980172 0 0.40095730074538971 -0.1320645110756441 0 0.40036204118329632 -0.15015816849629959 0 0.41648967467557502 -0.13705208649468259 0 0.40095730074538971 -0.1320645110756441 0 0.3924922572662356 -0.14029794870837509 0 0.38295297505005249 -0.1302249446019971 0 0.40135934121329608 -0.11402100102144599 0 0.40095730074538971 -0.1320645110756441 0 0.38295297505005249 -0.1302249446019971 0 0.3924922572662356 -0.14029794870837509 0 0.38295297505005249 -0.1302249446019971 0 0.38569671208620387 -0.14874417065955969 0 0.38295297505005249 -0.1302249446019971 0 0.37561091871899799 -0.1480533809211643 0 0.38569671208620387 -0.14874417065955969 0 0.37561091871899799 -0.1480533809211643 0 0.38569671208620387 -0.14874417065955969 0 0.3771247630648128 -0.157885923951923 0 0.40095730074538971 -0.1320645110756441 0 0.3924922572662356 -0.14029794870837509 0 0.40036204118329632 -0.15015816849629959 0 0.38569671208620387 -0.14874417065955969 0 0.40036204118329632 -0.15015816849629959 0 0.3872203480253209 -0.16409331232753871 0 0.3924922572662356 -0.14029794870837509 0 0.38569671208620387 -0.14874417065955969 0 0.40036204118329632 -0.15015816849629959 0 0.40036204118329632 -0.15015816849629959 0 0.39985299238272859 -0.16401152105948341 0 0.41244556586432268 -0.1650202263598233 0 0.39985299238272859 -0.16401152105948341 0 0.39938401445797478 -0.1767743770542721 0 0.41244556586432268 -0.1650202263598233 0 0.39985299238272859 -0.16401152105948341 0 0.3872203480253209 -0.16409331232753871 0 0.39938401445797478 -0.1767743770542721 0 0.40036204118329632 -0.15015816849629959 0 0.39985299238272859 -0.16401152105948341 0 0.3872203480253209 -0.16409331232753871 0 0.36919280359451911 -0.17063022471860559 0 0.3872203480253209 -0.16409331232753871 0 0.38068989614137638 -0.17718137460984781 0 0.38569671208620387 -0.14874417065955969 0 0.3771247630648128 -0.157885923951923 0 0.3872203480253209 -0.16409331232753871 0 0.36919280359451911 -0.17063022471860559 0 0.3771247630648128 -0.157885923951923 0 0.3872203480253209 -0.16409331232753871 0 0.3872203480253209 -0.16409331232753871 0 0.38068989614137638 -0.17718137460984781 0 0.3872203480253209 -0.16409331232753871 0 0.38068989614137638 -0.17718137460984781 0 0.38984616529131022 -0.18094306328490101 0 0.37433615171217749 -0.1899152871006021 0 0.38068989614137638 -0.17718137460984781 0 0.38506895474284308 -0.19044896164302089 0 0.38068989614137638 -0.17718137460984781 0 0.38984616529131022 -0.18094306328490101 0 0.39338906313706029 -0.19154107519989741 0 0.38984616529131022 -0.18094306328490101 0 0.39938401445797478 -0.1767743770542721 0 0.39338906313706029 -0.19154107519989741 0 0.40840145705307029 -0.1929883662249639 0 0.39938401445797478 -0.1767743770542721 0 0.3872203480253209 -0.16409331232753871 0 0.38984616529131022 -0.18094306328490101 0 0.39938401445797478 -0.1767743770542721 0 0.40840145705307029 -0.1929883662249639 0 0.39938401445797478 -0.1767743770542721 0 0.41244556586432268 -0.1650202263598233 0 0.40840145705307029 -0.1929883662249639 0 0.41244556586432268 -0.1650202263598233 0 0.40840145705307029 -0.1929883662249639 0 0.42452123635744943 -0.18233469880287501 0 0.41244556586432268 -0.1650202263598233 0 0.42452123635744943 -0.18233469880287501 0 0.43312863810379021 -0.16944797377182319 0 0.41244556586432268 -0.1650202263598233 0 0.42452123635744943 -0.18233469880287501 0 0.43312863810379021 -0.16944797377182319 0 0.44372270171322142 -0.18240437765069351 0 0.43312863810379021 -0.16944797377182319 0 0.42728091942487723 -0.15602627794959761 0 0.44534314893689891 -0.15957729569029061 0 0.43312863810379021 -0.16944797377182319 0 0.41244556586432268 -0.1650202263598233 0 0.42728091942487723 -0.15602627794959761 0 0.42728091942487723 -0.15602627794959761 0 0.44534314893689891 -0.15957729569029061 0 0.41244556586432268 -0.1650202263598233 0 0.41648967467557502 -0.13705208649468259 0 0.40036204118329632 -0.15015816849629959 0 0.41244556586432268 -0.1650202263598233 0 0.41648967467557502 -0.13705208649468259 0 0.41244556586432268 -0.1650202263598233 0 0.42728091942487723 -0.15602627794959761 0 0.41648967467557502 -0.13705208649468259 0 0.42728091942487723 -0.15602627794959761 0 0.41648967467557502 -0.13705208649468259 0 0.44043421025455892 -0.14614990440047301 0 0.41648967467557502 -0.13705208649468259 0 0.44057562190611399 -0.12997369199362011 0 0.44043421025455892 -0.14614990440047301 0 0.42820915951309818 -0.1162839919565892 0 0.41648967467557502 -0.13705208649468259 0 0.44057562190611399 -0.12997369199362011 0 0.41175386903683969 -0.1248553976370905 0 0.42820915951309818 -0.1162839919565892 0 0.41648967467557502 -0.13705208649468259 0 0.41175386903683969 -0.1248553976370905 0 0.40095730074538971 -0.1320645110756441 0 0.41648967467557502 -0.13705208649468259 0 0.46376518391457972 -0.12981095665039361 0 0.45500412383808209 -0.1414695874011529 0 0.46674827241225658 -0.14831464428839061 0 0.46376518391457972 -0.12981095665039361 0 0.45500412383808209 -0.1414695874011529 0 0.46376518391457972 -0.12981095665039361 0 0.45360097686791889 -0.12995030473422539 0 0.45500412383808209 -0.1414695874011529 0 0.45505897781290011 -0.11854698289173481 0 0.46376518391457972 -0.12981095665039361 0 0.45360097686791889 -0.12995030473422539 0 0.44057562190611399 -0.12997369199362011 0 0.44043421025455892 -0.14614990440047301 0 0.45500412383808209 -0.1414695874011529 0 0.45505897781290011 -0.11854698289173481 0 0.45360097686791889 -0.12995030473422539 0 0.44057562190611399 -0.12997369199362011 0 0.45360097686791889 -0.12995030473422539 0 0.44057562190611399 -0.12997369199362011 0 0.45500412383808209 -0.1414695874011529 0 0.42728091942487723 -0.15602627794959761 0 0.44043421025455892 -0.14614990440047301 0 0.44534314893689891 -0.15957729569029061 0 0.44043421025455892 -0.14614990440047301 0 0.45791177274580641 -0.1528004868734946 0 0.44534314893689891 -0.15957729569029061 0 0.44043421025455892 -0.14614990440047301 0 0.45791177274580641 -0.1528004868734946 0 0.45500412383808209 -0.1414695874011529 0 0.45791177274580641 -0.1528004868734946 0 0.45500412383808209 -0.1414695874011529 0 0.46674827241225658 -0.14831464428839061 0 0.45791177274580641 -0.1528004868734946 0 0.46674827241225658 -0.14831464428839061 0 0.46812268843270988 -0.15850845550146081 0 0.46340537844892032 -0.16312831343098541 0 0.44534314893689891 -0.15957729569029061 0 0.45791177274580641 -0.1528004868734946 0 0.46340537844892032 -0.16312831343098541 0 0.44534314893689891 -0.15957729569029061 0 0.45791177274580641 -0.1528004868734946 0 0.46340537844892032 -0.16312831343098541 0 0.46812268843270988 -0.15850845550146081 0 0.46340537844892032 -0.16312831343098541 0 0.46812268843270988 -0.15850845550146081 0 0.43312863810379021 -0.16944797377182319 0 0.44534314893689891 -0.15957729569029061 0 0.44372270171322142 -0.18240437765069351 0 0.46340537844892032 -0.16312831343098541 0 0.44534314893689891 -0.15957729569029061 0 0.44372270171322142 -0.18240437765069351 0 0.46340537844892032 -0.16312831343098541 0 0.44372270171322142 -0.18240437765069351 0 0.44372270171322142 -0.18240437765069351 0 0.46699229789224428 -0.17651500010205609 0 0.46547181443023522 -0.18827898639353169 0 0.46340537844892032 -0.16312831343098541 0 0.44372270171322142 -0.18240437765069351 0 0.46699229789224428 -0.17651500010205609 0 0.46699229789224428 -0.17651500010205609 0 0.4835610062418732 -0.18260832541609179 0 0.47880058862697172 -0.16615499761897781 0 0.46699229789224428 -0.17651500010205609 0 0.4835610062418732 -0.18260832541609179 0 0.46547181443023522 -0.18827898639353169 0 0.4835610062418732 -0.18260832541609179 0 0.49419579880502279 -0.1691816818069718 0 0.47880058862697172 -0.16615499761897781 0 0.4835610062418732 -0.18260832541609179 0 0.50000000000000022 -0.17669108018172189 0 0.49419579880502279 -0.1691816818069718 0 0.50000000000000022 -0.17669108018172189 0 0.49419579880502279 -0.1691816818069718 0 0.49999999999999561 -0.17032278243356769 0 0.50000000000000022 -0.17669108018172189 0 0.49419579880502279 -0.1691816818069718 0 0.49419579880502279 -0.1691816818069718 0 0.47898049135980109 -0.14949631922868281 0 0.49419579880502279 -0.1691816818069718 0 0.49999999999999561 -0.17032278243356769 0 0.5 -0.14509598117303751 0 0.49419579880502279 -0.1691816818069718 0 0.47880058862697172 -0.16615499761897781 0 0.49419579880502279 -0.1691816818069718 0 0.49999999999999561 -0.17032278243356769 0 0.49419579880502279 -0.1691816818069718 0 0.47736956792735252 -0.15833121968889671 0 0.47898049135980109 -0.14949631922868281 0 0.49419579880502279 -0.1691816818069718 0 0.47736956792735252 -0.15833121968889671 0 0.47880058862697172 -0.16615499761897781 0 0.46340537844892032 -0.16312831343098541 0 0.47880058862697172 -0.16615499761897781 0 0.46340537844892032 -0.16312831343098541 0 0.46699229789224428 -0.17651500010205609 0 0.47880058862697172 -0.16615499761897781 0 0.46340537844892032 -0.16312831343098541 0 0.46812268843270988 -0.15850845550146081 0 0.47880058862697172 -0.16615499761897781 0 0.46812268843270988 -0.15850845550146081 0 0.47736956792735252 -0.15833121968889671 0 0.47880058862697172 -0.16615499761897781 0 0.46376518391457972 -0.12981095665039361 0 0.46674827241225658 -0.14831464428839061 0 0.47898049135980109 -0.14949631922868281 0 0.46674827241225658 -0.14831464428839061 0 0.46812268843270988 -0.15850845550146081 0 0.47736956792735252 -0.15833121968889671 0 0.46674827241225658 -0.14831464428839061 0 0.47736956792735252 -0.15833121968889671 0 0.47898049135980109 -0.14949631922868281 0 0.49419579880502279 -0.1691816818069718 0 0.47898049135980109 -0.14949631922868281 0 0.5 -0.14509598117303751 0 0.47898049135980109 -0.14949631922868281 0 0.5 -0.14509598117303751 0 0.48339705170826602 -0.13035982314943859 0 0.5 -0.1198691799125074 0 0.5 -0.14509598117303751 0 0.48339705170826602 -0.13035982314943859 0 0.46376518391457972 -0.12981095665039361 0 0.47898049135980109 -0.14949631922868281 0 0.48339705170826602 -0.13035982314943859 0 0.46376518391457972 -0.12981095665039361 0 0.47898049135980109 -0.14949631922868281 0 0.4680973010733756 -0.23455772011726411 0 0.45255440066560843 -0.23044637021225689 0 0.46311956367126972 -0.21713668249776569 0 0.4680973010733756 -0.23455772011726411 0 0.45876540539555349 -0.2405905644203995 0 0.4650122572706723 -0.25066071303216658 0 0.45325326598664373 -0.24984375735912309 0 0.45876540539555349 -0.2405905644203995 0 0.4650122572706723 -0.25066071303216658 0 0.4680973010733756 -0.23455772011726411 0 0.45876540539555349 -0.2405905644203995 0 0.45255440066560843 -0.23044637021225689 0 0.45325326598664373 -0.24984375735912309 0 0.45876540539555349 -0.2405905644203995 0 0.44210866996674941 -0.2435162957473786 0 0.45876540539555349 -0.2405905644203995 0 0.44210866996674941 -0.2435162957473786 0 0.45255440066560843 -0.23044637021225689 0 0.45325326598664373 -0.24984375735912309 0 0.44210866996674941 -0.2435162957473786 0 0.44630923294714742 -0.25580220288950278 0 0.43352159872874269 -0.24725831033418741 0 0.44210866996674941 -0.2435162957473786 0 0.43868143438780582 -0.25367486517498161 0 0.44210866996674941 -0.2435162957473786 0 0.44083607628648008 -0.22992286100420339 0 0.45255440066560843 -0.23044637021225689 0 0.43317842050885919 -0.23605113817466869 0 0.44210866996674941 -0.2435162957473786 0 0.44083607628648008 -0.22992286100420339 0 0.45255440066560843 -0.23044637021225689 0 0.44345739491074088 -0.21664454916153289 0 0.46311956367126972 -0.21713668249776569 0 0.44083607628648008 -0.22992286100420339 0 0.45255440066560843 -0.23044637021225689 0 0.44345739491074088 -0.21664454916153289 0 0.43177793310838269 -0.22474738263700439 0 0.44083607628648008 -0.22992286100420339 0 0.44345739491074088 -0.21664454916153289 0 0.44345739491074088 -0.21664454916153289 0 0.4386822046398039 -0.2031531987561366 0 0.45384061357805427 -0.20109664805203251 0 0.44372270171322142 -0.18240437765069351 0 0.4386822046398039 -0.2031531987561366 0 0.45384061357805427 -0.20109664805203251 0 0.44372270171322142 -0.18240437765069351 0 0.46547181443023522 -0.18827898639353169 0 0.45384061357805427 -0.20109664805203251 0 0.46547181443023522 -0.18827898639353169 0 0.45384061357805427 -0.20109664805203251 0 0.47443347846362333 -0.20251427341793449 0 0.44345739491074088 -0.21664454916153289 0 0.45384061357805427 -0.20109664805203251 0 0.46311956367126972 -0.21713668249776569 0 0.45384061357805427 -0.20109664805203251 0 0.46311956367126972 -0.21713668249776569 0 0.47443347846362333 -0.20251427341793449 0 0.46311956367126972 -0.21713668249776569 0 0.47443347846362333 -0.20251427341793449 0 0.48238665555215898 -0.22244824225730589 0 0.4835610062418732 -0.18260832541609179 0 0.46547181443023522 -0.18827898639353169 0 0.47443347846362333 -0.20251427341793449 0 0.4835610062418732 -0.18260832541609179 0 0.50000000000000022 -0.17669108018172189 0 0.5 -0.2055220225328058 0 0.4835610062418732 -0.18260832541609179 0 0.47443347846362333 -0.20251427341793449 0 0.5 -0.2055220225328058 0 0.47443347846362333 -0.20251427341793449 0 0.5 -0.2055220225328058 0 0.48238665555215898 -0.22244824225730589 0 0.5 -0.2055220225328058 0 0.5 -0.23435296488388971 0 0.48238665555215898 -0.22244824225730589 0 0.4680973010733756 -0.23455772011726411 0 0.46311956367126972 -0.21713668249776569 0 0.48238665555215898 -0.22244824225730589 0 0.4680973010733756 -0.23455772011726411 0 0.481843351221731 -0.24793746853750051 0 0.4650122572706723 -0.25066071303216658 0 0.4680973010733756 -0.23455772011726411 0 0.48238665555215898 -0.22244824225730589 0 0.481843351221731 -0.24793746853750051 0 0.5 -0.23435296488388971 0 0.48238665555215898 -0.22244824225730589 0 0.481843351221731 -0.24793746853750051 0 0.5 -0.23435296488388971 0 0.481843351221731 -0.24793746853750051 0 0.5 -0.26318390723497392 0 0.481843351221731 -0.24793746853750051 0 0.5 -0.26318390723497392 0 0.48454695686930088 -0.26954816042728269 0 0.5 -0.26318390723497392 0 0.48454695686930088 -0.26954816042728269 0 0.50000000000000178 -0.29201484958605789 0 0.48454695686930088 -0.26954816042728269 0 0.46987978313345102 -0.27080924135940132 0 0.4780648818395602 -0.28459782979996839 0 0.48454695686930088 -0.26954816042728269 0 0.46987978313345102 -0.27080924135940132 0 0.47286028778660899 -0.26081057180962058 0 0.481843351221731 -0.24793746853750051 0 0.47286028778660899 -0.26081057180962058 0 0.4650122572706723 -0.25066071303216658 0 0.481843351221731 -0.24793746853750051 0 0.48454695686930088 -0.26954816042728269 0 0.47286028778660899 -0.26081057180962058 0 0.4650122572706723 -0.25066071303216658 0 0.45399613546537548 -0.25811383155140788 0 0.46066698934192218 -0.2637152737473244 0 0.45325326598664373 -0.24984375735912309 0 0.4650122572706723 -0.25066071303216658 0 0.45399613546537548 -0.25811383155140788 0 0.45399613546537548 -0.25811383155140788 0 0.46066698934192218 -0.2637152737473244 0 0.44732272323209138 -0.26374316670173842 0 0.47286028778660899 -0.26081057180962058 0 0.4650122572706723 -0.25066071303216658 0 0.46066698934192218 -0.2637152737473244 0 0.46987978313345102 -0.27080924135940132 0 0.47286028778660899 -0.26081057180962058 0 0.46066698934192218 -0.2637152737473244 0 0.46987978313345102 -0.27080924135940132 0 0.4556751335651319 -0.27512738538578402 0 0.4780648818395602 -0.28459782979996839 0 0.46987978313345102 -0.27080924135940132 0 0.46066698934192218 -0.2637152737473244 0 0.4556751335651319 -0.27512738538578402 0 0.4556751335651319 -0.27512738538578402 0 0.4780648818395602 -0.28459782979996839 0 0.4556751335651319 -0.27512738538578402 0 0.454270051019176 -0.27929604592742258 0 0.4780648818395602 -0.28459782979996839 0 0.46066698934192218 -0.2637152737473244 0 0.4556751335651319 -0.27512738538578402 0 0.44732272323209138 -0.26374316670173842 0 0.4556751335651319 -0.27512738538578402 0 0.44732272323209138 -0.26374316670173842 0 0.43351270034769668 -0.26668365328564742 0 0.4556751335651319 -0.27512738538578402 0 0.44352972485845188 -0.27366636602623817 0 0.43351270034769668 -0.26668365328564742 0 0.454270051019176 -0.27929604592742258 0 0.4304752201987917 -0.27399426205487692 0 0.454270051019176 -0.27929604592742258 0 0.44352972485845188 -0.27366636602623817 0 0.4304752201987917 -0.27399426205487692 0 0.454270051019176 -0.27929604592742258 0 0.43971788691347019 -0.28365672375438289 0 0.4304752201987917 -0.27399426205487692 0 0.4556751335651319 -0.27512738538578402 0 0.43351270034769668 -0.26668365328564742 0 0.4556751335651319 -0.27512738538578402 0 0.454270051019176 -0.27929604592742258 0 0.44352972485845188 -0.27366636602623817 0 0.43957050044275459 -0.25925458787357858 0 0.44630923294714742 -0.25580220288950278 0 0.44732272323209138 -0.26374316670173842 0 0.43957050044275459 -0.25925458787357858 0 0.44732272323209138 -0.26374316670173842 0 0.43351270034769668 -0.26668365328564742 0 0.44210866996674941 -0.2435162957473786 0 0.43868143438780582 -0.25367486517498161 0 0.44630923294714742 -0.25580220288950278 0 0.43957050044275459 -0.25925458787357858 0 0.43868143438780582 -0.25367486517498161 0 0.44630923294714742 -0.25580220288950278 0 0.45325326598664373 -0.24984375735912309 0 0.45399613546537548 -0.25811383155140788 0 0.44630923294714742 -0.25580220288950278 0 0.45399613546537548 -0.25811383155140788 0 0.44630923294714742 -0.25580220288950278 0 0.44732272323209138 -0.26374316670173842 0 0.44527469882982068 -0.30437008246477582 0 0.45250646217310492 -0.29398945568270102 0 0.4614209868343162 -0.3032495185934605 0 0.44527469882982068 -0.30437008246477582 0 0.44649185476236392 -0.32330009841981672 0 0.42528975602758401 -0.30333029704980558 0 0.44527469882982068 -0.30437008246477582 0 0.4614209868343162 -0.3032495185934605 0 0.44649185476236392 -0.32330009841981672 0 0.43930109497058423 -0.29208484567943388 0 0.43971788691347019 -0.28365672375438289 0 0.44757521238298892 -0.28642368517650729 0 0.454270051019176 -0.27929604592742258 0 0.43971788691347019 -0.28365672375438289 0 0.44757521238298892 -0.28642368517650729 0 0.44757521238298892 -0.28642368517650729 0 0.45250646217310492 -0.29398945568270102 0 0.45409055554478139 -0.28619481848163542 0 0.454270051019176 -0.27929604592742258 0 0.44757521238298892 -0.28642368517650729 0 0.45409055554478139 -0.28619481848163542 0 0.44527469882982068 -0.30437008246477582 0 0.43930109497058423 -0.29208484567943388 0 0.45250646217310492 -0.29398945568270102 0 0.43930109497058423 -0.29208484567943388 0 0.44757521238298892 -0.28642368517650729 0 0.45250646217310492 -0.29398945568270102 0 0.45250646217310492 -0.29398945568270102 0 0.4591299506431073 -0.28920051966464477 0 0.46089839477937428 -0.29481397097071887 0 0.46151802279688298 -0.28477135714153617 0 0.4654267677309879 -0.28798201134313078 0 0.4780648818395602 -0.28459782979996839 0 0.454270051019176 -0.27929604592742258 0 0.46151802279688298 -0.28477135714153617 0 0.4780648818395602 -0.28459782979996839 0 0.454270051019176 -0.27929604592742258 0 0.4780648818395602 -0.28459782979996839 0 0.45250646217310492 -0.29398945568270102 0 0.4591299506431073 -0.28920051966464477 0 0.45409055554478139 -0.28619481848163542 0 0.454270051019176 -0.27929604592742258 0 0.45409055554478139 -0.28619481848163542 0 0.46151802279688298 -0.28477135714153617 0 0.4591299506431073 -0.28920051966464477 0 0.45409055554478139 -0.28619481848163542 0 0.46151802279688298 -0.28477135714153617 0 0.4591299506431073 -0.28920051966464477 0 0.46151802279688298 -0.28477135714153617 0 0.4654267677309879 -0.28798201134313078 0 0.4591299506431073 -0.28920051966464477 0 0.46089839477937428 -0.29481397097071887 0 0.4654267677309879 -0.28798201134313078 0 0.46089839477937428 -0.29481397097071887 0 0.4654267677309879 -0.28798201134313078 0 0.46726488772491309 -0.29413984096835799 0 0.4654267677309879 -0.28798201134313078 0 0.46726488772491309 -0.29413984096835799 0 0.47252886817641959 -0.29120243687540881 0 0.4614209868343162 -0.3032495185934605 0 0.47224033196484938 -0.30762163975578749 0 0.46948344893675081 -0.32024212612328168 0 0.46089839477937428 -0.29481397097071887 0 0.46726488772491309 -0.29413984096835799 0 0.4614209868343162 -0.3032495185934605 0 0.46726488772491309 -0.29413984096835799 0 0.4614209868343162 -0.3032495185934605 0 0.47440189945395422 -0.29831699189602179 0 0.45250646217310492 -0.29398945568270102 0 0.46089839477937428 -0.29481397097071887 0 0.4614209868343162 -0.3032495185934605 0 0.47224033196484938 -0.30762163975578749 0 0.48365499263437661 -0.308677922410386 0 0.46948344893675081 -0.32024212612328168 0 0.4614209868343162 -0.3032495185934605 0 0.47224033196484938 -0.30762163975578749 0 0.47440189945395422 -0.29831699189602179 0 0.47440189945395422 -0.29831699189602179 0 0.48365499263437661 -0.308677922410386 0 0.48461297498668371 -0.29441536475262181 0 0.47224033196484938 -0.30762163975578749 0 0.47440189945395422 -0.29831699189602179 0 0.48365499263437661 -0.308677922410386 0 0.4654267677309879 -0.28798201134313078 0 0.47252886817641959 -0.29120243687540881 0 0.4780648818395602 -0.28459782979996839 0 0.47252886817641959 -0.29120243687540881 0 0.4772969681637016 -0.29153350633710479 0 0.4780648818395602 -0.28459782979996839 0 0.46726488772491309 -0.29413984096835799 0 0.47440189945395422 -0.29831699189602179 0 0.47252886817641959 -0.29120243687540881 0 0.47440189945395422 -0.29831699189602179 0 0.47252886817641959 -0.29120243687540881 0 0.4772969681637016 -0.29153350633710479 0 0.47440189945395422 -0.29831699189602179 0 0.4772969681637016 -0.29153350633710479 0 0.48461297498668371 -0.29441536475262181 0 0.4772969681637016 -0.29153350633710479 0 0.4780648818395602 -0.28459782979996839 0 0.48461297498668371 -0.29441536475262181 0 0.48454695686930088 -0.26954816042728269 0 0.4780648818395602 -0.28459782979996839 0 0.50000000000000178 -0.29201484958605789 0 0.4780648818395602 -0.28459782979996839 0 0.50000000000000178 -0.29201484958605789 0 0.4780648818395602 -0.28459782979996839 0 0.50000000000000178 -0.29201484958605789 0 0.48461297498668371 -0.29441536475262181 0 0.48365499263437661 -0.308677922410386 0 0.50000000000000178 -0.29201484958605789 0 0.48461297498668371 -0.29441536475262181 0 0.48365499263437661 -0.308677922410386 0 0.50000000000000178 -0.29201484958605789 0 0.5 -0.32045219172962619 0 0.48365499263437661 -0.308677922410386 0 0.5 -0.32045219172962619 0 0.48529250124074352 -0.3340690622957958 0 0.5 -0.32045219172962619 0 0.48529250124074352 -0.3340690622957958 0 0.5 -0.34888953387319438 0 0.48529250124074352 -0.3340690622957958 0 0.48458855430783249 -0.35277355128774762 0 0.46769395349714382 -0.34326989978982791 0 0.48529250124074352 -0.3340690622957958 0 0.46948344893675081 -0.32024212612328168 0 0.46769395349714382 -0.34326989978982791 0 0.48365499263437661 -0.308677922410386 0 0.48529250124074352 -0.3340690622957958 0 0.46948344893675081 -0.32024212612328168 0 0.47492333452151031 -0.36490278644300672 0 0.50000000000000333 -0.37732687601676268 0 0.4820323595071761 -0.38207329490708469 0 0.48458855430783249 -0.35277355128774762 0 0.47492333452151031 -0.36490278644300672 0 0.50000000000000333 -0.37732687601676268 0 0.47492333452151031 -0.36490278644300672 0 0.50000000000000333 -0.37732687601676268 0 0.5 -0.34888953387319438 0 0.48458855430783249 -0.35277355128774762 0 0.50000000000000333 -0.37732687601676268 0 0.48529250124074352 -0.3340690622957958 0 0.5 -0.34888953387319438 0 0.48458855430783249 -0.35277355128774762 0 0.48458855430783249 -0.35277355128774762 0 0.47492333452151031 -0.36490278644300672 0 0.46769395349714382 -0.34326989978982791 0 0.47492333452151031 -0.36490278644300672 0 0.4498466690430164 -0.35247869686925187 0 0.45394092447316392 -0.3812206669912665 0 0.47492333452151031 -0.36490278644300672 0 0.4498466690430164 -0.35247869686925187 0 0.46769395349714382 -0.34326989978982791 0 0.4498466690430164 -0.35247869686925187 0 0.46769395349714382 -0.34326989978982791 0 0.44218702196102438 -0.33828006793792142 0 0.47492333452151031 -0.36490278644300672 0 0.4498466690430164 -0.35247869686925187 0 0.4498466690430164 -0.35247869686925187 0 0.43963942372322612 -0.36857543963155348 0 0.45394092447316392 -0.3812206669912665 0 0.4614209868343162 -0.3032495185934605 0 0.46948344893675081 -0.32024212612328168 0 0.44649185476236392 -0.32330009841981672 0 0.46948344893675081 -0.32024212612328168 0 0.46769395349714382 -0.34326989978982791 0 0.44649185476236392 -0.32330009841981672 0 0.46769395349714382 -0.34326989978982791 0 0.44649185476236392 -0.32330009841981672 0 0.46769395349714382 -0.34326989978982791 0 0.44218702196102438 -0.33828006793792142 0 0.44649185476236392 -0.32330009841981672 0 0.4498466690430164 -0.35247869686925187 0 0.44218702196102438 -0.33828006793792142 0 0.4247700035645226 -0.34005460729549719 0 0.44218702196102438 -0.33828006793792142 0 0.44649185476236392 -0.32330009841981672 0 0.43201732823198552 -0.3285694924160415 0 0.44649185476236392 -0.32330009841981672 0 0.42528975602758401 -0.30333029704980558 0 0.44649185476236392 -0.32330009841981672 0 0.43201732823198552 -0.3285694924160415 0 0.42528975602758401 -0.30333029704980558 0 0.43201732823198552 -0.3285694924160415 0 0.41754996824271379 -0.32131432276598282 0 0.42528975602758401 -0.30333029704980558 0 0.44218702196102438 -0.33828006793792142 0 0.43201732823198552 -0.3285694924160415 0 0.4247700035645226 -0.34005460729549719 0 0.43201732823198552 -0.3285694924160415 0 0.4247700035645226 -0.34005460729549719 0 0.41754996824271379 -0.32131432276598282 0 0.4247700035645226 -0.34005460729549719 0 0.41244907084208787 -0.33903788092069709 0 0.41754996824271379 -0.32131432276598282 0 0.41244907084208787 -0.33903788092069709 0 0.41754996824271379 -0.32131432276598282 0 0.4022785011488958 -0.31697251324624898 0 0.41244907084208787 -0.33903788092069709 0 0.4022785011488958 -0.31697251324624898 0 0.41754996824271379 -0.32131432276598282 0 0.4022785011488958 -0.31697251324624898 0 0.40826276283354029 -0.30397695486272652 0 0.4498466690430164 -0.35247869686925187 0 0.43963942372322612 -0.36857543963155348 0 0.42261964053528001 -0.36110324859514542 0 0.42261964053528001 -0.36110324859514542 0 0.41039295068023529 -0.37210905144403078 0 0.43279021022847203 -0.38316861626959359 0 0.43963942372322612 -0.36857543963155348 0 0.42261964053528001 -0.36110324859514542 0 0.43279021022847203 -0.38316861626959359 0 0.42261964053528001 -0.36110324859514542 0 0.43279021022847203 -0.38316861626959359 0 0.4498466690430164 -0.35247869686925187 0 0.4247700035645226 -0.34005460729549719 0 0.42261964053528001 -0.36110324859514542 0 0.4498466690430164 -0.35247869686925187 0 0.4247700035645226 -0.34005460729549719 0 0.41244907084208787 -0.33903788092069709 0 0.42261964053528001 -0.36110324859514542 0 0.41244907084208787 -0.33903788092069709 0 0.42261964053528001 -0.36110324859514542 0 0.40488954783993553 -0.35708720218695739 0 0.4247700035645226 -0.34005460729549719 0 0.41244907084208787 -0.33903788092069709 0 0.42261964053528001 -0.36110324859514542 0 0.42261964053528001 -0.36110324859514542 0 0.41039295068023529 -0.37210905144403078 0 0.40488954783993553 -0.35708720218695739 0 0.41039295068023529 -0.37210905144403078 0 0.39580141819244868 -0.36666655240940138 0 0.39873616709476301 -0.38396412323139673 0 0.41039295068023529 -0.37210905144403078 0 0.39580141819244868 -0.36666655240940138 0 0.40488954783993553 -0.35708720218695739 0 0.39580141819244868 -0.36666655240940138 0 0.40488954783993553 -0.35708720218695739 0 0.38937086101617852 -0.35539896025544532 0 0.41244907084208787 -0.33903788092069709 0 0.40488954783993553 -0.35708720218695739 0 0.39844761780420662 -0.34557523114865363 0 0.40488954783993553 -0.35708720218695739 0 0.39844761780420662 -0.34557523114865363 0 0.38937086101617852 -0.35539896025544532 0 0.39844761780420662 -0.34557523114865363 0 0.38937086101617852 -0.35539896025544532 0 0.3874041410097081 -0.34241828556351711 0 0.37814452130203668 -0.34893766324755421 0 0.38937086101617852 -0.35539896025544532 0 0.37561756433113103 -0.36477342492917691 0 0.37814452130203668 -0.34893766324755421 0 0.38937086101617852 -0.35539896025544532 0 0.3874041410097081 -0.34241828556351711 0 0.39580141819244868 -0.36666655240940138 0 0.38937086101617852 -0.35539896025544532 0 0.37561756433113103 -0.36477342492917691 0 0.37561756433113103 -0.36477342492917691 0 0.39873616709476301 -0.38396412323139673 0 0.39580141819244868 -0.36666655240940138 0 0.37561756433113103 -0.36477342492917691 0 0.39873616709476301 -0.38396412323139673 0 0.4022785011488958 -0.31697251324624898 0 0.38691993599485808 -0.32639476866743861 0 0.38494985414737232 -0.31004140296801103 0 0.4022785011488958 -0.31697251324624898 0 0.3981244683131227 -0.33393382681665112 0 0.38691993599485808 -0.32639476866743861 0 0.3981244683131227 -0.33393382681665112 0 0.3874041410097081 -0.34241828556351711 0 0.38691993599485808 -0.32639476866743861 0 0.41244907084208787 -0.33903788092069709 0 0.4022785011488958 -0.31697251324624898 0 0.3981244683131227 -0.33393382681665112 0 0.41244907084208787 -0.33903788092069709 0 0.39844761780420662 -0.34557523114865363 0 0.3981244683131227 -0.33393382681665112 0 0.39844761780420662 -0.34557523114865363 0 0.3981244683131227 -0.33393382681665112 0 0.3874041410097081 -0.34241828556351711 0 0.3874041410097081 -0.34241828556351711 0 0.38691993599485808 -0.32639476866743861 0 0.37463954807267658 -0.33581164242928252 0 0.37814452130203668 -0.34893766324755421 0 0.3874041410097081 -0.34241828556351711 0 0.37463954807267658 -0.33581164242928252 0 0.38691993599485808 -0.32639476866743861 0 0.37374650825930361 -0.32115459083486991 0 0.37463954807267658 -0.33581164242928252 0 0.38691993599485808 -0.32639476866743861 0 0.38494985414737232 -0.31004140296801103 0 0.37374650825930361 -0.32115459083486991 0 0.38494985414737232 -0.31004140296801103 0 0.39210793145570372 -0.29490714557180081 0 0.3728147760388606 -0.29815308837317578 0 0.38494985414737232 -0.31004140296801103 0 0.3728147760388606 -0.29815308837317578 0 0.37374650825930361 -0.32115459083486991 0 0.4022785011488958 -0.31697251324624898 0 0.39210793145570372 -0.29490714557180081 0 0.40826276283354029 -0.30397695486272652 0 0.4022785011488958 -0.31697251324624898 0 0.39210793145570372 -0.29490714557180081 0 0.4022785011488958 -0.31697251324624898 0 0.38494985414737232 -0.31004140296801103 0 0.39210793145570372 -0.29490714557180081 0 0.39210793145570372 -0.29490714557180081 0 0.40408765729280399 -0.28336049567979438 0 0.38193736176251158 -0.27284177789735259 0 0.39210793145570372 -0.29490714557180081 0 0.40408765729280399 -0.28336049567979438 0 0.40826276283354029 -0.30397695486272652 0 0.39210793145570372 -0.29490714557180081 0 0.37974876142145497 -0.28635258802490299 0 0.38193736176251158 -0.27284177789735259 0 0.39210793145570372 -0.29490714557180081 0 0.37974876142145497 -0.28635258802490299 0 0.3728147760388606 -0.29815308837317578 0 0.39210793145570372 -0.29490714557180081 0 0.38193736176251158 -0.27284177789735259 0 0.40408765729280399 -0.28336049567979438 0 0.38193736176251158 -0.27284177789735259 0 0.38288555855802331 -0.26339069430978401 0 0.37974876142145497 -0.28635258802490299 0 0.38193736176251158 -0.27284177789735259 0 0.37188304381841758 -0.27515158591148181 0 0.37663482912986412 -0.2658212615920264 0 0.38193736176251158 -0.27284177789735259 0 0.37188304381841758 -0.27515158591148181 0 0.37663482912986412 -0.2658212615920264 0 0.38193736176251158 -0.27284177789735259 0 0.38288555855802331 -0.26339069430978401 0 0.37800101613023152 -0.24517721695337161 0 0.37969381788558099 -0.25383132341644732 0 0.38307300162638303 -0.25123603607322542 0 0.37969381788558099 -0.25383132341644732 0 0.38288555855802331 -0.26339069430978401 0 0.37095131159797418 -0.25215008344978762 0 0.38288555855802331 -0.26339069430978401 0 0.37095131159797418 -0.25215008344978762 0 0.37800101613023152 -0.24517721695337161 0 0.37969381788558099 -0.25383132341644732 0 0.37095131159797418 -0.25215008344978762 0 0.37969381788558099 -0.25383132341644732 0 0.38355820151529307 -0.25720258629606763 0 0.38307300162638303 -0.25123603607322542 0 0.37663482912986412 -0.2658212615920264 0 0.38288555855802331 -0.26339069430978401 0 0.37095131159797418 -0.25215008344978762 0 0.37969381788558099 -0.25383132341644732 0 0.38288555855802331 -0.26339069430978401 0 0.38355820151529307 -0.25720258629606763 0 0.38288555855802331 -0.26339069430978401 0 0.3862648518781362 -0.26005796158388172 0 0.39225343402075402 -0.26152628889412949 0 0.3862648518781362 -0.26005796158388172 0 0.38882566400006108 -0.25702810000254289 0 0.39225343402075402 -0.26152628889412949 0 0.38288555855802331 -0.26339069430978401 0 0.3862648518781362 -0.26005796158388172 0 0.38355820151529307 -0.25720258629606763 0 0.3862648518781362 -0.26005796158388172 0 0.38355820151529307 -0.25720258629606763 0 0.38882566400006108 -0.25702810000254289 0 0.38882566400006108 -0.25702810000254289 0 0.38307300162638303 -0.25123603607322542 0 0.39496829309798548 -0.2505260588971524 0 0.38355820151529307 -0.25720258629606763 0 0.38882566400006108 -0.25702810000254289 0 0.38307300162638303 -0.25123603607322542 0 0.38288555855802331 -0.26339069430978401 0 0.39225343402075402 -0.26152628889412949 0 0.40668038937840728 -0.26869247818233111 0 0.38882566400006108 -0.25702810000254289 0 0.39496829309798548 -0.2505260588971524 0 0.39495436857019439 -0.25664383515655248 0 0.39496829309798548 -0.2505260588971524 0 0.39495436857019439 -0.25664383515655248 0 0.40103927042696519 -0.25623214594146471 0 0.39495436857019439 -0.25664383515655248 0 0.39225343402075402 -0.26152628889412949 0 0.39810558606589219 -0.26175184638282267 0 0.39495436857019439 -0.25664383515655248 0 0.39810558606589219 -0.26175184638282267 0 0.40103927042696519 -0.25623214594146471 0 0.38882566400006108 -0.25702810000254289 0 0.39495436857019439 -0.25664383515655248 0 0.39225343402075402 -0.26152628889412949 0 0.40429387825038149 -0.26122909792303228 0 0.40103927042696519 -0.25623214594146471 0 0.41135026713026163 -0.25823992118551059 0 0.39225343402075402 -0.26152628889412949 0 0.39810558606589219 -0.26175184638282267 0 0.40668038937840728 -0.26869247818233111 0 0.39810558606589219 -0.26175184638282267 0 0.40429387825038149 -0.26122909792303228 0 0.40668038937840728 -0.26869247818233111 0 0.39810558606589219 -0.26175184638282267 0 0.40429387825038149 -0.26122909792303228 0 0.40103927042696519 -0.25623214594146471 0 0.40591759153700602 -0.24992151464819001 0 0.40103927042696519 -0.25623214594146471 0 0.41135026713026163 -0.25823992118551059 0 0.40591759153700602 -0.24992151464819001 0 0.39496829309798548 -0.2505260588971524 0 0.40103927042696519 -0.25623214594146471 0 0.40408765729280399 -0.28336049567979438 0 0.38288555855802331 -0.26339069430978401 0 0.40668038937840728 -0.26869247818233111 0 0.38288555855802331 -0.26339069430978401 0 0.40668038937840728 -0.26869247818233111 0 0.40408765729280399 -0.28336049567979438 0 0.38288555855802331 -0.26339069430978401 0 0.40408765729280399 -0.28336049567979438 0 0.40668038937840728 -0.26869247818233111 0 0.41705278071645341 -0.27813300396266899 0 0.40668038937840728 -0.26869247818233111 0 0.41705278071645341 -0.27813300396266899 0 0.4304752201987917 -0.27399426205487692 0 0.40668038937840728 -0.26869247818233111 0 0.41135026713026163 -0.25823992118551059 0 0.4304752201987917 -0.27399426205487692 0 0.40668038937840728 -0.26869247818233111 0 0.4304752201987917 -0.27399426205487692 0 0.40591759153700602 -0.24992151464819001 0 0.41634669363834959 -0.24963579672108979 0 0.41135026713026163 -0.25823992118551059 0 0.40429387825038149 -0.26122909792303228 0 0.40668038937840728 -0.26869247818233111 0 0.41135026713026163 -0.25823992118551059 0 0.41634669363834959 -0.24963579672108979 0 0.42551217877313807 -0.25075895756755467 0 0.42374965023769562 -0.25633747601516499 0 0.41634669363834959 -0.24963579672108979 0 0.41135026713026163 -0.25823992118551059 0 0.42374965023769562 -0.25633747601516499 0 0.41135026713026163 -0.25823992118551059 0 0.42374965023769562 -0.25633747601516499 0 0.43351270034769668 -0.26668365328564742 0 0.41135026713026163 -0.25823992118551059 0 0.43351270034769668 -0.26668365328564742 0 0.42551217877313807 -0.25075895756755467 0 0.42374965023769562 -0.25633747601516499 0 0.43202641129903191 -0.25636905131602289 0 0.43957050044275459 -0.25925458787357858 0 0.43202641129903191 -0.25636905131602289 0 0.43351270034769668 -0.26668365328564742 0 0.42374965023769562 -0.25633747601516499 0 0.43202641129903191 -0.25636905131602289 0 0.43351270034769668 -0.26668365328564742 0 0.43352159872874269 -0.24725831033418741 0 0.43868143438780582 -0.25367486517498161 0 0.43202641129903191 -0.25636905131602289 0 0.43352159872874269 -0.24725831033418741 0 0.42551217877313807 -0.25075895756755467 0 0.43202641129903191 -0.25636905131602289 0 0.43957050044275459 -0.25925458787357858 0 0.43868143438780582 -0.25367486517498161 0 0.43202641129903191 -0.25636905131602289 0 0.41135026713026163 -0.25823992118551059 0 0.43351270034769668 -0.26668365328564742 0 0.4304752201987917 -0.27399426205487692 0 0.41705278071645341 -0.27813300396266899 0 0.4304752201987917 -0.27399426205487692 0 0.42696785599581022 -0.28648477993367361 0 0.44352972485845188 -0.27366636602623817 0 0.43351270034769668 -0.26668365328564742 0 0.4304752201987917 -0.27399426205487692 0 0.43930109497058423 -0.29208484567943388 0 0.42696785599581022 -0.28648477993367361 0 0.42528975602758401 -0.30333029704980558 0 0.43930109497058423 -0.29208484567943388 0 0.43971788691347019 -0.28365672375438289 0 0.42696785599581022 -0.28648477993367361 0 0.43971788691347019 -0.28365672375438289 0 0.4304752201987917 -0.27399426205487692 0 0.42696785599581022 -0.28648477993367361 0 0.44527469882982068 -0.30437008246477582 0 0.43930109497058423 -0.29208484567943388 0 0.42528975602758401 -0.30333029704980558 0 0.40408765729280399 -0.28336049567979438 0 0.42528975602758401 -0.30333029704980558 0 0.40826276283354029 -0.30397695486272652 0 0.41754996824271379 -0.32131432276598282 0 0.42528975602758401 -0.30333029704980558 0 0.40826276283354029 -0.30397695486272652 0 0.40408765729280399 -0.28336049567979438 0 0.41705278071645341 -0.27813300396266899 0 0.42696785599581022 -0.28648477993367361 0 0.40408765729280399 -0.28336049567979438 0 0.42528975602758401 -0.30333029704980558 0 0.40408765729280399 -0.28336049567979438 0 0.42696785599581022 -0.28648477993367361 0 0.42528975602758401 -0.30333029704980558 0 0.43990733962562101 -0.5 0 0.46855617934859839 -0.46226587825174331 0 0.44782474200869521 -0.46271785858276743 0 0.5 -0.5 0 0.5 -0.44679248905907892 0 0.46855617934859839 -0.46226587825174331 0 0.43990733962562101 -0.5 0 0.5 -0.5 0 0.46855617934859839 -0.46226587825174331 0 0.5 -0.44679248905907892 0 0.46855617934859839 -0.46226587825174331 0 0.47353167491107168 -0.42511286595822328 0 0.46855617934859839 -0.46226587825174331 0 0.45007331954620261 -0.43897205591039018 0 0.47353167491107168 -0.42511286595822328 0 0.46855617934859839 -0.46226587825174331 0 0.44782474200869521 -0.46271785858276743 0 0.45007331954620261 -0.43897205591039018 0 0.44782474200869521 -0.46271785858276743 0 0.45007331954620261 -0.43897205591039018 0 0.42609386770603352 -0.45226689537701098 0 0.45007331954620261 -0.43897205591039018 0 0.44693758288981422 -0.40675993606104682 0 0.47353167491107168 -0.42511286595822328 0 0.45007331954620261 -0.43897205591039018 0 0.44693758288981422 -0.40675993606104682 0 0.43271622777999608 -0.42974477256621252 0 0.44693758288981422 -0.40675993606104682 0 0.47353167491107168 -0.42511286595822328 0 0.47030544024581261 -0.3964900893427164 0 0.5 -0.44679248905907892 0 0.47353167491107168 -0.42511286595822328 0 0.5 -0.40703412463723071 0 0.47353167491107168 -0.42511286595822328 0 0.5 -0.40703412463723071 0 0.47030544024581261 -0.3964900893427164 0 0.5 -0.40703412463723071 0 0.47030544024581261 -0.3964900893427164 0 0.4820323595071761 -0.38207329490708469 0 0.5 -0.40703412463723071 0 0.50000000000000333 -0.37732687601676268 0 0.4820323595071761 -0.38207329490708469 0 0.47492333452151031 -0.36490278644300672 0 0.4820323595071761 -0.38207329490708469 0 0.45394092447316392 -0.3812206669912665 0 0.47030544024581261 -0.3964900893427164 0 0.4820323595071761 -0.38207329490708469 0 0.45394092447316392 -0.3812206669912665 0 0.44693758288981422 -0.40675993606104682 0 0.47030544024581261 -0.3964900893427164 0 0.45394092447316392 -0.3812206669912665 0 0.44693758288981422 -0.40675993606104682 0 0.47030544024581261 -0.3964900893427164 0 0.44693758288981422 -0.40675993606104682 0 0.45394092447316392 -0.3812206669912665 0 0.43468085985890498 -0.39728684635028511 0 0.45394092447316392 -0.3812206669912665 0 0.43279021022847203 -0.38316861626959359 0 0.43468085985890498 -0.39728684635028511 0 0.43963942372322612 -0.36857543963155348 0 0.45394092447316392 -0.3812206669912665 0 0.43279021022847203 -0.38316861626959359 0 0.43279021022847203 -0.38316861626959359 0 0.43468085985890498 -0.39728684635028511 0 0.41584058147410452 -0.38687939942995431 0 0.43468085985890498 -0.39728684635028511 0 0.42185476985839487 -0.40315482153361648 0 0.42356972553381589 -0.41702978277937719 0 0.43468085985890498 -0.39728684635028511 0 0.42185476985839487 -0.40315482153361648 0 0.41584058147410452 -0.38687939942995431 0 0.42185476985839487 -0.40315482153361648 0 0.39873616709476301 -0.38396412323139673 0 0.39843227293545908 -0.40706855297959221 0 0.42185476985839487 -0.40315482153361648 0 0.39873616709476301 -0.38396412323139673 0 0.42185476985839487 -0.40315482153361648 0 0.41584058147410452 -0.38687939942995431 0 0.39873616709476301 -0.38396412323139673 0 0.41039295068023529 -0.37210905144403078 0 0.43279021022847203 -0.38316861626959359 0 0.41584058147410452 -0.38687939942995431 0 0.41039295068023529 -0.37210905144403078 0 0.41584058147410452 -0.38687939942995431 0 0.39873616709476301 -0.38396412323139673 0 0.37561756433113103 -0.36477342492917691 0 0.39873616709476301 -0.38396412323139673 0 0.37421512685727248 -0.3793752250404136 0 0.39873616709476301 -0.38396412323139673 0 0.38508730312424599 -0.39286382053335439 0 0.37421512685727248 -0.3793752250404136 0 0.38508730312424599 -0.39286382053335439 0 0.37154302805255351 -0.39233324384433799 0 0.37421512685727248 -0.3793752250404136 0 0.37993976894775611 -0.40348212841998038 0 0.38508730312424599 -0.39286382053335439 0 0.39843227293545908 -0.40706855297959221 0 0.37993976894775611 -0.40348212841998038 0 0.38508730312424599 -0.39286382053335439 0 0.37154302805255351 -0.39233324384433799 0 0.39873616709476301 -0.38396412323139673 0 0.38508730312424599 -0.39286382053335439 0 0.39843227293545908 -0.40706855297959221 0 0.39843227293545908 -0.40706855297959221 0 0.4002018681778175 -0.42729962949770761 0 0.41101465912637192 -0.41363819669757329 0 0.39843227293545908 -0.40706855297959221 0 0.38263211910070988 -0.43136496896549781 0 0.37993976894775611 -0.40348212841998038 0 0.39843227293545908 -0.40706855297959221 0 0.38208588390235998 -0.41447976765955008 0 0.39843227293545908 -0.40706855297959221 0 0.38208588390235998 -0.41447976765955008 0 0.38263211910070988 -0.43136496896549781 0 0.37993976894775611 -0.40348212841998038 0 0.38208588390235998 -0.41447976765955008 0 0.37284343444113999 -0.41197713120425572 0 0.38208588390235998 -0.41447976765955008 0 0.38263211910070988 -0.43136496896549781 0 0.36855456066177761 -0.42459469165299502 0 0.38263211910070988 -0.43136496896549781 0 0.36855456066177761 -0.42459469165299502 0 0.39843227293545908 -0.40706855297959221 0 0.38263211910070988 -0.43136496896549781 0 0.4002018681778175 -0.42729962949770761 0 0.38263211910070988 -0.43136496896549781 0 0.40436299340337167 -0.44181593217125448 0 0.38263211910070988 -0.43136496896549781 0 0.4002018681778175 -0.42729962949770761 0 0.40436299340337167 -0.44181593217125448 0 0.4002018681778175 -0.42729962949770761 0 0.41690664322411369 -0.43369519270323681 0 0.42356972553381589 -0.41702978277937719 0 0.4002018681778175 -0.42729962949770761 0 0.42356972553381589 -0.41702978277937719 0 0.4002018681778175 -0.42729962949770761 0 0.41690664322411369 -0.43369519270323681 0 0.40436299340337167 -0.44181593217125448 0 0.42185476985839487 -0.40315482153361648 0 0.39843227293545908 -0.40706855297959221 0 0.41101465912637192 -0.41363819669757329 0 0.4002018681778175 -0.42729962949770761 0 0.41101465912637192 -0.41363819669757329 0 0.42356972553381589 -0.41702978277937719 0 0.42185476985839487 -0.40315482153361648 0 0.41101465912637192 -0.41363819669757329 0 0.42356972553381589 -0.41702978277937719 0 0.44693758288981422 -0.40675993606104682 0 0.42356972553381589 -0.41702978277937719 0 0.43271622777999608 -0.42974477256621252 0 0.44693758288981422 -0.40675993606104682 0 0.42356972553381589 -0.41702978277937719 0 0.44693758288981422 -0.40675993606104682 0 0.43468085985890498 -0.39728684635028511 0 0.42356972553381589 -0.41702978277937719 0 0.41690664322411369 -0.43369519270323681 0 0.42356972553381589 -0.41702978277937719 0 0.43271622777999608 -0.42974477256621252 0 0.45007331954620261 -0.43897205591039018 0 0.43271622777999608 -0.42974477256621252 0 0.42609386770603352 -0.45226689537701098 0 0.41690664322411369 -0.43369519270323681 0 0.43271622777999608 -0.42974477256621252 0 0.42609386770603352 -0.45226689537701098 0 0.44782474200869521 -0.46271785858276743 0 0.42609386770603352 -0.45226689537701098 0 0.41909828956072681 -0.47772454198183789 0 0.44782474200869521 -0.46271785858276743 0 0.42609386770603352 -0.45226689537701098 0 0.42609386770603352 -0.45226689537701098 0 0.40814928885061358 -0.45933290235106911 0 0.41909828956072681 -0.47772454198183789 0 0.42609386770603352 -0.45226689537701098 0 0.40436299340337167 -0.44181593217125448 0 0.42609386770603352 -0.45226689537701098 0 0.40814928885061358 -0.45933290235106911 0 0.40436299340337167 -0.44181593217125448 0 0.41690664322411369 -0.43369519270323681 0 0.42609386770603352 -0.45226689537701098 0 0.40436299340337167 -0.44181593217125448 0 0.40814928885061358 -0.45933290235106911 0 0.40436299340337167 -0.44181593217125448 0 0.38853817704762161 -0.44921493251107558 0 0.38263211910070988 -0.43136496896549781 0 0.40436299340337167 -0.44181593217125448 0 0.38853817704762161 -0.44921493251107558 0 0.38263211910070988 -0.43136496896549781 0 0.36972505160406938 -0.45121259097831962 0 0.38263211910070988 -0.43136496896549781 0 0.38853817704762161 -0.44921493251107558 0 0.36972505160406938 -0.45121259097831962 0 0.38853817704762161 -0.44921493251107558 0 0.38951240901253131 -0.46846467213091308 0 0.36972505160406938 -0.45121259097831962 0 0.40814928885061358 -0.45933290235106911 0 0.38951240901253131 -0.46846467213091308 0 0.41909828956072681 -0.47772454198183789 0 0.40814928885061358 -0.45933290235106911 0 0.38853817704762161 -0.44921493251107558 0 0.38951240901253131 -0.46846467213091308 0 0.38951240901253131 -0.46846467213091308 0 0.39391957549512607 -0.5 0 0.41909828956072681 -0.47772454198183789 0 0.38951240901253131 -0.46846467213091308 0 0.39391957549512607 -0.5 0 0.35681798410742888 -0.47106021299114131 0 0.43990733962562101 -0.5 0 0.44782474200869521 -0.46271785858276743 0 0.41909828956072681 -0.47772454198183789 0 0.43990733962562101 -0.5 0 0.39391957549512607 -0.5 0 0.41909828956072681 -0.47772454198183789 0 0.33179239873092481 -0.50000000000000022 0 0.31182505776931879 -0.49634149831663882 0 0.33179239873092481 -0.50000000000000022 0 0.31113231101668831 -0.5 0 0.31182505776931879 -0.49634149831663882 0 0.32016855352668711 -0.48455692892313967 0 0.33179239873092481 -0.50000000000000022 0 0.31182505776931879 -0.49634149831663882 0 0.32016855352668711 -0.48455692892313967 0 0.31094942502033651 -0.48690621495658409 0 0.31182505776931879 -0.49634149831663882 0 0.32016855352668711 -0.48455692892313967 0 0.31574955657780218 -0.47087735903723671 0 0.32413311613304918 -0.47488516367930061 0 0.32016855352668711 -0.48455692892313967 0 0.31149193380053619 -0.47919281312432399 0 0.31094942502033651 -0.48690621495658409 0 0.32016855352668711 -0.48455692892313967 0 0.31574955657780218 -0.47087735903723671 0 0.31149193380053619 -0.47919281312432399 0 0.31574955657780218 -0.47087735903723671 0 0.32413311613304918 -0.47488516367930061 0 0.32305229532472329 -0.4645063994729931 0 0.32413311613304918 -0.47488516367930061 0 0.33150246308560061 -0.46850336791104041 0 0.32305229532472329 -0.4645063994729931 0 0.32016855352668711 -0.48455692892313967 0 0.32413311613304918 -0.47488516367930061 0 0.33273361157756742 -0.48340679898292488 0 0.33273361157756742 -0.48340679898292488 0 0.3427607019683665 -0.4719969257659441 0 0.34391091661078838 -0.49090783500396301 0 0.33273361157756742 -0.48340679898292488 0 0.3427607019683665 -0.4719969257659441 0 0.33150246308560061 -0.46850336791104041 0 0.32413311613304918 -0.47488516367930061 0 0.33273361157756742 -0.48340679898292488 0 0.33150246308560061 -0.46850336791104041 0 0.33273361157756742 -0.48340679898292488 0 0.33179239873092481 -0.50000000000000022 0 0.34391091661078838 -0.49090783500396301 0 0.32016855352668711 -0.48455692892313967 0 0.33273361157756742 -0.48340679898292488 0 0.33179239873092481 -0.50000000000000022 0 0.39391957549512607 -0.5 0 0.33179239873092481 -0.50000000000000022 0 0.34391091661078838 -0.49090783500396301 0 0.39391957549512607 -0.5 0 0.34391091661078838 -0.49090783500396301 0 0.35681798410742888 -0.47106021299114131 0 0.3427607019683665 -0.4719969257659441 0 0.34391091661078838 -0.49090783500396301 0 0.35681798410742888 -0.47106021299114131 0 0.34391091661078838 -0.49090783500396301 0 0.35681798410742888 -0.47106021299114131 0 0.3427607019683665 -0.4719969257659441 0 0.35135407971462912 -0.45932762920308762 0 0.34024515671418443 -0.45877571050350813 0 0.35681798410742888 -0.47106021299114131 0 0.35135407971462912 -0.45932762920308762 0 0.36972505160406938 -0.45121259097831962 0 0.38951240901253131 -0.46846467213091308 0 0.35681798410742888 -0.47106021299114131 0 0.36972505160406938 -0.45121259097831962 0 0.3427607019683665 -0.4719969257659441 0 0.35681798410742888 -0.47106021299114131 0 0.35135407971462912 -0.45932762920308762 0 0.35135407971462912 -0.45932762920308762 0 0.35044678615145802 -0.4453464288889934 0 0.34024515671418443 -0.45877571050350813 0 0.35681798410742888 -0.47106021299114131 0 0.36972505160406938 -0.45121259097831962 0 0.38263211910070988 -0.43136496896549781 0 0.36972505160406938 -0.45121259097831962 0 0.36454365197497779 -0.43851780766496767 0 0.36972505160406938 -0.45121259097831962 0 0.36454365197497779 -0.43851780766496767 0 0.35044678615145802 -0.4453464288889934 0 0.36454365197497779 -0.43851780766496767 0 0.35044678615145802 -0.4453464288889934 0 0.35558196801429071 -0.43505747069692752 0 0.35135407971462912 -0.45932762920308762 0 0.36972505160406938 -0.45121259097831962 0 0.35044678615145802 -0.4453464288889934 0 0.35044678615145802 -0.4453464288889934 0 0.34698453289731612 -0.43274915832975042 0 0.35558196801429071 -0.43505747069692752 0 0.35044678615145802 -0.4453464288889934 0 0.34096001911691348 -0.43945042957457059 0 0.34698453289731612 -0.43274915832975042 0 0.34096001911691348 -0.43945042957457059 0 0.33231008860136901 -0.43967442109015131 0 0.33695452524670161 -0.44791834546974602 0 0.35044678615145802 -0.4453464288889934 0 0.34096001911691348 -0.43945042957457059 0 0.33695452524670161 -0.44791834546974602 0 0.33231008860136901 -0.43967442109015131 0 0.33695452524670161 -0.44791834546974602 0 0.32749060494309362 -0.44626586894491421 0 0.33695452524670161 -0.44791834546974602 0 0.32786360673077519 -0.45616215462515131 0 0.32749060494309362 -0.44626586894491421 0 0.35044678615145802 -0.4453464288889934 0 0.33695452524670161 -0.44791834546974602 0 0.34024515671418443 -0.45877571050350813 0 0.3427607019683665 -0.4719969257659441 0 0.34024515671418443 -0.45877571050350813 0 0.33150246308560061 -0.46850336791104041 0 0.34024515671418443 -0.45877571050350813 0 0.33150246308560061 -0.46850336791104041 0 0.32786360673077519 -0.45616215462515131 0 0.33695452524670161 -0.44791834546974602 0 0.34024515671418443 -0.45877571050350813 0 0.32786360673077519 -0.45616215462515131 0 0.32786360673077519 -0.45616215462515131 0 0.3163341947992806 -0.45858381728256031 0 0.31917100592389558 -0.44918203403498802 0 0.32786360673077519 -0.45616215462515131 0 0.32305229532472329 -0.4645063994729931 0 0.3163341947992806 -0.45858381728256031 0 0.33150246308560061 -0.46850336791104041 0 0.32786360673077519 -0.45616215462515131 0 0.32305229532472329 -0.4645063994729931 0 0.31574955657780218 -0.47087735903723671 0 0.3163341947992806 -0.45858381728256031 0 0.30671636200760732 -0.46284698899374949 0 0.31574955657780218 -0.47087735903723671 0 0.32305229532472329 -0.4645063994729931 0 0.3163341947992806 -0.45858381728256031 0 0.3163341947992806 -0.45858381728256031 0 0.31917100592389558 -0.44918203403498802 0 0.31097112329497589 -0.45296186311069858 0 0.31917100592389558 -0.44918203403498802 0 0.31071351928806712 -0.44330732561311259 0 0.31097112329497589 -0.45296186311069858 0 0.32179097648857741 -0.43904013855857288 0 0.31194092093056142 -0.43271949472030091 0 0.31071351928806712 -0.44330732561311259 0 0.31917100592389558 -0.44918203403498802 0 0.32179097648857741 -0.43904013855857288 0 0.31071351928806712 -0.44330732561311259 0 0.31917100592389558 -0.44918203403498802 0 0.32179097648857741 -0.43904013855857288 0 0.32749060494309362 -0.44626586894491421 0 0.33231008860136901 -0.43967442109015131 0 0.32179097648857741 -0.43904013855857288 0 0.32749060494309362 -0.44626586894491421 0 0.32786360673077519 -0.45616215462515131 0 0.31917100592389558 -0.44918203403498802 0 0.32749060494309362 -0.44626586894491421 0 0.32639543949104932 -0.42564947860353819 0 0.32183570544549323 -0.43117921315501612 0 0.31846494043496398 -0.42480096428486741 0 0.32179097648857741 -0.43904013855857288 0 0.32183570544549323 -0.43117921315501612 0 0.32906204980735448 -0.43255339696342732 0 0.32639543949104932 -0.42564947860353819 0 0.32183570544549323 -0.43117921315501612 0 0.32906204980735448 -0.43255339696342732 0 0.33231008860136901 -0.43967442109015131 0 0.32179097648857741 -0.43904013855857288 0 0.32906204980735448 -0.43255339696342732 0 0.32179097648857741 -0.43904013855857288 0 0.32183570544549323 -0.43117921315501612 0 0.31194092093056142 -0.43271949472030091 0 0.32183570544549323 -0.43117921315501612 0 0.31846494043496398 -0.42480096428486741 0 0.31194092093056142 -0.43271949472030091 0 0.31846494043496398 -0.42480096428486741 0 0.31070867091783749 -0.42029912752249032 0 0.31194092093056142 -0.43271949472030091 0 0.31846494043496398 -0.42480096428486741 0 0.32197878754646908 -0.41490638486604481 0 0.31070867091783749 -0.42029912752249032 0 0.32197878754646908 -0.41490638486604481 0 0.31158644214776188 -0.40906253825837052 0 0.31070867091783749 -0.42029912752249032 0 0.31935716336825121 -0.40682052782204747 0 0.32197878754646908 -0.41490638486604481 0 0.31158644214776188 -0.40906253825837052 0 0.31935716336825121 -0.40682052782204747 0 0.32197878754646908 -0.41490638486604481 0 0.32655979085807191 -0.40439827488945118 0 0.32197878754646908 -0.41490638486604481 0 0.33224065280811438 -0.41306207800650019 0 0.32655979085807191 -0.40439827488945118 0 0.32639543949104932 -0.42564947860353819 0 0.31846494043496398 -0.42480096428486741 0 0.32197878754646908 -0.41490638486604481 0 0.32639543949104932 -0.42564947860353819 0 0.32197878754646908 -0.41490638486604481 0 0.33118191280540721 -0.41937008404542891 0 0.33118191280540721 -0.41937008404542891 0 0.34166466164994191 -0.41928297964508637 0 0.33447222569484431 -0.42615766124607379 0 0.33118191280540721 -0.41937008404542891 0 0.33224065280811438 -0.41306207800650019 0 0.34166466164994191 -0.41928297964508637 0 0.32197878754646908 -0.41490638486604481 0 0.33118191280540721 -0.41937008404542891 0 0.33224065280811438 -0.41306207800650019 0 0.33224065280811438 -0.41306207800650019 0 0.34051839654045862 -0.41111134461497151 0 0.32655979085807191 -0.40439827488945118 0 0.34051839654045862 -0.41111134461497151 0 0.32655979085807191 -0.40439827488945118 0 0.33224065280811438 -0.41306207800650019 0 0.34051839654045862 -0.41111134461497151 0 0.34166466164994191 -0.41928297964508637 0 0.34166466164994191 -0.41928297964508637 0 0.34174229158810732 -0.42679190738159389 0 0.34745848170810811 -0.42544154528252348 0 0.34174229158810732 -0.42679190738159389 0 0.33447222569484431 -0.42615766124607379 0 0.33760235600557348 -0.43281834702967692 0 0.34166466164994191 -0.41928297964508637 0 0.34174229158810732 -0.42679190738159389 0 0.33447222569484431 -0.42615766124607379 0 0.32639543949104932 -0.42564947860353819 0 0.33447222569484431 -0.42615766124607379 0 0.32906204980735448 -0.43255339696342732 0 0.32639543949104932 -0.42564947860353819 0 0.33118191280540721 -0.41937008404542891 0 0.33447222569484431 -0.42615766124607379 0 0.33231008860136901 -0.43967442109015131 0 0.32906204980735448 -0.43255339696342732 0 0.33760235600557348 -0.43281834702967692 0 0.33447222569484431 -0.42615766124607379 0 0.32906204980735448 -0.43255339696342732 0 0.33760235600557348 -0.43281834702967692 0 0.34096001911691348 -0.43945042957457059 0 0.33231008860136901 -0.43967442109015131 0 0.33760235600557348 -0.43281834702967692 0 0.34096001911691348 -0.43945042957457059 0 0.33760235600557348 -0.43281834702967692 0 0.34698453289731612 -0.43274915832975042 0 0.34174229158810732 -0.42679190738159389 0 0.33760235600557348 -0.43281834702967692 0 0.34698453289731612 -0.43274915832975042 0 0.34166466164994191 -0.41928297964508637 0 0.34745848170810811 -0.42544154528252348 0 0.35074130087200678 -0.42257244067142258 0 0.34174229158810732 -0.42679190738159389 0 0.34698453289731612 -0.43274915832975042 0 0.34745848170810811 -0.42544154528252348 0 0.34698453289731612 -0.43274915832975042 0 0.34745848170810811 -0.42544154528252348 0 0.35327750244038392 -0.42790567415854752 0 0.34745848170810811 -0.42544154528252348 0 0.35074130087200678 -0.42257244067142258 0 0.35327750244038392 -0.42790567415854752 0 0.35074130087200678 -0.42257244067142258 0 0.35327750244038392 -0.42790567415854752 0 0.35682885633875477 -0.42240758993046518 0 0.35327750244038392 -0.42790567415854752 0 0.35682885633875477 -0.42240758993046518 0 0.36030244897227748 -0.43004883270033728 0 0.34698453289731612 -0.43274915832975042 0 0.35327750244038392 -0.42790567415854752 0 0.35558196801429071 -0.43505747069692752 0 0.35327750244038392 -0.42790567415854752 0 0.35558196801429071 -0.43505747069692752 0 0.36030244897227748 -0.43004883270033728 0 0.38263211910070988 -0.43136496896549781 0 0.36454365197497779 -0.43851780766496767 0 0.36855456066177761 -0.42459469165299502 0 0.36454365197497779 -0.43851780766496767 0 0.35558196801429071 -0.43505747069692752 0 0.36030244897227748 -0.43004883270033728 0 0.36454365197497779 -0.43851780766496767 0 0.36030244897227748 -0.43004883270033728 0 0.36855456066177761 -0.42459469165299502 0 0.35682885633875477 -0.42240758993046518 0 0.36030244897227748 -0.43004883270033728 0 0.36855456066177761 -0.42459469165299502 0 0.37284343444113999 -0.41197713120425572 0 0.3643297851962724 -0.41430396154828258 0 0.36930717349753389 -0.40302510674047037 0 0.36855456066177761 -0.42459469165299502 0 0.37284343444113999 -0.41197713120425572 0 0.3643297851962724 -0.41430396154828258 0 0.38208588390235998 -0.41447976765955008 0 0.36855456066177761 -0.42459469165299502 0 0.37284343444113999 -0.41197713120425572 0 0.36855456066177761 -0.42459469165299502 0 0.3643297851962724 -0.41430396154828258 0 0.35447700222284573 -0.41782441434049078 0 0.36855456066177761 -0.42459469165299502 0 0.35447700222284573 -0.41782441434049078 0 0.35682885633875477 -0.42240758993046518 0 0.36855456066177761 -0.42459469165299502 0 0.35447700222284573 -0.41782441434049078 0 0.3643297851962724 -0.41430396154828258 0 0.35916289797594569 -0.40459529076245437 0 0.36930717349753389 -0.40302510674047037 0 0.3643297851962724 -0.41430396154828258 0 0.35621572038108668 -0.40994228481217021 0 0.35916289797594569 -0.40459529076245437 0 0.3643297851962724 -0.41430396154828258 0 0.35621572038108668 -0.40994228481217021 0 0.35447700222284573 -0.41782441434049078 0 0.35621572038108668 -0.40994228481217021 0 0.35447700222284573 -0.41782441434049078 0 0.34689319612928299 -0.40304547259745321 0 0.35682885633875477 -0.42240758993046518 0 0.35447700222284573 -0.41782441434049078 0 0.35074130087200678 -0.42257244067142258 0 0.35682885633875477 -0.42240758993046518 0 0.35447700222284573 -0.41782441434049078 0 0.34051839654045862 -0.41111134461497151 0 0.34166466164994191 -0.41928297964508637 0 0.35447700222284573 -0.41782441434049078 0 0.34166466164994191 -0.41928297964508637 0 0.35074130087200678 -0.42257244067142258 0 0.35447700222284573 -0.41782441434049078 0 0.34051839654045862 -0.41111134461497151 0 0.35447700222284573 -0.41782441434049078 0 0.35447700222284573 -0.41782441434049078 0 0.34689319612928299 -0.40304547259745321 0 0.34051839654045862 -0.41111134461497151 0 0.35447700222284573 -0.41782441434049078 0 0.34689319612928299 -0.40304547259745321 0 0.34689319612928299 -0.40304547259745321 0 0.35115397365301843 -0.39337011688482743 0 0.35433680779112858 -0.39922387708554319 0 0.34689319612928299 -0.40304547259745321 0 0.35115397365301843 -0.39337011688482743 0 0.33930939003571903 -0.38826653085441631 0 0.35115397365301843 -0.39337011688482743 0 0.35433680779112858 -0.39922387708554319 0 0.36048393413744018 -0.39577153125578829 0 0.35115397365301843 -0.39337011688482743 0 0.36048393413744018 -0.39577153125578829 0 0.35676225844649578 -0.38382087794741498 0 0.35621572038108668 -0.40994228481217021 0 0.34689319612928299 -0.40304547259745321 0 0.35916289797594569 -0.40459529076245437 0 0.35433680779112858 -0.39922387708554319 0 0.35916289797594569 -0.40459529076245437 0 0.36048393413744018 -0.39577153125578829 0 0.34689319612928299 -0.40304547259745321 0 0.35433680779112858 -0.39922387708554319 0 0.35916289797594569 -0.40459529076245437 0 0.35916289797594569 -0.40459529076245437 0 0.36048393413744018 -0.39577153125578829 0 0.36930717349753389 -0.40302510674047037 0 0.36048393413744018 -0.39577153125578829 0 0.37154302805255351 -0.39233324384433799 0 0.35676225844649578 -0.38382087794741498 0 0.36048393413744018 -0.39577153125578829 0 0.37154302805255351 -0.39233324384433799 0 0.36930717349753389 -0.40302510674047037 0 0.37993976894775611 -0.40348212841998038 0 0.37284343444113999 -0.41197713120425572 0 0.36930717349753389 -0.40302510674047037 0 0.37993976894775611 -0.40348212841998038 0 0.37154302805255351 -0.39233324384433799 0 0.36930717349753389 -0.40302510674047037 0 0.37421512685727248 -0.3793752250404136 0 0.35676225844649578 -0.38382087794741498 0 0.37154302805255351 -0.39233324384433799 0 0.37421512685727248 -0.3793752250404136 0 0.35676225844649578 -0.38382087794741498 0 0.37421512685727248 -0.3793752250404136 0 0.35676225844649578 -0.38382087794741498 0 0.3583686331716463 -0.36874453544543828 0 0.35676225844649578 -0.38382087794741498 0 0.34681339374223108 -0.37702713482020922 0 0.33930939003571903 -0.38826653085441631 0 0.35115397365301843 -0.39337011688482743 0 0.35676225844649578 -0.38382087794741498 0 0.33930939003571903 -0.38826653085441631 0 0.35676225844649578 -0.38382087794741498 0 0.34681339374223108 -0.37702713482020922 0 0.3583686331716463 -0.36874453544543828 0 0.35676225844649578 -0.38382087794741498 0 0.33930939003571903 -0.38826653085441631 0 0.34681339374223108 -0.37702713482020922 0 0.33558480418236381 -0.38100824436019842 0 0.33930939003571903 -0.38826653085441631 0 0.33112375294470853 -0.39035160366152261 0 0.33930939003571903 -0.38826653085441631 0 0.33558480418236381 -0.38100824436019842 0 0.33112375294470853 -0.39035160366152261 0 0.33930939003571903 -0.38826653085441631 0 0.33558480418236381 -0.38100824436019842 0 0.33112375294470853 -0.39035160366152261 0 0.33558480418236381 -0.38100824436019842 0 0.33112375294470853 -0.39035160366152261 0 0.32467599198283043 -0.38138950632941571 0 0.33558480418236381 -0.38100824436019842 0 0.33930939003571903 -0.38826653085441631 0 0.34689319612928299 -0.40304547259745321 0 0.33930939003571903 -0.38826653085441631 0 0.34689319612928299 -0.40304547259745321 0 0.33930939003571903 -0.38826653085441631 0 0.3361364471485222 -0.39739317228102938 0 0.34051839654045862 -0.41111134461497151 0 0.34689319612928299 -0.40304547259745321 0 0.33940090036038317 -0.40358561487437011 0 0.34689319612928299 -0.40304547259745321 0 0.3361364471485222 -0.39739317228102938 0 0.33940090036038317 -0.40358561487437011 0 0.34051839654045862 -0.41111134461497151 0 0.33940090036038317 -0.40358561487437011 0 0.33405556162326921 -0.40279247000402629 0 0.3361364471485222 -0.39739317228102938 0 0.33940090036038317 -0.40358561487437011 0 0.33405556162326921 -0.40279247000402629 0 0.3361364471485222 -0.39739317228102938 0 0.33405556162326921 -0.40279247000402629 0 0.32799803975153868 -0.39689819097488183 0 0.34051839654045862 -0.41111134461497151 0 0.33405556162326921 -0.40279247000402629 0 0.32655979085807191 -0.40439827488945118 0 0.33405556162326921 -0.40279247000402629 0 0.32799803975153868 -0.39689819097488183 0 0.32655979085807191 -0.40439827488945118 0 0.33112375294470853 -0.39035160366152261 0 0.33930939003571903 -0.38826653085441631 0 0.3361364471485222 -0.39739317228102938 0 0.33112375294470853 -0.39035160366152261 0 0.3361364471485222 -0.39739317228102938 0 0.32799803975153868 -0.39689819097488183 0 0.33112375294470853 -0.39035160366152261 0 0.32799803975153868 -0.39689819097488183 0 0.33112375294470853 -0.39035160366152261 0 0.32090058304012958 -0.39910407024328848 0 0.3127353497001697 -0.39503555912460941 0 0.33112375294470853 -0.39035160366152261 0 0.3127353497001697 -0.39503555912460941 0 0.33112375294470853 -0.39035160366152261 0 0.32799803975153868 -0.39689819097488183 0 0.32090058304012958 -0.39910407024328848 0 0.32799803975153868 -0.39689819097488183 0 0.32655979085807191 -0.40439827488945118 0 0.32090058304012958 -0.39910407024328848 0 0.31935716336825121 -0.40682052782204747 0 0.32655979085807191 -0.40439827488945118 0 0.32090058304012958 -0.39910407024328848 0 0.31935716336825121 -0.40682052782204747 0 0.32090058304012958 -0.39910407024328848 0 0.3127353497001697 -0.39503555912460941 0 0.31935716336825121 -0.40682052782204747 0 0.3127353497001697 -0.39503555912460941 0 0.31158644214776188 -0.40906253825837052 0 0.33112375294470853 -0.39035160366152261 0 0.3127353497001697 -0.39503555912460941 0 0.32467599198283043 -0.38138950632941571 0 0.3127353497001697 -0.39503555912460941 0 0.31474964396718819 -0.3772615068392689 0 0.32467599198283043 -0.38138950632941571 0 0.3127353497001697 -0.39503555912460941 0 0.31474964396718819 -0.3772615068392689 0 0.30224840073360881 -0.38505472787516432 0 0.31474964396718819 -0.3772615068392689 0 0.30224840073360881 -0.38505472787516432 0 0.30013637794867171 -0.37073228217573662 0 0.3127353497001697 -0.39503555912460941 0 0.30499476296135369 -0.40435862328179772 0 0.29434694645563092 -0.39971951458769639 0 0.3127353497001697 -0.39503555912460941 0 0.30224840073360881 -0.38505472787516432 0 0.29434694645563092 -0.39971951458769639 0 0.3127353497001697 -0.39503555912460941 0 0.29434694645563092 -0.39971951458769639 0 0.3127353497001697 -0.39503555912460941 0 0.30499476296135369 -0.40435862328179772 0 0.31158644214776188 -0.40906253825837052 0 0.30499476296135369 -0.40435862328179772 0 0.29434694645563092 -0.39971951458769639 0 0.30131031354185228 -0.41361688115651463 0 0.29434694645563092 -0.39971951458769639 0 0.28238047239829811 -0.39935928116365088 0 0.29001611809481798 -0.4155835184240646 0 0.29434694645563092 -0.39971951458769639 0 0.28238047239829811 -0.39935928116365088 0 0.28781563803133658 -0.38618982779898398 0 0.30224840073360881 -0.38505472787516432 0 0.29434694645563092 -0.39971951458769639 0 0.28781563803133658 -0.38618982779898398 0 0.30224840073360881 -0.38505472787516432 0 0.28781563803133658 -0.38618982779898398 0 0.30013637794867171 -0.37073228217573662 0 0.28781563803133658 -0.38618982779898398 0 0.26203870277274582 -0.37934523136326359 0 0.26985945934139821 -0.39337195858285923 0 0.28781563803133658 -0.38618982779898398 0 0.26203870277274582 -0.37934523136326359 0 0.27780594594458519 -0.36669876328692952 0 0.28781563803133658 -0.38618982779898398 0 0.26203870277274582 -0.37934523136326359 0 0.26203870277274582 -0.37934523136326359 0 0.26985945934139821 -0.39337195858285923 0 0.24863835229281159 -0.39568287632597959 0 0.26985945934139821 -0.39337195858285923 0 0.26842413121179892 -0.40628257626241832 0 0.24863835229281159 -0.39568287632597959 0 0.28238047239829811 -0.39935928116365088 0 0.28781563803133658 -0.38618982779898398 0 0.26985945934139821 -0.39337195858285923 0 0.28238047239829811 -0.39935928116365088 0 0.26985945934139821 -0.39337195858285923 0 0.26842413121179892 -0.40628257626241832 0 0.28238047239829811 -0.39935928116365088 0 0.26842413121179892 -0.40628257626241832 0 0.29001611809481798 -0.4155835184240646 0 0.26842413121179892 -0.40628257626241832 0 0.27045541286113212 -0.42336015650499981 0 0.29001611809481798 -0.4155835184240646 0 0.26842413121179892 -0.40628257626241832 0 0.25292401482276122 -0.41759658032181679 0 0.27045541286113212 -0.42336015650499981 0 0.26842413121179892 -0.40628257626241832 0 0.25292401482276122 -0.41759658032181679 0 0.24863835229281159 -0.39568287632597959 0 0.25292401482276122 -0.41759658032181679 0 0.27045541286113212 -0.42336015650499981 0 0.26122874256718243 -0.4383130826805729 0 0.25292401482276122 -0.41759658032181679 0 0.26122874256718243 -0.4383130826805729 0 0.2365895636218279 -0.43770218208003681 0 0.27045541286113212 -0.42336015650499981 0 0.28337832976716459 -0.44331759193571968 0 0.26122874256718243 -0.4383130826805729 0 0.29001611809481798 -0.4155835184240646 0 0.2998636626874589 -0.42752787151269939 0 0.28337832976716459 -0.44331759193571968 0 0.29001611809481798 -0.4155835184240646 0 0.28337832976716459 -0.44331759193571968 0 0.27045541286113212 -0.42336015650499981 0 0.29001611809481798 -0.4155835184240646 0 0.28337832976716459 -0.44331759193571968 0 0.29434694645563092 -0.39971951458769639 0 0.29001611809481798 -0.4155835184240646 0 0.30131031354185228 -0.41361688115651463 0 0.30131031354185228 -0.41361688115651463 0 0.31070867091783749 -0.42029912752249032 0 0.2998636626874589 -0.42752787151269939 0 0.29001611809481798 -0.4155835184240646 0 0.30131031354185228 -0.41361688115651463 0 0.2998636626874589 -0.42752787151269939 0 0.30499476296135369 -0.40435862328179772 0 0.30131031354185228 -0.41361688115651463 0 0.31158644214776188 -0.40906253825837052 0 0.30131031354185228 -0.41361688115651463 0 0.31158644214776188 -0.40906253825837052 0 0.31070867091783749 -0.42029912752249032 0 0.31070867091783749 -0.42029912752249032 0 0.31194092093056142 -0.43271949472030091 0 0.2998636626874589 -0.42752787151269939 0 0.31194092093056142 -0.43271949472030091 0 0.2998636626874589 -0.42752787151269939 0 0.29944687121405211 -0.44231552607316132 0 0.29944687121405211 -0.44231552607316132 0 0.30219651445882062 -0.4533470774792453 0 0.28931332587268249 -0.45485073332354592 0 0.29944687121405211 -0.44231552607316132 0 0.31071351928806712 -0.44330732561311259 0 0.30219651445882062 -0.4533470774792453 0 0.31194092093056142 -0.43271949472030091 0 0.29944687121405211 -0.44231552607316132 0 0.31071351928806712 -0.44330732561311259 0 0.31071351928806712 -0.44330732561311259 0 0.31097112329497589 -0.45296186311069858 0 0.30219651445882062 -0.4533470774792453 0 0.3163341947992806 -0.45858381728256031 0 0.31097112329497589 -0.45296186311069858 0 0.30671636200760732 -0.46284698899374949 0 0.31097112329497589 -0.45296186311069858 0 0.30671636200760732 -0.46284698899374949 0 0.30219651445882062 -0.4533470774792453 0 0.30671636200760732 -0.46284698899374949 0 0.2949158929571426 -0.46654897127240891 0 0.30451321014952698 -0.4731437695221512 0 0.30671636200760732 -0.46284698899374949 0 0.30219651445882062 -0.4533470774792453 0 0.2949158929571426 -0.46654897127240891 0 0.30219651445882062 -0.4533470774792453 0 0.28931332587268249 -0.45485073332354592 0 0.2949158929571426 -0.46654897127240891 0 0.28931332587268249 -0.45485073332354592 0 0.28337832976716459 -0.44331759193571968 0 0.27674054143951032 -0.47105166544737442 0 0.28931332587268249 -0.45485073332354592 0 0.28235208737062351 -0.46874530956905253 0 0.27674054143951032 -0.47105166544737442 0 0.28931332587268249 -0.45485073332354592 0 0.2949158929571426 -0.46654897127240891 0 0.28235208737062351 -0.46874530956905253 0 0.29944687121405211 -0.44231552607316132 0 0.28931332587268249 -0.45485073332354592 0 0.28337832976716459 -0.44331759193571968 0 0.2998636626874589 -0.42752787151269939 0 0.29944687121405211 -0.44231552607316132 0 0.28337832976716459 -0.44331759193571968 0 0.28337832976716459 -0.44331759193571968 0 0.26122874256718243 -0.4383130826805729 0 0.27073526411126447 -0.45495301000527177 0 0.25328987021894461 -0.45294897523559302 0 0.26122874256718243 -0.4383130826805729 0 0.2365895636218279 -0.43770218208003681 0 0.25328987021894461 -0.45294897523559302 0 0.26122874256718243 -0.4383130826805729 0 0.27073526411126447 -0.45495301000527177 0 0.25328987021894461 -0.45294897523559302 0 0.27073526411126447 -0.45495301000527177 0 0.25023987491308308 -0.48194348897924172 0 0.28337832976716459 -0.44331759193571968 0 0.27674054143951032 -0.47105166544737442 0 0.28337832976716459 -0.44331759193571968 0 0.27073526411126447 -0.45495301000527177 0 0.27674054143951032 -0.47105166544737442 0 0.27073526411126447 -0.45495301000527177 0 0.27674054143951032 -0.47105166544737442 0 0.25023987491308308 -0.48194348897924172 0 0.28235208737062351 -0.46874530956905253 0 0.27674054143951032 -0.47105166544737442 0 0.28280929938781513 -0.47989336948864347 0 0.28235208737062351 -0.46874530956905253 0 0.27674054143951032 -0.47105166544737442 0 0.27674054143951032 -0.47105166544737442 0 0.26981213558821487 -0.50000000000000089 0 0.28280929938781513 -0.47989336948864347 0 0.27674054143951032 -0.47105166544737442 0 0.25023987491308308 -0.48194348897924172 0 0.26118909736633872 -0.48992984467080058 0 0.27674054143951032 -0.47105166544737442 0 0.25023987491308308 -0.48194348897924172 0 0.26472228294454481 -0.50000000000000033 0 0.24725991076381679 -0.5 0 0.2444306519463407 -0.49665406892738712 0 0.26472228294454481 -0.50000000000000033 0 0.2444306519463407 -0.49665406892738712 0 0.25023987491308308 -0.48194348897924172 0 0.26118909736633872 -0.48992984467080058 0 0.2444306519463407 -0.49665406892738712 0 0.26118909736633872 -0.48992984467080058 0 0.26472228294454481 -0.50000000000000033 0 0.2444306519463407 -0.49665406892738712 0 0.26118909736633872 -0.48992984467080058 0 0.26472228294454481 -0.50000000000000033 0 0.26981213558821487 -0.50000000000000089 0 0.27674054143951032 -0.47105166544737442 0 0.26981213558821487 -0.50000000000000089 0 0.26981213558821487 -0.50000000000000089 0 0.28686708932535671 -0.48896999775433081 0 0.28280929938781513 -0.47989336948864347 0 0.27674054143951032 -0.47105166544737442 0 0.26118909736633872 -0.48992984467080058 0 0.26981213558821487 -0.50000000000000089 0 0.26981213558821487 -0.50000000000000089 0 0.29047222330245159 -0.5 0 0.28686708932535671 -0.48896999775433081 0 0.29185771680771272 -0.49268299663327719 0 0.29047222330245159 -0.5 0 0.28686708932535671 -0.48896999775433081 0 0.29185771680771272 -0.49268299663327719 0 0.29454788087988742 -0.48449056499709542 0 0.30203434716856892 -0.4861634934091788 0 0.29185771680771272 -0.49268299663327719 0 0.29454788087988742 -0.48449056499709542 0 0.28686708932535671 -0.48896999775433081 0 0.28686708932535671 -0.48896999775433081 0 0.28280929938781513 -0.47989336948864347 0 0.29174402974532138 -0.47890798470386359 0 0.28280929938781513 -0.47989336948864347 0 0.28946167631134362 -0.47300697208673242 0 0.29174402974532138 -0.47890798470386359 0 0.28235208737062351 -0.46874530956905253 0 0.28280929938781513 -0.47989336948864347 0 0.28946167631134362 -0.47300697208673242 0 0.2949158929571426 -0.46654897127240891 0 0.28235208737062351 -0.46874530956905253 0 0.28946167631134362 -0.47300697208673242 0 0.28946167631134362 -0.47300697208673242 0 0.29604788204230559 -0.47412593422169602 0 0.29174402974532138 -0.47890798470386359 0 0.2949158929571426 -0.46654897127240891 0 0.28946167631134362 -0.47300697208673242 0 0.29604788204230559 -0.47412593422169602 0 0.29454788087988742 -0.48449056499709542 0 0.29174402974532138 -0.47890798470386359 0 0.29960460104819348 -0.47902197352332421 0 0.29604788204230559 -0.47412593422169602 0 0.29174402974532138 -0.47890798470386359 0 0.29960460104819348 -0.47902197352332421 0 0.29454788087988742 -0.48449056499709542 0 0.28686708932535671 -0.48896999775433081 0 0.29174402974532138 -0.47890798470386359 0 0.29454788087988742 -0.48449056499709542 0 0.29960460104819348 -0.47902197352332421 0 0.30203434716856892 -0.4861634934091788 0 0.29960460104819348 -0.47902197352332421 0 0.30451321014952698 -0.4731437695221512 0 0.30565118627963211 -0.48061342870654078 0 0.29960460104819348 -0.47902197352332421 0 0.30565118627963211 -0.48061342870654078 0 0.30203434716856892 -0.4861634934091788 0 0.29604788204230559 -0.47412593422169602 0 0.29960460104819348 -0.47902197352332421 0 0.30451321014952698 -0.4731437695221512 0 0.2949158929571426 -0.46654897127240891 0 0.29604788204230559 -0.47412593422169602 0 0.30451321014952698 -0.4731437695221512 0 0.31574955657780218 -0.47087735903723671 0 0.30671636200760732 -0.46284698899374949 0 0.30451321014952698 -0.4731437695221512 0 0.31574955657780218 -0.47087735903723671 0 0.30451321014952698 -0.4731437695221512 0 0.31149193380053619 -0.47919281312432399 0 0.30451321014952698 -0.4731437695221512 0 0.30565118627963211 -0.48061342870654078 0 0.31149193380053619 -0.47919281312432399 0 0.30565118627963211 -0.48061342870654078 0 0.31149193380053619 -0.47919281312432399 0 0.31094942502033651 -0.48690621495658409 0 0.30565118627963211 -0.48061342870654078 0 0.31094942502033651 -0.48690621495658409 0 0.30203434716856892 -0.4861634934091788 0 0.29185771680771272 -0.49268299663327719 0 0.31113231101668831 -0.5 0 0.31182505776931879 -0.49634149831663882 0 0.29185771680771272 -0.49268299663327719 0 0.31182505776931879 -0.49634149831663882 0 0.29185771680771272 -0.49268299663327719 0 0.31182505776931879 -0.49634149831663882 0 0.3041666366914843 -0.4905235508289198 0 0.29185771680771272 -0.49268299663327719 0 0.29047222330245159 -0.5 0 0.31113231101668831 -0.5 0 0.31094942502033651 -0.48690621495658409 0 0.31182505776931879 -0.49634149831663882 0 0.3041666366914843 -0.4905235508289198 0 0.31094942502033651 -0.48690621495658409 0 0.3041666366914843 -0.4905235508289198 0 0.30203434716856892 -0.4861634934091788 0 0.29185771680771272 -0.49268299663327719 0 0.3041666366914843 -0.4905235508289198 0 0.30203434716856892 -0.4861634934091788 0 0.32966201383677562 -0.29243057617118751 0 0.34786770353616142 -0.28836769528406969 0 0.35038228944561489 -0.30417926984586341 0 0.32966201383677562 -0.29243057617118751 0 0.3363827965846341 -0.27053296764427232 0 0.34786770353616142 -0.28836769528406969 0 0.32966201383677562 -0.29243057617118751 0 0.3363827965846341 -0.27053296764427232 0 0.32966201383677562 -0.29243057617118751 0 0.33721098418413009 -0.31222887887023981 0 0.35038228944561489 -0.30417926984586341 0 0.32966201383677562 -0.29243057617118751 0 0.33721098418413009 -0.31222887887023981 0 0.3229412310889172 -0.31432818469810281 0 0.32966201383677562 -0.29243057617118751 0 0.3229412310889172 -0.31432818469810281 0 0.32966201383677562 -0.29243057617118751 0 0.3229412310889172 -0.31432818469810281 0 0.31102472813389148 -0.30398166101151142 0 0.32966201383677562 -0.29243057617118751 0 0.32170760806883658 -0.2794067832334669 0 0.31005663702169051 -0.28787670192791759 0 0.32966201383677562 -0.29243057617118751 0 0.31005663702169051 -0.28787670192791759 0 0.31102472813389148 -0.30398166101151142 0 0.32170760806883658 -0.2794067832334669 0 0.31005663702169051 -0.28787670192791759 0 0.31134056716802588 -0.27684223838082078 0 0.31900232944618051 -0.26710350815015688 0 0.32170760806883658 -0.2794067832334669 0 0.3363827965846341 -0.27053296764427232 0 0.31900232944618051 -0.26710350815015688 0 0.32170760806883658 -0.2794067832334669 0 0.31134056716802588 -0.27684223838082078 0 0.31900232944618051 -0.26710350815015688 0 0.31852702710394631 -0.25367689820505651 0 0.30849503770388609 -0.25968585024770569 0 0.31900232944618051 -0.26710350815015688 0 0.31852702710394631 -0.25367689820505651 0 0.32937226465309932 -0.25722078006796228 0 0.3298455907982431 -0.24615516722296901 0 0.31852702710394631 -0.25367689820505651 0 0.32937226465309932 -0.25722078006796228 0 0.31900232944618051 -0.26710350815015688 0 0.32937226465309932 -0.25722078006796228 0 0.3363827965846341 -0.27053296764427232 0 0.34310357933249258 -0.24863535911735701 0 0.32937226465309932 -0.25722078006796228 0 0.3363827965846341 -0.27053296764427232 0 0.34310357933249258 -0.24863535911735701 0 0.3363827965846341 -0.27053296764427232 0 0.34310357933249258 -0.24863535911735701 0 0.3363827965846341 -0.27053296764427232 0 0.34930430224964237 -0.26121694726853462 0 0.3298455907982431 -0.24615516722296901 0 0.34310357933249258 -0.24863535911735701 0 0.32937226465309932 -0.25722078006796228 0 0.32966201383677562 -0.29243057617118751 0 0.32170760806883658 -0.2794067832334669 0 0.3363827965846341 -0.27053296764427232 0 0.3363827965846341 -0.27053296764427232 0 0.3547166122104678 -0.27573580659035268 0 0.34930430224964237 -0.26121694726853462 0 0.3363827965846341 -0.27053296764427232 0 0.3547166122104678 -0.27573580659035268 0 0.34786770353616142 -0.28836769528406969 0 0.3547166122104678 -0.27573580659035268 0 0.35884222422700401 -0.26018321304578013 0 0.3547166122104678 -0.27573580659035268 0 0.34930430224964237 -0.26121694726853462 0 0.35884222422700401 -0.26018321304578013 0 0.3547166122104678 -0.27573580659035268 0 0.35884222422700401 -0.26018321304578013 0 0.36310220154717132 -0.26963674460228432 0 0.34310357933249258 -0.24863535911735701 0 0.34930430224964237 -0.26121694726853462 0 0.35347629889361332 -0.250997389944911 0 0.36296783624354029 -0.24463061950120751 0 0.35884222422700401 -0.26018321304578013 0 0.35347629889361332 -0.250997389944911 0 0.34930430224964237 -0.26121694726853462 0 0.35884222422700401 -0.26018321304578013 0 0.35347629889361332 -0.250997389944911 0 0.37663482912986412 -0.2658212615920264 0 0.37095131159797418 -0.25215008344978762 0 0.37188304381841758 -0.27515158591148181 0 0.35884222422700401 -0.26018321304578013 0 0.37095131159797418 -0.25215008344978762 0 0.36310220154717132 -0.26963674460228432 0 0.37095131159797418 -0.25215008344978762 0 0.37188304381841758 -0.27515158591148181 0 0.36296783624354029 -0.24463061950120751 0 0.35884222422700401 -0.26018321304578013 0 0.36296783624354029 -0.24463061950120751 0 0.35884222422700401 -0.26018321304578013 0 0.37095131159797418 -0.25215008344978762 0 0.37095131159797418 -0.25215008344978762 0 0.36310220154717132 -0.26963674460228432 0 0.37188304381841758 -0.27515158591148181 0 0.3547166122104678 -0.27573580659035268 0 0.36310220154717132 -0.26963674460228432 0 0.36193515570787038 -0.28620947472344149 0 0.36310220154717132 -0.26963674460228432 0 0.37188304381841758 -0.27515158591148181 0 0.36193515570787038 -0.28620947472344149 0 0.37188304381841758 -0.27515158591148181 0 0.3728147760388606 -0.29815308837317578 0 0.36193515570787038 -0.28620947472344149 0 0.35038228944561489 -0.30417926984586341 0 0.3728147760388606 -0.29815308837317578 0 0.37974876142145497 -0.28635258802490299 0 0.37188304381841758 -0.27515158591148181 0 0.3728147760388606 -0.29815308837317578 0 0.37188304381841758 -0.27515158591148181 0 0.36193515570787038 -0.28620947472344149 0 0.3728147760388606 -0.29815308837317578 0 0.3547166122104678 -0.27573580659035268 0 0.36193515570787038 -0.28620947472344149 0 0.34786770353616142 -0.28836769528406969 0 0.36193515570787038 -0.28620947472344149 0 0.34786770353616142 -0.28836769528406969 0 0.35038228944561489 -0.30417926984586341 0 0.33721098418413009 -0.31222887887023981 0 0.35038228944561489 -0.30417926984586341 0 0.34707291309617311 -0.320620891719271 0 0.3728147760388606 -0.29815308837317578 0 0.37374650825930361 -0.32115459083486991 0 0.35038228944561489 -0.30417926984586341 0 0.3728147760388606 -0.29815308837317578 0 0.36171352038226479 -0.31324485827547988 0 0.3728147760388606 -0.29815308837317578 0 0.36171352038226479 -0.31324485827547988 0 0.37374650825930361 -0.32115459083486991 0 0.36171352038226479 -0.31324485827547988 0 0.36192304680195791 -0.32584464030133281 0 0.37374650825930361 -0.32115459083486991 0 0.36192304680195791 -0.32584464030133281 0 0.37374650825930361 -0.32115459083486991 0 0.37463954807267658 -0.33581164242928252 0 0.36192304680195791 -0.32584464030133281 0 0.37463954807267658 -0.33581164242928252 0 0.36745642971168491 -0.34456344691637641 0 0.36192304680195791 -0.32584464030133281 0 0.36745642971168491 -0.34456344691637641 0 0.35249896156749888 -0.34558272662695733 0 0.37814452130203668 -0.34893766324755421 0 0.37463954807267658 -0.33581164242928252 0 0.36745642971168491 -0.34456344691637641 0 0.34707291309617311 -0.320620891719271 0 0.35249896156749888 -0.34558272662695733 0 0.33687826278073318 -0.33261602095051163 0 0.36192304680195791 -0.32584464030133281 0 0.34707291309617311 -0.320620891719271 0 0.35249896156749888 -0.34558272662695733 0 0.36192304680195791 -0.32584464030133281 0 0.35249896156749888 -0.34558272662695733 0 0.35249896156749888 -0.34558272662695733 0 0.33687826278073318 -0.33261602095051163 0 0.35038228944561489 -0.30417926984586341 0 0.36171352038226479 -0.31324485827547988 0 0.34707291309617311 -0.320620891719271 0 0.36171352038226479 -0.31324485827547988 0 0.36192304680195791 -0.32584464030133281 0 0.34707291309617311 -0.320620891719271 0 0.37561756433113103 -0.36477342492917691 0 0.35249896156749888 -0.34558272662695733 0 0.3583686331716463 -0.36874453544543828 0 0.37561756433113103 -0.36477342492917691 0 0.37421512685727248 -0.3793752250404136 0 0.3583686331716463 -0.36874453544543828 0 0.37814452130203668 -0.34893766324755421 0 0.37561756433113103 -0.36477342492917691 0 0.36745642971168491 -0.34456344691637641 0 0.37561756433113103 -0.36477342492917691 0 0.35249896156749888 -0.34558272662695733 0 0.37561756433113103 -0.36477342492917691 0 0.36745642971168491 -0.34456344691637641 0 0.35249896156749888 -0.34558272662695733 0 0.35249896156749888 -0.34558272662695733 0 0.34404188287493082 -0.36329548549357749 0 0.33550922088314139 -0.34887861524814301 0 0.35249896156749888 -0.34558272662695733 0 0.34404188287493082 -0.36329548549357749 0 0.3583686331716463 -0.36874453544543828 0 0.35249896156749888 -0.34558272662695733 0 0.34404188287493082 -0.36329548549357749 0 0.34681339374223108 -0.37702713482020922 0 0.34404188287493082 -0.36329548549357749 0 0.3583686331716463 -0.36874453544543828 0 0.33558480418236381 -0.38100824436019842 0 0.32541926390047582 -0.36119814824763841 0 0.34681339374223108 -0.37702713482020922 0 0.33558480418236381 -0.38100824436019842 0 0.34404188287493082 -0.36329548549357749 0 0.33558480418236381 -0.38100824436019842 0 0.34404188287493082 -0.36329548549357749 0 0.33558480418236381 -0.38100824436019842 0 0.32467599198283043 -0.38138950632941571 0 0.32541926390047582 -0.36119814824763841 0 0.33558480418236381 -0.38100824436019842 0 0.34404188287493082 -0.36329548549357749 0 0.32541926390047582 -0.36119814824763841 0 0.34404188287493082 -0.36329548549357749 0 0.33550922088314139 -0.34887861524814301 0 0.32541926390047582 -0.36119814824763841 0 0.33550922088314139 -0.34887861524814301 0 0.32541926390047582 -0.36119814824763841 0 0.31525372361858789 -0.34138805213507839 0 0.32541926390047582 -0.36119814824763841 0 0.31525372361858789 -0.34138805213507839 0 0.30701705875096857 -0.35491896866508921 0 0.32541926390047582 -0.36119814824763841 0 0.31525372361858789 -0.34138805213507839 0 0.31474964396718819 -0.3772615068392689 0 0.32467599198283043 -0.38138950632941571 0 0.32541926390047582 -0.36119814824763841 0 0.32541926390047582 -0.36119814824763841 0 0.31183058614182613 -0.36602772648193332 0 0.30701705875096857 -0.35491896866508921 0 0.31474964396718819 -0.3772615068392689 0 0.32541926390047582 -0.36119814824763841 0 0.31183058614182613 -0.36602772648193332 0 0.33721098418413009 -0.31222887887023981 0 0.33687826278073318 -0.33261602095051163 0 0.3229412310889172 -0.31432818469810281 0 0.33721098418413009 -0.31222887887023981 0 0.34707291309617311 -0.320620891719271 0 0.33687826278073318 -0.33261602095051163 0 0.33550922088314139 -0.34887861524814301 0 0.33687826278073318 -0.33261602095051163 0 0.31525372361858789 -0.34138805213507839 0 0.35249896156749888 -0.34558272662695733 0 0.33550922088314139 -0.34887861524814301 0 0.33687826278073318 -0.33261602095051163 0 0.32206779211077602 -0.32853317162405449 0 0.31525372361858789 -0.34138805213507839 0 0.30508818333670001 -0.32157795602251837 0 0.33687826278073318 -0.33261602095051163 0 0.32206779211077602 -0.32853317162405449 0 0.31525372361858789 -0.34138805213507839 0 0.3229412310889172 -0.31432818469810281 0 0.30508818333670001 -0.32157795602251837 0 0.31102472813389148 -0.30398166101151142 0 0.33687826278073318 -0.33261602095051163 0 0.32206779211077602 -0.32853317162405449 0 0.3229412310889172 -0.31432818469810281 0 0.32206779211077602 -0.32853317162405449 0 0.3229412310889172 -0.31432818469810281 0 0.30508818333670001 -0.32157795602251837 0 0.31525372361858789 -0.34138805213507839 0 0.30508818333670001 -0.32157795602251837 0 0.31525372361858789 -0.34138805213507839 0 0.30508818333670001 -0.32157795602251837 0 0.29965436593333578 -0.33790124584029918 0 0.30508818333670001 -0.32157795602251837 0 0.29965436593333578 -0.33790124584029918 0 0.28392283604202329 -0.33203893976644278 0 0.29965436593333578 -0.33790124584029918 0 0.28392283604202329 -0.33203893976644278 0 0.28893023198721401 -0.35310244970804999 0 0.30508818333670001 -0.32157795602251837 0 0.28620271513769219 -0.31454562812183429 0 0.29891947207127562 -0.30910298327709468 0 0.30508818333670001 -0.32157795602251837 0 0.28392283604202329 -0.33203893976644278 0 0.28620271513769219 -0.31454562812183429 0 0.30013637794867171 -0.37073228217573662 0 0.30701705875096857 -0.35491896866508921 0 0.28893023198721401 -0.35310244970804999 0 0.30013637794867171 -0.37073228217573662 0 0.31183058614182613 -0.36602772648193332 0 0.30701705875096857 -0.35491896866508921 0 0.31474964396718819 -0.3772615068392689 0 0.30013637794867171 -0.37073228217573662 0 0.31183058614182613 -0.36602772648193332 0 0.29965436593333578 -0.33790124584029918 0 0.30701705875096857 -0.35491896866508921 0 0.28893023198721401 -0.35310244970804999 0 0.31525372361858789 -0.34138805213507839 0 0.29965436593333578 -0.33790124584029918 0 0.30701705875096857 -0.35491896866508921 0 0.28781563803133658 -0.38618982779898398 0 0.30013637794867171 -0.37073228217573662 0 0.27780594594458519 -0.36669876328692952 0 0.30013637794867171 -0.37073228217573662 0 0.28893023198721401 -0.35310244970804999 0 0.27780594594458519 -0.36669876328692952 0 0.26203870277274582 -0.37934523136326359 0 0.27780594594458519 -0.36669876328692952 0 0.25773743381932501 -0.36254186934301419 0 0.28893023198721401 -0.35310244970804999 0 0.27780594594458519 -0.36669876328692952 0 0.27040603974096827 -0.34687334150667293 0 0.28392283604202329 -0.33203893976644278 0 0.28893023198721401 -0.35310244970804999 0 0.27040603974096827 -0.34687334150667293 0 0.27780594594458519 -0.36669876328692952 0 0.27040603974096827 -0.34687334150667293 0 0.25773743381932501 -0.36254186934301419 0 0.27040603974096827 -0.34687334150667293 0 0.25162197908875961 -0.34456270195990157 0 0.25773743381932501 -0.36254186934301419 0 0.26203870277274582 -0.37934523136326359 0 0.25773743381932501 -0.36254186934301419 0 0.23626176751415501 -0.37250063492754321 0 0.28392283604202329 -0.33203893976644278 0 0.28620271513769219 -0.31454562812183429 0 0.26241781156390342 -0.32229532497569918 0 0.28392283604202329 -0.33203893976644278 0 0.27040603974096827 -0.34687334150667293 0 0.26241781156390342 -0.32229532497569918 0 0.27040603974096827 -0.34687334150667293 0 0.25162197908875961 -0.34456270195990157 0 0.26241781156390342 -0.32229532497569918 0 0.25162197908875961 -0.34456270195990157 0 0.26241781156390342 -0.32229532497569918 0 0.25162197908875961 -0.34456270195990157 0 0.26241781156390342 -0.32229532497569918 0 0.240261122555846 -0.32774950805267211 0 0.26241781156390342 -0.32229532497569918 0 0.24797784063920411 -0.30339675165726998 0 0.240261122555846 -0.32774950805267211 0 0.26241781156390342 -0.32229532497569918 0 0.27321364403904719 -0.30002794799149679 0 0.24797784063920411 -0.30339675165726998 0 0.25906316608217139 -0.28281659713112112 0 0.27321364403904719 -0.30002794799149679 0 0.24797784063920411 -0.30339675165726998 0 0.25906316608217139 -0.28281659713112112 0 0.24559882288735391 -0.2867123037079129 0 0.24797784063920411 -0.30339675165726998 0 0.27321364403904719 -0.30002794799149679 0 0.28400947651419112 -0.2777605710072944 0 0.27321364403904719 -0.30002794799149679 0 0.28561019985435748 -0.29169368677296392 0 0.28400947651419112 -0.2777605710072944 0 0.27321364403904719 -0.30002794799149679 0 0.28400947651419112 -0.2777605710072944 0 0.28114931365624363 -0.27987232978876031 0 0.25906316608217139 -0.28281659713112112 0 0.27321364403904719 -0.30002794799149679 0 0.28114931365624363 -0.27987232978876031 0 0.26241781156390342 -0.32229532497569918 0 0.27321364403904719 -0.30002794799149679 0 0.28620271513769219 -0.31454562812183429 0 0.26241781156390342 -0.32229532497569918 0 0.27321364403904719 -0.30002794799149679 0 0.28620271513769219 -0.31454562812183429 0 0.27321364403904719 -0.30002794799149679 0 0.28841684325241362 -0.30257074330415862 0 0.28620271513769219 -0.31454562812183429 0 0.28841684325241362 -0.30257074330415862 0 0.29891947207127562 -0.30910298327709468 0 0.28841684325241362 -0.30257074330415862 0 0.29891947207127562 -0.30910298327709468 0 0.29813818515969548 -0.29748347035740319 0 0.28841684325241362 -0.30257074330415862 0 0.28561019985435748 -0.29169368677296392 0 0.29813818515969548 -0.29748347035740319 0 0.27321364403904719 -0.30002794799149679 0 0.28841684325241362 -0.30257074330415862 0 0.28561019985435748 -0.29169368677296392 0 0.28561019985435748 -0.29169368677296392 0 0.28961411174658591 -0.28219347827741648 0 0.28400947651419112 -0.2777605710072944 0 0.2959423922711239 -0.28607661812384322 0 0.28961411174658591 -0.28219347827741648 0 0.29364805036664282 -0.27724470730639372 0 0.28561019985435748 -0.29169368677296392 0 0.2959423922711239 -0.28607661812384322 0 0.28961411174658591 -0.28219347827741648 0 0.28561019985435748 -0.29169368677296392 0 0.2959423922711239 -0.28607661812384322 0 0.29813818515969548 -0.29748347035740319 0 0.2959423922711239 -0.28607661812384322 0 0.31005663702169051 -0.28787670192791759 0 0.29813818515969548 -0.29748347035740319 0 0.31005663702169051 -0.28787670192791759 0 0.31102472813389148 -0.30398166101151142 0 0.29813818515969548 -0.29748347035740319 0 0.2959423922711239 -0.28607661812384322 0 0.31005663702169051 -0.28787670192791759 0 0.30209065597562079 -0.27783596679350259 0 0.30508818333670001 -0.32157795602251837 0 0.31102472813389148 -0.30398166101151142 0 0.29891947207127562 -0.30910298327709468 0 0.31102472813389148 -0.30398166101151142 0 0.29891947207127562 -0.30910298327709468 0 0.29813818515969548 -0.29748347035740319 0 0.30165905139084181 -0.26213853748403942 0 0.29679504937069651 -0.26967280739794741 0 0.29480530898933488 -0.25549319402309201 0 0.30165905139084181 -0.26213853748403942 0 0.30255746889663709 -0.25631915810270989 0 0.30849503770388609 -0.25968585024770569 0 0.30165905139084181 -0.26213853748403942 0 0.30255746889663709 -0.25631915810270989 0 0.29480530898933488 -0.25549319402309201 0 0.30635858180106529 -0.24734379049848129 0 0.30255746889663709 -0.25631915810270989 0 0.29480530898933488 -0.25549319402309201 0 0.30635858180106529 -0.24734379049848129 0 0.30255746889663709 -0.25631915810270989 0 0.30849503770388609 -0.25968585024770569 0 0.30635858180106529 -0.24734379049848129 0 0.31852702710394631 -0.25367689820505651 0 0.30849503770388609 -0.25968585024770569 0 0.30165905139084181 -0.26213853748403942 0 0.30849503770388609 -0.25968585024770569 0 0.30632245718026663 -0.26913714005029138 0 0.31900232944618051 -0.26710350815015688 0 0.30849503770388609 -0.25968585024770569 0 0.30632245718026663 -0.26913714005029138 0 0.31900232944618051 -0.26710350815015688 0 0.30632245718026663 -0.26913714005029138 0 0.31134056716802588 -0.27684223838082078 0 0.30632245718026663 -0.26913714005029138 0 0.31134056716802588 -0.27684223838082078 0 0.30209065597562079 -0.27783596679350259 0 0.31005663702169051 -0.28787670192791759 0 0.31134056716802588 -0.27684223838082078 0 0.30209065597562079 -0.27783596679350259 0 0.2959423922711239 -0.28607661812384322 0 0.30209065597562079 -0.27783596679350259 0 0.29364805036664282 -0.27724470730639372 0 0.30209065597562079 -0.27783596679350259 0 0.29679504937069651 -0.26967280739794741 0 0.29364805036664282 -0.27724470730639372 0 0.30165905139084181 -0.26213853748403942 0 0.30632245718026663 -0.26913714005029138 0 0.29679504937069651 -0.26967280739794741 0 0.30632245718026663 -0.26913714005029138 0 0.30209065597562079 -0.27783596679350259 0 0.29679504937069651 -0.26967280739794741 0 0.2917041120500799 -0.27146617941005979 0 0.28400947651419112 -0.2777605710072944 0 0.29480530898933488 -0.25549319402309201 0 0.28400947651419112 -0.2777605710072944 0 0.28353053914662812 -0.26533034424548069 0 0.29480530898933488 -0.25549319402309201 0 0.28400947651419112 -0.2777605710072944 0 0.29480530898933488 -0.25549319402309201 0 0.29679504937069651 -0.26967280739794741 0 0.2917041120500799 -0.27146617941005979 0 0.29364805036664282 -0.27724470730639372 0 0.2917041120500799 -0.27146617941005979 0 0.29364805036664282 -0.27724470730639372 0 0.28926267500953412 -0.27715961731557193 0 0.28961411174658591 -0.28219347827741648 0 0.29364805036664282 -0.27724470730639372 0 0.28926267500953412 -0.27715961731557193 0 0.28400947651419112 -0.2777605710072944 0 0.28114931365624363 -0.27987232978876031 0 0.2792161107956686 -0.27148545574389282 0 0.28961411174658591 -0.28219347827741648 0 0.28926267500953412 -0.27715961731557193 0 0.28400947651419112 -0.2777605710072944 0 0.2917041120500799 -0.27146617941005979 0 0.28926267500953412 -0.27715961731557193 0 0.28400947651419112 -0.2777605710072944 0 0.28400947651419112 -0.2777605710072944 0 0.28353053914662812 -0.26533034424548069 0 0.2792161107956686 -0.27148545574389282 0 0.28438253127483593 -0.25961713735755149 0 0.28353053914662812 -0.26533034424548069 0 0.29480530898933488 -0.25549319402309201 0 0.29679504937069651 -0.26967280739794741 0 0.2917041120500799 -0.27146617941005979 0 0.29480530898933488 -0.25549319402309201 0 0.28438253127483593 -0.25961713735755149 0 0.29480530898933488 -0.25549319402309201 0 0.28826513947595322 -0.25029027606684112 0 0.28438253127483593 -0.25961713735755149 0 0.28826513947595322 -0.25029027606684112 0 0.27092913748742747 -0.26735473509479241 0 0.27048401466852201 -0.24915087490231269 0 0.27092913748742747 -0.26735473509479241 0 0.25813887505379007 -0.26055424525756882 0 0.27048401466852201 -0.24915087490231269 0 0.28826513947595322 -0.25029027606684112 0 0.27092913748742747 -0.26735473509479241 0 0.28826513947595322 -0.25029027606684112 0 0.27092913748742747 -0.26735473509479241 0 0.28438253127483593 -0.25961713735755149 0 0.28353053914662812 -0.26533034424548069 0 0.27092913748742747 -0.26735473509479241 0 0.28114931365624363 -0.27987232978876031 0 0.27092913748742747 -0.26735473509479241 0 0.25813887505379007 -0.26055424525756882 0 0.25906316608217139 -0.28281659713112112 0 0.28114931365624363 -0.27987232978876031 0 0.25813887505379007 -0.26055424525756882 0 0.28114931365624363 -0.27987232978876031 0 0.25813887505379007 -0.26055424525756882 0 0.28114931365624363 -0.27987232978876031 0 0.2792161107956686 -0.27148545574389282 0 0.27092913748742747 -0.26735473509479241 0 0.28353053914662812 -0.26533034424548069 0 0.2792161107956686 -0.27148545574389282 0 0.27092913748742747 -0.26735473509479241 0 0.25906316608217139 -0.28281659713112112 0 0.25813887505379007 -0.26055424525756882 0 0.24285141878178701 -0.27290047073129031 0 0.27048401466852201 -0.24915087490231269 0 0.25616369049222548 -0.24239128145182301 0 0.25813887505379007 -0.26055424525756882 0 0.25813887505379007 -0.26055424525756882 0 0.2351284364513366 -0.24123616072637741 0 0.25813887505379007 -0.26055424525756882 0 0.235190605724831 -0.2596087940879972 0 0.2351284364513366 -0.24123616072637741 0 0.25813887505379007 -0.26055424525756882 0 0.235190605724831 -0.2596087940879972 0 0.24285141878178701 -0.27290047073129031 0 0.235190605724831 -0.2596087940879972 0 0.24285141878178701 -0.27290047073129031 0 0.22573690393765261 -0.27214020857707322 0 0.25906316608217139 -0.28281659713112112 0 0.24285141878178701 -0.27290047073129031 0 0.24559882288735391 -0.2867123037079129 0 0.24285141878178701 -0.27290047073129031 0 0.22573690393765261 -0.27214020857707322 0 0.23250286604625309 -0.28773539531197029 0 0.235190605724831 -0.2596087940879972 0 0.22573690393765261 -0.27214020857707322 0 0.21409739439958861 -0.2512128851476762 0 0.235190605724831 -0.2596087940879972 0 0.21409739439958861 -0.2512128851476762 0 0.2351284364513366 -0.24123616072637741 0 0.21409739439958861 -0.2512128851476762 0 0.20859434069330171 -0.27362247050502031 0 0.19255650290014989 -0.25917299242076808 0 0.22573690393765261 -0.27214020857707322 0 0.20859434069330171 -0.27362247050502031 0 0.21904043885872879 -0.28527355315406588 0 0.22573690393765261 -0.27214020857707322 0 0.21409739439958861 -0.2512128851476762 0 0.20859434069330171 -0.27362247050502031 0 0.20859434069330171 -0.27362247050502031 0 0.19404106983888911 -0.27959432261325828 0 0.19255650290014989 -0.25917299242076808 0 0.19404106983888911 -0.27959432261325828 0 0.19255650290014989 -0.25917299242076808 0 0.18245146977218371 -0.27092223820313899 0 0.19655972618181461 -0.31372358460843008 0 0.18088693648669019 -0.31648300148122133 0 0.1860132570414415 -0.3040288519923639 0 0.1979655557202199 -0.30284914749064812 0 0.19373814399293121 -0.29467876844174912 0 0.20577905454288459 -0.29331380472152208 0 0.1979655557202199 -0.30284914749064812 0 0.20773759684202739 -0.30850072768917502 0 0.19655972618181461 -0.31372358460843008 0 0.1979655557202199 -0.30284914749064812 0 0.19655972618181461 -0.31372358460843008 0 0.1860132570414415 -0.3040288519923639 0 0.1979655557202199 -0.30284914749064812 0 0.19373814399293121 -0.29467876844174912 0 0.1860132570414415 -0.3040288519923639 0 0.19373814399293121 -0.29467876844174912 0 0.1847626019094574 -0.28978207944510659 0 0.1860132570414415 -0.3040288519923639 0 0.20859434069330171 -0.27362247050502031 0 0.19404106983888911 -0.27959432261325828 0 0.20577905454288459 -0.29331380472152208 0 0.19404106983888911 -0.27959432261325828 0 0.19373814399293121 -0.29467876844174912 0 0.1847626019094574 -0.28978207944510659 0 0.19404106983888911 -0.27959432261325828 0 0.19373814399293121 -0.29467876844174912 0 0.20577905454288459 -0.29331380472152208 0 0.20859434069330171 -0.27362247050502031 0 0.20577905454288459 -0.29331380472152208 0 0.21904043885872879 -0.28527355315406588 0 0.20577905454288459 -0.29331380472152208 0 0.22258902907355221 -0.29955588665474392 0 0.21904043885872879 -0.28527355315406588 0 0.20577905454288459 -0.29331380472152208 0 0.20773759684202739 -0.30850072768917502 0 0.22258902907355221 -0.29955588665474392 0 0.20773759684202739 -0.30850072768917502 0 0.22258902907355221 -0.29955588665474392 0 0.22408979919404631 -0.31600342329868408 0 0.1979655557202199 -0.30284914749064812 0 0.20577905454288459 -0.29331380472152208 0 0.20773759684202739 -0.30850072768917502 0 0.22258902907355221 -0.29955588665474392 0 0.23250286604625309 -0.28773539531197029 0 0.24797784063920411 -0.30339675165726998 0 0.22258902907355221 -0.29955588665474392 0 0.24797784063920411 -0.30339675165726998 0 0.22408979919404631 -0.31600342329868408 0 0.22573690393765261 -0.27214020857707322 0 0.21904043885872879 -0.28527355315406588 0 0.23250286604625309 -0.28773539531197029 0 0.22258902907355221 -0.29955588665474392 0 0.21904043885872879 -0.28527355315406588 0 0.23250286604625309 -0.28773539531197029 0 0.23250286604625309 -0.28773539531197029 0 0.24559882288735391 -0.2867123037079129 0 0.24797784063920411 -0.30339675165726998 0 0.24285141878178701 -0.27290047073129031 0 0.23250286604625309 -0.28773539531197029 0 0.24559882288735391 -0.2867123037079129 0 0.24797784063920411 -0.30339675165726998 0 0.240261122555846 -0.32774950805267211 0 0.22408979919404631 -0.31600342329868408 0 0.25162197908875961 -0.34456270195990157 0 0.240261122555846 -0.32774950805267211 0 0.23250712528574599 -0.34841047902555711 0 0.240261122555846 -0.32774950805267211 0 0.2260337159469511 -0.33161062477125358 0 0.23250712528574599 -0.34841047902555711 0 0.2260337159469511 -0.33161062477125358 0 0.23250712528574599 -0.34841047902555711 0 0.20727681675216619 -0.33427908870810108 0 0.23250712528574599 -0.34841047902555711 0 0.20727681675216619 -0.33427908870810108 0 0.2260337159469511 -0.33161062477125358 0 0.22408979919404631 -0.31600342329868408 0 0.20727681675216619 -0.33427908870810108 0 0.240261122555846 -0.32774950805267211 0 0.2260337159469511 -0.33161062477125358 0 0.22408979919404631 -0.31600342329868408 0 0.25773743381932501 -0.36254186934301419 0 0.23626176751415501 -0.37250063492754321 0 0.23250712528574599 -0.34841047902555711 0 0.25773743381932501 -0.36254186934301419 0 0.23250712528574599 -0.34841047902555711 0 0.25162197908875961 -0.34456270195990157 0 0.25773743381932501 -0.36254186934301419 0 0.23250712528574599 -0.34841047902555711 0 0.23250712528574599 -0.34841047902555711 0 0.21048483225556419 -0.36565603849182282 0 0.21543787670147921 -0.34929716302719999 0 0.23626176751415501 -0.37250063492754321 0 0.23250712528574599 -0.34841047902555711 0 0.21048483225556419 -0.36565603849182282 0 0.23626176751415501 -0.37250063492754321 0 0.21048483225556419 -0.36565603849182282 0 0.23250712528574599 -0.34841047902555711 0 0.21543787670147921 -0.34929716302719999 0 0.20727681675216619 -0.33427908870810108 0 0.21048483225556419 -0.36565603849182282 0 0.21543787670147921 -0.34929716302719999 0 0.19599235687456951 -0.34654526538210112 0 0.21048483225556419 -0.36565603849182282 0 0.19599235687456951 -0.34654526538210112 0 0.18470789699697349 -0.35881144205610183 0 0.19599235687456951 -0.34654526538210112 0 0.18470789699697349 -0.35881144205610183 0 0.21048483225556419 -0.36565603849182282 0 0.19254439771955439 -0.37268667114858472 0 0.18470789699697349 -0.35881144205610183 0 0.21048483225556419 -0.36565603849182282 0 0.19254439771955439 -0.37268667114858472 0 0.20286746917010379 -0.38028884502310001 0 0.21048483225556419 -0.36565603849182282 0 0.18470789699697349 -0.35881144205610183 0 0.22408979919404631 -0.31600342329868408 0 0.20727681675216619 -0.33427908870810108 0 0.20773759684202739 -0.30850072768917502 0 0.22408979919404631 -0.31600342329868408 0 0.20515034026455589 -0.31943167910274312 0 0.22408979919404631 -0.31600342329868408 0 0.20515034026455589 -0.31943167910274312 0 0.20727681675216619 -0.33427908870810108 0 0.20773759684202739 -0.30850072768917502 0 0.20515034026455589 -0.31943167910274312 0 0.19655972618181461 -0.31372358460843008 0 0.21543787670147921 -0.34929716302719999 0 0.19599235687456951 -0.34654526538210112 0 0.20727681675216619 -0.33427908870810108 0 0.19599235687456951 -0.34654526538210112 0 0.20727681675216619 -0.33427908870810108 0 0.18999667881308829 -0.33691358472722888 0 0.19599235687456951 -0.34654526538210112 0 0.18999667881308829 -0.33691358472722888 0 0.17760021125242501 -0.34658229278027303 0 0.20727681675216619 -0.33427908870810108 0 0.19008776235272501 -0.32465157120932531 0 0.20727681675216619 -0.33427908870810108 0 0.18999667881308829 -0.33691358472722888 0 0.19008776235272501 -0.32465157120932531 0 0.19599235687456951 -0.34654526538210112 0 0.20727681675216619 -0.33427908870810108 0 0.19008776235272501 -0.32465157120932531 0 0.19655972618181461 -0.31372358460843008 0 0.179026246833556 -0.33250970555634413 0 0.20515034026455589 -0.31943167910274312 0 0.20727681675216619 -0.33427908870810108 0 0.19008776235272501 -0.32465157120932531 0 0.19655972618181461 -0.31372358460843008 0 0.179026246833556 -0.33250970555634413 0 0.20515034026455589 -0.31943167910274312 0 0.19008776235272501 -0.32465157120932531 0 0.19655972618181461 -0.31372358460843008 0 0.19655972618181461 -0.31372358460843008 0 0.18088693648669019 -0.31648300148122133 0 0.179026246833556 -0.33250970555634413 0 0.18088693648669019 -0.31648300148122133 0 0.179026246833556 -0.33250970555634413 0 0.17031203928910049 -0.32199038121610962 0 0.18088693648669019 -0.31648300148122133 0 0.17031203928910049 -0.32199038121610962 0 0.17241589940530549 -0.30982727698434881 0 0.18999667881308829 -0.33691358472722888 0 0.19008776235272501 -0.32465157120932531 0 0.179026246833556 -0.33250970555634413 0 0.179026246833556 -0.33250970555634413 0 0.17760021125242501 -0.34658229278027303 0 0.16149276748529739 -0.35129582650425822 0 0.18999667881308829 -0.33691358472722888 0 0.179026246833556 -0.33250970555634413 0 0.17760021125242501 -0.34658229278027303 0 0.179026246833556 -0.33250970555634413 0 0.16149276748529739 -0.35129582650425822 0 0.179026246833556 -0.33250970555634413 0 0.16003888506347269 -0.34007108301582167 0 0.16284038458316541 -0.32960598242851807 0 0.179026246833556 -0.33250970555634413 0 0.16003888506347269 -0.34007108301582167 0 0.16149276748529739 -0.35129582650425822 0 0.16003888506347269 -0.34007108301582167 0 0.16284038458316541 -0.32960598242851807 0 0.14932995409888841 -0.33236384668207392 0 0.16284038458316541 -0.32960598242851807 0 0.1569194462489753 -0.31740352709106923 0 0.17031203928910049 -0.32199038121610962 0 0.16284038458316541 -0.32960598242851807 0 0.1569194462489753 -0.31740352709106923 0 0.14932995409888841 -0.33236384668207392 0 0.179026246833556 -0.33250970555634413 0 0.16284038458316541 -0.32960598242851807 0 0.17031203928910049 -0.32199038121610962 0 0.1569194462489753 -0.31740352709106923 0 0.17031203928910049 -0.32199038121610962 0 0.17241589940530549 -0.30982727698434881 0 0.1739111704475553 -0.37054745395144528 0 0.18470789699697349 -0.35881144205610183 0 0.16899037279376741 -0.36221490042657289 0 0.19254439771955439 -0.37268667114858472 0 0.1739111704475553 -0.37054745395144528 0 0.18470789699697349 -0.35881144205610183 0 0.1739111704475553 -0.37054745395144528 0 0.18470789699697349 -0.35881144205610183 0 0.18470789699697349 -0.35881144205610183 0 0.17760021125242501 -0.34658229278027303 0 0.1653620869165548 -0.3536745139692607 0 0.18470789699697349 -0.35881144205610183 0 0.1653620869165548 -0.3536745139692607 0 0.16899037279376741 -0.36221490042657289 0 0.18470789699697349 -0.35881144205610183 0 0.1653620869165548 -0.3536745139692607 0 0.19599235687456951 -0.34654526538210112 0 0.18470789699697349 -0.35881144205610183 0 0.17760021125242501 -0.34658229278027303 0 0.17760021125242501 -0.34658229278027303 0 0.16149276748529739 -0.35129582650425822 0 0.1653620869165548 -0.3536745139692607 0 0.16003888506347269 -0.34007108301582167 0 0.15686057787746929 -0.35087950349428437 0 0.16149276748529739 -0.35129582650425822 0 0.16149276748529739 -0.35129582650425822 0 0.16240679361777899 -0.35784841990695598 0 0.1653620869165548 -0.3536745139692607 0 0.16149276748529739 -0.35129582650425822 0 0.16240679361777899 -0.35784841990695598 0 0.15733284609643219 -0.36239899096350447 0 0.16482063582229189 -0.35922297726030411 0 0.1653620869165548 -0.3536745139692607 0 0.16899037279376741 -0.36221490042657289 0 0.16240679361777899 -0.35784841990695598 0 0.16482063582229189 -0.35922297726030411 0 0.1653620869165548 -0.3536745139692607 0 0.1739111704475553 -0.37054745395144528 0 0.16899037279376741 -0.36221490042657289 0 0.16211481481091011 -0.36838322448487348 0 0.16899037279376741 -0.36221490042657289 0 0.162958863294759 -0.36233952321700919 0 0.16211481481091011 -0.36838322448487348 0 0.16482063582229189 -0.35922297726030411 0 0.16899037279376741 -0.36221490042657289 0 0.162958863294759 -0.36233952321700919 0 0.16240679361777899 -0.35784841990695598 0 0.162958863294759 -0.36233952321700919 0 0.15733284609643219 -0.36239899096350447 0 0.16240679361777899 -0.35784841990695598 0 0.16482063582229189 -0.35922297726030411 0 0.162958863294759 -0.36233952321700919 0 0.15733284609643219 -0.36239899096350447 0 0.16211481481091011 -0.36838322448487348 0 0.1540054177171836 -0.37018878415580458 0 0.162958863294759 -0.36233952321700919 0 0.15733284609643219 -0.36239899096350447 0 0.16211481481091011 -0.36838322448487348 0 0.16211481481091011 -0.36838322448487348 0 0.1571954814538539 -0.37425505852090252 0 0.1540054177171836 -0.37018878415580458 0 0.16211481481091011 -0.36838322448487348 0 0.1571954814538539 -0.37425505852090252 0 0.16336975620121971 -0.37558279337619033 0 0.1739111704475553 -0.37054745395144528 0 0.16211481481091011 -0.36838322448487348 0 0.16336975620121971 -0.37558279337619033 0 0.16149276748529739 -0.35129582650425822 0 0.14395928813703879 -0.37008194745217221 0 0.14786323092275541 -0.35865027471339989 0 0.16149276748529739 -0.35129582650425822 0 0.14395928813703879 -0.37008194745217221 0 0.16149276748529739 -0.35129582650425822 0 0.15733284609643219 -0.36239899096350447 0 0.14395928813703879 -0.37008194745217221 0 0.14395928813703879 -0.37008194745217221 0 0.15046026387980799 -0.37445702382735102 0 0.13648674594455029 -0.37605160698701989 0 0.15733284609643219 -0.36239899096350447 0 0.14395928813703879 -0.37008194745217221 0 0.1540054177171836 -0.37018878415580458 0 0.14395928813703879 -0.37008194745217221 0 0.15046026387980799 -0.37445702382735102 0 0.1540054177171836 -0.37018878415580458 0 0.1571954814538539 -0.37425505852090252 0 0.15046026387980799 -0.37445702382735102 0 0.1540054177171836 -0.37018878415580458 0 0.14395928813703879 -0.37008194745217221 0 0.1409037209359679 -0.36341664485306002 0 0.14786323092275541 -0.35865027471339989 0 0.1409037209359679 -0.36341664485306002 0 0.14786323092275541 -0.35865027471339989 0 0.13535096016681769 -0.35792614103037468 0 0.15686057787746929 -0.35087950349428437 0 0.14786323092275541 -0.35865027471339989 0 0.13535096016681769 -0.35792614103037468 0 0.15686057787746929 -0.35087950349428437 0 0.13535096016681769 -0.35792614103037468 0 0.15686057787746929 -0.35087950349428437 0 0.14715010279016219 -0.34464232996706567 0 0.13535096016681769 -0.35792614103037468 0 0.15686057787746929 -0.35087950349428437 0 0.16149276748529739 -0.35129582650425822 0 0.14786323092275541 -0.35865027471339989 0 0.16003888506347269 -0.34007108301582167 0 0.15686057787746929 -0.35087950349428437 0 0.14715010279016219 -0.34464232996706567 0 0.14715010279016219 -0.34464232996706567 0 0.13535096016681769 -0.35792614103037468 0 0.13417013674416289 -0.3419710756127739 0 0.13535096016681769 -0.35792614103037468 0 0.13417013674416289 -0.3419710756127739 0 0.1213406798831813 -0.35225630791038748 0 0.12660214350457949 -0.36757268168728208 0 0.13648674594455029 -0.37605160698701989 0 0.1123191057426866 -0.370395491953185 0 0.13535096016681769 -0.35792614103037468 0 0.12660214350457949 -0.36757268168728208 0 0.1138413424561661 -0.36497277856646487 0 0.1409037209359679 -0.36341664485306002 0 0.13535096016681769 -0.35792614103037468 0 0.13644140451725961 -0.36700821621629331 0 0.14395928813703879 -0.37008194745217221 0 0.1409037209359679 -0.36341664485306002 0 0.13644140451725961 -0.36700821621629331 0 0.13535096016681769 -0.35792614103037468 0 0.13644140451725961 -0.36700821621629331 0 0.12660214350457949 -0.36757268168728208 0 0.14395928813703879 -0.37008194745217221 0 0.13644140451725961 -0.36700821621629331 0 0.13648674594455029 -0.37605160698701989 0 0.13644140451725961 -0.36700821621629331 0 0.12660214350457949 -0.36757268168728208 0 0.13648674594455029 -0.37605160698701989 0 0.1569194462489753 -0.31740352709106923 0 0.13578420053311571 -0.32381962349363841 0 0.1452573795736504 -0.30346108258865578 0 0.1569194462489753 -0.31740352709106923 0 0.14932995409888841 -0.33236384668207392 0 0.13578420053311571 -0.32381962349363841 0 0.16003888506347269 -0.34007108301582167 0 0.14715010279016219 -0.34464232996706567 0 0.14932995409888841 -0.33236384668207392 0 0.14715010279016219 -0.34464232996706567 0 0.14932995409888841 -0.33236384668207392 0 0.13417013674416289 -0.3419710756127739 0 0.13417013674416289 -0.3419710756127739 0 0.13578420053311571 -0.32381962349363841 0 0.1121860866060181 -0.34137815437218177 0 0.14932995409888841 -0.33236384668207392 0 0.13417013674416289 -0.3419710756127739 0 0.13578420053311571 -0.32381962349363841 0 0.13578420053311571 -0.32381962349363841 0 0.1259427589800228 -0.2938018560948964 0 0.1154669738289318 -0.32296337602057712 0 0.13578420053311571 -0.32381962349363841 0 0.1452573795736504 -0.30346108258865578 0 0.1259427589800228 -0.2938018560948964 0 0.1569194462489753 -0.31740352709106923 0 0.1452573795736504 -0.30346108258865578 0 0.16018000895666951 -0.29899147541897442 0 0.1452573795736504 -0.30346108258865578 0 0.14661046226779639 -0.28032450294349348 0 0.16018000895666951 -0.29899147541897442 0 0.1259427589800228 -0.2938018560948964 0 0.14661046226779639 -0.28032450294349348 0 0.1452573795736504 -0.30346108258865578 0 0.1259427589800228 -0.2938018560948964 0 0.14661046226779639 -0.28032450294349348 0 0.1259427589800228 -0.2938018560948964 0 0.14661046226779639 -0.28032450294349348 0 0.12319598099985871 -0.26979890523734851 0 0.15087775572515261 -0.26563526571438589 0 0.14661046226779639 -0.28032450294349348 0 0.12319598099985871 -0.26979890523734851 0 0.15087775572515261 -0.26563526571438589 0 0.12319598099985871 -0.26979890523734851 0 0.13522572268806199 -0.24734031978412491 0 0.15087775572515261 -0.26563526571438589 0 0.1539547824528123 -0.24985798083397259 0 0.13522572268806199 -0.24734031978412491 0 0.15087775572515261 -0.26563526571438589 0 0.14661046226779639 -0.28032450294349348 0 0.16727816555556979 -0.26684714979209062 0 0.14661046226779639 -0.28032450294349348 0 0.16727816555556979 -0.26684714979209062 0 0.16727816555556979 -0.26684714979209062 0 0.17457822020922231 -0.27692109365248868 0 0.1653418765577063 -0.28646360223066131 0 0.14661046226779639 -0.28032450294349348 0 0.16727816555556979 -0.26684714979209062 0 0.1653418765577063 -0.28646360223066131 0 0.15087775572515261 -0.26563526571438589 0 0.16727816555556979 -0.26684714979209062 0 0.165816738964841 -0.26234736918491502 0 0.165816738964841 -0.26234736918491502 0 0.16666681188750609 -0.23969293700039129 0 0.1539547824528123 -0.24985798083397259 0 0.165816738964841 -0.26234736918491502 0 0.17878440785046479 -0.24991483132568099 0 0.16666681188750609 -0.23969293700039129 0 0.15087775572515261 -0.26563526571438589 0 0.165816738964841 -0.26234736918491502 0 0.1539547824528123 -0.24985798083397259 0 0.165816738964841 -0.26234736918491502 0 0.16666681188750609 -0.23969293700039129 0 0.16727816555556979 -0.26684714979209062 0 0.165816738964841 -0.26234736918491502 0 0.1772241584548743 -0.26239684731659618 0 0.165816738964841 -0.26234736918491502 0 0.1772241584548743 -0.26239684731659618 0 0.17878440785046479 -0.24991483132568099 0 0.19255650290014989 -0.25917299242076808 0 0.1772241584548743 -0.26239684731659618 0 0.18245146977218371 -0.27092223820313899 0 0.19255650290014989 -0.25917299242076808 0 0.1772241584548743 -0.26239684731659618 0 0.17878440785046479 -0.24991483132568099 0 0.17457822020922231 -0.27692109365248868 0 0.18245146977218371 -0.27092223820313899 0 0.181652442726736 -0.28078315474497789 0 0.17457822020922231 -0.27692109365248868 0 0.17536001058858519 -0.2689832721618125 0 0.18245146977218371 -0.27092223820313899 0 0.16727816555556979 -0.26684714979209062 0 0.1772241584548743 -0.26239684731659618 0 0.17536001058858519 -0.2689832721618125 0 0.1772241584548743 -0.26239684731659618 0 0.17536001058858519 -0.2689832721618125 0 0.18245146977218371 -0.27092223820313899 0 0.16727816555556979 -0.26684714979209062 0 0.17457822020922231 -0.27692109365248868 0 0.17536001058858519 -0.2689832721618125 0 0.19404106983888911 -0.27959432261325828 0 0.18245146977218371 -0.27092223820313899 0 0.181652442726736 -0.28078315474497789 0 0.19404106983888911 -0.27959432261325828 0 0.181652442726736 -0.28078315474497789 0 0.1847626019094574 -0.28978207944510659 0 0.181652442726736 -0.28078315474497789 0 0.17617574356881091 -0.28661835786614692 0 0.1847626019094574 -0.28978207944510659 0 0.17457822020922231 -0.27692109365248868 0 0.17617574356881091 -0.28661835786614692 0 0.1653418765577063 -0.28646360223066131 0 0.17457822020922231 -0.27692109365248868 0 0.181652442726736 -0.28078315474497789 0 0.17617574356881091 -0.28661835786614692 0 0.17617574356881091 -0.28661835786614692 0 0.1745349896865829 -0.29646886067561812 0 0.1847626019094574 -0.28978207944510659 0 0.17617574356881091 -0.28661835786614692 0 0.1745349896865829 -0.29646886067561812 0 0.1653418765577063 -0.28646360223066131 0 0.1745349896865829 -0.29646886067561812 0 0.1847626019094574 -0.28978207944510659 0 0.1860132570414415 -0.3040288519923639 0 0.18088693648669019 -0.31648300148122133 0 0.1860132570414415 -0.3040288519923639 0 0.17241589940530549 -0.30982727698434881 0 0.1745349896865829 -0.29646886067561812 0 0.1860132570414415 -0.3040288519923639 0 0.17241589940530549 -0.30982727698434881 0 0.1745349896865829 -0.29646886067561812 0 0.17241589940530549 -0.30982727698434881 0 0.16018000895666951 -0.29899147541897442 0 0.1569194462489753 -0.31740352709106923 0 0.17241589940530549 -0.30982727698434881 0 0.16018000895666951 -0.29899147541897442 0 0.14661046226779639 -0.28032450294349348 0 0.16018000895666951 -0.29899147541897442 0 0.1653418765577063 -0.28646360223066131 0 0.1745349896865829 -0.29646886067561812 0 0.16018000895666951 -0.29899147541897442 0 0.1653418765577063 -0.28646360223066131 0 0.1987083411555266 -0.48911481787357991 0 0.20630695809783919 -0.49999999999999989 0 0.1834806236444968 -0.5 0 0.1987083411555266 -0.48911481787357991 0 0.1868061473602281 -0.48746485280054241 0 0.1834806236444968 -0.5 0 0.1987083411555266 -0.48911481787357991 0 0.19648662319283339 -0.47771127243657618 0 0.1868061473602281 -0.48746485280054241 0 0.19648662319283339 -0.47771127243657618 0 0.18261658360007069 -0.47754494117264912 0 0.1868061473602281 -0.48746485280054241 0 0.19189857476584071 -0.46911934670035199 0 0.19648662319283339 -0.47771127243657618 0 0.18261658360007069 -0.47754494117264912 0 0.19189857476584071 -0.46911934670035199 0 0.19648662319283339 -0.47771127243657618 0 0.2000841639684296 -0.4666643461850129 0 0.21098376501436081 -0.47775050158440369 0 0.2000841639684296 -0.4666643461850129 0 0.19822832164206541 -0.4626656906576978 0 0.19648662319283339 -0.47771127243657618 0 0.21098376501436081 -0.47775050158440369 0 0.2000841639684296 -0.4666643461850129 0 0.1987083411555266 -0.48911481787357991 0 0.19648662319283339 -0.47771127243657618 0 0.21098376501436081 -0.47775050158440369 0 0.21098376501436081 -0.47775050158440369 0 0.22772226077566929 -0.47334629572796172 0 0.2121068153328684 -0.46386557893480562 0 0.21098376501436081 -0.47775050158440369 0 0.19822832164206541 -0.4626656906576978 0 0.20630695809783919 -0.49999999999999989 0 0.22303265587280061 -0.49312570691644447 0 0.1987083411555266 -0.48911481787357991 0 0.21098376501436081 -0.47775050158440369 0 0.22303265587280061 -0.49312570691644447 0 0.1987083411555266 -0.48911481787357991 0 0.20630695809783919 -0.49999999999999989 0 0.22303265587280061 -0.49312570691644447 0 0.1987083411555266 -0.48911481787357991 0 0.22303265587280061 -0.49312570691644447 0 0.21098376501436081 -0.47775050158440369 0 0.22303265587280061 -0.49312570691644447 0 0.20630695809783919 -0.49999999999999989 0 0.22303265587280061 -0.49312570691644447 0 0.22979753858308891 -0.49999999999999972 0 0.22303265587280061 -0.49312570691644447 0 0.2444306519463407 -0.49665406892738712 0 0.22303265587280061 -0.49312570691644447 0 0.22979753858308891 -0.49999999999999972 0 0.2444306519463407 -0.49665406892738712 0 0.22303265587280061 -0.49312570691644447 0 0.22979753858308891 -0.49999999999999972 0 0.22979753858308891 -0.49999999999999972 0 0.24725991076381679 -0.5 0 0.2444306519463407 -0.49665406892738712 0 0.25023987491308308 -0.48194348897924172 0 0.22303265587280061 -0.49312570691644447 0 0.25023987491308308 -0.48194348897924172 0 0.22303265587280061 -0.49312570691644447 0 0.2444306519463407 -0.49665406892738712 0 0.25023987491308308 -0.48194348897924172 0 0.22772226077566929 -0.47334629572796172 0 0.23843801682145169 -0.4606317460904813 0 0.25023987491308308 -0.48194348897924172 0 0.22303265587280061 -0.49312570691644447 0 0.22772226077566929 -0.47334629572796172 0 0.21098376501436081 -0.47775050158440369 0 0.22303265587280061 -0.49312570691644447 0 0.22772226077566929 -0.47334629572796172 0 0.22772226077566929 -0.47334629572796172 0 0.22434851457773369 -0.45721778842957311 0 0.2121068153328684 -0.46386557893480562 0 0.22772226077566929 -0.47334629572796172 0 0.22434851457773369 -0.45721778842957311 0 0.23843801682145169 -0.4606317460904813 0 0.25328987021894461 -0.45294897523559302 0 0.25023987491308308 -0.48194348897924172 0 0.23843801682145169 -0.4606317460904813 0 0.25328987021894461 -0.45294897523559302 0 0.23843801682145169 -0.4606317460904813 0 0.2365895636218279 -0.43770218208003681 0 0.22434851457773369 -0.45721778842957311 0 0.2365895636218279 -0.43770218208003681 0 0.20840030004287161 -0.44343103041500498 0 0.22434851457773369 -0.45721778842957311 0 0.23843801682145169 -0.4606317460904813 0 0.2365895636218279 -0.43770218208003681 0 0.22434851457773369 -0.45721778842957311 0 0.20840030004287161 -0.44343103041500498 0 0.20840030004287161 -0.44343103041500498 0 0.2121068153328684 -0.46386557893480562 0 0.19822832164206541 -0.4626656906576978 0 0.22434851457773369 -0.45721778842957311 0 0.20840030004287161 -0.44343103041500498 0 0.2121068153328684 -0.46386557893480562 0 0.21098376501436081 -0.47775050158440369 0 0.2121068153328684 -0.46386557893480562 0 0.19822832164206541 -0.4626656906576978 0 0.19822832164206541 -0.4626656906576978 0 0.1831288995816894 -0.44480884944604671 0 0.18207718142580481 -0.46101048304982389 0 0.19822832164206541 -0.4626656906576978 0 0.1831288995816894 -0.44480884944604671 0 0.19189857476584071 -0.46911934670035199 0 0.19822832164206541 -0.4626656906576978 0 0.18207718142580481 -0.46101048304982389 0 0.19189857476584071 -0.46911934670035199 0 0.2000841639684296 -0.4666643461850129 0 0.19822832164206541 -0.4626656906576978 0 0.2000841639684296 -0.4666643461850129 0 0.19822832164206541 -0.4626656906576978 0 0.19822832164206541 -0.4626656906576978 0 0.18736609630760701 -0.43926160252178281 0 0.19822832164206541 -0.4626656906576978 0 0.18736609630760701 -0.43926160252178281 0 0.1831288995816894 -0.44480884944604671 0 0.20840030004287161 -0.44343103041500498 0 0.19822832164206541 -0.4626656906576978 0 0.18736609630760701 -0.43926160252178281 0 0.20840030004287161 -0.44343103041500498 0 0.19245208550800941 -0.42964427240043679 0 0.20840030004287161 -0.44343103041500498 0 0.19245208550800941 -0.42964427240043679 0 0.200530775279398 -0.4204304130330776 0 0.20840030004287161 -0.44343103041500498 0 0.19245208550800941 -0.42964427240043679 0 0.18736609630760701 -0.43926160252178281 0 0.19245208550800941 -0.42964427240043679 0 0.1896218513338013 -0.4155408205726599 0 0.200530775279398 -0.4204304130330776 0 0.1896218513338013 -0.4155408205726599 0 0.19862136335095301 -0.40755469284838891 0 0.1800011615574981 -0.40421721019552831 0 0.1896218513338013 -0.4155408205726599 0 0.19862136335095301 -0.40755469284838891 0 0.200530775279398 -0.4204304130330776 0 0.19862136335095301 -0.40755469284838891 0 0.21505094798535379 -0.41896219464651341 0 0.2173914118723102 -0.39498626893329092 0 0.19862136335095301 -0.40755469284838891 0 0.200530775279398 -0.4204304130330776 0 0.21505094798535379 -0.41896219464651341 0 0.20840030004287161 -0.44343103041500498 0 0.200530775279398 -0.4204304130330776 0 0.21505094798535379 -0.41896219464651341 0 0.2365895636218279 -0.43770218208003681 0 0.21505094798535379 -0.41896219464651341 0 0.2341188581190129 -0.41298602046152749 0 0.2365895636218279 -0.43770218208003681 0 0.20840030004287161 -0.44343103041500498 0 0.21505094798535379 -0.41896219464651341 0 0.25292401482276122 -0.41759658032181679 0 0.2365895636218279 -0.43770218208003681 0 0.2341188581190129 -0.41298602046152749 0 0.25292401482276122 -0.41759658032181679 0 0.2341188581190129 -0.41298602046152749 0 0.24863835229281159 -0.39568287632597959 0 0.21505094798535379 -0.41896219464651341 0 0.2341188581190129 -0.41298602046152749 0 0.2173914118723102 -0.39498626893329092 0 0.2341188581190129 -0.41298602046152749 0 0.24863835229281159 -0.39568287632597959 0 0.2173914118723102 -0.39498626893329092 0 0.26203870277274582 -0.37934523136326359 0 0.23626176751415501 -0.37250063492754321 0 0.24863835229281159 -0.39568287632597959 0 0.26203870277274582 -0.37934523136326359 0 0.23626176751415501 -0.37250063492754321 0 0.23626176751415501 -0.37250063492754321 0 0.24863835229281159 -0.39568287632597959 0 0.2173914118723102 -0.39498626893329092 0 0.23626176751415501 -0.37250063492754321 0 0.21048483225556419 -0.36565603849182282 0 0.2173914118723102 -0.39498626893329092 0 0.2173914118723102 -0.39498626893329092 0 0.20286746917010379 -0.38028884502310001 0 0.19025292788522419 -0.38863486739004022 0 0.21048483225556419 -0.36565603849182282 0 0.2173914118723102 -0.39498626893329092 0 0.20286746917010379 -0.38028884502310001 0 0.2173914118723102 -0.39498626893329092 0 0.19025292788522419 -0.38863486739004022 0 0.19862136335095301 -0.40755469284838891 0 0.2173914118723102 -0.39498626893329092 0 0.19025292788522419 -0.38863486739004022 0 0.19862136335095301 -0.40755469284838891 0 0.19025292788522419 -0.38863486739004022 0 0.1800011615574981 -0.40421721019552831 0 0.19254439771955439 -0.37268667114858472 0 0.20286746917010379 -0.38028884502310001 0 0.19025292788522419 -0.38863486739004022 0 0.19254439771955439 -0.37268667114858472 0 0.1739111704475553 -0.37054745395144528 0 0.19025292788522419 -0.38863486739004022 0 0.1739111704475553 -0.37054745395144528 0 0.19025292788522419 -0.38863486739004022 0 0.16311444389813801 -0.38228346584678968 0 0.19025292788522419 -0.38863486739004022 0 0.16311444389813801 -0.38228346584678968 0 0.19025292788522419 -0.38863486739004022 0 0.17933177855473911 -0.39208132747235419 0 0.16311444389813801 -0.38228346584678968 0 0.19025292788522419 -0.38863486739004022 0 0.1800011615574981 -0.40421721019552831 0 0.17933177855473911 -0.39208132747235419 0 0.1800011615574981 -0.40421721019552831 0 0.17269824727069219 -0.3957220219652009 0 0.16885353195041841 -0.39937385627305089 0 0.1800011615574981 -0.40421721019552831 0 0.17933177855473911 -0.39208132747235419 0 0.17269824727069219 -0.3957220219652009 0 0.17933177855473911 -0.39208132747235419 0 0.17269824727069219 -0.3957220219652009 0 0.17001219961495859 -0.38906997447019909 0 0.16885353195041841 -0.39937385627305089 0 0.1616569131168735 -0.38386779777447883 0 0.17269824727069219 -0.3957220219652009 0 0.16892838743362479 -0.39686871120241668 0 0.16777348152742261 -0.39035223840381522 0 0.16892838743362479 -0.39686871120241668 0 0.16885353195041841 -0.39937385627305089 0 0.1616569131168735 -0.38386779777447883 0 0.17269824727069219 -0.3957220219652009 0 0.16777348152742261 -0.39035223840381522 0 0.17001219961495859 -0.38906997447019909 0 0.1616632962073275 -0.40302827806940161 0 0.14852402054670499 -0.40388451289824479 0 0.16856603090005801 -0.40899548729143831 0 0.17269824727069219 -0.3957220219652009 0 0.16892838743362479 -0.39686871120241668 0 0.16885353195041841 -0.39937385627305089 0 0.16892838743362479 -0.39686871120241668 0 0.16885353195041841 -0.39937385627305089 0 0.16885353195041841 -0.39937385627305089 0 0.1616632962073275 -0.40302827806940161 0 0.16856603090005801 -0.40899548729143831 0 0.16885353195041841 -0.39937385627305089 0 0.16856603090005801 -0.40899548729143831 0 0.1616632962073275 -0.40302827806940161 0 0.16856603090005801 -0.40899548729143831 0 0.1616632962073275 -0.40302827806940161 0 0.1610985110238031 -0.39449134063406199 0 0.1563350715027976 -0.39789832159041572 0 0.16885353195041841 -0.39937385627305089 0 0.1616632962073275 -0.40302827806940161 0 0.1610985110238031 -0.39449134063406199 0 0.16885353195041841 -0.39937385627305089 0 0.1610985110238031 -0.39449134063406199 0 0.1616569131168735 -0.38386779777447883 0 0.1610985110238031 -0.39449134063406199 0 0.1563350715027976 -0.39789832159041572 0 0.15643016714452379 -0.39249435603139637 0 0.1610985110238031 -0.39449134063406199 0 0.15643016714452379 -0.39249435603139637 0 0.15799723260689341 -0.38784586036610641 0 0.17933177855473911 -0.39208132747235419 0 0.17001219961495859 -0.38906997447019909 0 0.16311444389813801 -0.38228346584678968 0 0.15799723260689341 -0.38784586036610641 0 0.1576473805976111 -0.38453091728400068 0 0.15491031737193181 -0.38893986465890967 0 0.1610985110238031 -0.39449134063406199 0 0.15799723260689341 -0.38784586036610641 0 0.1616569131168735 -0.38386779777447883 0 0.15643016714452379 -0.39249435603139637 0 0.15799723260689341 -0.38784586036610641 0 0.15491031737193181 -0.38893986465890967 0 0.15799723260689341 -0.38784586036610641 0 0.1576473805976111 -0.38453091728400068 0 0.1616569131168735 -0.38386779777447883 0 0.1576473805976111 -0.38453091728400068 0 0.1616569131168735 -0.38386779777447883 0 0.16065438614641381 -0.38170772202085568 0 0.15799723260689341 -0.38784586036610641 0 0.1616569131168735 -0.38386779777447883 0 0.1616569131168735 -0.38386779777447883 0 0.16557166020096459 -0.3862326866067809 0 0.16311444389813801 -0.38228346584678968 0 0.1616569131168735 -0.38386779777447883 0 0.16311444389813801 -0.38228346584678968 0 0.16777348152742261 -0.39035223840381522 0 0.16557166020096459 -0.3862326866067809 0 0.17001219961495859 -0.38906997447019909 0 0.16892838743362479 -0.39686871120241668 0 0.1616569131168735 -0.38386779777447883 0 0.16777348152742261 -0.39035223840381522 0 0.1616569131168735 -0.38386779777447883 0 0.16777348152742261 -0.39035223840381522 0 0.16557166020096459 -0.3862326866067809 0 0.16557166020096459 -0.3862326866067809 0 0.17001219961495859 -0.38906997447019909 0 0.16311444389813801 -0.38228346584678968 0 0.1739111704475553 -0.37054745395144528 0 0.16311444389813801 -0.38228346584678968 0 0.1739111704475553 -0.37054745395144528 0 0.16336975620121971 -0.37558279337619033 0 0.16311444389813801 -0.38228346584678968 0 0.1571954814538539 -0.37425505852090252 0 0.16336975620121971 -0.37558279337619033 0 0.16065438614641381 -0.38170772202085568 0 0.16336975620121971 -0.37558279337619033 0 0.16311444389813801 -0.38228346584678968 0 0.16065438614641381 -0.38170772202085568 0 0.1616569131168735 -0.38386779777447883 0 0.16065438614641381 -0.38170772202085568 0 0.16311444389813801 -0.38228346584678968 0 0.16065438614641381 -0.38170772202085568 0 0.1616569131168735 -0.38386779777447883 0 0.16311444389813801 -0.38228346584678968 0 0.16065438614641381 -0.38170772202085568 0 0.1571954814538539 -0.37425505852090252 0 0.16065438614641381 -0.38170772202085568 0 0.16065438614641381 -0.38170772202085568 0 0.15010180619902891 -0.38590943509027498 0 0.14398960886111681 -0.38311327750959417 0 0.15046026387980799 -0.37445702382735102 0 0.16065438614641381 -0.38170772202085568 0 0.13648674594455029 -0.37605160698701989 0 0.16065438614641381 -0.38170772202085568 0 0.14398960886111681 -0.38311327750959417 0 0.13648674594455029 -0.37605160698701989 0 0.16065438614641381 -0.38170772202085568 0 0.13648674594455029 -0.37605160698701989 0 0.1571954814538539 -0.37425505852090252 0 0.15046026387980799 -0.37445702382735102 0 0.16065438614641381 -0.38170772202085568 0 0.1576473805976111 -0.38453091728400068 0 0.16065438614641381 -0.38170772202085568 0 0.15010180619902891 -0.38590943509027498 0 0.15010180619902891 -0.38590943509027498 0 0.14383906210832401 -0.39215601135440231 0 0.15180970321719289 -0.3932963929074883 0 0.1576473805976111 -0.38453091728400068 0 0.15491031737193181 -0.38893986465890967 0 0.15010180619902891 -0.38590943509027498 0 0.15491031737193181 -0.38893986465890967 0 0.15010180619902891 -0.38590943509027498 0 0.15180970321719289 -0.3932963929074883 0 0.15010180619902891 -0.38590943509027498 0 0.14398960886111681 -0.38311327750959417 0 0.14383906210832401 -0.39215601135440231 0 0.14398960886111681 -0.38311327750959417 0 0.13648674594455029 -0.37605160698701989 0 0.13351669852906939 -0.38816532468536108 0 0.14398960886111681 -0.38311327750959417 0 0.13351669852906939 -0.38816532468536108 0 0.14383906210832401 -0.39215601135440231 0 0.13351669852906939 -0.38816532468536108 0 0.12523752281111489 -0.37951750311272059 0 0.1219225591251005 -0.38585027799746319 0 0.13648674594455029 -0.37605160698701989 0 0.13351669852906939 -0.38816532468536108 0 0.12523752281111489 -0.37951750311272059 0 0.13351669852906939 -0.38816532468536108 0 0.12495076081008009 -0.40292580149305018 0 0.1219225591251005 -0.38585027799746319 0 0.13701869227700711 -0.40029272539178318 0 0.1356274154307214 -0.41395500215171682 0 0.12495076081008009 -0.40292580149305018 0 0.13351669852906939 -0.38816532468536108 0 0.13701869227700711 -0.40029272539178318 0 0.12495076081008009 -0.40292580149305018 0 0.13351669852906939 -0.38816532468536108 0 0.13701869227700711 -0.40029272539178318 0 0.14383906210832401 -0.39215601135440231 0 0.13701869227700711 -0.40029272539178318 0 0.14852402054670499 -0.40388451289824479 0 0.1356274154307214 -0.41395500215171682 0 0.13701869227700711 -0.40029272539178318 0 0.14383906210832401 -0.39215601135440231 0 0.14852402054670499 -0.40388451289824479 0 0.14383906210832401 -0.39215601135440231 0 0.15180970321719289 -0.3932963929074883 0 0.14852402054670499 -0.40388451289824479 0 0.1563350715027976 -0.39789832159041572 0 0.15180970321719289 -0.3932963929074883 0 0.14852402054670499 -0.40388451289824479 0 0.1563350715027976 -0.39789832159041572 0 0.15643016714452379 -0.39249435603139637 0 0.15180970321719289 -0.3932963929074883 0 0.15643016714452379 -0.39249435603139637 0 0.15491031737193181 -0.38893986465890967 0 0.15180970321719289 -0.3932963929074883 0 0.1616632962073275 -0.40302827806940161 0 0.1563350715027976 -0.39789832159041572 0 0.14852402054670499 -0.40388451289824479 0 0.14852402054670499 -0.40388451289824479 0 0.1356274154307214 -0.41395500215171682 0 0.14883659945786759 -0.4268714988879721 0 0.14852402054670499 -0.40388451289824479 0 0.14883659945786759 -0.4268714988879721 0 0.1680294775213145 -0.42695200823439461 0 0.1356274154307214 -0.41395500215171682 0 0.13363958533830991 -0.43001899537342048 0 0.1202436167786107 -0.42004105947599513 0 0.1356274154307214 -0.41395500215171682 0 0.1202436167786107 -0.42004105947599513 0 0.12495076081008009 -0.40292580149305018 0 0.1356274154307214 -0.41395500215171682 0 0.13363958533830991 -0.43001899537342048 0 0.14883659945786759 -0.4268714988879721 0 0.13363958533830991 -0.43001899537342048 0 0.14883659945786759 -0.4268714988879721 0 0.14673792394680901 -0.44675172033442589 0 0.14883659945786759 -0.4268714988879721 0 0.157719690725725 -0.43819621584671259 0 0.14673792394680901 -0.44675172033442589 0 0.14883659945786759 -0.4268714988879721 0 0.1680294775213145 -0.42695200823439461 0 0.157719690725725 -0.43819621584671259 0 0.14852402054670499 -0.40388451289824479 0 0.1680294775213145 -0.42695200823439461 0 0.1680294775213145 -0.42695200823439461 0 0.16856603090005801 -0.40899548729143831 0 0.17650387097314771 -0.41585751438586832 0 0.1680294775213145 -0.42695200823439461 0 0.16856603090005801 -0.40899548729143831 0 0.14852402054670499 -0.40388451289824479 0 0.1680294775213145 -0.42695200823439461 0 0.16856603090005801 -0.40899548729143831 0 0.16885353195041841 -0.39937385627305089 0 0.16856603090005801 -0.40899548729143831 0 0.17650387097314771 -0.41585751438586832 0 0.16885353195041841 -0.39937385627305089 0 0.17650387097314771 -0.41585751438586832 0 0.1800011615574981 -0.40421721019552831 0 0.16885353195041841 -0.39937385627305089 0 0.17650387097314771 -0.41585751438586832 0 0.19245208550800941 -0.42964427240043679 0 0.1896218513338013 -0.4155408205726599 0 0.17650387097314771 -0.41585751438586832 0 0.16856603090005801 -0.40899548729143831 0 0.17650387097314771 -0.41585751438586832 0 0.1896218513338013 -0.4155408205726599 0 0.1800011615574981 -0.40421721019552831 0 0.17650387097314771 -0.41585751438586832 0 0.19245208550800941 -0.42964427240043679 0 0.17650387097314771 -0.41585751438586832 0 0.18736609630760701 -0.43926160252178281 0 0.1680294775213145 -0.42695200823439461 0 0.1831288995816894 -0.44480884944604671 0 0.1680294775213145 -0.42695200823439461 0 0.18736609630760701 -0.43926160252178281 0 0.1831288995816894 -0.44480884944604671 0 0.1680294775213145 -0.42695200823439461 0 0.17650387097314771 -0.41585751438586832 0 0.18736609630760701 -0.43926160252178281 0 0.19245208550800941 -0.42964427240043679 0 0.17650387097314771 -0.41585751438586832 0 0.17650387097314771 -0.41585751438586832 0 0.18736609630760701 -0.43926160252178281 0 0.1831288995816894 -0.44480884944604671 0 0.18207718142580481 -0.46101048304982389 0 0.1672747619769081 -0.4522096359300582 0 0.1680294775213145 -0.42695200823439461 0 0.1831288995816894 -0.44480884944604671 0 0.1672747619769081 -0.4522096359300582 0 0.18207718142580481 -0.46101048304982389 0 0.1672747619769081 -0.4522096359300582 0 0.16652004643250079 -0.47746726362572178 0 0.1672747619769081 -0.4522096359300582 0 0.16652004643250079 -0.47746726362572178 0 0.1672747619769081 -0.4522096359300582 0 0.15317569049155569 -0.46266367777167428 0 0.16652004643250079 -0.47746726362572178 0 0.1680294775213145 -0.42695200823439461 0 0.1672747619769081 -0.4522096359300582 0 0.157719690725725 -0.43819621584671259 0 0.1672747619769081 -0.4522096359300582 0 0.14673792394680901 -0.44675172033442589 0 0.1680294775213145 -0.42695200823439461 0 0.157719690725725 -0.43819621584671259 0 0.1672747619769081 -0.4522096359300582 0 0.13363958533830991 -0.43001899537342048 0 0.12697474283434881 -0.45455987192360908 0 0.1164495739394741 -0.44035941276237289 0 0.13363958533830991 -0.43001899537342048 0 0.12697474283434881 -0.45455987192360908 0 0.13363958533830991 -0.43001899537342048 0 0.14673792394680901 -0.44675172033442589 0 0.12697474283434881 -0.45455987192360908 0 0.12697474283434881 -0.45455987192360908 0 0.1426757183213663 -0.46031380149787859 0 0.1438145160127515 -0.47727993596180501 0 0.14673792394680901 -0.44675172033442589 0 0.12697474283434881 -0.45455987192360908 0 0.1426757183213663 -0.46031380149787859 0 0.12697474283434881 -0.45455987192360908 0 0.1438145160127515 -0.47727993596180501 0 0.14673792394680901 -0.44675172033442589 0 0.1426757183213663 -0.46031380149787859 0 0.15317569049155569 -0.46266367777167428 0 0.1672747619769081 -0.4522096359300582 0 0.14673792394680901 -0.44675172033442589 0 0.15317569049155569 -0.46266367777167428 0 0.1426757183213663 -0.46031380149787859 0 0.15317569049155569 -0.46266367777167428 0 0.1438145160127515 -0.47727993596180501 0 0.15317569049155569 -0.46266367777167428 0 0.1438145160127515 -0.47727993596180501 0 0.16652004643250079 -0.47746726362572178 0 0.12697474283434881 -0.45455987192360908 0 0.1438145160127515 -0.47727993596180501 0 0.1208043989110251 -0.47727993596180551 0 0.1438145160127515 -0.47727993596180501 0 0.1376441720894277 -0.5 0 0.1208043989110251 -0.47727993596180551 0 0.1438145160127515 -0.47727993596180501 0 0.1606542891911544 -0.50000000000000067 0 0.1438145160127515 -0.47727993596180501 0 0.1376441720894277 -0.5 0 0.1606542891911544 -0.50000000000000067 0 0.1438145160127515 -0.47727993596180501 0 0.1606542891911544 -0.50000000000000067 0 0.16652004643250079 -0.47746726362572178 0 0.1606542891911544 -0.50000000000000067 0 0.16652004643250079 -0.47746726362572178 0 0.17383523603958009 -0.4898022774425056 0 0.18207718142580481 -0.46101048304982389 0 0.16652004643250079 -0.47746726362572178 0 0.18261658360007069 -0.47754494117264912 0 0.19189857476584071 -0.46911934670035199 0 0.18207718142580481 -0.46101048304982389 0 0.18261658360007069 -0.47754494117264912 0 0.16652004643250079 -0.47746726362572178 0 0.18261658360007069 -0.47754494117264912 0 0.17383523603958009 -0.4898022774425056 0 0.18261658360007069 -0.47754494117264912 0 0.1868061473602281 -0.48746485280054241 0 0.17383523603958009 -0.4898022774425056 0 0.1606542891911544 -0.50000000000000067 0 0.1834806236444968 -0.5 0 0.17383523603958009 -0.4898022774425056 0 0.1868061473602281 -0.48746485280054241 0 0.1834806236444968 -0.5 0 0.17383523603958009 -0.4898022774425056 0 0.063453258220589975 -0.500000000000004 0 0.079876315119748353 -0.48294805107429339 0 0.059667162872076407 -0.480215891925931 0 0.063453258220589975 -0.500000000000004 0 0.079876315119748353 -0.48294805107429339 0 0.089043656604145482 -0.5 0 0.079876315119748353 -0.48294805107429339 0 0.073006583382560303 -0.46639383996106859 0 0.059667162872076407 -0.480215891925931 0 0.073006583382560303 -0.46639383996106859 0 0.055881067523562193 -0.46043178385185812 0 0.059667162872076407 -0.480215891925931 0 0.079876315119748353 -0.48294805107429339 0 0.1020200412420872 -0.48384698867873849 0 0.092067188397030764 -0.46723158588002189 0 0.079876315119748353 -0.48294805107429339 0 0.092067188397030764 -0.46723158588002189 0 0.073006583382560303 -0.46639383996106859 0 0.079876315119748353 -0.48294805107429339 0 0.089043656604145482 -0.5 0 0.1020200412420872 -0.48384698867873849 0 0.089043656604145482 -0.5 0 0.1146340549877011 -0.50000000000000178 0 0.1020200412420872 -0.48384698867873849 0 0.1376441720894277 -0.5 0 0.1146340549877011 -0.50000000000000178 0 0.1208043989110251 -0.47727993596180551 0 0.1146340549877011 -0.50000000000000178 0 0.1208043989110251 -0.47727993596180551 0 0.1020200412420872 -0.48384698867873849 0 0.1146340549877011 -0.50000000000000178 0 0.1208043989110251 -0.47727993596180551 0 0.1208043989110251 -0.47727993596180551 0 0.1020200412420872 -0.48384698867873849 0 0.11019600800066021 -0.46204074038816401 0 0.1020200412420872 -0.48384698867873849 0 0.11019600800066021 -0.46204074038816401 0 0.092067188397030764 -0.46723158588002189 0 0.11019600800066021 -0.46204074038816401 0 0.097914319864983682 -0.44617106039225418 0 0.092067188397030764 -0.46723158588002189 0 0.12697474283434881 -0.45455987192360908 0 0.1208043989110251 -0.47727993596180551 0 0.12697474283434881 -0.45455987192360908 0 0.1208043989110251 -0.47727993596180551 0 0.11019600800066021 -0.46204074038816401 0 0.12697474283434881 -0.45455987192360908 0 0.11019600800066021 -0.46204074038816401 0 0.1164495739394741 -0.44035941276237289 0 0.12697474283434881 -0.45455987192360908 0 0.1164495739394741 -0.44035941276237289 0 0.11019600800066021 -0.46204074038816401 0 0.1164495739394741 -0.44035941276237289 0 0.097914319864983682 -0.44617106039225418 0 0.1164495739394741 -0.44035941276237289 0 0.097914319864983682 -0.44617106039225418 0 0.1059244050445992 -0.42615895360113681 0 0.097914319864983682 -0.44617106039225418 0 0.082458352735205492 -0.43971873458769017 0 0.093468034545643341 -0.43289945008039021 0 0.082458352735205492 -0.43971873458769017 0 0.08292323090183279 -0.4539180960081618 0 0.069169710129383666 -0.45007525921977393 0 0.097914319864983682 -0.44617106039225418 0 0.082458352735205492 -0.43971873458769017 0 0.08292323090183279 -0.4539180960081618 0 0.097914319864983682 -0.44617106039225418 0 0.092067188397030764 -0.46723158588002189 0 0.08292323090183279 -0.4539180960081618 0 0.092067188397030764 -0.46723158588002189 0 0.08292323090183279 -0.4539180960081618 0 0.073006583382560303 -0.46639383996106859 0 0.08292323090183279 -0.4539180960081618 0 0.073006583382560303 -0.46639383996106859 0 0.069169710129383666 -0.45007525921977393 0 0.073006583382560303 -0.46639383996106859 0 0.069169710129383666 -0.45007525921977393 0 0.055881067523562193 -0.46043178385185812 0 0.069169710129383666 -0.45007525921977393 0 0.055881067523562193 -0.46043178385185812 0 0.082458352735205492 -0.43971873458769017 0 0.069169710129383666 -0.45007525921977393 0 0.06414835761139466 -0.43840681509974411 0 0.082458352735205492 -0.43971873458769017 0 0.069169710129383666 -0.45007525921977393 0 0.082458352735205492 -0.43971873458769017 0 0.06414835761139466 -0.43840681509974411 0 0.068806961032562342 -0.42558969539521407 0 0.068806961032562342 -0.42558969539521407 0 0.071556221247663643 -0.40931405757813089 0 0.057684099317291918 -0.41581773594269489 0 0.068806961032562342 -0.42558969539521407 0 0.071556221247663643 -0.40931405757813089 0 0.0870227804915151 -0.42053313450600632 0 0.071556221247663643 -0.40931405757813089 0 0.085503827510948094 -0.40920021468777479 0 0.0870227804915151 -0.42053313450600632 0 0.085503827510948094 -0.40920021468777479 0 0.0870227804915151 -0.42053313450600632 0 0.1007936295391231 -0.40883158638590772 0 0.082458352735205492 -0.43971873458769017 0 0.068806961032562342 -0.42558969539521407 0 0.0870227804915151 -0.42053313450600632 0 0.082458352735205492 -0.43971873458769017 0 0.0870227804915151 -0.42053313450600632 0 0.093468034545643341 -0.43289945008039021 0 0.0870227804915151 -0.42053313450600632 0 0.093468034545643341 -0.43289945008039021 0 0.1059244050445992 -0.42615895360113681 0 0.097914319864983682 -0.44617106039225418 0 0.093468034545643341 -0.43289945008039021 0 0.1059244050445992 -0.42615895360113681 0 0.13363958533830991 -0.43001899537342048 0 0.1164495739394741 -0.44035941276237289 0 0.1202436167786107 -0.42004105947599513 0 0.1164495739394741 -0.44035941276237289 0 0.1059244050445992 -0.42615895360113681 0 0.1202436167786107 -0.42004105947599513 0 0.1164495739394741 -0.44035941276237289 0 0.1059244050445992 -0.42615895360113681 0 0.1202436167786107 -0.42004105947599513 0 0.1007936295391231 -0.40883158638590772 0 0.12495076081008009 -0.40292580149305018 0 0.0870227804915151 -0.42053313450600632 0 0.1059244050445992 -0.42615895360113681 0 0.1007936295391231 -0.40883158638590772 0 0.1059244050445992 -0.42615895360113681 0 0.1202436167786107 -0.42004105947599513 0 0.1007936295391231 -0.40883158638590772 0 0.1007936295391231 -0.40883158638590772 0 0.097886433922471386 -0.39099592756584961 0 0.082642678765490557 -0.39812208028105428 0 0.1007936295391231 -0.40883158638590772 0 0.097886433922471386 -0.39099592756584961 0 0.12495076081008009 -0.40292580149305018 0 0.12495076081008009 -0.40292580149305018 0 0.1219225591251005 -0.38585027799746319 0 0.1095794286223612 -0.38327619618604458 0 0.097886433922471386 -0.39099592756584961 0 0.12495076081008009 -0.40292580149305018 0 0.097886433922471386 -0.39099592756584961 0 0.12495076081008009 -0.40292580149305018 0 0.1095794286223612 -0.38327619618604458 0 0.13648674594455029 -0.37605160698701989 0 0.12523752281111489 -0.37951750311272059 0 0.1123191057426866 -0.370395491953185 0 0.12523752281111489 -0.37951750311272059 0 0.11734789861539049 -0.37920125780465153 0 0.1123191057426866 -0.370395491953185 0 0.12523752281111489 -0.37951750311272059 0 0.11734789861539049 -0.37920125780465153 0 0.1219225591251005 -0.38585027799746319 0 0.11734789861539049 -0.37920125780465153 0 0.1095794286223612 -0.38327619618604458 0 0.1123191057426866 -0.370395491953185 0 0.11734789861539049 -0.37920125780465153 0 0.1219225591251005 -0.38585027799746319 0 0.1095794286223612 -0.38327619618604458 0 0.097886433922471386 -0.39099592756584961 0 0.10258350215703679 -0.37438400723156312 0 0.092331724745514543 -0.37201941610255518 0 0.097886433922471386 -0.39099592756584961 0 0.1095794286223612 -0.38327619618604458 0 0.10258350215703679 -0.37438400723156312 0 0.1095794286223612 -0.38327619618604458 0 0.1123191057426866 -0.370395491953185 0 0.10258350215703679 -0.37438400723156312 0 0.097886433922471386 -0.39099592756584961 0 0.07082210703486351 -0.37906605363864693 0 0.092331724745514543 -0.37201941610255518 0 0.097886433922471386 -0.39099592756584961 0 0.07082210703486351 -0.37906605363864693 0 0.07082210703486351 -0.37906605363864693 0 0.092331724745514543 -0.37201941610255518 0 0.097886433922471386 -0.39099592756584961 0 0.07082210703486351 -0.37906605363864693 0 0.075926420555056107 -0.39045114942504311 0 0.097886433922471386 -0.39099592756584961 0 0.082642678765490557 -0.39812208028105428 0 0.075926420555056107 -0.39045114942504311 0 0.085503827510948094 -0.40920021468777479 0 0.1007936295391231 -0.40883158638590772 0 0.082642678765490557 -0.39812208028105428 0 0.071556221247663643 -0.40931405757813089 0 0.085503827510948094 -0.40920021468777479 0 0.082642678765490557 -0.39812208028105428 0 0.071556221247663643 -0.40931405757813089 0 0.066895660614478047 -0.39619465267324222 0 0.054699888600245238 -0.40161168305570599 0 0.082642678765490557 -0.39812208028105428 0 0.066895660614478047 -0.39619465267324222 0 0.075926420555056107 -0.39045114942504311 0 0.071556221247663643 -0.40931405757813089 0 0.082642678765490557 -0.39812208028105428 0 0.066895660614478047 -0.39619465267324222 0 0.066895660614478047 -0.39619465267324222 0 0.064765417168545572 -0.38856897624211439 0 0.055953964481474522 -0.39263098113239342 0 0.066895660614478047 -0.39619465267324222 0 0.064765417168545572 -0.38856897624211439 0 0.075926420555056107 -0.39045114942504311 0 0.064765417168545572 -0.38856897624211439 0 0.07082210703486351 -0.37906605363864693 0 0.054228933156855889 -0.38450204434124707 0 0.064989858751823115 -0.37649521612926862 0 0.07082210703486351 -0.37906605363864693 0 0.054228933156855889 -0.38450204434124707 0 0.07082210703486351 -0.37906605363864693 0 0.054228933156855889 -0.38450204434124707 0 0.064989858751823115 -0.37649521612926862 0 0.07082210703486351 -0.37906605363864693 0 0.064765417168545572 -0.38856897624211439 0 0.07082210703486351 -0.37906605363864693 0 0.075926420555056107 -0.39045114942504311 0 0.054228933156855889 -0.38450204434124707 0 0.047543899967776082 -0.38947614362889121 0 0.055953964481474522 -0.39263098113239342 0 0.054228933156855889 -0.38450204434124707 0 0.047543899967776082 -0.38947614362889121 0 0.054228933156855889 -0.38450204434124707 0 0.054002209667557859 -0.3774895321531096 0 0.046296217844590731 -0.37885545838371171 0 0.054002209667557859 -0.3774895321531096 0 0.046296217844590731 -0.37885545838371171 0 0.050493828916961463 -0.37010540975821049 0 0.064989858751823115 -0.37649521612926862 0 0.054228933156855889 -0.38450204434124707 0 0.064989858751823115 -0.37649521612926862 0 0.054228933156855889 -0.38450204434124707 0 0.054002209667557859 -0.3774895321531096 0 0.064765417168545572 -0.38856897624211439 0 0.054228933156855889 -0.38450204434124707 0 0.055953964481474522 -0.39263098113239342 0 0.066895660614478047 -0.39619465267324222 0 0.055953964481474522 -0.39263098113239342 0 0.054699888600245238 -0.40161168305570599 0 0.047543899967776082 -0.38947614362889121 0 0.055953964481474522 -0.39263098113239342 0 0.054699888600245238 -0.40161168305570599 0 0.047543899967776082 -0.38947614362889121 0 0.054699888600245238 -0.40161168305570599 0 0.041798560445333387 -0.39905871248456343 0 0.047543899967776082 -0.38947614362889121 0 0.041798560445333387 -0.39905871248456343 0 0.033692595641701253 -0.39122983135888728 0 0.054699888600245238 -0.40161168305570599 0 0.041798560445333387 -0.39905871248456343 0 0.041597178760191228 -0.41135728763631818 0 0.041798560445333387 -0.39905871248456343 0 0.03155509899292093 -0.40104989199530228 0 0.041597178760191228 -0.41135728763631818 0 0.041798560445333387 -0.39905871248456343 0 0.03155509899292093 -0.40104989199530228 0 0.033692595641701253 -0.39122983135888728 0 0.054228933156855889 -0.38450204434124707 0 0.047543899967776082 -0.38947614362889121 0 0.033692595641701253 -0.39122983135888728 0 0.054228933156855889 -0.38450204434124707 0 0.033692595641701253 -0.39122983135888728 0 0.046296217844590731 -0.37885545838371171 0 0.033692595641701253 -0.39122983135888728 0 0.038011406510588507 -0.37901211174696681 0 0.02902297182466634 -0.38200567690414228 0 0.054228933156855889 -0.38450204434124707 0 0.033692595641701253 -0.39122983135888728 0 0.033692595641701253 -0.39122983135888728 0 0.046296217844590731 -0.37885545838371171 0 0.038011406510588507 -0.37901211174696681 0 0.046296217844590731 -0.37885545838371171 0 0.038011406510588507 -0.37901211174696681 0 0.042025102471618538 -0.37247013266474832 0 0.038011406510588507 -0.37901211174696681 0 0.02902297182466634 -0.38200567690414228 0 0.035326827055349133 -0.37256763208376398 0 0.02902297182466634 -0.38200567690414228 0 0.035326827055349133 -0.37256763208376398 0 0.02623177818715404 -0.37372060255406581 0 0.019473192102571039 -0.38756365146087379 0 0.02623177818715404 -0.37372060255406581 0 0.011149816155222141 -0.3642631188038995 0 0.02902297182466634 -0.38200567690414228 0 0.019473192102571039 -0.38756365146087379 0 0.02623177818715404 -0.37372060255406581 0 0.033692595641701253 -0.39122983135888728 0 0.02902297182466634 -0.38200567690414228 0 0.019473192102571039 -0.38756365146087379 0 -0.0042880474431544443 -0.38143749126606391 0 0.019473192102571039 -0.38756365146087379 0 0.0059412400519459289 -0.39827433823653918 0 -0.0042880474431544443 -0.38143749126606391 0 0.019473192102571039 -0.38756365146087379 0 0.011149816155222141 -0.3642631188038995 0 0.03155509899292093 -0.40104989199530228 0 0.019473192102571039 -0.38756365146087379 0 0.022575943146279941 -0.40795953582037819 0 0.019473192102571039 -0.38756365146087379 0 0.0059412400519459289 -0.39827433823653918 0 0.022575943146279941 -0.40795953582037819 0 0.03155509899292093 -0.40104989199530228 0 0.033692595641701253 -0.39122983135888728 0 0.019473192102571039 -0.38756365146087379 0 0.022575943146279941 -0.40795953582037819 0 0.0089956421061454846 -0.41330728533300032 0 0.017528498021835009 -0.42577501713017962 0 0.022575943146279941 -0.40795953582037819 0 0.017528498021835009 -0.42577501713017962 0 0.033289716876624853 -0.42490372986122488 0 -0.0070445583114871384 -0.41363436916954233 0 0.0059412400519459289 -0.39827433823653918 0 0.0089956421061454846 -0.41330728533300032 0 0.0059412400519459289 -0.39827433823653918 0 0.022575943146279941 -0.40795953582037819 0 0.0089956421061454846 -0.41330728533300032 0 -0.0070445583114871384 -0.41363436916954233 0 0.0089956421061454846 -0.41330728533300032 0 0.0044685336387176736 -0.42549483916402359 0 0.0089956421061454846 -0.41330728533300032 0 0.0044685336387176736 -0.42549483916402359 0 0.017528498021835009 -0.42577501713017962 0 0.0044685336387176736 -0.42549483916402359 0 0.017528498021835009 -0.42577501713017962 0 0.0095097002263758116 -0.44187517972810342 0 -0.01093901682269725 -0.43953332273650902 0 0.0044685336387176736 -0.42549483916402359 0 0.0095097002263758116 -0.44187517972810342 0 0.017528498021835009 -0.42577501713017962 0 0.033289716876624853 -0.42490372986122488 0 0.026331452136866291 -0.44110953287434718 0 0.017528498021835009 -0.42577501713017962 0 0.026331452136866291 -0.44110953287434718 0 0.0095097002263758116 -0.44187517972810342 0 0.033289716876624853 -0.42490372986122488 0 0.049850357823438607 -0.42891852243399631 0 0.040346317387702037 -0.43890415612779199 0 0.033289716876624853 -0.42490372986122488 0 0.040346317387702037 -0.43890415612779199 0 0.026331452136866291 -0.44110953287434718 0 0.03155509899292093 -0.40104989199530228 0 0.022575943146279941 -0.40795953582037819 0 0.041597178760191228 -0.41135728763631818 0 0.022575943146279941 -0.40795953582037819 0 0.033289716876624853 -0.42490372986122488 0 0.041597178760191228 -0.41135728763631818 0 0.033289716876624853 -0.42490372986122488 0 0.041597178760191228 -0.41135728763631818 0 0.049850357823438607 -0.42891852243399631 0 0.054699888600245238 -0.40161168305570599 0 0.041597178760191228 -0.41135728763631818 0 0.057684099317291918 -0.41581773594269489 0 0.071556221247663643 -0.40931405757813089 0 0.054699888600245238 -0.40161168305570599 0 0.057684099317291918 -0.41581773594269489 0 0.041597178760191228 -0.41135728763631818 0 0.057684099317291918 -0.41581773594269489 0 0.049850357823438607 -0.42891852243399631 0 0.06414835761139466 -0.43840681509974411 0 0.068806961032562342 -0.42558969539521407 0 0.049850357823438607 -0.42891852243399631 0 0.049850357823438607 -0.42891852243399631 0 0.052865712673501097 -0.44467515314292699 0 0.040346317387702037 -0.43890415612779199 0 0.049850357823438607 -0.42891852243399631 0 0.052865712673501097 -0.44467515314292699 0 0.068806961032562342 -0.42558969539521407 0 0.057684099317291918 -0.41581773594269489 0 0.049850357823438607 -0.42891852243399631 0 0.06414835761139466 -0.43840681509974411 0 0.049850357823438607 -0.42891852243399631 0 0.052865712673501097 -0.44467515314292699 0 0.052865712673501097 -0.44467515314292699 0 0.055881067523562193 -0.46043178385185812 0 0.038894777407833071 -0.45414492337080931 0 0.069169710129383666 -0.45007525921977393 0 0.06414835761139466 -0.43840681509974411 0 0.052865712673501097 -0.44467515314292699 0 0.052865712673501097 -0.44467515314292699 0 0.055881067523562193 -0.46043178385185812 0 0.069169710129383666 -0.45007525921977393 0 0.052865712673501097 -0.44467515314292699 0 0.055881067523562193 -0.46043178385185812 0 0.055881067523562193 -0.46043178385185812 0 0.038957504789860493 -0.47362118923457169 0 0.038894777407833071 -0.45414492337080931 0 0.01991913807968014 -0.46265959733606948 0 0.038957504789860493 -0.47362118923457169 0 0.055881067523562193 -0.46043178385185812 0 0.038894777407833071 -0.45414492337080931 0 0.038957504789860493 -0.47362118923457169 0 0.052865712673501097 -0.44467515314292699 0 0.038894777407833071 -0.45414492337080931 0 0.040346317387702037 -0.43890415612779199 0 0.038894777407833071 -0.45414492337080931 0 0.040346317387702037 -0.43890415612779199 0 0.026331452136866291 -0.44110953287434718 0 0.038894777407833071 -0.45414492337080931 0 0.026331452136866291 -0.44110953287434718 0 0.01991913807968014 -0.46265959733606948 0 0.026331452136866291 -0.44110953287434718 0 0.0095097002263758116 -0.44187517972810342 0 0.01991913807968014 -0.46265959733606948 0 -0.0017589576795830029 -0.4612804419831531 0 0.01991913807968014 -0.46265959733606948 0 0.0074432789513676602 -0.47835213141926042 0 -0.0017589576795830029 -0.4612804419831531 0 0.0095097002263758116 -0.44187517972810342 0 0.01991913807968014 -0.46265959733606948 0 0.01991913807968014 -0.46265959733606948 0 0.022033942056159161 -0.48681059461728587 0 0.038957504789860493 -0.47362118923457169 0 0.022033942056159161 -0.48681059461728587 0 0.038957504789860493 -0.47362118923457169 0 0.01991913807968014 -0.46265959733606948 0 0.0074432789513676602 -0.47835213141926042 0 0.022033942056159161 -0.48681059461728587 0 0.0074432789513676602 -0.47835213141926042 0 0.0051103793224578486 -0.5 0 0.022033942056159161 -0.48681059461728587 0 -0.0080881070218758316 -0.48101002315979358 0 0.0074432789513676602 -0.47835213141926042 0 0.0051103793224578486 -0.5 0 0.0051103793224578486 -0.5 0 0.022033942056159161 -0.48681059461728587 0 0.0051103793224578486 -0.5 0 0.022033942056159161 -0.48681059461728587 0 0.034281818771523809 -0.5 0 0.022033942056159161 -0.48681059461728587 0 0.045652503339065093 -0.48841168010047548 0 0.034281818771523809 -0.5 0 0.022033942056159161 -0.48681059461728587 0 0.045652503339065093 -0.48841168010047548 0 0.038957504789860493 -0.47362118923457169 0 0.055881067523562193 -0.46043178385185812 0 0.059667162872076407 -0.480215891925931 0 0.045652503339065093 -0.48841168010047548 0 0.038957504789860493 -0.47362118923457169 0 0.059667162872076407 -0.480215891925931 0 0.055881067523562193 -0.46043178385185812 0 0.038957504789860493 -0.47362118923457169 0 0.059667162872076407 -0.480215891925931 0 0.063453258220589975 -0.500000000000004 0 0.045652503339065093 -0.48841168010047548 0 0.034281818771523809 -0.5 0 0.063453258220589975 -0.500000000000004 0 0.059667162872076407 -0.480215891925931 0 0.063453258220589975 -0.500000000000004 0 0.045652503339065093 -0.48841168010047548 0 0.059667162872076407 -0.480215891925931 0 0.08324713571742863 -0.29696322652462143 0 0.06781425350207114 -0.27668000253116881 0 0.092424845726713667 -0.27036951679793902 0 0.08324713571742863 -0.29696322652462143 0 0.10527505569224931 -0.30727920924629931 0 0.084607352404475825 -0.32075656239770223 0 0.08324713571742863 -0.29696322652462143 0 0.065408275780365135 -0.32098228558065739 0 0.059836119410068583 -0.29741164544201021 0 0.08324713571742863 -0.29696322652462143 0 0.06781425350207114 -0.27668000253116881 0 0.059836119410068583 -0.29741164544201021 0 0.076708961681927229 -0.25570252649154879 0 0.056597411959853329 -0.2639440275904511 0 0.058355879264822282 -0.2484073521394522 0 0.06781425350207114 -0.27668000253116881 0 0.076708961681927229 -0.25570252649154879 0 0.056597411959853329 -0.2639440275904511 0 0.076708961681927229 -0.25570252649154879 0 0.092424845726713667 -0.27036951679793902 0 0.10497616821734269 -0.24483397350269109 0 0.06781425350207114 -0.27668000253116881 0 0.076708961681927229 -0.25570252649154879 0 0.092424845726713667 -0.27036951679793902 0 0.092424845726713667 -0.27036951679793902 0 0.12319598099985871 -0.26979890523734851 0 0.1060171554232546 -0.28764254278022089 0 0.092424845726713667 -0.27036951679793902 0 0.12319598099985871 -0.26979890523734851 0 0.10497616821734269 -0.24483397350269109 0 0.12319598099985871 -0.26979890523734851 0 0.10497616821734269 -0.24483397350269109 0 0.13522572268806199 -0.24734031978412491 0 0.1259427589800228 -0.2938018560948964 0 0.1060171554232546 -0.28764254278022089 0 0.10527505569224931 -0.30727920924629931 0 0.1259427589800228 -0.2938018560948964 0 0.12319598099985871 -0.26979890523734851 0 0.1060171554232546 -0.28764254278022089 0 0.08324713571742863 -0.29696322652462143 0 0.092424845726713667 -0.27036951679793902 0 0.1060171554232546 -0.28764254278022089 0 0.08324713571742863 -0.29696322652462143 0 0.1060171554232546 -0.28764254278022089 0 0.10527505569224931 -0.30727920924629931 0 0.1259427589800228 -0.2938018560948964 0 0.10527505569224931 -0.30727920924629931 0 0.1154669738289318 -0.32296337602057712 0 0.1259427589800228 -0.2938018560948964 0 0.10527505569224931 -0.30727920924629931 0 0.13578420053311571 -0.32381962349363841 0 0.1121860866060181 -0.34137815437218177 0 0.13578420053311571 -0.32381962349363841 0 0.1154669738289318 -0.32296337602057712 0 0.1121860866060181 -0.34137815437218177 0 0.1121860866060181 -0.34137815437218177 0 0.1003044590299918 -0.32649922578491891 0 0.083986826618283855 -0.34011882688783401 0 0.1154669738289318 -0.32296337602057712 0 0.1121860866060181 -0.34137815437218177 0 0.1003044590299918 -0.32649922578491891 0 0.10527505569224931 -0.30727920924629931 0 0.1154669738289318 -0.32296337602057712 0 0.1003044590299918 -0.32649922578491891 0 0.10527505569224931 -0.30727920924629931 0 0.084607352404475825 -0.32075656239770223 0 0.10527505569224931 -0.30727920924629931 0 0.1003044590299918 -0.32649922578491891 0 0.084607352404475825 -0.32075656239770223 0 0.13648674594455029 -0.37605160698701989 0 0.1123191057426866 -0.370395491953185 0 0.13535096016681769 -0.35792614103037468 0 0.1138413424561661 -0.36497277856646487 0 0.1123191057426866 -0.370395491953185 0 0.1138413424561661 -0.36497277856646487 0 0.10258350215703679 -0.37438400723156312 0 0.12660214350457949 -0.36757268168728208 0 0.1123191057426866 -0.370395491953185 0 0.1138413424561661 -0.36497277856646487 0 0.13535096016681769 -0.35792614103037468 0 0.1138413424561661 -0.36497277856646487 0 0.1213406798831813 -0.35225630791038748 0 0.13417013674416289 -0.3419710756127739 0 0.1121860866060181 -0.34137815437218177 0 0.1213406798831813 -0.35225630791038748 0 0.1138413424561661 -0.36497277856646487 0 0.1213406798831813 -0.35225630791038748 0 0.1080018231937202 -0.35528502978861881 0 0.1121860866060181 -0.34137815437218177 0 0.1213406798831813 -0.35225630791038748 0 0.1080018231937202 -0.35528502978861881 0 0.1121860866060181 -0.34137815437218177 0 0.088587972678920601 -0.3589366852507252 0 0.083986826618283855 -0.34011882688783401 0 0.1121860866060181 -0.34137815437218177 0 0.088587972678920601 -0.3589366852507252 0 0.1080018231937202 -0.35528502978861881 0 0.1010643067214398 -0.36236767136222919 0 0.088587972678920601 -0.3589366852507252 0 0.1121860866060181 -0.34137815437218177 0 0.1080018231937202 -0.35528502978861881 0 0.088587972678920601 -0.3589366852507252 0 0.1138413424561661 -0.36497277856646487 0 0.092331724745514543 -0.37201941610255518 0 0.1138413424561661 -0.36497277856646487 0 0.1010643067214398 -0.36236767136222919 0 0.092331724745514543 -0.37201941610255518 0 0.1138413424561661 -0.36497277856646487 0 0.10258350215703679 -0.37438400723156312 0 0.092331724745514543 -0.37201941610255518 0 0.1138413424561661 -0.36497277856646487 0 0.1080018231937202 -0.35528502978861881 0 0.1010643067214398 -0.36236767136222919 0 0.1010643067214398 -0.36236767136222919 0 0.092331724745514543 -0.37201941610255518 0 0.088587972678920601 -0.3589366852507252 0 0.07082210703486351 -0.37906605363864693 0 0.092331724745514543 -0.37201941610255518 0 0.088587972678920601 -0.3589366852507252 0 0.088587972678920601 -0.3589366852507252 0 0.075606677835468525 -0.35145512403955381 0 0.083986826618283855 -0.34011882688783401 0 0.088587972678920601 -0.3589366852507252 0 0.075606677835468525 -0.35145512403955381 0 0.074826653807198343 -0.36286002502333942 0 0.075606677835468525 -0.35145512403955381 0 0.083986826618283855 -0.34011882688783401 0 0.065719556899791712 -0.34168324496854152 0 0.075606677835468525 -0.35145512403955381 0 0.064912379173148141 -0.35367683806732853 0 0.065719556899791712 -0.34168324496854152 0 0.075606677835468525 -0.35145512403955381 0 0.064912379173148141 -0.35367683806732853 0 0.074826653807198343 -0.36286002502333942 0 0.074826653807198343 -0.36286002502333942 0 0.055412226444649111 -0.36328781420524592 0 0.064989858751823115 -0.37649521612926862 0 0.074826653807198343 -0.36286002502333942 0 0.055412226444649111 -0.36328781420524592 0 0.064989858751823115 -0.37649521612926862 0 0.088587972678920601 -0.3589366852507252 0 0.074826653807198343 -0.36286002502333942 0 0.064989858751823115 -0.37649521612926862 0 0.07082210703486351 -0.37906605363864693 0 0.088587972678920601 -0.3589366852507252 0 0.064989858751823115 -0.37649521612926862 0 0.088587972678920601 -0.3589366852507252 0 0.064912379173148141 -0.35367683806732853 0 0.074826653807198343 -0.36286002502333942 0 0.055412226444649111 -0.36328781420524592 0 0.1003044590299918 -0.32649922578491891 0 0.084607352404475825 -0.32075656239770223 0 0.083986826618283855 -0.34011882688783401 0 0.083986826618283855 -0.34011882688783401 0 0.065719556899791712 -0.34168324496854152 0 0.065408275780365135 -0.32098228558065739 0 0.08324713571742863 -0.29696322652462143 0 0.084607352404475825 -0.32075656239770223 0 0.065408275780365135 -0.32098228558065739 0 0.084607352404475825 -0.32075656239770223 0 0.083986826618283855 -0.34011882688783401 0 0.065408275780365135 -0.32098228558065739 0 0.065408275780365135 -0.32098228558065739 0 0.047343690467288681 -0.33425513921297029 0 0.044212272935962013 -0.31071798312710769 0 0.065719556899791712 -0.34168324496854152 0 0.065408275780365135 -0.32098228558065739 0 0.047343690467288681 -0.33425513921297029 0 0.065719556899791712 -0.34168324496854152 0 0.047343690467288681 -0.33425513921297029 0 0.053101660176976352 -0.35064208390054269 0 0.047343690467288681 -0.33425513921297029 0 0.038922887122811813 -0.35198700842004471 0 0.030686152201322019 -0.33997031721003818 0 0.047343690467288681 -0.33425513921297029 0 0.033117585633632388 -0.32270733137640611 0 0.030686152201322019 -0.33997031721003818 0 0.047343690467288681 -0.33425513921297029 0 0.033117585633632388 -0.32270733137640611 0 0.044212272935962013 -0.31071798312710769 0 0.033117585633632388 -0.32270733137640611 0 0.019536332474233781 -0.30720698309771982 0 0.044212272935962013 -0.31071798312710769 0 0.050493828916961463 -0.37010540975821049 0 0.055412226444649111 -0.36328781420524592 0 0.035997799082099873 -0.36371560338715242 0 0.064989858751823115 -0.37649521612926862 0 0.050493828916961463 -0.37010540975821049 0 0.064989858751823115 -0.37649521612926862 0 0.050493828916961463 -0.37010540975821049 0 0.055412226444649111 -0.36328781420524592 0 0.064989858751823115 -0.37649521612926862 0 0.054002209667557859 -0.3774895321531096 0 0.050493828916961463 -0.37010540975821049 0 0.055412226444649111 -0.36328781420524592 0 0.053101660176976352 -0.35064208390054269 0 0.045858643206634277 -0.35740812747824641 0 0.064912379173148141 -0.35367683806732853 0 0.055412226444649111 -0.36328781420524592 0 0.053101660176976352 -0.35064208390054269 0 0.064912379173148141 -0.35367683806732853 0 0.065719556899791712 -0.34168324496854152 0 0.053101660176976352 -0.35064208390054269 0 0.038922887122811813 -0.35198700842004471 0 0.035997799082099873 -0.36371560338715242 0 0.022980468991537151 -0.35377537381273272 0 0.047343690467288681 -0.33425513921297029 0 0.053101660176976352 -0.35064208390054269 0 0.038922887122811813 -0.35198700842004471 0 0.053101660176976352 -0.35064208390054269 0 0.038922887122811813 -0.35198700842004471 0 0.045858643206634277 -0.35740812747824641 0 0.038922887122811813 -0.35198700842004471 0 0.045858643206634277 -0.35740812747824641 0 0.035997799082099873 -0.36371560338715242 0 0.055412226444649111 -0.36328781420524592 0 0.045858643206634277 -0.35740812747824641 0 0.035997799082099873 -0.36371560338715242 0 0.055412226444649111 -0.36328781420524592 0 0.035997799082099873 -0.36371560338715242 0 0.050493828916961463 -0.37010540975821049 0 0.035997799082099873 -0.36371560338715242 0 0.035997799082099873 -0.36371560338715242 0 0.035326827055349133 -0.37256763208376398 0 0.02623177818715404 -0.37372060255406581 0 0.035997799082099873 -0.36371560338715242 0 0.035326827055349133 -0.37256763208376398 0 0.042025102471618538 -0.37247013266474832 0 0.038011406510588507 -0.37901211174696681 0 0.035326827055349133 -0.37256763208376398 0 0.042025102471618538 -0.37247013266474832 0 0.050493828916961463 -0.37010540975821049 0 0.035997799082099873 -0.36371560338715242 0 0.042025102471618538 -0.37247013266474832 0 0.046296217844590731 -0.37885545838371171 0 0.050493828916961463 -0.37010540975821049 0 0.042025102471618538 -0.37247013266474832 0 0.035997799082099873 -0.36371560338715242 0 0.02623177818715404 -0.37372060255406581 0 0.011149816155222141 -0.3642631188038995 0 0.035997799082099873 -0.36371560338715242 0 0.022980468991537151 -0.35377537381273272 0 0.011149816155222141 -0.3642631188038995 0 0.035997799082099873 -0.36371560338715242 0 0.011149816155222141 -0.3642631188038995 0 0.038922887122811813 -0.35198700842004471 0 0.022980468991537151 -0.35377537381273272 0 0.030686152201322019 -0.33997031721003818 0 0.022980468991537151 -0.35377537381273272 0 0.01002462915729488 -0.34647941110618691 0 0.030686152201322019 -0.33997031721003818 0 -0.0028297137070933099 -0.35279292629653702 0 0.01002462915729488 -0.34647941110618691 0 0.011149816155222141 -0.3642631188038995 0 0.022980468991537151 -0.35377537381273272 0 0.01002462915729488 -0.34647941110618691 0 0.011149816155222141 -0.3642631188038995 0 0.033117585633632388 -0.32270733137640611 0 0.0056699870917780899 -0.32929510078661778 0 0.019536332474233781 -0.30720698309771982 0 0.030686152201322019 -0.33997031721003818 0 0.0056699870917780899 -0.32929510078661778 0 0.033117585633632388 -0.32270733137640611 0 0.030686152201322019 -0.33997031721003818 0 0.0056699870917780899 -0.32929510078661778 0 0.01002462915729488 -0.34647941110618691 0 0.030686152201322019 -0.33997031721003818 0 0.0056699870917780899 -0.32929510078661778 0 -0.0075089357889968006 -0.33877962972729592 0 0.01002462915729488 -0.34647941110618691 0 0.0056699870917780899 -0.32929510078661778 0 -0.00085300724567920162 -0.3134600792683459 0 0.0056699870917780899 -0.32929510078661778 0 0.019536332474233781 -0.30720698309771982 0 -0.00085300724567920162 -0.3134600792683459 0 0.002263828681637008 -0.29971307659348662 0 0.019536332474233781 -0.30720698309771982 0 0.002263828681637008 -0.29971307659348662 0 0.012475853598434601 -0.28697850573419981 0 0.019536332474233781 -0.30720698309771982 0 -0.0086068970976947087 -0.28569610947311452 0 0.002263828681637008 -0.29971307659348662 0 0.012475853598434601 -0.28697850573419981 0 0.012475853598434601 -0.28697850573419981 0 0.036398870890244413 -0.28376180574116677 0 0.01902351614773853 -0.27311150028380787 0 0.012475853598434601 -0.28697850573419981 0 0.019536332474233781 -0.30720698309771982 0 0.036398870890244413 -0.28376180574116677 0 0.019536332474233781 -0.30720698309771982 0 0.044212272935962013 -0.31071798312710769 0 0.036398870890244413 -0.28376180574116677 0 0.06781425350207114 -0.27668000253116881 0 0.036398870890244413 -0.28376180574116677 0 0.059836119410068583 -0.29741164544201021 0 0.044212272935962013 -0.31071798312710769 0 0.036398870890244413 -0.28376180574116677 0 0.059836119410068583 -0.29741164544201021 0 0.065408275780365135 -0.32098228558065739 0 0.044212272935962013 -0.31071798312710769 0 0.059836119410068583 -0.29741164544201021 0 0.06781425350207114 -0.27668000253116881 0 0.036398870890244413 -0.28376180574116677 0 0.056597411959853329 -0.2639440275904511 0 0.056597411959853329 -0.2639440275904511 0 0.043709094460201617 -0.25516845104891889 0 0.058355879264822282 -0.2484073521394522 0 0.036398870890244413 -0.28376180574116677 0 0.056597411959853329 -0.2639440275904511 0 0.043709094460201617 -0.25516845104891889 0 0.036398870890244413 -0.28376180574116677 0 0.043709094460201617 -0.25516845104891889 0 0.029225107668375459 -0.26329789276662779 0 0.036398870890244413 -0.28376180574116677 0 0.043709094460201617 -0.25516845104891889 0 0.043709094460201617 -0.25516845104891889 0 0.029225107668375459 -0.26329789276662779 0 0.030697487116818741 -0.24591029912952539 0 0.029225107668375459 -0.26329789276662779 0 0.016189213113970449 -0.25814330979740568 0 0.030697487116818741 -0.24591029912952539 0 0.029225107668375459 -0.26329789276662779 0 0.016189213113970449 -0.25814330979740568 0 0.01902351614773853 -0.27311150028380787 0 0.036398870890244413 -0.28376180574116677 0 0.029225107668375459 -0.26329789276662779 0 0.01902351614773853 -0.27311150028380787 0 -0.0086068970976947087 -0.28569610947311452 0 -0.0001076141968513938 -0.26993945428185911 0 0.012475853598434601 -0.28697850573419981 0 -0.0001076141968513938 -0.26993945428185911 0 0.016189213113970449 -0.25814330979740568 0 0.01902351614773853 -0.27311150028380787 0 -0.0001076141968513938 -0.26993945428185911 0 0.012475853598434601 -0.28697850573419981 0 0.01902351614773853 -0.27311150028380787 0 0.016189213113970449 -0.25814330979740568 0 0.0022157039987719608 -0.25103517629298772 0 0.015081017875177479 -0.24170615908606971 0 -0.0001076141968513938 -0.26993945428185911 0 0.016189213113970449 -0.25814330979740568 0 0.0022157039987719608 -0.25103517629298772 0 0.0022157039987719608 -0.25103517629298772 0 0.015081017875177479 -0.24170615908606971 0 0.0020586593896541501 -0.23538806153735661 0 0.015081017875177479 -0.24170615908606971 0 0.0020586593896541501 -0.23538806153735661 0 0.0134694868133215 -0.227269163187828 0 -0.001152381567331534 -0.2211555327351723 0 0.0020586593896541501 -0.23538806153735661 0 0.0134694868133215 -0.227269163187828 0 -0.001152381567331534 -0.2211555327351723 0 0.0134694868133215 -0.227269163187828 0 0.01181215784613274 -0.2134166455842906 0 0.0134694868133215 -0.227269163187828 0 0.021079837251591672 -0.21912034275295331 0 0.01181215784613274 -0.2134166455842906 0 0.015081017875177479 -0.24170615908606971 0 0.0134694868133215 -0.227269163187828 0 0.02712664567502002 -0.2296502871915167 0 0.0134694868133215 -0.227269163187828 0 0.021079837251591672 -0.21912034275295331 0 0.02712664567502002 -0.2296502871915167 0 0.021079837251591672 -0.21912034275295331 0 0.02712664567502002 -0.2296502871915167 0 0.032498714562608853 -0.21484905987577799 0 0.016189213113970449 -0.25814330979740568 0 0.015081017875177479 -0.24170615908606971 0 0.030697487116818741 -0.24591029912952539 0 0.015081017875177479 -0.24170615908606971 0 0.02712664567502002 -0.2296502871915167 0 0.030697487116818741 -0.24591029912952539 0 0.01415676907161083 -0.19425090616996191 0 0.0080627702558309297 -0.1896718368080367 0 0.0074504609246366336 -0.1982143264547328 0 0.01304721642888703 -0.18889685437859199 0 0.01415676907161083 -0.19425090616996191 0 0.0080627702558309297 -0.1896718368080367 0 0.0080627702558309297 -0.1896718368080367 0 0.0074504609246366336 -0.1982143264547328 0 0.00072783491096226538 -0.19632658387055249 0 -0.005179268052130895 -0.19117181568058519 0 0.0080627702558309297 -0.1896718368080367 0 0.00072783491096226538 -0.19632658387055249 0 0.0074504609246366336 -0.1982143264547328 0 0.00072783491096226538 -0.19632658387055249 0 0.0007592833362599264 -0.20298356516784949 0 0.0074504609246366336 -0.1982143264547328 0 0.0007592833362599264 -0.20298356516784949 0 0.0072137052187065849 -0.2058798592907011 0 0.0074504609246366336 -0.1982143264547328 0 0.013807578543613719 -0.20312291129840171 0 0.0072137052187065849 -0.2058798592907011 0 0.01415676907161083 -0.19425090616996191 0 0.0074504609246366336 -0.1982143264547328 0 0.013807578543613719 -0.20312291129840171 0 0.013807578543613719 -0.20312291129840171 0 0.0072137052187065849 -0.2058798592907011 0 0.01181215784613274 -0.2134166455842906 0 0.0072137052187065849 -0.2058798592907011 0 0.0022390454428899008 -0.21166184794823081 0 0.01181215784613274 -0.2134166455842906 0 0.0007592833362599264 -0.20298356516784949 0 0.0072137052187065849 -0.2058798592907011 0 0.0022390454428899008 -0.21166184794823081 0 -0.001152381567331534 -0.2211555327351723 0 0.0022390454428899008 -0.21166184794823081 0 0.01181215784613274 -0.2134166455842906 0 0.021079837251591672 -0.21912034275295331 0 0.01181215784613274 -0.2134166455842906 0 0.022022599693385748 -0.20865565532934349 0 0.021079837251591672 -0.21912034275295331 0 0.022022599693385748 -0.20865565532934349 0 0.032498714562608853 -0.21484905987577799 0 0.03054139360205288 -0.203169791404021 0 0.022022599693385748 -0.20865565532934349 0 0.032498714562608853 -0.21484905987577799 0 0.03054139360205288 -0.203169791404021 0 0.022022599693385748 -0.20865565532934349 0 0.02217768771600951 -0.19802048033671371 0 0.013807578543613719 -0.20312291129840171 0 0.01181215784613274 -0.2134166455842906 0 0.022022599693385748 -0.20865565532934349 0 0.013807578543613719 -0.20312291129840171 0 0.022022599693385748 -0.20865565532934349 0 0.02217768771600951 -0.19802048033671371 0 0.01415676907161083 -0.19425090616996191 0 0.013807578543613719 -0.20312291129840171 0 0.02217768771600951 -0.19802048033671371 0 0.03054139360205288 -0.203169791404021 0 0.02217768771600951 -0.19802048033671371 0 0.032163717593901089 -0.19079470063002191 0 0.02217768771600951 -0.19802048033671371 0 0.0199990905262762 -0.18789182069463381 0 0.032163717593901089 -0.19079470063002191 0 0.01415676907161083 -0.19425090616996191 0 0.02217768771600951 -0.19802048033671371 0 0.0199990905262762 -0.18789182069463381 0 0.01304721642888703 -0.18889685437859199 0 0.01415676907161083 -0.19425090616996191 0 0.0199990905262762 -0.18789182069463381 0 0.032163717593901089 -0.19079470063002191 0 0.042044357571319448 -0.20239099767753399 0 0.047338482773862427 -0.1807384996403901 0 0.03054139360205288 -0.203169791404021 0 0.032163717593901089 -0.19079470063002191 0 0.042044357571319448 -0.20239099767753399 0 0.042044357571319448 -0.20239099767753399 0 0.032498714562608853 -0.21484905987577799 0 0.051019318030158842 -0.22657509635667111 0 0.03054139360205288 -0.203169791404021 0 0.042044357571319448 -0.20239099767753399 0 0.032498714562608853 -0.21484905987577799 0 0.042044357571319448 -0.20239099767753399 0 0.058329541600116053 -0.1979817416644232 0 0.051019318030158842 -0.22657509635667111 0 0.058329541600116053 -0.1979817416644232 0 0.051019318030158842 -0.22657509635667111 0 0.072728270260697003 -0.2138393216769974 0 0.058329541600116053 -0.1979817416644232 0 0.051019318030158842 -0.22657509635667111 0 0.042044357571319448 -0.20239099767753399 0 0.058329541600116053 -0.1979817416644232 0 0.047338482773862427 -0.1807384996403901 0 0.043709094460201617 -0.25516845104891889 0 0.030697487116818741 -0.24591029912952539 0 0.051019318030158842 -0.22657509635667111 0 0.02712664567502002 -0.2296502871915167 0 0.030697487116818741 -0.24591029912952539 0 0.051019318030158842 -0.22657509635667111 0 0.02712664567502002 -0.2296502871915167 0 0.032498714562608853 -0.21484905987577799 0 0.051019318030158842 -0.22657509635667111 0 0.043709094460201617 -0.25516845104891889 0 0.051019318030158842 -0.22657509635667111 0 0.043709094460201617 -0.25516845104891889 0 0.051019318030158842 -0.22657509635667111 0 0.058355879264822282 -0.2484073521394522 0 0.076708961681927229 -0.25570252649154879 0 0.058355879264822282 -0.2484073521394522 0 0.080822697349795497 -0.23167857651984039 0 0.051019318030158842 -0.22657509635667111 0 0.058355879264822282 -0.2484073521394522 0 0.080822697349795497 -0.23167857651984039 0 0.058355879264822282 -0.2484073521394522 0 0.080822697349795497 -0.23167857651984039 0 0.076708961681927229 -0.25570252649154879 0 0.080822697349795497 -0.23167857651984039 0 0.10497616821734269 -0.24483397350269109 0 0.080822697349795497 -0.23167857651984039 0 0.072728270260697003 -0.2138393216769974 0 0.10328951543476859 -0.21494980090022869 0 0.080822697349795497 -0.23167857651984039 0 0.10328951543476859 -0.21494980090022869 0 0.051019318030158842 -0.22657509635667111 0 0.080822697349795497 -0.23167857651984039 0 0.072728270260697003 -0.2138393216769974 0 0.058329541600116053 -0.1979817416644232 0 0.079210060227266496 -0.19421041843280179 0 0.07395710894138606 -0.1745288591497646 0 0.058329541600116053 -0.1979817416644232 0 0.072728270260697003 -0.2138393216769974 0 0.079210060227266496 -0.19421041843280179 0 0.072728270260697003 -0.2138393216769974 0 0.079210060227266496 -0.19421041843280179 0 0.10328951543476859 -0.21494980090022869 0 0.079210060227266496 -0.19421041843280179 0 0.10328951543476859 -0.21494980090022869 0 0.1004596083446913 -0.19193172504181691 0 0.1004596083446913 -0.19193172504181691 0 0.11573907996837469 -0.17780838033877949 0 0.12575633351974169 -0.19822102528061711 0 0.10328951543476859 -0.21494980090022869 0 0.1004596083446913 -0.19193172504181691 0 0.12575633351974169 -0.19822102528061711 0 0.10328951543476859 -0.21494980090022869 0 0.1209741658996374 -0.22659904895176869 0 0.12575633351974169 -0.19822102528061711 0 0.10328951543476859 -0.21494980090022869 0 0.12575633351974169 -0.19822102528061711 0 0.10328951543476859 -0.21494980090022869 0 0.1209741658996374 -0.22659904895176869 0 0.10497616821734269 -0.24483397350269109 0 0.1209741658996374 -0.22659904895176869 0 0.10497616821734269 -0.24483397350269109 0 0.13522572268806199 -0.24734031978412491 0 0.080822697349795497 -0.23167857651984039 0 0.10328951543476859 -0.21494980090022869 0 0.10497616821734269 -0.24483397350269109 0 0.09839595757595461 -0.14724486066140929 0 0.11234753334362579 -0.14344915486113491 0 0.092528875637236455 -0.1333070069729469 0 0.09839595757595461 -0.14724486066140929 0 0.10542588193674469 -0.16191860289034471 0 0.088856726731945349 -0.1589789771948906 0 0.09839595757595461 -0.14724486066140929 0 0.11234753334362579 -0.14344915486113491 0 0.10542588193674469 -0.16191860289034471 0 0.092528875637236455 -0.1333070069729469 0 0.1134652821876056 -0.12050915214118189 0 0.11234753334362579 -0.14344915486113491 0 0.092528875637236455 -0.1333070069729469 0 0.1134652821876056 -0.12050915214118189 0 0.11234753334362579 -0.14344915486113491 0 0.1134652821876056 -0.12050915214118189 0 0.12909723277991181 -0.13577185870777539 0 0.11234753334362579 -0.14344915486113491 0 0.12915287184905519 -0.15912448827296621 0 0.12909723277991181 -0.13577185870777539 0 0.11234753334362579 -0.14344915486113491 0 0.10542588193674469 -0.16191860289034471 0 0.12915287184905519 -0.15912448827296621 0 0.11573907996837469 -0.17780838033877949 0 0.10542588193674469 -0.16191860289034471 0 0.12915287184905519 -0.15912448827296621 0 0.1004596083446913 -0.19193172504181691 0 0.11573907996837469 -0.17780838033877949 0 0.090195628883551204 -0.17500396805814281 0 0.11573907996837469 -0.17780838033877949 0 0.10542588193674469 -0.16191860289034471 0 0.090195628883551204 -0.17500396805814281 0 0.10542588193674469 -0.16191860289034471 0 0.088856726731945349 -0.1589789771948906 0 0.090195628883551204 -0.17500396805814281 0 0.088856726731945349 -0.1589789771948906 0 0.090195628883551204 -0.17500396805814281 0 0.077960915013918983 -0.16475146886959691 0 0.090195628883551204 -0.17500396805814281 0 0.07395710894138606 -0.1745288591497646 0 0.077960915013918983 -0.16475146886959691 0 0.088856726731945349 -0.1589789771948906 0 0.077960915013918983 -0.16475146886959691 0 0.071592469086867852 -0.14610486180471269 0 0.079210060227266496 -0.19421041843280179 0 0.1004596083446913 -0.19193172504181691 0 0.090195628883551204 -0.17500396805814281 0 0.079210060227266496 -0.19421041843280179 0 0.090195628883551204 -0.17500396805814281 0 0.07395710894138606 -0.1745288591497646 0 0.058329541600116053 -0.1979817416644232 0 0.07395710894138606 -0.1745288591497646 0 0.065639765170070918 -0.16938838697217479 0 0.07395710894138606 -0.1745288591497646 0 0.065639765170070918 -0.16938838697217479 0 0.077960915013918983 -0.16475146886959691 0 0.065639765170070918 -0.16938838697217479 0 0.071592469086867852 -0.14610486180471269 0 0.065639765170070918 -0.16938838697217479 0 0.071592469086867852 -0.14610486180471269 0 0.07395710894138606 -0.1745288591497646 0 0.077960915013918983 -0.16475146886959691 0 0.065639765170070918 -0.16938838697217479 0 0.09839595757595461 -0.14724486066140929 0 0.088856726731945349 -0.1589789771948906 0 0.071592469086867852 -0.14610486180471269 0 0.09839595757595461 -0.14724486066140929 0 0.071592469086867852 -0.14610486180471269 0 0.092528875637236455 -0.1333070069729469 0 0.071592469086867852 -0.14610486180471269 0 0.092528875637236455 -0.1333070069729469 0 0.071592469086867852 -0.14610486180471269 0 0.092528875637236455 -0.1333070069729469 0 0.077147311171059774 -0.1243775413674231 0 0.071592469086867852 -0.14610486180471269 0 0.060142396793733913 -0.12434506737133839 0 0.077147311171059774 -0.1243775413674231 0 0.071592469086867852 -0.14610486180471269 0 0.077147311171059774 -0.1243775413674231 0 0.071592469086867852 -0.14610486180471269 0 0.048861615396506998 -0.1391395297673019 0 0.060142396793733913 -0.12434506737133839 0 0.048861615396506998 -0.1391395297673019 0 0.060142396793733913 -0.12434506737133839 0 0.032750867330657497 -0.1205680091610495 0 0.071592469086867852 -0.14610486180471269 0 0.048861615396506998 -0.1391395297673019 0 0.049659487541698043 -0.15951189577530001 0 0.071592469086867852 -0.14610486180471269 0 0.049659487541698043 -0.15951189577530001 0 0.048861615396506998 -0.1391395297673019 0 0.049659487541698043 -0.15951189577530001 0 0.030188574171056359 -0.1474780432370377 0 0.049659487541698043 -0.15951189577530001 0 0.030188574171056359 -0.1474780432370377 0 0.048861615396506998 -0.1391395297673019 0 0.030188574171056359 -0.1474780432370377 0 0.032750867330657497 -0.1205680091610495 0 0.058329541600116053 -0.1979817416644232 0 0.065639765170070918 -0.16938838697217479 0 0.047338482773862427 -0.1807384996403901 0 0.058329541600116053 -0.1979817416644232 0 0.065639765170070918 -0.16938838697217479 0 0.065639765170070918 -0.16938838697217479 0 0.049659487541698043 -0.15951189577530001 0 0.065639765170070918 -0.16938838697217479 0 0.071592469086867852 -0.14610486180471269 0 0.049659487541698043 -0.15951189577530001 0 0.065639765170070918 -0.16938838697217479 0 0.047338482773862427 -0.1807384996403901 0 0.049659487541698043 -0.15951189577530001 0 0.047338482773862427 -0.1807384996403901 0 0.049659487541698043 -0.15951189577530001 0 0.02981486170176427 -0.1716423748085181 0 0.049659487541698043 -0.15951189577530001 0 0.02981486170176427 -0.1716423748085181 0 0.049659487541698043 -0.15951189577530001 0 0.02981486170176427 -0.1716423748085181 0 0.030188574171056359 -0.1474780432370377 0 0.032163717593901089 -0.19079470063002191 0 0.047338482773862427 -0.1807384996403901 0 0.02981486170176427 -0.1716423748085181 0 0.02981486170176427 -0.1716423748085181 0 0.0099702358618301568 -0.18377285384173561 0 0.0199990905262762 -0.18789182069463381 0 0.032163717593901089 -0.19079470063002191 0 0.02981486170176427 -0.1716423748085181 0 0.0199990905262762 -0.18789182069463381 0 0.02981486170176427 -0.1716423748085181 0 0.0099702358618301568 -0.18377285384173561 0 0.02981486170176427 -0.1716423748085181 0 0.011670630037622949 -0.17158822671938009 0 0.0099702358618301568 -0.18377285384173561 0 0.02981486170176427 -0.1716423748085181 0 0.01157583369424631 -0.15694584444109319 0 0.030188574171056359 -0.1474780432370377 0 0.02981486170176427 -0.1716423748085181 0 0.01157583369424631 -0.15694584444109319 0 0.011670630037622949 -0.17158822671938009 0 -0.0035093935166591859 -0.15804738012971131 0 0.01157583369424631 -0.15694584444109319 0 0.0032866020401578198 -0.16633692148475179 0 0.01157583369424631 -0.15694584444109319 0 0.0032866020401578198 -0.16633692148475179 0 0.011670630037622949 -0.17158822671938009 0 0.011670630037622949 -0.17158822671938009 0 0.004778789874819174 -0.17796499626111559 0 0.0099702358618301568 -0.18377285384173561 0 0.0032866020401578198 -0.16633692148475179 0 0.011670630037622949 -0.17158822671938009 0 0.004778789874819174 -0.17796499626111559 0 -0.0025172076975426079 -0.17922158069245639 0 0.0080627702558309297 -0.1896718368080367 0 0.004778789874819174 -0.17796499626111559 0 0.0080627702558309297 -0.1896718368080367 0 0.004778789874819174 -0.17796499626111559 0 0.0099702358618301568 -0.18377285384173561 0 0.01304721642888703 -0.18889685437859199 0 0.0080627702558309297 -0.1896718368080367 0 0.0099702358618301568 -0.18377285384173561 0 0.01304721642888703 -0.18889685437859199 0 0.0199990905262762 -0.18789182069463381 0 0.0099702358618301568 -0.18377285384173561 0 0.030188574171056359 -0.1474780432370377 0 0.01071766080041377 -0.13544419069877681 0 0.032750867330657497 -0.1205680091610495 0 0.01071766080041377 -0.13544419069877681 0 0.032750867330657497 -0.1205680091610495 0 0.030188574171056359 -0.1474780432370377 0 0.01071766080041377 -0.13544419069877681 0 0.01157583369424631 -0.15694584444109319 0 0.030188574171056359 -0.1474780432370377 0 0.01071766080041377 -0.13544419069877681 0 -0.0054802260051036583 -0.14638053372790891 0 0.01157583369424631 -0.15694584444109319 0 0.01071766080041377 -0.13544419069877681 0 -0.0054802260051036583 -0.14638053372790891 0 -0.0035093935166591859 -0.15804738012971131 0 0.01157583369424631 -0.15694584444109319 0 -0.0054802260051036583 -0.14638053372790891 0 0.01071766080041377 -0.13544419069877681 0 -0.01193884114401514 -0.121441508942554 0 0.01071766080041377 -0.13544419069877681 0 0.01205822537398484 -0.11017830551008739 0 0.01205822537398484 -0.11017830551008739 0 0.032750867330657497 -0.1205680091610495 0 0.031655197008732983 -0.098057948847687773 0 0.01071766080041377 -0.13544419069877681 0 0.01205822537398484 -0.11017830551008739 0 0.032750867330657497 -0.1205680091610495 0 0.01205822537398484 -0.11017830551008739 0 0.01395950564678301 -0.084777910245193114 0 0.031655197008732983 -0.098057948847687773 0 -0.0021152679886422242 -0.095125247924784342 0 0.01205822537398484 -0.11017830551008739 0 0.01395950564678301 -0.084777910245193114 0 -0.0021152679886422242 -0.095125247924784342 0 0.01395950564678301 -0.084777910245193114 0 0.0016561558194555801 -0.070702517229202691 0 0.01395950564678301 -0.084777910245193114 0 0.0016561558194555801 -0.070702517229202691 0 0.016322831871273279 -0.067569653900895421 0 0.0016561558194555801 -0.070702517229202691 0 0.016322831871273279 -0.067569653900895421 0 0.0070985228527581648 -0.053506951691642553 0 0.016322831871273279 -0.067569653900895421 0 0.033045444443623638 -0.074678563485307062 0 0.026978662965915789 -0.055547894528914683 0 0.01395950564678301 -0.084777910245193114 0 0.016322831871273279 -0.067569653900895421 0 0.033045444443623638 -0.074678563485307062 0 0.01395950564678301 -0.084777910245193114 0 0.033045444443623638 -0.074678563485307062 0 0.031655197008732983 -0.098057948847687773 0 0.046335540091691753 -0.089010943483618765 0 0.033045444443623638 -0.074678563485307062 0 0.052115047286965623 -0.071578341491907241 0 0.046335540091691753 -0.089010943483618765 0 0.033045444443623638 -0.074678563485307062 0 0.031655197008732983 -0.098057948847687773 0 0.033045444443623638 -0.074678563485307062 0 0.052115047286965623 -0.071578341491907241 0 0.044149064910490879 -0.056786415913156273 0 0.052115047286965623 -0.071578341491907241 0 0.059505679602321428 -0.057225424253664697 0 0.069648429231550582 -0.067477253578413679 0 0.052115047286965623 -0.071578341491907241 0 0.062321398760456601 -0.082498120446816744 0 0.069648429231550582 -0.067477253578413679 0 0.046335540091691753 -0.089010943483618765 0 0.062321398760456601 -0.082498120446816744 0 0.054784073860900923 -0.1056918276233218 0 0.046335540091691753 -0.089010943483618765 0 0.052115047286965623 -0.071578341491907241 0 0.062321398760456601 -0.082498120446816744 0 0.054784073860900923 -0.1056918276233218 0 0.060142396793733913 -0.12434506737133839 0 0.032750867330657497 -0.1205680091610495 0 0.054784073860900923 -0.1056918276233218 0 0.032750867330657497 -0.1205680091610495 0 0.054784073860900923 -0.1056918276233218 0 0.032750867330657497 -0.1205680091610495 0 0.031655197008732983 -0.098057948847687773 0 0.046335540091691753 -0.089010943483618765 0 0.054784073860900923 -0.1056918276233218 0 0.031655197008732983 -0.098057948847687773 0 0.024379544835876399 0.0059501558049816902 0 0.024857301198518211 -0.0061207281226497651 0 0.041242187119049582 -0.0028268805465379541 0 0.024857301198518211 -0.0061207281226497651 0 0.016907843412983601 -0.014803623361556139 0 0.031432422835112363 -0.017276677503881229 0 0.024379544835876399 0.0059501558049816902 0 0.024857301198518211 -0.0061207281226497651 0 0.011487415012152041 -0.00090451840804060585 0 0.024857301198518211 -0.0061207281226497651 0 0.016907843412983601 -0.014803623361556139 0 0.011487415012152041 -0.00090451840804060585 0 -0.0078299177893015933 0.0113329491608615 0 0.011487415012152041 -0.00090451840804060585 0 0.001149502097097669 -0.011866962428013821 0 0.016907843412983601 -0.014803623361556139 0 0.011487415012152041 -0.00090451840804060585 0 0.001149502097097669 -0.011866962428013821 0 0.016907843412983601 -0.014803623361556139 0 0.001149502097097669 -0.011866962428013821 0 0.010124553466616259 -0.025947696056777089 0 -0.0027135244406232498 -0.02502109825273589 0 0.001149502097097669 -0.011866962428013821 0 0.010124553466616259 -0.025947696056777089 0 -0.0027135244406232498 -0.02502109825273589 0 0.010124553466616259 -0.025947696056777089 0 0.0038410275856185232 -0.037567189316250527 0 0.010124553466616259 -0.025947696056777089 0 0.022481444936337219 -0.02663324724758491 0 0.020540116084899161 -0.03856801213794267 0 0.016907843412983601 -0.014803623361556139 0 0.010124553466616259 -0.025947696056777089 0 0.022481444936337219 -0.02663324724758491 0 0.016907843412983601 -0.014803623361556139 0 0.022481444936337219 -0.02663324724758491 0 0.031432422835112363 -0.017276677503881229 0 0.022481444936337219 -0.02663324724758491 0 0.034496853643310801 -0.029168039064880399 0 0.031432422835112363 -0.017276677503881229 0 0.020540116084899161 -0.03856801213794267 0 0.037509132339683657 -0.041072718523312797 0 0.034496853643310801 -0.029168039064880399 0 0.020540116084899161 -0.03856801213794267 0 0.026978662965915789 -0.055547894528914683 0 0.037509132339683657 -0.041072718523312797 0 0.022481444936337219 -0.02663324724758491 0 0.020540116084899161 -0.03856801213794267 0 0.034496853643310801 -0.029168039064880399 0 -0.0034884269796278751 -0.044449411372668432 0 0.0038410275856185232 -0.037567189316250527 0 0.0070985228527581648 -0.053506951691642553 0 0.020540116084899161 -0.03856801213794267 0 0.0038410275856185232 -0.037567189316250527 0 0.0070985228527581648 -0.053506951691642553 0 0.010124553466616259 -0.025947696056777089 0 0.020540116084899161 -0.03856801213794267 0 0.0038410275856185232 -0.037567189316250527 0 0.020540116084899161 -0.03856801213794267 0 0.0070985228527581648 -0.053506951691642553 0 0.026978662965915789 -0.055547894528914683 0 0.016322831871273279 -0.067569653900895421 0 0.0070985228527581648 -0.053506951691642553 0 0.026978662965915789 -0.055547894528914683 0 0.026978662965915789 -0.055547894528914683 0 0.044149064910490879 -0.056786415913156273 0 0.037509132339683657 -0.041072718523312797 0 0.033045444443623638 -0.074678563485307062 0 0.026978662965915789 -0.055547894528914683 0 0.044149064910490879 -0.056786415913156273 0 0.052115047286965623 -0.071578341491907241 0 0.044149064910490879 -0.056786415913156273 0 0.059505679602321428 -0.057225424253664697 0 0.059505679602321428 -0.057225424253664697 0 0.05530052147960926 -0.039284851669621652 0 0.067995476956480422 -0.048529645231239538 0 0.044149064910490879 -0.056786415913156273 0 0.059505679602321428 -0.057225424253664697 0 0.05530052147960926 -0.039284851669621652 0 0.05530052147960926 -0.039284851669621652 0 0.037509132339683657 -0.041072718523312797 0 0.05530052147960926 -0.039284851669621652 0 0.037509132339683657 -0.041072718523312797 0 0.034496853643310801 -0.029168039064880399 0 0.044149064910490879 -0.056786415913156273 0 0.05530052147960926 -0.039284851669621652 0 0.037509132339683657 -0.041072718523312797 0 0.05530052147960926 -0.039284851669621652 0 0.034496853643310801 -0.029168039064880399 0 0.045581378017070927 -0.01957262231235327 0 0.034496853643310801 -0.029168039064880399 0 0.031432422835112363 -0.017276677503881229 0 0.045581378017070927 -0.01957262231235327 0 0.045581378017070927 -0.01957262231235327 0 0.060023933085623912 -0.026842203484993811 0 0.066121922226280383 -0.011014355142073939 0 0.05530052147960926 -0.039284851669621652 0 0.045581378017070927 -0.01957262231235327 0 0.060023933085623912 -0.026842203484993811 0 0.045581378017070927 -0.01957262231235327 0 0.041242187119049582 -0.0028268805465379541 0 0.066121922226280383 -0.011014355142073939 0 0.024857301198518211 -0.0061207281226497651 0 0.031432422835112363 -0.017276677503881229 0 0.041242187119049582 -0.0028268805465379541 0 0.031432422835112363 -0.017276677503881229 0 0.045581378017070927 -0.01957262231235327 0 0.041242187119049582 -0.0028268805465379541 0 0.090311016037907227 0.0091617695474997124 0 0.087923092569810235 -0.01354239255918047 0 0.074430949642245739 0.0081337784437301233 0 0.087923092569810235 -0.01354239255918047 0 0.066121922226280383 -0.011014355142073939 0 0.087923092569810235 -0.01354239255918047 0 0.066121922226280383 -0.011014355142073939 0 0.078017863808090213 -0.023978261031122061 0 0.066121922226280383 -0.011014355142073939 0 0.078017863808090213 -0.023978261031122061 0 0.073091910619534461 -0.03749698481592656 0 0.066121922226280383 -0.011014355142073939 0 0.073091910619534461 -0.03749698481592656 0 0.060023933085623912 -0.026842203484993811 0 0.066121922226280383 -0.011014355142073939 0 0.073091910619534461 -0.03749698481592656 0 0.087923092569810235 -0.01354239255918047 0 0.078017863808090213 -0.023978261031122061 0 0.085535169101712022 -0.036246554665860457 0 0.087923092569810235 -0.01354239255918047 0 0.085535169101712022 -0.036246554665860457 0 0.087923092569810235 -0.01354239255918047 0 0.085535169101712022 -0.036246554665860457 0 0.098628257361146027 -0.02157449723093394 0 0.083890274942040252 -0.051414560485570873 0 0.098381520339875586 -0.034955617494573148 0 0.085535169101712022 -0.036246554665860457 0 0.083890274942040252 -0.051414560485570873 0 0.098381520339875586 -0.034955617494573148 0 0.083890274942040252 -0.051414560485570873 0 0.095130065897588906 -0.051141693583545041 0 0.098381520339875586 -0.034955617494573148 0 0.085535169101712022 -0.036246554665860457 0 0.098381520339875586 -0.034955617494573148 0 0.080065960840809802 -0.04466371209925641 0 0.085535169101712022 -0.036246554665860457 0 0.083890274942040252 -0.051414560485570873 0 0.080065960840809802 -0.04466371209925641 0 0.085535169101712022 -0.036246554665860457 0 0.073091910619534461 -0.03749698481592656 0 0.085535169101712022 -0.036246554665860457 0 0.083890274942040252 -0.051414560485570873 0 0.085535169101712022 -0.036246554665860457 0 0.073091910619534461 -0.03749698481592656 0 0.078017863808090213 -0.023978261031122061 0 0.085535169101712022 -0.036246554665860457 0 0.073091910619534461 -0.03749698481592656 0 0.05530052147960926 -0.039284851669621652 0 0.073091910619534461 -0.03749698481592656 0 0.05530052147960926 -0.039284851669621652 0 0.073091910619534461 -0.03749698481592656 0 0.067995476956480422 -0.048529645231239538 0 0.080065960840809802 -0.04466371209925641 0 0.073091910619534461 -0.03749698481592656 0 0.077862773575884045 -0.055623987297015613 0 0.05530052147960926 -0.039284851669621652 0 0.060023933085623912 -0.026842203484993811 0 0.073091910619534461 -0.03749698481592656 0 0.073091910619534461 -0.03749698481592656 0 0.077862773575884045 -0.055623987297015613 0 0.067995476956480422 -0.048529645231239538 0 0.068791706845881498 -0.057656740021707793 0 0.077862773575884045 -0.055623987297015613 0 0.073091910619534461 -0.03749698481592656 0 0.067995476956480422 -0.048529645231239538 0 0.077862773575884045 -0.055623987297015613 0 0.059505679602321428 -0.057225424253664697 0 0.067995476956480422 -0.048529645231239538 0 0.068791706845881498 -0.057656740021707793 0 0.059505679602321428 -0.057225424253664697 0 0.068791706845881498 -0.057656740021707793 0 0.069648429231550582 -0.067477253578413679 0 0.068791706845881498 -0.057656740021707793 0 0.077862773575884045 -0.055623987297015613 0 0.069648429231550582 -0.067477253578413679 0 0.077862773575884045 -0.055623987297015613 0 0.083995182841132193 -0.056162630062766998 0 0.086113196907356512 -0.062017640470030118 0 0.083995182841132193 -0.056162630062766998 0 0.086113196907356512 -0.062017640470030118 0 0.087499648127566748 -0.055178065604206628 0 0.080065960840809802 -0.04466371209925641 0 0.077862773575884045 -0.055623987297015613 0 0.083890274942040252 -0.051414560485570873 0 0.077862773575884045 -0.055623987297015613 0 0.083995182841132193 -0.056162630062766998 0 0.083890274942040252 -0.051414560485570873 0 0.083995182841132193 -0.056162630062766998 0 0.083890274942040252 -0.051414560485570873 0 0.087499648127566748 -0.055178065604206628 0 0.083890274942040252 -0.051414560485570873 0 0.087499648127566748 -0.055178065604206628 0 0.095130065897588906 -0.051141693583545041 0 0.091662224790560909 -0.058374683014716003 0 0.087499648127566748 -0.055178065604206628 0 0.095130065897588906 -0.051141693583545041 0 0.091662224790560909 -0.058374683014716003 0 0.096919691805629274 -0.060397117951783021 0 0.092648521214663035 -0.063138897464015228 0 0.091662224790560909 -0.058374683014716003 0 0.086113196907356512 -0.062017640470030118 0 0.092648521214663035 -0.063138897464015228 0 0.091662224790560909 -0.058374683014716003 0 0.086113196907356512 -0.062017640470030118 0 0.087499648127566748 -0.055178065604206628 0 0.096919691805629274 -0.060397117951783021 0 0.095130065897588906 -0.051141693583545041 0 0.1028783939343476 -0.053717386598005103 0 0.096919691805629274 -0.060397117951783021 0 0.10607446951075181 -0.059272551674990077 0 0.1013917853098598 -0.066864630423764004 0 0.091662224790560909 -0.058374683014716003 0 0.096919691805629274 -0.060397117951783021 0 0.095130065897588906 -0.051141693583545041 0 0.095130065897588906 -0.051141693583545041 0 0.1028783939343476 -0.053717386598005103 0 0.1084835408047452 -0.04576149612262146 0 0.1028783939343476 -0.053717386598005103 0 0.1104024721603806 -0.054147051156737541 0 0.1084835408047452 -0.04576149612262146 0 0.1028783939343476 -0.053717386598005103 0 0.10607446951075181 -0.059272551674990077 0 0.1104024721603806 -0.054147051156737541 0 0.096919691805629274 -0.060397117951783021 0 0.1028783939343476 -0.053717386598005103 0 0.10607446951075181 -0.059272551674990077 0 0.12088369345163311 -0.061063283010140509 0 0.1104024721603806 -0.054147051156737541 0 0.10607446951075181 -0.059272551674990077 0 0.12088369345163311 -0.061063283010140509 0 0.1104024721603806 -0.054147051156737541 0 0.10607446951075181 -0.059272551674990077 0 0.12088369345163311 -0.061063283010140509 0 0.1013917853098598 -0.066864630423764004 0 0.1201536240352835 -0.048221520910736497 0 0.1104024721603806 -0.054147051156737541 0 0.1084835408047452 -0.04576149612262146 0 0.12088369345163311 -0.061063283010140509 0 0.1201536240352835 -0.048221520910736497 0 0.1104024721603806 -0.054147051156737541 0 0.1239551684609945 -0.032385706992130767 0 0.098381520339875586 -0.034955617494573148 0 0.1201536240352835 -0.048221520910736497 0 0.1239551684609945 -0.032385706992130767 0 0.1084835408047452 -0.04576149612262146 0 0.1239551684609945 -0.032385706992130767 0 0.1084835408047452 -0.04576149612262146 0 0.098381520339875586 -0.034955617494573148 0 0.095130065897588906 -0.051141693583545041 0 0.1084835408047452 -0.04576149612262146 0 0.098381520339875586 -0.034955617494573148 0 0.085535169101712022 -0.036246554665860457 0 0.098381520339875586 -0.034955617494573148 0 0.098628257361146027 -0.02157449723093394 0 0.098381520339875586 -0.034955617494573148 0 0.11187039471236809 -0.01963515274399303 0 0.098381520339875586 -0.034955617494573148 0 0.098628257361146027 -0.02157449723093394 0 0.11187039471236809 -0.01963515274399303 0 0.1239551684609945 -0.032385706992130767 0 0.098381520339875586 -0.034955617494573148 0 0.11187039471236809 -0.01963515274399303 0 0.1239551684609945 -0.032385706992130767 0 0.11187039471236809 -0.01963515274399303 0 0.12913625529121231 -0.019607476147758131 0 0.11187039471236809 -0.01963515274399303 0 0.1054706582405712 -0.001623709214258733 0 0.12535926908485989 -0.0043146879934122416 0 0.11187039471236809 -0.01963515274399303 0 0.12535926908485989 -0.0043146879934122416 0 0.12913625529121231 -0.019607476147758131 0 0.11187039471236809 -0.01963515274399303 0 0.12535926908485989 -0.0043146879934122416 0 0.090311016037907227 0.0091617695474997124 0 0.087923092569810235 -0.01354239255918047 0 0.1054706582405712 -0.001623709214258733 0 0.087923092569810235 -0.01354239255918047 0 0.098628257361146027 -0.02157449723093394 0 0.1054706582405712 -0.001623709214258733 0 0.098628257361146027 -0.02157449723093394 0 0.11187039471236809 -0.01963515274399303 0 0.1054706582405712 -0.001623709214258733 0 0.093304962387331269 -0.10194415145080341 0 0.075718043916410974 -0.1101886345042223 0 0.076817280391144452 -0.090815646085593935 0 0.093304962387331269 -0.10194415145080341 0 0.076817280391144452 -0.090815646085593935 0 0.096851760274284604 -0.091423848834689861 0 0.092137956835774151 -0.1162678016397817 0 0.077147311171059774 -0.1243775413674231 0 0.075718043916410974 -0.1101886345042223 0 0.093304962387331269 -0.10194415145080341 0 0.092137956835774151 -0.1162678016397817 0 0.075718043916410974 -0.1101886345042223 0 0.092528875637236455 -0.1333070069729469 0 0.092137956835774151 -0.1162678016397817 0 0.077147311171059774 -0.1243775413674231 0 0.054784073860900923 -0.1056918276233218 0 0.060142396793733913 -0.12434506737133839 0 0.075718043916410974 -0.1101886345042223 0 0.060142396793733913 -0.12434506737133839 0 0.077147311171059774 -0.1243775413674231 0 0.075718043916410974 -0.1101886345042223 0 0.054784073860900923 -0.1056918276233218 0 0.076817280391144452 -0.090815646085593935 0 0.054784073860900923 -0.1056918276233218 0 0.075718043916410974 -0.1101886345042223 0 0.076817280391144452 -0.090815646085593935 0 0.062321398760456601 -0.082498120446816744 0 0.054784073860900923 -0.1056918276233218 0 0.076817280391144452 -0.090815646085593935 0 0.062321398760456601 -0.082498120446816744 0 0.076817280391144452 -0.090815646085593935 0 0.082633636532233018 -0.073750989778104847 0 0.077862773575884045 -0.055623987297015613 0 0.069648429231550582 -0.067477253578413679 0 0.082633636532233018 -0.073750989778104847 0 0.062321398760456601 -0.082498120446816744 0 0.069648429231550582 -0.067477253578413679 0 0.082633636532233018 -0.073750989778104847 0 0.077862773575884045 -0.055623987297015613 0 0.082633636532233018 -0.073750989778104847 0 0.077862773575884045 -0.055623987297015613 0 0.086113196907356512 -0.062017640470030118 0 0.082633636532233018 -0.073750989778104847 0 0.082633636532233018 -0.073750989778104847 0 0.092269714259490238 -0.069172631348410715 0 0.098850486921387981 -0.075939464547866126 0 0.086113196907356512 -0.062017640470030118 0 0.082633636532233018 -0.073750989778104847 0 0.092269714259490238 -0.069172631348410715 0 0.092269714259490238 -0.069172631348410715 0 0.092648521214663035 -0.063138897464015228 0 0.096009547134759204 -0.065815411579920477 0 0.086113196907356512 -0.062017640470030118 0 0.092269714259490238 -0.069172631348410715 0 0.092648521214663035 -0.063138897464015228 0 0.076817280391144452 -0.090815646085593935 0 0.098850486921387981 -0.075939464547866126 0 0.076817280391144452 -0.090815646085593935 0 0.082633636532233018 -0.073750989778104847 0 0.098850486921387981 -0.075939464547866126 0 0.076817280391144452 -0.090815646085593935 0 0.096851760274284604 -0.091423848834689861 0 0.095664945821743411 -0.080910612039901297 0 0.076817280391144452 -0.090815646085593935 0 0.095664945821743411 -0.080910612039901297 0 0.098850486921387981 -0.075939464547866126 0 0.095664945821743411 -0.080910612039901297 0 0.1074433142243713 -0.085571688281443681 0 0.1136021511018428 -0.074502617757041312 0 0.096851760274284604 -0.091423848834689861 0 0.095664945821743411 -0.080910612039901297 0 0.1074433142243713 -0.085571688281443681 0 0.096851760274284604 -0.091423848834689861 0 0.1074433142243713 -0.085571688281443681 0 0.11102829854683249 -0.097877146315706987 0 0.12088369345163311 -0.061063283010140509 0 0.1013917853098598 -0.066864630423764004 0 0.098850486921387981 -0.075939464547866126 0 0.095664945821743411 -0.080910612039901297 0 0.098850486921387981 -0.075939464547866126 0 0.1136021511018428 -0.074502617757041312 0 0.095664945821743411 -0.080910612039901297 0 0.1136021511018428 -0.074502617757041312 0 0.096919691805629274 -0.060397117951783021 0 0.096009547134759204 -0.065815411579920477 0 0.1013917853098598 -0.066864630423764004 0 0.096919691805629274 -0.060397117951783021 0 0.092648521214663035 -0.063138897464015228 0 0.096009547134759204 -0.065815411579920477 0 0.092269714259490238 -0.069172631348410715 0 0.096009547134759204 -0.065815411579920477 0 0.097130383406374296 -0.069448034474990317 0 0.096009547134759204 -0.065815411579920477 0 0.097130383406374296 -0.069448034474990317 0 0.1013917853098598 -0.066864630423764004 0 0.097130383406374296 -0.069448034474990317 0 0.1013917853098598 -0.066864630423764004 0 0.098850486921387981 -0.075939464547866126 0 0.092269714259490238 -0.069172631348410715 0 0.097130383406374296 -0.069448034474990317 0 0.098850486921387981 -0.075939464547866126 0 0.1136021511018428 -0.074502617757041312 0 0.1268946754994083 -0.086611837831889971 0 0.1315393563819422 -0.068094623474181631 0 0.1136021511018428 -0.074502617757041312 0 0.1315393563819422 -0.068094623474181631 0 0.12088369345163311 -0.061063283010140509 0 0.098850486921387981 -0.075939464547866126 0 0.12088369345163311 -0.061063283010140509 0 0.1136021511018428 -0.074502617757041312 0 0.1315393563819422 -0.068094623474181631 0 0.12088369345163311 -0.061063283010140509 0 0.098850486921387981 -0.075939464547866126 0 0.1136021511018428 -0.074502617757041312 0 0.1074433142243713 -0.085571688281443681 0 0.11102829854683249 -0.097877146315706987 0 0.1268946754994083 -0.086611837831889971 0 0.1074433142243713 -0.085571688281443681 0 0.1136021511018428 -0.074502617757041312 0 0.1268946754994083 -0.086611837831889971 0 0.1239271236268704 -0.10472542625794561 0 0.11102829854683249 -0.097877146315706987 0 0.1134652821876056 -0.12050915214118189 0 0.1239271236268704 -0.10472542625794561 0 0.11102829854683249 -0.097877146315706987 0 0.1268946754994083 -0.086611837831889971 0 0.11102829854683249 -0.097877146315706987 0 0.10276315765761369 -0.1089608460548272 0 0.1134652821876056 -0.12050915214118189 0 0.093304962387331269 -0.10194415145080341 0 0.11102829854683249 -0.097877146315706987 0 0.10276315765761369 -0.1089608460548272 0 0.093304962387331269 -0.10194415145080341 0 0.096851760274284604 -0.091423848834689861 0 0.11102829854683249 -0.097877146315706987 0 0.093304962387331269 -0.10194415145080341 0 0.092137956835774151 -0.1162678016397817 0 0.10276315765761369 -0.1089608460548272 0 0.092528875637236455 -0.1333070069729469 0 0.092137956835774151 -0.1162678016397817 0 0.1134652821876056 -0.12050915214118189 0 0.092137956835774151 -0.1162678016397817 0 0.10276315765761369 -0.1089608460548272 0 0.1134652821876056 -0.12050915214118189 0 0.1134652821876056 -0.12050915214118189 0 0.13079413548572411 -0.11644378017299579 0 0.12909723277991181 -0.13577185870777539 0 0.1239271236268704 -0.10472542625794561 0 0.1134652821876056 -0.12050915214118189 0 0.13079413548572411 -0.11644378017299579 0 0.13079413548572411 -0.11644378017299579 0 0.1505909361436564 -0.11280595529808241 0 0.13745322641478139 -0.10218521482795349 0 0.13079413548572411 -0.11644378017299579 0 0.1505909361436564 -0.11280595529808241 0 0.143068161612911 -0.12650116181558549 0 0.1505909361436564 -0.11280595529808241 0 0.143068161612911 -0.12650116181558549 0 0.15534934695897271 -0.1345980682707181 0 0.1505909361436564 -0.11280595529808241 0 0.15121114551309289 -0.098225093933932042 0 0.1633775258099234 -0.105771091938427 0 0.1505909361436564 -0.11280595529808241 0 0.15121114551309289 -0.098225093933932042 0 0.13745322641478139 -0.10218521482795349 0 0.15121114551309289 -0.098225093933932042 0 0.13745322641478139 -0.10218521482795349 0 0.1406421707966535 -0.089466576337004972 0 0.1239271236268704 -0.10472542625794561 0 0.13745322641478139 -0.10218521482795349 0 0.1268946754994083 -0.086611837831889971 0 0.1239271236268704 -0.10472542625794561 0 0.13079413548572411 -0.11644378017299579 0 0.13745322641478139 -0.10218521482795349 0 0.1268946754994083 -0.086611837831889971 0 0.1454262338025861 -0.07725814185549261 0 0.1406421707966535 -0.089466576337004972 0 0.13745322641478139 -0.10218521482795349 0 0.1268946754994083 -0.086611837831889971 0 0.1406421707966535 -0.089466576337004972 0 0.1268946754994083 -0.086611837831889971 0 0.1315393563819422 -0.068094623474181631 0 0.1454262338025861 -0.07725814185549261 0 0.12088369345163311 -0.061063283010140509 0 0.1315393563819422 -0.068094623474181631 0 0.1315393563819422 -0.068094623474181631 0 0.1454262338025861 -0.07725814185549261 0 0.1454262338025861 -0.07725814185549261 0 0.15931311122323269 -0.086421660236799577 0 0.15379348766317361 -0.060144424778598188 0 0.1315393563819422 -0.068094623474181631 0 0.1454262338025861 -0.07725814185549261 0 0.15379348766317361 -0.060144424778598188 0 0.1315393563819422 -0.068094623474181631 0 0.15379348766317361 -0.060144424778598188 0 0.1454262338025861 -0.07725814185549261 0 0.1406421707966535 -0.089466576337004972 0 0.15931311122323269 -0.086421660236799577 0 0.15121114551309289 -0.098225093933932042 0 0.1406421707966535 -0.089466576337004972 0 0.15931311122323269 -0.086421660236799577 0 0.1454262338025861 -0.07725814185549261 0 0.15931311122323269 -0.086421660236799577 0 0.15931311122323269 -0.086421660236799577 0 0.1799641602849936 -0.1000486450469022 0 0.15931311122323269 -0.086421660236799577 0 0.16804590574089889 -0.068452032954697595 0 0.15379348766317361 -0.060144424778598188 0 0.15931311122323269 -0.086421660236799577 0 0.15379348766317361 -0.060144424778598188 0 0.15931311122323269 -0.086421660236799577 0 0.16804590574089889 -0.068452032954697595 0 0.18121129783695619 -0.075697332223153238 0 0.18121129783695619 -0.075697332223153238 0 0.17786572624023059 -0.051544714580239848 0 0.19831771694453129 -0.065427681783688518 0 0.16804590574089889 -0.068452032954697595 0 0.18121129783695619 -0.075697332223153238 0 0.17786572624023059 -0.051544714580239848 0 0.18121129783695619 -0.075697332223153238 0 0.1799641602849936 -0.1000486450469022 0 0.1922093958784 -0.088468185173683031 0 0.15931311122323269 -0.086421660236799577 0 0.18121129783695619 -0.075697332223153238 0 0.1799641602849936 -0.1000486450469022 0 0.1799641602849936 -0.1000486450469022 0 0.176707098369767 -0.1160408925734869 0 0.1633775258099234 -0.105771091938427 0 0.176707098369767 -0.1160408925734869 0 0.16744194039661101 -0.1251205236400551 0 0.18042555780141409 -0.1325678503795529 0 0.176707098369767 -0.1160408925734869 0 0.19427584354703431 -0.1213858466238377 0 0.18042555780141409 -0.1325678503795529 0 0.1799641602849936 -0.1000486450469022 0 0.176707098369767 -0.1160408925734869 0 0.19427584354703431 -0.1213858466238377 0 0.1505909361436564 -0.11280595529808241 0 0.15534934695897271 -0.1345980682707181 0 0.16744194039661101 -0.1251205236400551 0 0.1633775258099234 -0.105771091938427 0 0.16744194039661101 -0.1251205236400551 0 0.1505909361436564 -0.11280595529808241 0 0.1633775258099234 -0.105771091938427 0 0.16744194039661101 -0.1251205236400551 0 0.176707098369767 -0.1160408925734869 0 0.1633775258099234 -0.105771091938427 0 0.16744194039661101 -0.1251205236400551 0 0.15931311122323269 -0.086421660236799577 0 0.1799641602849936 -0.1000486450469022 0 0.1633775258099234 -0.105771091938427 0 0.15121114551309289 -0.098225093933932042 0 0.15931311122323269 -0.086421660236799577 0 0.1633775258099234 -0.105771091938427 0 0.15931311122323269 -0.086421660236799577 0 0.1633775258099234 -0.105771091938427 0 0.16223656169118791 0.0022157833461514801 0 0.13884814345735569 0.011005776757164999 0 0.14436152462297119 -0.01524174057496751 0 0.13884814345735569 0.011005776757164999 0 0.14436152462297119 -0.01524174057496751 0 0.14436152462297119 -0.01524174057496751 0 0.12535926908485989 -0.0043146879934122416 0 0.12913625529121231 -0.019607476147758131 0 0.13884814345735569 0.011005776757164999 0 0.14436152462297119 -0.01524174057496751 0 0.12535926908485989 -0.0043146879934122416 0 0.14436152462297119 -0.01524174057496751 0 0.12913625529121231 -0.019607476147758131 0 0.1374253223122455 -0.031284107301611339 0 0.1239551684609945 -0.032385706992130767 0 0.12913625529121231 -0.019607476147758131 0 0.1374253223122455 -0.031284107301611339 0 0.14436152462297119 -0.01524174057496751 0 0.14987490578858451 -0.041489257907100577 0 0.14436152462297119 -0.01524174057496751 0 0.14987490578858451 -0.041489257907100577 0 0.1374253223122455 -0.031284107301611339 0 0.14436152462297119 -0.01524174057496751 0 0.14987490578858451 -0.041489257907100577 0 0.1707957871329677 -0.02736408604974799 0 0.14987490578858451 -0.041489257907100577 0 0.1374253223122455 -0.031284107301611339 0 0.13537929962010881 -0.051276270458620578 0 0.14987490578858451 -0.041489257907100577 0 0.13537929962010881 -0.051276270458620578 0 0.1201536240352835 -0.048221520910736497 0 0.1239551684609945 -0.032385706992130767 0 0.13537929962010881 -0.051276270458620578 0 0.1239551684609945 -0.032385706992130767 0 0.1374253223122455 -0.031284107301611339 0 0.13537929962010881 -0.051276270458620578 0 0.1315393563819422 -0.068094623474181631 0 0.13537929962010881 -0.051276270458620578 0 0.15379348766317361 -0.060144424778598188 0 0.12088369345163311 -0.061063283010140509 0 0.1315393563819422 -0.068094623474181631 0 0.13537929962010881 -0.051276270458620578 0 0.12088369345163311 -0.061063283010140509 0 0.1201536240352835 -0.048221520910736497 0 0.13537929962010881 -0.051276270458620578 0 0.12088369345163311 -0.061063283010140509 0 0.13537929962010881 -0.051276270458620578 0 0.14987490578858451 -0.041489257907100577 0 0.13537929962010881 -0.051276270458620578 0 0.15379348766317361 -0.060144424778598188 0 0.14987490578858451 -0.041489257907100577 0 0.15379348766317361 -0.060144424778598188 0 0.14987490578858451 -0.041489257907100577 0 0.15379348766317361 -0.060144424778598188 0 0.17786572624023059 -0.051544714580239848 0 0.15379348766317361 -0.060144424778598188 0 0.17786572624023059 -0.051544714580239848 0 0.16804590574089889 -0.068452032954697595 0 0.15379348766317361 -0.060144424778598188 0 0.17786572624023059 -0.051544714580239848 0 0.17786572624023059 -0.051544714580239848 0 0.1707957871329677 -0.02736408604974799 0 0.20193796481728571 -0.042945004381876317 0 0.14987490578858451 -0.041489257907100577 0 0.17786572624023059 -0.051544714580239848 0 0.1707957871329677 -0.02736408604974799 0 0.14987490578858451 -0.041489257907100577 0 0.1707957871329677 -0.02736408604974799 0 0.1707957871329677 -0.02736408604974799 0 0.18265408171503719 -0.0030557455288178601 0 0.19493770480533359 -0.017712206632060679 0 0.16223656169118791 0.0022157833461514801 0 0.1707957871329677 -0.02736408604974799 0 0.18265408171503719 -0.0030557455288178601 0 0.16223656169118791 0.0022157833461514801 0 0.14436152462297119 -0.01524174057496751 0 0.1707957871329677 -0.02736408604974799 0 0.20486585250753339 0.006033998516739681 0 0.19493770480533359 -0.017712206632060679 0 0.21416380205206731 -0.01919695951123352 0 0.20486585250753339 0.006033998516739681 0 0.21416380205206731 -0.01919695951123352 0 0.22881534689338351 -0.0067413783578508836 0 0.20486585250753339 0.006033998516739681 0 0.22881534689338351 -0.0067413783578508836 0 0.20486585250753339 0.006033998516739681 0 0.18265408171503719 -0.0030557455288178601 0 0.19493770480533359 -0.017712206632060679 0 0.1707957871329677 -0.02736408604974799 0 0.19493770480533359 -0.017712206632060679 0 0.20193796481728571 -0.042945004381876317 0 0.19493770480533359 -0.017712206632060679 0 0.21416380205206731 -0.01919695951123352 0 0.20193796481728571 -0.042945004381876317 0 0.20193796481728571 -0.042945004381876317 0 0.2248075747971198 -0.058779720494384409 0 0.22601020339434089 -0.034345294183512759 0 0.21416380205206731 -0.01919695951123352 0 0.20193796481728571 -0.042945004381876317 0 0.22601020339434089 -0.034345294183512759 0 0.20193796481728571 -0.042945004381876317 0 0.22601020339434089 -0.034345294183512759 0 0.17786572624023059 -0.051544714580239848 0 0.20193796481728571 -0.042945004381876317 0 0.19831771694453129 -0.065427681783688518 0 0.17786572624023059 -0.051544714580239848 0 0.20193796481728571 -0.042945004381876317 0 0.20193796481728571 -0.042945004381876317 0 0.2248075747971198 -0.058779720494384409 0 0.19831771694453129 -0.065427681783688518 0 0.25027221821810919 -0.062730901385869536 0 0.2248075747971198 -0.058779720494384409 0 0.24214582632319651 -0.041520736204954882 0 0.25008244197139601 -0.025745583985149201 0 0.24214582632319651 -0.041520736204954882 0 0.22601020339434089 -0.034345294183512759 0 0.2532759523207152 -0.036614299393221493 0 0.25008244197139601 -0.025745583985149201 0 0.24214582632319651 -0.041520736204954882 0 0.2248075747971198 -0.058779720494384409 0 0.24214582632319651 -0.041520736204954882 0 0.22601020339434089 -0.034345294183512759 0 0.21416380205206731 -0.01919695951123352 0 0.22601020339434089 -0.034345294183512759 0 0.22881534689338351 -0.0067413783578508836 0 0.25008244197139601 -0.025745583985149201 0 0.22601020339434089 -0.034345294183512759 0 0.25008244197139601 -0.025745583985149201 0 0.25276484127923371 -0.019516755232441469 0 0.22881534689338351 -0.0067413783578508836 0 0.25008244197139601 -0.025745583985149201 0 0.22601020339434089 -0.034345294183512759 0 0.22881534689338351 -0.0067413783578508836 0 0.25276484127923371 -0.019516755232441469 0 0.22881534689338351 -0.0067413783578508836 0 0.25276484127923371 -0.019516755232441469 0 0.2578183078052394 -0.0046775058104196422 0 0.22881534689338351 -0.0067413783578508836 0 0.2044421675050371 -0.1000837818670651 0 0.19427584354703431 -0.1213858466238377 0 0.22035953718491391 -0.11652910462706979 0 0.1799641602849936 -0.1000486450469022 0 0.2044421675050371 -0.1000837818670651 0 0.1922093958784 -0.088468185173683031 0 0.1799641602849936 -0.1000486450469022 0 0.2044421675050371 -0.1000837818670651 0 0.19427584354703431 -0.1213858466238377 0 0.2044421675050371 -0.1000837818670651 0 0.1922093958784 -0.088468185173683031 0 0.21188565206888479 -0.079552573396424547 0 0.18121129783695619 -0.075697332223153238 0 0.1922093958784 -0.088468185173683031 0 0.19831771694453129 -0.065427681783688518 0 0.1922093958784 -0.088468185173683031 0 0.19831771694453129 -0.065427681783688518 0 0.21188565206888479 -0.079552573396424547 0 0.2248075747971198 -0.058779720494384409 0 0.19831771694453129 -0.065427681783688518 0 0.21188565206888479 -0.079552573396424547 0 0.2044421675050371 -0.1000837818670651 0 0.21188565206888479 -0.079552573396424547 0 0.2346456727933289 -0.088972169602324333 0 0.2248075747971198 -0.058779720494384409 0 0.21188565206888479 -0.079552573396424547 0 0.2346456727933289 -0.088972169602324333 0 0.25027221821810919 -0.062730901385869536 0 0.2248075747971198 -0.058779720494384409 0 0.2346456727933289 -0.088972169602324333 0 0.26338486502251762 -0.082721516093943043 0 0.25027221821810919 -0.062730901385869536 0 0.2346456727933289 -0.088972169602324333 0 0.25813406033465791 -0.10474764002266811 0 0.2346456727933289 -0.088972169602324333 0 0.23970600391078839 -0.1106636934142253 0 0.2044421675050371 -0.1000837818670651 0 0.2346456727933289 -0.088972169602324333 0 0.22035953718491391 -0.11652910462706979 0 0.2346456727933289 -0.088972169602324333 0 0.22035953718491391 -0.11652910462706979 0 0.23970600391078839 -0.1106636934142253 0 0.22035953718491391 -0.11652910462706979 0 0.24568474533025289 -0.1324058594048389 0 0.22035953718491391 -0.11652910462706979 0 0.23970600391078839 -0.1106636934142253 0 0.24568474533025289 -0.1324058594048389 0 0.25813406033465791 -0.10474764002266811 0 0.23970600391078839 -0.1106636934142253 0 0.24568474533025289 -0.1324058594048389 0 0.22035953718491391 -0.11652910462706979 0 0.22901836296006869 -0.14970123450775921 0 0.20782736052854359 -0.1396118476693598 0 0.24568474533025289 -0.1324058594048389 0 0.22901836296006869 -0.14970123450775921 0 0.24849357928226631 -0.1676643122024345 0 0.22035953718491391 -0.11652910462706979 0 0.24568474533025289 -0.1324058594048389 0 0.22901836296006869 -0.14970123450775921 0 0.19427584354703431 -0.1213858466238377 0 0.22035953718491391 -0.11652910462706979 0 0.20782736052854359 -0.1396118476693598 0 0.22901836296006869 -0.14970123450775921 0 0.20782736052854359 -0.1396118476693598 0 0.20623844019940071 -0.16407025285414439 0 0.20782736052854359 -0.1396118476693598 0 0.18924461875130039 -0.1463727997339877 0 0.20623844019940071 -0.16407025285414439 0 0.19427584354703431 -0.1213858466238377 0 0.18924461875130039 -0.1463727997339877 0 0.18042555780141409 -0.1325678503795529 0 0.19427584354703431 -0.1213858466238377 0 0.20782736052854359 -0.1396118476693598 0 0.18924461875130039 -0.1463727997339877 0 0.1908909627879477 -0.1796695965345301 0 0.20623844019940071 -0.16407025285414439 0 0.18431331828788911 -0.1629849707185316 0 0.18924461875130039 -0.1463727997339877 0 0.20623844019940071 -0.16407025285414439 0 0.18431331828788911 -0.1629849707185316 0 0.1908909627879477 -0.1796695965345301 0 0.20623844019940071 -0.16407025285414439 0 0.21303721000187181 -0.1920890481799068 0 0.20623844019940071 -0.16407025285414439 0 0.22694889667548671 -0.17336327392049289 0 0.21303721000187181 -0.1920890481799068 0 0.22694889667548671 -0.17336327392049289 0 0.23795689093382599 -0.19329152185821941 0 0.21303721000187181 -0.1920890481799068 0 0.22901836296006869 -0.14970123450775921 0 0.20623844019940071 -0.16407025285414439 0 0.22694889667548671 -0.17336327392049289 0 0.22901836296006869 -0.14970123450775921 0 0.22694889667548671 -0.17336327392049289 0 0.24849357928226631 -0.1676643122024345 0 0.22694889667548671 -0.17336327392049289 0 0.24849357928226631 -0.1676643122024345 0 0.23795689093382599 -0.19329152185821941 0 0.25725343700597442 -0.19058501030067529 0 0.24849357928226631 -0.1676643122024345 0 0.23795689093382599 -0.19329152185821941 0 0.25273416985964109 -0.2120531155792281 0 0.25725343700597442 -0.19058501030067529 0 0.23795689093382599 -0.19329152185821941 0 0.25273416985964109 -0.2120531155792281 0 0.23795689093382599 -0.19329152185821941 0 0.23327475845994319 -0.21527746596205621 0 0.23327475845994319 -0.21527746596205621 0 0.21211799784888311 -0.22191807619518589 0 0.21303721000187181 -0.1920890481799068 0 0.23795689093382599 -0.19329152185821941 0 0.23327475845994319 -0.21527746596205621 0 0.21303721000187181 -0.1920890481799068 0 0.25616369049222548 -0.24239128145182301 0 0.25813887505379007 -0.26055424525756882 0 0.2351284364513366 -0.24123616072637741 0 0.25616369049222548 -0.24239128145182301 0 0.2351284364513366 -0.24123616072637741 0 0.24900600388781791 -0.2290071461893943 0 0.23327475845994319 -0.21527746596205621 0 0.2351284364513366 -0.24123616072637741 0 0.24900600388781791 -0.2290071461893943 0 0.25273416985964109 -0.2120531155792281 0 0.23327475845994319 -0.21527746596205621 0 0.24900600388781791 -0.2290071461893943 0 0.23327475845994319 -0.21527746596205621 0 0.2351284364513366 -0.24123616072637741 0 0.21211799784888311 -0.22191807619518589 0 0.2351284364513366 -0.24123616072637741 0 0.21211799784888311 -0.22191807619518589 0 0.21409739439958861 -0.2512128851476762 0 0.2351284364513366 -0.24123616072637741 0 0.21211799784888311 -0.22191807619518589 0 0.21409739439958861 -0.2512128851476762 0 0.21211799784888311 -0.22191807619518589 0 0.189436148834709 -0.23324663156129799 0 0.21211799784888311 -0.22191807619518589 0 0.189436148834709 -0.23324663156129799 0 0.18910755924642969 -0.20259999166399439 0 0.21409739439958861 -0.2512128851476762 0 0.19255650290014989 -0.25917299242076808 0 0.189436148834709 -0.23324663156129799 0 0.21211799784888311 -0.22191807619518589 0 0.21303721000187181 -0.1920890481799068 0 0.18910755924642969 -0.20259999166399439 0 0.21211799784888311 -0.22191807619518589 0 0.18910755924642969 -0.20259999166399439 0 0.1908909627879477 -0.1796695965345301 0 0.21303721000187181 -0.1920890481799068 0 0.18910755924642969 -0.20259999166399439 0 0.1908909627879477 -0.1796695965345301 0 0.18910755924642969 -0.20259999166399439 0 0.1683669577328365 -0.1943840726313438 0 0.189436148834709 -0.23324663156129799 0 0.18910755924642969 -0.20259999166399439 0 0.16751688481017141 -0.21703850481586759 0 0.18910755924642969 -0.20259999166399439 0 0.16751688481017141 -0.21703850481586759 0 0.1683669577328365 -0.1943840726313438 0 0.16751688481017141 -0.21703850481586759 0 0.1683669577328365 -0.1943840726313438 0 0.16751688481017141 -0.21703850481586759 0 0.1683669577328365 -0.1943840726313438 0 0.1481576337672057 -0.20178682117711449 0 0.189436148834709 -0.23324663156129799 0 0.17878440785046479 -0.24991483132568099 0 0.16666681188750609 -0.23969293700039129 0 0.19255650290014989 -0.25917299242076808 0 0.189436148834709 -0.23324663156129799 0 0.17878440785046479 -0.24991483132568099 0 0.189436148834709 -0.23324663156129799 0 0.16751688481017141 -0.21703850481586759 0 0.16666681188750609 -0.23969293700039129 0 0.16751688481017141 -0.21703850481586759 0 0.16666681188750609 -0.23969293700039129 0 0.1518138644159884 -0.2345377817199514 0 0.16751688481017141 -0.21703850481586759 0 0.16666681188750609 -0.23969293700039129 0 0.16666681188750609 -0.23969293700039129 0 0.1539547824528123 -0.24985798083397259 0 0.1518138644159884 -0.2345377817199514 0 0.1539547824528123 -0.24985798083397259 0 0.1518138644159884 -0.2345377817199514 0 0.13522572268806199 -0.24734031978412491 0 0.16751688481017141 -0.21703850481586759 0 0.1518138644159884 -0.2345377817199514 0 0.14117239820189001 -0.22105923388505591 0 0.1518138644159884 -0.2345377817199514 0 0.14117239820189001 -0.22105923388505591 0 0.13522572268806199 -0.24734031978412491 0 0.1209741658996374 -0.22659904895176869 0 0.14117239820189001 -0.22105923388505591 0 0.13522572268806199 -0.24734031978412491 0 0.1683669577328365 -0.1943840726313438 0 0.1481576337672057 -0.20178682117711449 0 0.1434441552764642 -0.18065047248878929 0 0.16751688481017141 -0.21703850481586759 0 0.14117239820189001 -0.22105923388505591 0 0.1481576337672057 -0.20178682117711449 0 0.1209741658996374 -0.22659904895176869 0 0.14117239820189001 -0.22105923388505591 0 0.12575633351974169 -0.19822102528061711 0 0.14117239820189001 -0.22105923388505591 0 0.1481576337672057 -0.20178682117711449 0 0.12575633351974169 -0.19822102528061711 0 0.1481576337672057 -0.20178682117711449 0 0.12575633351974169 -0.19822102528061711 0 0.1434441552764642 -0.18065047248878929 0 0.11573907996837469 -0.17780838033877949 0 0.1434441552764642 -0.18065047248878929 0 0.12915287184905519 -0.15912448827296621 0 0.11573907996837469 -0.17780838033877949 0 0.12575633351974169 -0.19822102528061711 0 0.1434441552764642 -0.18065047248878929 0 0.1434441552764642 -0.18065047248878929 0 0.15215479123854489 -0.161772644949535 0 0.1692170306555017 -0.17172964044681999 0 0.1434441552764642 -0.18065047248878929 0 0.15215479123854489 -0.161772644949535 0 0.12915287184905519 -0.15912448827296621 0 0.12915287184905519 -0.15912448827296621 0 0.12909723277991181 -0.13577185870777539 0 0.145826855110927 -0.14536959912100991 0 0.12909723277991181 -0.13577185870777539 0 0.143068161612911 -0.12650116181558549 0 0.145826855110927 -0.14536959912100991 0 0.13079413548572411 -0.11644378017299579 0 0.12909723277991181 -0.13577185870777539 0 0.143068161612911 -0.12650116181558549 0 0.143068161612911 -0.12650116181558549 0 0.15534934695897271 -0.1345980682707181 0 0.145826855110927 -0.14536959912100991 0 0.15215479123854489 -0.161772644949535 0 0.12915287184905519 -0.15912448827296621 0 0.145826855110927 -0.14536959912100991 0 0.15534934695897271 -0.1345980682707181 0 0.145826855110927 -0.14536959912100991 0 0.16657771022532239 -0.14827354755483041 0 0.15215479123854489 -0.161772644949535 0 0.145826855110927 -0.14536959912100991 0 0.16657771022532239 -0.14827354755483041 0 0.16657771022532239 -0.14827354755483041 0 0.16744194039661101 -0.1251205236400551 0 0.18042555780141409 -0.1325678503795529 0 0.15534934695897271 -0.1345980682707181 0 0.16657771022532239 -0.14827354755483041 0 0.16744194039661101 -0.1251205236400551 0 0.18924461875130039 -0.1463727997339877 0 0.16657771022532239 -0.14827354755483041 0 0.18042555780141409 -0.1325678503795529 0 0.18924461875130039 -0.1463727997339877 0 0.16657771022532239 -0.14827354755483041 0 0.18431331828788911 -0.1629849707185316 0 0.1908909627879477 -0.1796695965345301 0 0.18431331828788911 -0.1629849707185316 0 0.1692170306555017 -0.17172964044681999 0 0.16657771022532239 -0.14827354755483041 0 0.18431331828788911 -0.1629849707185316 0 0.1692170306555017 -0.17172964044681999 0 0.1908909627879477 -0.1796695965345301 0 0.1683669577328365 -0.1943840726313438 0 0.1692170306555017 -0.17172964044681999 0 0.1683669577328365 -0.1943840726313438 0 0.1692170306555017 -0.17172964044681999 0 0.1683669577328365 -0.1943840726313438 0 0.1434441552764642 -0.18065047248878929 0 0.1692170306555017 -0.17172964044681999 0 0.15215479123854489 -0.161772644949535 0 0.16657771022532239 -0.14827354755483041 0 0.1692170306555017 -0.17172964044681999 0 
</DataArray>
</Points>
<Cells>
<DataArray type="UInt32" Name="connectivity" format="ascii">
0 1 2 3 4 5 6 7 8 9 10 11 12 13 14 15 16 17 18 19 20 21 22 23 24 25 26 27 28 29 30 31 32 33 34 35 36 37 38 39 40 41 42 43 44 45 46 47 48 49 50 51 52 53 54 55 56 57 58 59 60 61 62 63 64 65 66 67 68 69 70 71 72 73 74 75 76 77 78 79 80 81 82 83 84 85 86 87 88 89 90 91 92 93 94 95 96 97 98 99 100 101 102 103 104 105 106 107 108 109 110 111 112 113 114 115 116 117 118 119 120 121 122 123 124 125 126 127 128 129 130 131 132 133 134 135 136 137 138 139 140 141 142 143 144 145 146 147 148 149 150 151 152 153 154 155 156 157 158 159 160 161 162 163 164 165 166 167 168 169 170 171 172 173 174 175 176 177 178 179 180 181 182 183 184 185 186 187 188 189 190 191 192 193 194 195 196 197 198 199 200 201 202 203 204 205 206 207 208 209 210 211 212 213 214 215 216 217 218 219 220 221 222 223 224 225 226 227 228 229 230 231 232 233 234 235 236 237 238 239 240 241 242 243 244 245 246 247 248 249 250 251 252 253 254 255 256 257 258 259 260 261 262 263 264 265 266 267 268 269 270 271 272 273 274 275 276 277 278 279 280 281 282 283 284 285 286 287 288 289 290 291 292 293 294 295 296 297 298 299 300 301 302 303 304 305 306 307 308 309 310 311 312 313 314 315 316 317 318 319 320 321 322 323 324 325 326 327 328 329 330 331 332 333 334 335 336 337 338 339 340 341 342 343 344 345 346 347 348 349 350 351 352 353 354 355 356 357 358 359 360 361 362 363 364 365 366 367 368 369 370 371 372 373 374 375 376 377 378 379 380 381 382 383 384 385 386 387 388 389 390 391 392 393 394 395 396 397 398 399 400 401 402 403 404 405 406 407 408 409 410 411 412 413 414 415 416 417 418 419 420 421 422 423 424 425 426 427 428 429 430 431 432 433 434 435 436 437 438 439 440 441 442 443 444 445 446 447 448 449 450 451 452 453 454 455 456 457 458 459 460 461 462 463 464 465 466 467 468 469 470 471 472 473 474 475 476 477 478 479 480 481 482 483 484 485 486 487 488 489 490 491 492 493 494 495 496 497 498 499 500 501 502 503 504 505 506 507 508 509 510 511 512 513 514 515 516 517 518 519 520 521 522 523 524 525 526 527 528 529 530 531 532 533 534 535 536 537 538 539 540 541 542 543 544 545 546 547 548 549 550 551 552 553 554 555 556 557 558 559 560 561 562 563 564 565 566 567 568 569 570 571 572 573 574 575 576 577 578 579 580 581 582 583 584 585 586 587 588 589 590 591 592 593 594 595 596 597 598 599 600 601 602 603 604 605 606 607 608 609 610 611 612 613 614 615 616 617 618 619 620 621 622 623 624 625 626 627 628 629 630 631 632 633 634 635 636 637 638 639 640 641 642 643 644 645 646 647 648 649 650 651 652 653 654 655 656 657 658 659 660 661 662 663 664 665 666 667 668 669 670 671 672 673 674 675 676 677 678 679 680 681 682 683 684 685 686 687 688 689 690 691 692 693 694 695 696 697 698 699 700 701 702 703 704 705 706 707 708 709 710 711 712 713 714 715 716 717 718 719 720 721 722 723 724 725 726 727 728 729 730 731 732 733 734 735 736 737 738 739 740 741 742 743 744 745 746 747 748 749 750 751 752 753 754 755 756 757 758 759 760 761 762 763 764 765 766 767 768 769 770 771 772 773 774 775 776 777 778 779 780 781 782 783 784 785 786 787 788 789 790 791 792 793 794 795 796 797 798 799 800 801 802 803 804 805 806 807 808 809 810 811 812 813 814 815 816 817 818 819 820 821 822 823 824 825 826 827 828 829 830 831 832 833 834 835 836 837 838 839 840 841 842 843 844 845 846 847 848 849 850 851 852 853 854 855 856 857 858 859 860 861 862 863 864 865 866 867 868 869 870 871 872 873 874 875 876 877 878 879 880 881 882 883 884 885 886 887 888 889 890 891 892 893 894 895 896 897 898 899 900 901 902 903 904 905 906 907 908 909 910 911 912 913 914 915 916 917 918 919 920 921 922 923 924 925 926 927 928 929 930 931 932 933 934 935 936 937 938 939 940 941 942 943 944 945 946 947 948 949 950 951 952 953 954 955 956 957 958 959 960 961 962 963 964 965 966 967 968 969 970 971 972 973 974 975 976 977 978 979 980 981 982 983 984 985 986 987 988 989 990 991 992 993 994 995 996 997 998 999 1000 1001 1002 1003 1004 1005 1006 1007 1008 1009 1010 1011 1012 1013 1014 1015 1016 1017 1018 1019 1020 1021 1022 1023 1024 1025 1026 1027 1028 1029 1030 1031 1032 1033 1034 1035 1036 1037 1038 1039 1040 1041 1042 1043 1044 1045 1046 1047 1048 1049 1050 1051 1052 1053 1054 1055 1056 1057 1058 1059 1060 1061 1062 1063 1064 1065 1066 1067 1068 1069 1070 1071 1072 1073 1074 1075 1076 1077 1078 1079 1080 1081 1082 1083 1084 1085 1086 1087 1088 1089 1090 1091 1092 1093 1094 1095 1096 1097 1098 1099 1100 1101 1102 1103 1104 1105 1106 1107 1108 1109 1110 1111 1112 1113 1114 1115 1116 1117 1118 1119 1120 1121 1122 1123 1124 1125 1126 1127 1128 1129 1130 1131 1132 1133 1134 1135 1136 1137 1138 1139 1140 1141 1142 1143 1144 1145 1146 1147 1148 1149 1150 1151 1152 1153 1154 1155 1156 1157 1158 1159 1160 1161 1162 1163 1164 1165 1166 1167 1168 1169 1170 1171 1172 1173 1174 1175 1176 1177 1178 1179 1180 1181 1182 1183 1184 1185 1186 1187 1188 1189 1190 1191 1192 1193 1194 1195 1196 1197 1198 1199 1200 1201 1202 1203 1204 1205 1206 1207 1208 1209 1210 1211 1212 1213 1214 1215 1216 1217 1218 1219 1220 1221 1222 1223 1224 1225 1226 1227 1228 1229 1230 1231 1232 1233 1234 1235 1236 1237 1238 1239 1240 1241 1242 1243 1244 1245 1246 1247 1248 1249 1250 1251 1252 1253 1254 1255 1256 1257 1258 1259 1260 1261 1262 1263 1264 1265 1266 1267 1268 1269 1270 1271 1272 1273 1274 1275 1276 1277 1278 1279 1280 1281 1282 1283 1284 1285 1286 1287 1288 1289 1290 1291 1292 1293 1294 1295 1296 1297 1298 1299 1300 1301 1302 1303 1304 1305 1306 1307 1308 1309 1310 1311 1312 1313 1314 1315 1316 1317 1318 1319 1320 1321 1322 1323 1324 1325 1326 1327 1328 1329 1330 1331 1332 1333 1334 1335 1336 1337 1338 1339 1340 1341 1342 1343 1344 1345 1346 1347 1348 1349 1350 1351 1352 1353 1354 1355 1356 1357 1358 1359 1360 1361 1362 1363 1364 1365 1366 1367 1368 1369 1370 1371 1372 1373 1374 1375 1376 1377 1378 1379 1380 1381 1382 1383 1384 1385 1386 1387 1388 1389 1390 1391 1392 1393 1394 1395 1396 1397 1398 1399 1400 1401 1402 1403 1404 1405 1406 1407 1408 1409 1410 1411 1412 1413 1414 1415 1416 1417 1418 1419 1420 1421 1422 1423 1424 1425 1426 1427 1428 1429 1430 1431 1432 1433 1434 1435 1436 1437 1438 1439 1440 1441 1442 1443 1444 1445 1446 1447 1448 1449 1450 1451 1452 1453 1454 1455 1456 1457 1458 1459 1460 1461 1462 1463 1464 1465 1466 1467 1468 1469 1470 1471 1472 1473 1474 1475 1476 1477 1478 1479 1480 1481 1482 1483 1484 1485 1486 1487 1488 1489 1490 1491 1492 1493 1494 1495 1496 1497 1498 1499 1500 1501 1502 1503 1504 1505 1506 1507 1508 1509 1510 1511 1512 1513 1514 1515 1516 1517 1518 1519 1520 1521 1522 1523 1524 1525 1526 1527 1528 1529 1530 1531 1532 1533 1534 1535 1536 1537 1538 1539 1540 1541 1542 1543 1544 1545 1546 1547 1548 1549 1550 1551 1552 1553 1554 1555 1556 1557 1558 1559 1560 1561 1562 1563 1564 1565 1566 1567 1568 1569 1570 1571 1572 1573 1574 1575 1576 1577 1578 1579 1580 1581 1582 1583 1584 1585 1586 1587 1588 1589 1590 1591 1592 1593 1594 1595 1596 1597 1598 1599 1600 1601 1602 1603 1604 1605 1606 1607 1608 1609 1610 1611 1612 1613 1614 1615 1616 1617 1618 1619 1620 1621 1622 1623 1624 1625 1626 1627 1628 1629 1630 1631 1632 1633 1634 1635 1636 1637 1638 1639 1640 1641 1642 1643 1644 1645 1646 1647 1648 1649 1650 1651 1652 1653 1654 1655 1656 1657 1658 1659 1660 1661 1662 1663 1664 1665 1666 1667 1668 1669 1670 1671 1672 1673 1674 1675 1676 1677 1678 1679 1680 1681 1682 1683 1684 1685 1686 1687 1688 1689 1690 1691 1692 1693 1694 1695 1696 1697 1698 1699 1700 1701 1702 1703 1704 1705 1706 1707 1708 1709 1710 1711 1712 1713 1714 1715 1716 1717 1718 1719 1720 1721 1722 1723 1724 1725 1726 1727 1728 1729 1730 1731 1732 1733 1734 1735 1736 1737 1738 1739 1740 1741 1742 1743 1744 1745 1746 1747 1748 1749 1750 1751 1752 1753 1754 1755 1756 1757 1758 1759 1760 1761 1762 1763 1764 1765 1766 1767 1768 1769 1770 1771 1772 1773 1774 1775 1776 1777 1778 1779 1780 1781 1782 1783 1784 1785 1786 1787 1788 1789 1790 1791 1792 1793 1794 1795 1796 1797 1798 1799 1800 1801 1802 1803 1804 1805 1806 1807 1808 1809 1810 1811 1812 1813 1814 1815 1816 1817 1818 1819 1820 1821 1822 1823 1824 1825 1826 1827 1828 1829 1830 1831 1832 1833 1834 1835 1836 1837 1838 1839 1840 1841 1842 1843 1844 1845 1846 1847 1848 1849 1850 1851 1852 1853 1854 1855 1856 1857 1858 1859 1860 1861 1862 1863 1864 1865 1866 1867 1868 1869 1870 1871 1872 1873 1874 1875 1876 1877 1878 1879 1880 1881 1882 1883 1884 1885 1886 1887 1888 1889 1890 1891 1892 1893 1894 1895 1896 1897 1898 1899 1900 1901 1902 1903 1904 1905 1906 1907 1908 1909 1910 1911 1912 1913 1914 1915 1916 1917 1918 1919 1920 1921 1922 1923 1924 1925 1926 1927 1928 1929 1930 1931 1932 1933 1934 1935 1936 1937 1938 1939 1940 1941 1942 1943 1944 1945 1946 1947 1948 1949 1950 1951 1952 1953 1954 1955 1956 1957 1958 1959 1960 1961 1962 1963 1964 1965 1966 1967 1968 1969 1970 1971 1972 1973 1974 1975 1976 1977 1978 1979 1980 1981 1982 1983 1984 1985 1986 1987 1988 1989 1990 1991 1992 1993 1994 1995 1996 1997 1998 1999 2000 2001 2002 2003 2004 2005 2006 2007 2008 2009 2010 2011 2012 2013 2014 2015 2016 2017 2018 2019 2020 2021 2022 2023 2024 2025 2026 2027 2028 2029 2030 2031 2032 2033 2034 2035 2036 2037 2038 2039 2040 2041 2042 2043 2044 2045 2046 2047 2048 2049 2050 2051 2052 2053 2054 2055 2056 2057 2058 2059 2060 2061 2062 2063 2064 2065 2066 2067 2068 2069 2070 2071 2072 2073 2074 2075 2076 2077 2078 2079 2080 2081 2082 2083 2084 2085 2086 2087 2088 2089 2090 2091 2092 2093 2094 2095 2096 2097 2098 2099 2100 2101 2102 2103 2104 2105 2106 2107 2108 2109 2110 2111 2112 2113 2114 2115 2116 2117 2118 2119 2120 2121 2122 2123 2124 2125 2126 2127 2128 2129 2130 2131 2132 2133 2134 2135 2136 2137 2138 2139 2140 2141 2142 2143 2144 2145 2146 2147 2148 2149 2150 2151 2152 2153 2154 2155 2156 2157 2158 2159 2160 2161 2162 2163 2164 2165 2166 2167 2168 2169 2170 2171 2172 2173 2174 2175 2176 2177 2178 2179 2180 2181 2182 2183 2184 2185 2186 2187 2188 2189 2190 2191 2192 2193 2194 2195 2196 2197 2198 2199 2200 2201 2202 2203 2204 2205 2206 2207 2208 2209 2210 2211 2212 2213 2214 2215 2216 2217 2218 2219 2220 2221 2222 2223 2224 2225 2226 2227 2228 2229 2230 2231 2232 2233 2234 2235 2236 2237 2238 2239 2240 2241 2242 2243 2244 2245 2246 2247 2248 2249 2250 2251 2252 2253 2254 2255 2256 2257 2258 2259 2260 2261 2262 2263 2264 2265 2266 2267 2268 2269 2270 2271 2272 2273 2274 2275 2276 2277 2278 2279 2280 2281 2282 2283 2284 2285 2286 2287 2288 2289 2290 2291 2292 2293 2294 2295 2296 2297 2298 2299 2300 2301 2302 2303 2304 2305 2306 2307 2308 2309 2310 2311 2312 2313 2314 2315 2316 2317 2318 2319 2320 2321 2322 2323 2324 2325 2326 2327 2328 2329 2330 2331 2332 2333 2334 2335 2336 2337 2338 2339 2340 2341 2342 2343 2344 2345 2346 2347 2348 2349 2350 2351 2352 2353 2354 2355 2356 2357 2358 2359 2360 2361 2362 2363 2364 2365 2366 2367 2368 2369 2370 2371 2372 2373 2374 2375 2376 2377 2378 2379 2380 2381 2382 2383 2384 2385 2386 2387 2388 2389 2390 2391 2392 2393 2394 2395 2396 2397 2398 2399 2400 2401 2402 2403 2404 2405 2406 2407 2408 2409 2410 2411 2412 2413 2414 2415 2416 2417 2418 2419 2420 2421 2422 2423 2424 2425 2426 2427 2428 2429 2430 2431 2432 2433 2434 2435 2436 2437 2438 2439 2440 2441 2442 2443 2444 2445 2446 2447 2448 2449 2450 2451 2452 2453 2454 2455 2456 2457 2458 2459 2460 2461 2462 2463 2464 2465 2466 2467 2468 2469 2470 2471 2472 2473 2474 2475 2476 2477 2478 2479 2480 2481 2482 2483 2484 2485 2486 2487 2488 2489 2490 2491 2492 2493 2494 2495 2496 2497 2498 2499 2500 2501 2502 2503 2504 2505 2506 2507 2508 2509 2510 2511 2512 2513 2514 2515 2516 2517 2518 2519 2520 2521 2522 2523 2524 2525 2526 2527 2528 2529 2530 2531 2532 2533 2534 2535 2536 2537 2538 2539 2540 2541 2542 2543 2544 2545 2546 2547 2548 2549 2550 2551 2552 2553 2554 2555 2556 2557 2558 2559 2560 2561 2562 2563 2564 2565 2566 2567 2568 2569 2570 2571 2572 2573 2574 2575 2576 2577 2578 2579 2580 2581 2582 2583 2584 2585 2586 2587 2588 2589 2590 2591 2592 2593 2594 2595 2596 2597 2598 2599 2600 2601 2602 2603 2604 2605 2606 2607 2608 2609 2610 2611 2612 2613 2614 2615 2616 2617 2618 2619 2620 2621 2622 2623 2624 2625 2626 2627 2628 2629 2630 2631 2632 2633 2634 2635 2636 2637 2638 2639 2640 2641 2642 2643 2644 2645 2646 2647 2648 2649 2650 2651 2652 2653 2654 2655 2656 2657 2658 2659 2660 2661 2662 2663 2664 2665 2666 2667 2668 2669 2670 2671 2672 2673 2674 2675 2676 2677 2678 2679 2680 2681 2682 2683 2684 2685 2686 2687 2688 2689 2690 2691 2692 2693 2694 2695 2696 2697 2698 2699 2700 2701 2702 2703 2704 2705 2706 2707 2708 2709 2710 2711 2712 2713 2714 2715 2716 2717 2718 2719 2720 2721 2722 2723 2724 2725 2726 2727 2728 2729 2730 2731 2732 2733 2734 2735 2736 2737 2738 2739 2740 2741 2742 2743 2744 2745 2746 2747 2748 2749 2750 2751 2752 2753 2754 2755 2756 2757 2758 2759 2760 2761 2762 2763 2764 2765 2766 2767 2768 2769 2770 2771 2772 2773 2774 2775 2776 2777 2778 2779 2780 2781 2782 2783 2784 2785 2786 2787 2788 2789 2790 2791 2792 2793 2794 2795 2796 2797 2798 2799 2800 2801 2802 2803 2804 2805 2806 2807 2808 2809 2810 2811 2812 2813 2814 2815 2816 2817 2818 2819 2820 2821 2822 2823 2824 2825 2826 2827 2828 2829 2830 2831 2832 2833 2834 2835 2836 2837 2838 2839 2840 2841 2842 2843 2844 2845 2846 2847 2848 2849 2850 2851 2852 2853 2854 2855 2856 2857 2858 2859 2860 2861 2862 2863 2864 2865 2866 2867 2868 2869 2870 2871 2872 2873 2874 2875 2876 2877 2878 2879 2880 2881 2882 2883 2884 2885 2886 2887 2888 2889 2890 2891 2892 2893 2894 2895 2896 2897 2898 2899 2900 2901 2902 2903 2904 2905 2906 2907 2908 2909 2910 2911 2912 2913 2914 2915 2916 2917 2918 2919 2920 2921 2922 2923 2924 2925 2926 2927 2928 2929 2930 2931 2932 2933 2934 2935 2936 2937 2938 2939 2940 2941 2942 2943 2944 2945 2946 2947 2948 2949 2950 2951 2952 2953 2954 2955 2956 2957 2958 2959 2960 2961 2962 2963 2964 2965 2966 2967 2968 2969 2970 2971 2972 2973 2974 2975 2976 2977 2978 2979 2980 2981 2982 2983 2984 2985 2986 2987 2988 2989 2990 2991 2992 2993 2994 2995 2996 2997 2998 2999 3000 3001 3002 3003 3004 3005 3006 3007 3008 3009 3010 3011 3012 3013 3014 3015 3016 3017 3018 3019 3020 3021 3022 3023 3024 3025 3026 3027 3028 3029 3030 3031 3032 3033 3034 3035 3036 3037 3038 3039 3040 3041 3042 3043 3044 3045 3046 3047 3048 3049 3050 3051 3052 3053 3054 3055 3056 3057 3058 3059 3060 3061 3062 3063 3064 3065 3066 3067 3068 3069 3070 3071 3072 3073 3074 3075 3076 3077 3078 3079 3080 3081 3082 3083 3084 3085 3086 3087 3088 3089 3090 3091 3092 3093 3094 3095 3096 3097 3098 3099 3100 3101 3102 3103 3104 3105 3106 3107 3108 3109 3110 3111 3112 3113 3114 3115 3116 3117 3118 3119 3120 3121 3122 3123 3124 3125 3126 3127 3128 3129 3130 3131 3132 3133 3134 3135 3136 3137 3138 3139 3140 3141 3142 3143 3144 3145 3146 3147 3148 3149 3150 3151 3152 3153 3154 3155 3156 3157 3158 3159 3160 3161 3162 3163 3164 3165 3166 3167 3168 3169 3170 3171 3172 3173 3174 3175 3176 3177 3178 3179 3180 3181 3182 3183 3184 3185 3186 3187 3188 3189 3190 3191 3192 3193 3194 3195 3196 3197 3198 3199 3200 3201 3202 3203 3204 3205 3206 3207 3208 3209 3210 3211 3212 3213 3214 3215 3216 3217 3218 3219 3220 3221 3222 3223 3224 3225 3226 3227 3228 3229 3230 3231 3232 3233 3234 3235 3236 3237 3238 3239 3240 3241 3242 3243 3244 3245 3246 3247 3248 3249 3250 3251 3252 3253 3254 3255 3256 3257 3258 3259 3260 3261 3262 3263 3264 3265 3266 3267 3268 3269 3270 3271 3272 3273 3274 3275 3276 3277 3278 3279 3280 3281 3282 3283 3284 3285 3286 3287 3288 3289 3290 3291 3292 3293 3294 3295 3296 3297 3298 3299 3300 3301 3302 3303 3304 3305 3306 3307 3308 3309 3310 3311 3312 3313 3314 3315 3316 3317 3318 3319 3320 3321 3322 3323 3324 3325 3326 3327 3328 3329 3330 3331 3332 3333 3334 3335 3336 3337 3338 3339 3340 3341 3342 3343 3344 3345 3346 3347 3348 3349 3350 3351 3352 3353 3354 3355 3356 3357 3358 3359 3360 3361 3362 3363 3364 3365 3366 3367 3368 3369 3370 3371 3372 3373 3374 3375 3376 3377 3378 3379 3380 3381 3382 3383 3384 3385 3386 3387 3388 3389 3390 3391 3392 3393 3394 3395 3396 3397 3398 3399 3400 3401 3402 3403 3404 3405 3406 3407 3408 3409 3410 3411 3412 3413 3414 3415 3416 3417 3418 3419 3420 3421 3422 3423 3424 3425 3426 3427 3428 3429 3430 3431 3432 3433 3434 3435 3436 3437 3438 3439 3440 3441 3442 3443 3444 3445 3446 3447 3448 3449 3450 3451 3452 3453 3454 3455 3456 3457 3458 3459 3460 3461 3462 3463 3464 3465 3466 3467 3468 3469 3470 3471 3472 3473 3474 3475 3476 3477 3478 3479 3480 3481 3482 3483 3484 3485 3486 3487 3488 3489 3490 3491 3492 3493 3494 3495 3496 3497 3498 3499 3500 3501 3502 3503 3504 3505 3506 3507 3508 3509 3510 3511 3512 3513 3514 3515 3516 3517 3518 3519 3520 3521 3522 3523 3524 3525 3526 3527 3528 3529 3530 3531 3532 3533 3534 3535 3536 3537 3538 3539 3540 3541 3542 3543 3544 3545 3546 3547 3548 3549 3550 3551 3552 3553 3554 3555 3556 3557 3558 3559 3560 3561 3562 3563 3564 3565 3566 3567 3568 3569 3570 3571 3572 3573 3574 3575 3576 3577 3578 3579 3580 3581 3582 3583 3584 3585 3586 3587 3588 3589 3590 3591 3592 3593 3594 3595 3596 3597 3598 3599 3600 3601 3602 3603 3604 3605 3606 3607 3608 3609 3610 3611 3612 3613 3614 3615 3616 3617 3618 3619 3620 3621 3622 3623 3624 3625 3626 3627 3628 3629 3630 3631 3632 3633 3634 3635 3636 3637 3638 3639 3640 3641 3642 3643 3644 3645 3646 3647 3648 3649 3650 3651 3652 3653 3654 3655 3656 3657 3658 3659 3660 3661 3662 3663 3664 3665 3666 3667 3668 3669 3670 3671 3672 3673 3674 3675 3676 3677 3678 3679 3680 3681 3682 3683 3684 3685 3686 3687 3688 3689 3690 3691 3692 3693 3694 3695 3696 3697 3698 3699 3700 3701 3702 3703 3704 3705 3706 3707 3708 3709 3710 3711 3712 3713 3714 3715 3716 3717 3718 3719 3720 3721 3722 3723 3724 3725 3726 3727 3728 3729 3730 3731 3732 3733 3734 3735 3736 3737 3738 3739 3740 3741 3742 3743 3744 3745 3746 3747 3748 3749 3750 3751 3752 3753 3754 3755 3756 3757 3758 3759 3760 3761 3762 3763 3764 3765 3766 3767 3768 3769 3770 3771 3772 3773 3774 3775 3776 3777 3778 3779 3780 3781 3782 3783 3784 3785 3786 3787 3788 3789 3790 3791 3792 3793 3794 3795 3796 3797 3798 3799 3800 3801 3802 3803 3804 3805 3806 3807 3808 3809 3810 3811 3812 3813 3814 3815 3816 3817 3818 3819 3820 3821 3822 3823 3824 3825 3826 3827 3828 3829 3830 3831 3832 3833 3834 3835 3836 3837 3838 3839 3840 3841 3842 3843 3844 3845 3846 3847 3848 3849 3850 3851 3852 3853 3854 3855 3856 3857 3858 3859 3860 3861 3862 3863 3864 3865 3866 3867 3868 3869 3870 3871 3872 3873 3874 3875 3876 3877 3878 3879 3880 3881 3882 3883 3884 3885 3886 3887 3888 3889 3890 3891 3892 3893 3894 3895 3896 3897 3898 3899 3900 3901 3902 3903 3904 3905 3906 3907 3908 3909 3910 3911 3912 3913 3914 3915 3916 3917 3918 3919 3920 3921 3922 3923 3924 3925 3926 3927 3928 3929 3930 3931 3932 3933 3934 3935 3936 3937 3938 3939 3940 3941 3942 3943 3944 3945 3946 3947 3948 3949 3950 3951 3952 3953 3954 3955 3956 3957 3958 3959 3960 3961 3962 3963 3964 3965 3966 3967 3968 3969 3970 3971 3972 3973 3974 3975 3976 3977 3978 3979 3980 3981 3982 3983 3984 3985 3986 3987 3988 3989 3990 3991 3992 3993 3994 3995 3996 3997 3998 3999 4000 4001 4002 4003 4004 4005 4006 4007 4008 4009 4010 4011 4012 4013 4014 4015 4016 4017 4018 4019 4020 4021 4022 4023 4024 4025 4026 4027 4028 4029 4030 4031 4032 4033 4034 4035 4036 4037 4038 4039 4040 4041 4042 4043 4044 4045 4046 4047 4048 4049 4050 4051 4052 4053 4054 4055 4056 4057 4058 4059 4060 4061 4062 4063 4064 4065 4066 4067 4068 4069 4070 4071 4072 4073 4074 4075 4076 4077 4078 4079 4080 4081 4082 4083 4084 4085 4086 4087 4088 4089 4090 4091 4092 4093 4094 4095 4096 4097 4098 4099 4100 4101 4102 4103 4104 4105 4106 4107 4108 4109 4110 4111 4112 4113 4114 4115 4116 4117 4118 4119 4120 4121 4122 4123 4124 4125 4126 4127 4128 4129 4130 4131 4132 4133 4134 4135 4136 4137 4138 4139 4140 4141 4142 4143 4144 4145 4146 4147 4148 4149 4150 4151 4152 4153 4154 4155 4156 4157 4158 4159 4160 4161 4162 4163 4164 4165 4166 4167 4168 4169 4170 4171 4172 4173 4174 4175 4176 4177 4178 4179 4180 4181 4182 4183 4184 4185 4186 4187 4188 4189 4190 4191 4192 4193 4194 4195 4196 4197 4198 4199 4200 4201 4202 4203 4204 4205 4206 4207 4208 4209 4210 4211 4212 4213 4214 4215 4216 4217 4218 4219 4220 4221 4222 4223 4224 4225 4226 4227 4228 4229 4230 4231 4232 4233 4234 4235 4236 4237 4238 4239 4240 4241 4242 4243 4244 4245 4246 4247 4248 4249 4250 4251 4252 4253 4254 4255 4256 4257 4258 4259 4260 4261 4262 4263 4264 4265 4266 4267 4268 4269 4270 4271 4272 4273 4274 4275 4276 4277 4278 4279 4280 4281 4282 4283 4284 4285 4286 4287 4288 4289 4290 4291 4292 4293 4294 4295 4296 4297 4298 4299 4300 4301 4302 4303 4304 4305 4306 4307 4308 4309 4310 4311 4312 4313 4314 4315 4316 4317 4318 4319 4320 4321 4322 4323 4324 4325 4326 4327 4328 4329 4330 4331 4332 4333 4334 4335 4336 4337 4338 4339 4340 4341 4342 4343 4344 4345 4346 4347 4348 4349 4350 4351 4352 4353 4354 4355 4356 4357 4358 4359 4360 4361 4362 4363 4364 4365 4366 4367 4368 4369 4370 4371 4372 4373 4374 4375 4376 4377 4378 4379 4380 4381 4382 4383 4384 4385 4386 4387 4388 4389 4390 4391 4392 4393 4394 4395 4396 4397 4398 4399 4400 4401 4402 4403 4404 4405 4406 4407 4408 4409 4410 4411 4412 4413 4414 4415 4416 4417 4418 4419 4420 4421 4422 4423 4424 4425 4426 4427 4428 4429 4430 4431 4432 4433 4434 4435 4436 4437 4438 4439 4440 4441 4442 4443 4444 4445 4446 4447 4448 4449 4450 4451 4452 4453 4454 4455 4456 4457 4458 4459 4460 4461 4462 4463 4464 4465 4466 4467 4468 4469 4470 4471 4472 4473 4474 4475 4476 4477 4478 4479 4480 4481 4482 4483 4484 4485 4486 4487 4488 4489 4490 4491 4492 4493 4494 4495 4496 4497 4498 4499 4500 4501 4502 4503 4504 4505 4506 4507 4508 4509 4510 4511 4512 4513 4514 4515 4516 4517 4518 4519 4520 4521 4522 4523 4524 4525 4526 4527 4528 4529 4530 4531 4532 4533 4534 4535 4536 4537 4538 4539 4540 4541 4542 4543 4544 4545 4546 4547 4548 4549 4550 4551 4552 4553 4554 4555 4556 4557 4558 4559 4560 4561 4562 4563 4564 4565 4566 4567 4568 4569 4570 4571 4572 4573 4574 4575 4576 4577 4578 4579 4580 4581 4582 4583 4584 4585 4586 4587 4588 4589 4590 4591 4592 4593 4594 4595 4596 4597 4598 4599 4600 4601 4602 4603 4604 4605 4606 4607 4608 4609 4610 4611 4612 4613 4614 4615 4616 4617 4618 4619 4620 4621 4622 4623 4624 4625 4626 4627 4628 4629 4630 4631 4632 4633 4634 4635 4636 4637 4638 4639 4640 4641 4642 4643 4644 4645 4646 4647 4648 4649 4650 4651 4652 4653 4654 4655 4656 4657 4658 4659 4660 4661 4662 4663 4664 4665 4666 4667 4668 4669 4670 4671 4672 4673 4674 4675 4676 4677 4678 4679 4680 4681 4682 4683 4684 4685 4686 4687 4688 4689 4690 4691 4692 4693 4694 4695 4696 4697 4698 4699 4700 4701 4702 4703 4704 4705 4706 4707 4708 4709 4710 4711 4712 4713 4714 4715 4716 4717 4718 4719 4720 4721 4722 4723 4724 4725 4726 4727 4728 4729 4730 4731 4732 4733 4734 4735 4736 4737 4738 4739 4740 4741 4742 4743 4744 4745 4746 4747 4748 4749 4750 4751 4752 4753 4754 4755 4756 4757 4758 4759 4760 4761 4762 4763 4764 4765 4766 4767 4768 4769 4770 4771 4772 4773 4774 4775 4776 4777 4778 4779 4780 4781 4782 4783 4784 4785 4786 4787 4788 4789 4790 4791 4792 4793 4794 4795 4796 4797 4798 4799 4800 4801 4802 4803 4804 4805 4806 4807 4808 4809 4810 4811 4812 4813 4814 4815 4816 4817 4818 4819 4820 4821 4822 4823 4824 4825 4826 4827 4828 4829 4830 4831 4832 4833 4834 4835 4836 4837 4838 4839 4840 4841 4842 4843 4844 4845 4846 4847 4848 4849 4850 4851 4852 4853 4854 4855 4856 4857 4858 4859 4860 4861 4862 4863 4864 4865 4866 4867 4868 4869 4870 4871 4872 4873 4874 4875 4876 4877 4878 4879 4880 4881 4882 4883 4884 4885 4886 4887 4888 4889 4890 4891 4892 4893 4894 4895 4896 4897 4898 4899 4900 4901 4902 4903 4904 4905 4906 4907 4908 4909 4910 4911 4912 4913 4914 4915 4916 4917 4918 4919 4920 4921 4922 4923 4924 4925 4926 4927 4928 4929 4930 4931 4932 4933 4934 4935 4936 4937 4938 4939 4940 4941 4942 4943 4944 4945 4946 4947 4948 4949 4950 4951 4952 4953 4954 4955 4956 4957 4958 4959 4960 4961 4962 4963 4964 4965 4966 4967 4968 4969 4970 4971 4972 4973 4974 4975 4976 4977 4978 4979 4980 4981 4982 4983 4984 4985 4986 4987 4988 4989 4990 4991 4992 4993 4994 4995 4996 4997 4998 4999 5000 5001 5002 5003 5004 5005 5006 5007 5008 5009 5010 5011 5012 5013 5014 5015 5016 5017 5018 5019 5020 5021 5022 5023 5024 5025 5026 5027 5028 5029 5030 5031 5032 5033 5034 5035 5036 5037 5038 5039 5040 5041 5042 5043 5044 5045 5046 5047 5048 5049 5050 5051 5052 5053 5054 5055 5056 5057 5058 5059 5060 5061 5062 5063 5064 5065 5066 5067 5068 5069 5070 5071 5072 5073 5074 5075 5076 5077 5078 5079 5080 5081 5082 5083 5084 5085 5086 5087 5088 5089 5090 5091 5092 5093 5094 5095 5096 5097 5098 5099 5100 5101 5102 5103 5104 5105 5106 5107 5108 5109 5110 5111 5112 5113 5114 5115 5116 5117 5118 5119 5120 5121 5122 5123 5124 5125 5126 5127 5128 5129 5130 5131 5132 5133 5134 5135 5136 5137 5138 5139 5140 5141 5142 5143 5144 5145 5146 5147 5148 5149 5150 5151 5152 5153 5154 5155 5156 5157 5158 5159 5160 5161 5162 5163 5164 5165 5166 5167 5168 5169 5170 5171 5172 5173 5174 5175 5176 5177 5178 5179 5180 5181 5182 5183 5184 5185 5186 5187 5188 5189 5190 5191 5192 5193 5194 5195 5196 5197 5198 5199 5200 5201 5202 5203 5204 5205 5206 5207 5208 5209 5210 5211 5212 5213 5214 5215 5216 5217 5218 5219 5220 5221 5222 5223 5224 5225 5226 5227 5228 5229 5230 5231 5232 5233 5234 5235 5236 5237 5238 5239 5240 5241 5242 5243 5244 5245 5246 5247 5248 5249 5250 5251 5252 5253 5254 5255 5256 5257 5258 5259 5260 5261 5262 5263 5264 5265 5266 5267 5268 5269 5270 5271 5272 5273 5274 5275 5276 5277 5278 5279 5280 5281 5282 5283 5284 5285 5286 5287 5288 5289 5290 5291 5292 5293 5294 5295 5296 5297 5298 5299 5300 5301 5302 5303 5304 5305 5306 5307 5308 5309 5310 5311 5312 5313 5314 5315 5316 5317 5318 5319 5320 5321 5322 5323 5324 5325 5326 5327 5328 5329 5330 5331 5332 5333 5334 5335 5336 5337 5338 5339 5340 5341 5342 5343 5344 5345 5346 5347 5348 5349 5350 5351 5352 5353 5354 5355 5356 5357 5358 5359 5360 5361 5362 5363 5364 5365 5366 5367 5368 5369 5370 5371 5372 5373 5374 5375 5376 5377 5378 5379 5380 5381 5382 5383 5384 5385 5386 5387 5388 5389 5390 5391 5392 5393 5394 5395 5396 5397 5398 5399 5400 5401 5402 5403 5404 5405 5406 5407 5408 5409 5410 5411 5412 5413 5414 5415 5416 5417 5418 5419 5420 5421 5422 5423 5424 5425 5426 5427 5428 5429 5430 5431 5432 5433 5434 5435 5436 5437 5438 5439 5440 5441 5442 5443 5444 5445 5446 5447 5448 5449 5450 5451 5452 5453 5454 5455 5456 5457 5458 5459 5460 5461 5462 5463 5464 5465 5466 5467 5468 5469 5470 5471 5472 5473 5474 5475 5476 5477 5478 5479 5480 5481 5482 5483 5484 5485 5486 5487 5488 5489 5490 5491 5492 5493 5494 5495 5496 5497 5498 5499 5500 5501 5502 5503 5504 5505 5506 5507 5508 5509 5510 5511 5512 5513 5514 5515 5516 5517 5518 5519 5520 5521 5522 5523 5524 5525 5526 5527 5528 5529 5530 5531 5532 5533 5534 5535 5536 5537 5538 5539 5540 5541 5542 5543 5544 5545 5546 5547 5548 5549 5550 5551 5552 5553 5554 5555 5556 5557 5558 5559 5560 5561 5562 5563 5564 5565 5566 5567 5568 5569 5570 5571 5572 5573 5574 5575 5576 5577 5578 5579 5580 5581 5582 5583 5584 5585 5586 5587 5588 5589 5590 5591 5592 5593 5594 5595 5596 5597 5598 5599 5600 5601 5602 5603 5604 5605 5606 5607 5608 5609 5610 5611 5612 5613 5614 5615 5616 5617 5618 5619 5620 5621 5622 5623 5624 5625 5626 5627 5628 5629 5630 5631 5632 5633 5634 5635 5636 5637 5638 5639 5640 5641 5642 5643 5644 5645 5646 5647 5648 5649 5650 5651 5652 5653 5654 5655 5656 5657 5658 5659 5660 5661 5662 5663 5664 5665 5666 5667 5668 5669 5670 5671 5672 5673 5674 5675 5676 5677 5678 5679 5680 5681 5682 5683 5684 5685 5686 5687 5688 5689 5690 5691 5692 5693 5694 5695 5696 5697 5698 5699 5700 5701 5702 5703 5704 5705 5706 5707 5708 5709 5710 5711 5712 5713 5714 5715 5716 5717 5718 5719 5720 5721 5722 5723 5724 5725 5726 5727 5728 5729 5730 5731 5732 5733 5734 5735 5736 5737 5738 5739 5740 5741 5742 5743 5744 5745 5746 5747 5748 5749 5750 5751 5752 5753 5754 5755 5756 5757 5758 5759 5760 5761 5762 5763 5764 5765 5766 5767 5768 5769 5770 5771 5772 5773 5774 5775 5776 5777 5778 5779 5780 5781 5782 5783 5784 5785 5786 5787 5788 5789 5790 5791 5792 5793 5794 5795 5796 5797 5798 5799 5800 5801 5802 5803 5804 5805 5806 5807 5808 5809 5810 5811 5812 5813 5814 5815 5816 5817 5818 5819 5820 5821 5822 5823 5824 5825 5826 5827 5828 5829 5830 5831 5832 5833 5834 5835 5836 5837 5838 5839 5840 5841 5842 5843 5844 5845 5846 5847 5848 5849 5850 5851 5852 5853 5854 5855 5856 5857 5858 5859 5860 5861 5862 5863 5864 5865 5866 5867 5868 5869 5870 5871 5872 5873 5874 5875 5876 5877 5878 5879 5880 5881 5882 5883 5884 5885 5886 5887 5888 5889 5890 5891 5892 5893 5894 5895 5896 5897 5898 5899 5900 5901 5902 5903 5904 5905 5906 5907 5908 5909 5910 5911 5912 5913 5914 5915 5916 5917 5918 5919 5920 5921 5922 5923 5924 5925 5926 5927 5928 5929 5930 5931 5932 5933 5934 5935 5936 5937 5938 5939 5940 5941 5942 5943 5944 5945 5946 5947 5948 5949 5950 5951 5952 5953 5954 5955 5956 5957 5958 5959 5960 5961 5962 5963 5964 5965 5966 5967 5968 5969 5970 5971 5972 5973 5974 5975 5976 5977 5978 5979 5980 5981 5982 5983 5984 5985 5986 5987 5988 5989 5990 5991 5992 5993 5994 5995 5996 5997 5998 5999 6000 6001 6002 6003 6004 6005 6006 6007 6008 6009 6010 6011 6012 6013 6014 6015 6016 6017 6018 6019 6020 6021 6022 6023 6024 6025 6026 6027 6028 6029 6030 6031 6032 6033 6034 6035 6036 6037 6038 6039 6040 6041 6042 6043 6044 6045 6046 6047 6048 6049 6050 6051 6052 6053 6054 6055 6056 6057 6058 6059 6060 6061 6062 6063 6064 6065 6066 6067 6068 6069 6070 6071 6072 6073 6074 6075 6076 6077 6078 6079 6080 6081 6082 6083 6084 6085 6086 6087 6088 6089 6090 6091 6092 6093 6094 6095 6096 6097 6098 6099 6100 6101 6102 6103 6104 6105 6106 6107 6108 6109 6110 6111 6112 6113 6114 6115 6116 6117 6118 6119 6120 6121 6122 6123 6124 6125 6126 6127 6128 6129 6130 6131 6132 6133 6134 6135 6136 6137 6138 6139 6140 6141 6142 6143 6144 6145 6146 6147 6148 6149 6150 6151 6152 6153 6154 6155 6156 6157 6158 6159 6160 6161 6162 6163 6164 6165 6166 6167 6168 6169 6170 6171 6172 6173 6174 6175 6176 6177 6178 6179 6180 6181 6182 6183 6184 6185 6186 6187 6188 6189 6190 6191 6192 6193 6194 6195 6196 6197 6198 6199 6200 6201 6202 6203 6204 6205 6206 6207 6208 6209 6210 6211 6212 6213 6214 6215 6216 6217 6218 6219 6220 6221 6222 6223 6224 6225 6226 6227 6228 6229 6230 6231 6232 6233 6234 6235 6236 6237 6238 6239 6240 6241 6242 6243 6244 6245 6246 6247 6248 6249 6250 6251 6252 6253 6254 6255 6256 6257 6258 6259 6260 6261 6262 6263 6264 6265 6266 6267 6268 6269 6270 6271 6272 6273 6274 6275 6276 6277 6278 6279 6280 6281 6282 6283 6284 6285 6286 6287 6288 6289 6290 6291 6292 6293 6294 6295 6296 6297 6298 6299 6300 6301 6302 6303 6304 6305 6306 6307 6308 6309 6310 6311 6312 6313 6314 6315 6316 6317 6318 6319 6320 6321 6322 6323 6324 6325 6326 6327 6328 6329 6330 6331 6332 6333 6334 6335 6336 6337 6338 6339 6340 6341 6342 6343 6344 6345 6346 6347 6348 6349 6350 6351 6352 6353 6354 6355 6356 6357 6358 6359 6360 6361 6362 6363 6364 6365 6366 6367 6368 6369 6370 6371 6372 6373 6374 6375 6376 6377 6378 6379 6380 6381 6382 6383 6384 6385 6386 6387 6388 6389 6390 6391 6392 6393 6394 6395 6396 6397 6398 6399 6400 6401 6402 6403 6404 6405 6406 6407 6408 6409 6410 6411 6412 6413 6414 6415 6416 6417 6418 6419 6420 6421 6422 6423 6424 6425 6426 6427 6428 6429 6430 6431 6432 6433 6434 6435 6436 6437 6438 6439 6440 6441 6442 6443 6444 6445 6446 6447 6448 6449 6450 6451 6452 6453 6454 6455 6456 6457 6458 6459 6460 6461 6462 6463 6464 6465 6466 6467 6468 6469 6470 6471 6472 6473 6474 6475 6476 6477 6478 6479 6480 6481 6482 6483 6484 6485 6486 6487 6488 6489 6490 6491 6492 6493 6494 6495 6496 6497 6498 6499 6500 6501 6502 6503 6504 6505 6506 6507 6508 6509 6510 6511 6512 6513 6514 6515 6516 6517 6518 6519 6520 6521 6522 6523 6524 6525 6526 6527 6528 6529 6530 6531 6532 6533 6534 6535 6536 6537 6538 6539 6540 6541 6542 6543 6544 6545 6546 6547 6548 6549 6550 6551 6552 6553 6554 6555 6556 6557 6558 6559 6560 6561 6562 6563 6564 6565 6566 6567 6568 6569 6570 6571 6572 6573 6574 6575 6576 6577 6578 6579 6580 6581 6582 6583 6584 6585 6586 6587 6588 6589 6590 6591 6592 6593 6594 6595 6596 6597 6598 6599 6600 6601 6602 6603 6604 6605 6606 6607 6608 6609 6610 6611 6612 6613 6614 6615 6616 6617 6618 6619 6620 6621 6622 6623 6624 6625 6626 6627 6628 6629 6630 6631 6632 6633 6634 6635 6636 6637 6638 6639 6640 6641 6642 6643 6644 6645 6646 6647 6648 6649 6650 6651 6652 6653 6654 6655 6656 6657 6658 6659 6660 6661 6662 6663 6664 6665 6666 6667 6668 6669 6670 6671 6672 6673 6674 6675 6676 6677 6678 6679 6680 6681 6682 6683 6684 6685 6686 6687 6688 6689 6690 6691 6692 6693 6694 6695 6696 6697 6698 6699 6700 6701 6702 6703 6704 6705 6706 6707 6708 6709 6710 6711 6712 6713 6714 6715 6716 6717 6718 6719 6720 6721 6722 6723 6724 6725 6726 6727 6728 6729 6730 6731 6732 6733 6734 6735 6736 6737 6738 6739 6740 6741 6742 6743 6744 6745 6746 6747 6748 6749 6750 6751 6752 6753 6754 6755 6756 6757 6758 6759 6760 6761 6762 6763 6764 6765 6766 6767 6768 6769 6770 6771 6772 6773 6774 6775 6776 6777 6778 6779 6780 6781 6782 6783 6784 6785 6786 6787 6788 6789 6790 6791 6792 6793 6794 6795 6796 6797 6798 6799 6800 6801 6802 6803 6804 6805 6806 6807 6808 6809 6810 6811 6812 6813 6814 6815 6816 6817 6818 6819 6820 6821 6822 6823 6824 6825 6826 6827 6828 6829 6830 6831 6832 6833 6834 6835 6836 6837 6838 6839 6840 6841 6842 6843 6844 6845 6846 6847 6848 6849 6850 6851 6852 6853 6854 6855 6856 6857 6858 6859 6860 6861 6862 6863 6864 6865 6866 6867 6868 6869 6870 6871 6872 6873 6874 6875 6876 6877 6878 6879 6880 6881 6882 6883 6884 6885 6886 6887 6888 6889 6890 6891 6892 6893 6894 6895 6896 6897 6898 6899 6900 6901 6902 6903 6904 6905 6906 6907 6908 6909 6910 6911 6912 6913 6914 6915 6916 6917 6918 6919 6920 6921 6922 6923 6924 6925 6926 6927 6928 6929 6930 6931 6932 6933 6934 6935 6936 6937 6938 6939 6940 6941 6942 6943 6944 6945 6946 6947 6948 6949 6950 6951 6952 6953 6954 6955 6956 6957 6958 6959 6960 6961 6962 6963 6964 6965 6966 6967 6968 6969 6970 6971 6972 6973 6974 6975 6976 6977 6978 6979 6980 6981 6982 6983 6984 6985 6986 6987 6988 6989 6990 6991 6992 6993 6994 6995 6996 6997 6998 6999 7000 7001 7002 7003 7004 7005 7006 7007 7008 7009 7010 7011 7012 7013 7014 7015 7016 7017 7018 7019 7020 7021 7022 7023 7024 7025 7026 7027 7028 7029 7030 7031 7032 7033 7034 7035 7036 7037 7038 7039 7040 7041 7042 7043 7044 7045 7046 7047 7048 7049 7050 7051 7052 7053 7054 7055 7056 7057 7058 7059 7060 7061 7062 7063 7064 7065 7066 7067 7068 7069 7070 7071 7072 7073 7074 7075 7076 7077 7078 7079 7080 7081 7082 7083 7084 7085 7086 7087 7088 7089 7090 7091 7092 7093 7094 7095 7096 7097 7098 7099 7100 7101 7102 7103 7104 7105 7106 7107 7108 7109 7110 7111 7112 7113 7114 7115 7116 7117 7118 7119 7120 7121 7122 7123 7124 7125 7126 7127 7128 7129 7130 7131 7132 7133 7134 7135 7136 7137 7138 7139 7140 7141 7142 7143 7144 7145 7146 7147 7148 7149 7150 7151 7152 7153 7154 7155 7156 7157 7158 7159 7160 7161 7162 7163 7164 7165 7166 7167 7168 7169 7170 7171 7172 7173 7174 7175 7176 7177 7178 7179 7180 7181 7182 7183 7184 7185 7186 7187 7188 7189 7190 7191 7192 7193 7194 7195 7196 7197 7198 7199 7200 7201 7202 7203 7204 7205 7206 7207 7208 7209 7210 7211 7212 7213 7214 7215 7216 7217 7218 7219 7220 7221 7222 7223 7224 7225 7226 7227 7228 7229 7230 7231 7232 7233 7234 7235 7236 7237 7238 7239 7240 7241 7242 7243 7244 7245 7246 7247 7248 7249 7250 7251 7252 7253 7254 7255 7256 7257 7258 7259 7260 7261 7262 7263 7264 7265 7266 7267 7268 7269 7270 7271 7272 7273 7274 7275 7276 7277 7278 7279 7280 7281 7282 7283 7284 7285 7286 7287 7288 7289 7290 7291 7292 7293 7294 7295 7296 7297 7298 7299 7300 7301 7302 7303 7304 7305 7306 7307 7308 7309 7310 7311 7312 7313 7314 7315 7316 7317 7318 7319 7320 7321 7322 7323 7324 7325 7326 7327 7328 7329 7330 7331 7332 7333 7334 7335 7336 7337 7338 7339 7340 7341 7342 7343 7344 7345 7346 7347 7348 7349 7350 7351 7352 7353 7354 7355 7356 7357 7358 7359 7360 7361 7362 7363 7364 7365 7366 7367 7368 7369 7370 7371 7372 7373 7374 7375 7376 7377 7378 7379 7380 7381 7382 7383 7384 7385 7386 7387 7388 7389 7390 7391 7392 7393 7394 7395 7396 7397 7398 7399 7400 7401 7402 7403 7404 7405 7406 7407 7408 7409 7410 7411 7412 7413 7414 7415 7416 7417 7418 7419 7420 7421 7422 7423 7424 7425 7426 7427 7428 7429 7430 7431 7432 7433 7434 7435 7436 7437 7438 7439 7440 7441 7442 7443 7444 7445 7446 7447 7448 7449 7450 7451 7452 7453 7454 7455 7456 7457 7458 7459 7460 7461 7462 7463 7464 7465 7466 7467 7468 7469 7470 7471 7472 7473 7474 7475 7476 7477 7478 7479 7480 7481 7482 7483 7484 7485 7486 7487 7488 7489 7490 7491 7492 7493 7494 7495 7496 7497 7498 7499 7500 7501 7502 7503 7504 7505 7506 7507 7508 7509 7510 7511 7512 7513 7514 7515 7516 7517 7518 7519 7520 7521 7522 7523 7524 7525 7526 7527 7528 7529 7530 7531 7532 7533 7534 7535 7536 7537 7538 7539 7540 7541 7542 7543 7544 7545 7546 7547 7548 7549 7550 7551 7552 7553 7554 7555 7556 7557 7558 7559 7560 7561 7562 7563 7564 7565 7566 7567 7568 7569 7570 7571 7572 7573 7574 7575 7576 7577 7578 7579 7580 7581 7582 7583 7584 7585 7586 7587 7588 7589 7590 7591 7592 7593 7594 7595 7596 7597 7598 7599 7600 7601 7602 7603 7604 7605 7606 7607 7608 7609 7610 7611 7612 7613 7614 7615 7616 7617 7618 7619 7620 7621 7622 7623 7624 7625 7626 7627 7628 7629 7630 7631 7632 7633 7634 7635 7636 7637 7638 7639 7640 7641 7642 7643 7644 7645 7646 7647 7648 7649 7650 7651 7652 7653 7654 7655 7656 7657 7658 7659 7660 7661 7662 7663 7664 7665 7666 7667 7668 7669 7670 7671 7672 7673 7674 7675 7676 7677 7678 7679 7680 7681 7682 7683 7684 7685 7686 7687 7688 7689 7690 7691 7692 7693 7694 7695 7696 7697 7698 7699 7700 7701 7702 7703 7704 7705 7706 7707 7708 7709 7710 7711 7712 7713 7714 7715 7716 7717 7718 7719 7720 7721 7722 7723 7724 7725 7726 7727 7728 7729 7730 7731 7732 7733 7734 7735 7736 7737 7738 7739 7740 7741 7742 7743 7744 7745 7746 7747 7748 7749 7750 7751 7752 7753 7754 7755 7756 7757 7758 7759 7760 7761 7762 7763 7764 7765 7766 7767 7768 7769 7770 7771 7772 7773 7774 7775 7776 7777 7778 7779 7780 7781 7782 7783 7784 7785 7786 7787 7788 7789 7790 7791 7792 7793 7794 7795 7796 7797 7798 7799 7800 7801 7802 7803 7804 7805 7806 7807 7808 7809 7810 7811 7812 7813 7814 7815 7816 7817 7818 7819 7820 7821 7822 7823 7824 7825 7826 7827 7828 7829 7830 7831 7832 7833 7834 7835 7836 7837 7838 7839 7840 7841 7842 7843 7844 7845 7846 7847 7848 7849 7850 7851 7852 7853 7854 7855 7856 7857 7858 7859 7860 7861 7862 7863 7864 7865 7866 7867 7868 7869 7870 7871 7872 7873 7874 7875 7876 7877 7878 7879 7880 7881 7882 7883 7884 7885 7886 7887 7888 7889 7890 7891 7892 7893 7894 7895 7896 7897 7898 7899 7900 7901 7902 7903 7904 7905 7906 7907 7908 7909 7910 7911 7912 7913 7914 7915 7916 7917 7918 7919 7920 7921 7922 7923 7924 7925 7926 7927 7928 7929 7930 7931 7932 7933 7934 7935 7936 7937 7938 7939 7940 7941 7942 7943 7944 7945 7946 7947 7948 7949 7950 7951 7952 7953 7954 7955 7956 7957 7958 7959 7960 7961 7962 7963 7964 7965 7966 7967 7968 7969 7970 7971 7972 7973 7974 7975 7976 7977 7978 7979 7980 7981 7982 7983 7984 7985 7986 7987 7988 7989 7990 7991 7992 7993 7994 7995 7996 7997 7998 7999 8000 8001 8002 8003 8004 8005 8006 8007 8008 8009 8010 8011 8012 8013 8014 8015 8016 8017 8018 8019 8020 8021 8022 8023 8024 8025 8026 8027 8028 8029 8030 8031 8032 8033 8034 8035 8036 8037 8038 8039 8040 8041 8042 8043 8044 8045 8046 8047 8048 8049 8050 8051 8052 8053 8054 8055 8056 8057 8058 8059 8060 8061 8062 8063 8064 8065 8066 8067 8068 8069 8070 8071 8072 8073 8074 8075 8076 8077 8078 8079 8080 8081 8082 8083 8084 8085 8086 8087 8088 8089 8090 8091 8092 8093 8094 8095 8096 8097 8098 8099 8100 8101 8102 8103 8104 8105 8106 8107 8108 8109 8110 8111 8112 8113 8114 8115 8116 8117 8118 8119 8120 8121 8122 8123 8124 8125 8126 8127 8128 8129 8130 8131 8132 8133 8134 8135 8136 8137 8138 8139 8140 8141 8142 8143 8144 8145 8146 8147 8148 8149 8150 8151 8152 8153 8154 8155 8156 8157 8158 8159 8160 8161 8162 8163 8164 8165 8166 8167 8168 8169 8170 8171 8172 8173 8174 8175 8176 8177 8178 8179 8180 8181 8182 8183 8184 8185 8186 8187 8188 8189 8190 8191 8192 8193 8194 8195 8196 8197 8198 8199 8200 8201 8202 8203 8204 8205 8206 8207 8208 8209 8210 8211 8212 8213 8214 8215 8216 8217 8218 8219 8220 8221 8222 8223 8224 8225 8226 8227 8228 8229 8230 8231 8232 8233 8234 8235 8236 8237 8238 8239 8240 8241 8242 8243 8244 8245 8246 8247 8248 8249 8250 8251 8252 8253 8254 8255 8256 8257 8258 8259 8260 8261 8262 8263 8264 8265 8266 8267 8268 8269 8270 8271 8272 8273 8274 8275 8276 8277 8278 8279 8280 8281 8282 8283 8284 8285 8286 8287 8288 8289 8290 8291 8292 8293 8294 8295 8296 8297 8298 8299 8300 8301 8302 8303 8304 8305 8306 8307 8308 8309 8310 8311 8312 8313 8314 8315 8316 8317 8318 8319 8320 8321 8322 8323 8324 8325 8326 8327 8328 8329 8330 8331 8332 8333 8334 8335 8336 8337 8338 8339 8340 8341 8342 8343 8344 8345 8346 8347 8348 8349 8350 8351 8352 8353 8354 8355 8356 8357 8358 8359 8360 8361 8362 8363 8364 8365 8366 8367 8368 8369 8370 8371 8372 8373 8374 8375 8376 8377 8378 8379 8380 8381 8382 8383 8384 8385 8386 8387 8388 8389 8390 8391 8392 8393 8394 8395 8396 8397 8398 8399 8400 8401 8402 8403 8404 8405 8406 8407 8408 8409 8410 8411 8412 8413 8414 8415 8416 8417 8418 8419 8420 8421 8422 8423 8424 8425 8426 8427 8428 8429 8430 8431 8432 8433 8434 8435 8436 8437 8438 8439 8440 8441 8442 8443 8444 8445 8446 8447 8448 8449 8450 8451 8452 8453 8454 8455 8456 8457 8458 8459 8460 8461 8462 8463 8464 8465 8466 8467 8468 8469 8470 8471 8472 8473 8474 8475 8476 8477 8478 8479 8480 8481 8482 8483 8484 8485 8486 8487 8488 8489 8490 8491 8492 8493 8494 8495 8496 8497 8498 8499 8500 8501 8502 8503 8504 8505 8506 8507 8508 8509 8510 8511 8512 8513 8514 8515 8516 8517 8518 8519 8520 8521 8522 8523 8524 8525 8526 8527 8528 8529 8530 8531 8532 8533 8534 8535 8536 8537 8538 8539 8540 8541 8542 8543 8544 8545 8546 8547 8548 8549 8550 8551 8552 8553 8554 8555 8556 8557 8558 8559 8560 8561 8562 8563 8564 8565 8566 8567 8568 8569 8570 8571 8572 8573 8574 8575 8576 8577 8578 8579 8580 8581 8582 8583 8584 8585 8586 8587 8588 8589 8590 8591 8592 8593 8594 8595 8596 8597 8598 8599 8600 8601 8602 8603 8604 8605 8606 8607 8608 8609 8610 8611 8612 8613 8614 8615 8616 8617 8618 8619 8620 8621 8622 8623 8624 8625 8626 8627 8628 8629 8630 8631 8632 8633 8634 8635 8636 8637 8638 8639 8640 8641 8642 8643 8644 8645 8646 8647 8648 8649 8650 8651 8652 8653 8654 8655 8656 8657 8658 8659 8660 8661 8662 8663 8664 8665 8666 8667 8668 8669 8670 8671 8672 8673 8674 8675 8676 8677 8678 8679 8680 8681 8682 8683 8684 8685 8686 8687 8688 8689 8690 8691 8692 8693 8694 8695 8696 8697 8698 8699 8700 8701 8702 8703 8704 8705 8706 8707 8708 8709 8710 8711 8712 8713 8714 8715 8716 8717 8718 8719 8720 8721 8722 8723 8724 8725 8726 8727 8728 8729 8730 8731 8732 8733 8734 8735 8736 8737 8738 8739 8740 8741 8742 8743 8744 8745 8746 8747 8748 8749 8750 8751 8752 8753 8754 8755 8756 8757 8758 8759 8760 8761 8762 8763 8764 8765 8766 8767 8768 8769 8770 8771 8772 8773 8774 8775 8776 8777 8778 8779 8780 8781 8782 8783 8784 8785 8786 8787 8788 8789 8790 8791 8792 8793 8794 8795 8796 8797 8798 8799 8800 8801 8802 8803 8804 8805 8806 8807 8808 8809 8810 8811 8812 8813 8814 8815 8816 8817 8818 8819 8820 8821 8822 8823 8824 8825 8826 8827 8828 8829 8830 8831 8832 8833 8834 8835 8836 8837 8838 8839 8840 8841 8842 8843 8844 8845 8846 8847 8848 8849 8850 8851 8852 8853 8854 8855 8856 8857 8858 8859 8860 8861 8862 8863 8864 8865 8866 8867 8868 8869 8870 8871 8872 8873 8874 8875 8876 8877 8878 8879 8880 8881 8882 8883 8884 8885 8886 8887 8888 8889 8890 8891 8892 8893 8894 8895 8896 8897 8898 8899 8900 8901 8902 8903 8904 8905 8906 8907 8908 8909 8910 8911 8912 8913 8914 8915 8916 8917 8918 8919 8920 8921 8922 8923 8924 8925 8926 8927 8928 8929 8930 8931 8932 8933 8934 8935 8936 8937 8938 8939 8940 8941 8942 8943 8944 8945 8946 8947 8948 8949 8950 8951 8952 8953 8954 8955 8956 8957 8958 8959 8960 8961 8962 8963 8964 8965 8966 8967 8968 8969 8970 8971 8972 8973 8974 8975 8976 8977 8978 8979 8980 8981 8982 8983 8984 8985 8986 8987 8988 8989 8990 8991 8992 8993 8994 8995 8996 8997 8998 8999 9000 9001 9002 9003 9004 9005 9006 9007 9008 9009 9010 9011 9012 9013 9014 9015 9016 9017 9018 9019 9020 9021 9022 9023 9024 9025 9026 9027 9028 9029 9030 9031 9032 9033 9034 9035 9036 9037 9038 9039 9040 9041 9042 9043 9044 9045 9046 9047 9048 9049 9050 9051 9052 9053 9054 9055 9056 9057 9058 9059 9060 9061 9062 9063 9064 9065 9066 9067 9068 9069 9070 9071 9072 9073 9074 9075 9076 9077 9078 9079 9080 9081 9082 9083 9084 9085 9086 9087 9088 9089 9090 9091 9092 9093 9094 9095 9096 9097 9098 9099 9100 9101 9102 9103 9104 9105 9106 9107 9108 9109 9110 9111 9112 9113 9114 9115 9116 9117 9118 9119 9120 9121 9122 9123 9124 9125 9126 9127 9128 9129 9130 9131 9132 9133 9134 9135 9136 9137 9138 9139 9140 9141 9142 9143 9144 9145 9146 9147 9148 9149 9150 9151 9152 9153 9154 9155 9156 9157 9158 9159 9160 9161 9162 9163 9164 9165 9166 9167 9168 9169 9170 9171 9172 9173 9174 9175 9176 9177 9178 9179 9180 9181 9182 9183 9184 9185 9186 9187 9188 9189 9190 9191 9192 9193 9194 9195 9196 9197 9198 9199 9200 9201 9202 9203 9204 9205 9206 9207 9208 9209 9210 9211 9212 9213 9214 9215 9216 9217 9218 9219 9220 9221 9222 9223 9224 9225 9226 9227 9228 9229 9230 9231 9232 9233 9234 9235 9236 9237 9238 9239 9240 9241 9242 9243 9244 9245 9246 9247 9248 9249 9250 9251 9252 9253 9254 9255 9256 9257 9258 9259 9260 9261 9262 9263 9264 9265 9266 9267 9268 9269 9270 9271 9272 9273 9274 9275 9276 9277 9278 9279 9280 9281 9282 9283 9284 9285 9286 9287 9288 9289 9290 9291 9292 9293 9294 9295 9296 9297 9298 9299 9300 9301 9302 9303 9304 9305 9306 9307 9308 9309 9310 9311 9312 9313 9314 9315 9316 9317 9318 9319 9320 9321 9322 9323 9324 9325 9326 9327 9328 9329 9330 9331 9332 9333 9334 9335 9336 9337 9338 9339 9340 9341 9342 9343 9344 9345 9346 9347 9348 9349 9350 9351 9352 9353 9354 9355 9356 9357 9358 9359 9360 9361 9362 9363 9364 9365 9366 9367 9368 9369 9370 9371 9372 9373 9374 9375 9376 9377 9378 9379 9380 9381 9382 9383 9384 9385 9386 9387 9388 9389 9390 9391 9392 9393 9394 9395 9396 9397 9398 9399 9400 9401 9402 9403 9404 9405 9406 9407 9408 9409 9410 9411 9412 9413 9414 9415 9416 9417 9418 9419 9420 9421 9422 9423 9424 9425 9426 9427 9428 9429 9430 9431 9432 9433 9434 9435 9436 9437 9438 9439 9440 9441 9442 9443 9444 9445 9446 9447 9448 9449 9450 9451 9452 9453 9454 9455 9456 9457 9458 9459 9460 9461 9462 9463 9464 9465 9466 9467 9468 9469 9470 9471 9472 9473 9474 9475 9476 9477 9478 9479 9480 9481 9482 9483 9484 9485 9486 9487 9488 9489 9490 9491 9492 9493 9494 9495 9496 9497 9498 9499 9500 9501 9502 9503 9504 9505 9506 9507 9508 9509 9510 9511 9512 9513 9514 9515 9516 9517 9518 9519 9520 9521 9522 9523 9524 9525 9526 9527 9528 9529 9530 9531 9532 9533 9534 9535 9536 9537 9538 9539 9540 9541 9542 9543 9544 9545 9546 9547 9548 9549 9550 9551 9552 9553 9554 9555 9556 9557 9558 9559 9560 9561 9562 9563 9564 9565 9566 9567 9568 9569 9570 9571 9572 9573 9574 9575 9576 9577 9578 9579 9580 9581 9582 9583 9584 9585 9586 9587 9588 9589 9590 9591 9592 9593 9594 9595 9596 9597 9598 9599 9600 9601 9602 9603 9604 9605 9606 9607 9608 9609 9610 9611 9612 9613 9614 9615 9616 9617 9618 9619 9620 9621 9622 9623 9624 9625 9626 9627 9628 9629 9630 9631 9632 9633 9634 9635 9636 9637 9638 9639 9640 9641 9642 9643 9644 9645 9646 9647 9648 9649 9650 9651 9652 9653 9654 9655 9656 9657 9658 9659 9660 9661 9662 9663 9664 9665 9666 9667 9668 9669 9670 9671 9672 9673 9674 9675 9676 9677 9678 9679 9680 9681 9682 9683 9684 9685 9686 9687 9688 9689 9690 9691 9692 9693 9694 9695 9696 9697 9698 9699 9700 9701 9702 9703 9704 9705 9706 9707 9708 9709 9710 9711 9712 9713 9714 9715 9716 9717 9718 9719 9720 9721 9722 9723 9724 9725 9726 9727 9728 9729 9730 9731 9732 9733 9734 9735 9736 9737 9738 9739 9740 9741 9742 9743 9744 9745 9746 9747 9748 9749 9750 9751 9752 9753 9754 9755 9756 9757 9758 9759 9760 9761 9762 9763 9764 9765 9766 9767 9768 9769 9770 9771 9772 9773 9774 9775 9776 9777 9778 9779 9780 9781 9782 9783 9784 9785 9786 9787 9788 9789 9790 9791 9792 9793 9794 9795 9796 9797 9798 9799 9800 9801 9802 9803 9804 9805 9806 9807 9808 9809 9810 9811 9812 9813 9814 9815 9816 9817 9818 9819 9820 9821 9822 9823 9824 9825 9826 9827 9828 9829 9830 9831 9832 9833 9834 9835 9836 9837 9838 9839 9840 9841 9842 9843 9844 9845 9846 9847 9848 9849 9850 9851 9852 9853 9854 9855 9856 9857 9858 9859 9860 9861 9862 9863 9864 9865 9866 9867 9868 9869 9870 9871 9872 9873 9874 9875 9876 9877 9878 9879 9880 9881 9882 9883 9884 9885 9886 9887 9888 9889 9890 9891 9892 9893 9894 9895 9896 9897 9898 9899 9900 9901 9902 9903 9904 9905 9906 9907 9908 9909 9910 9911 9912 9913 9914 9915 9916 9917 9918 9919 9920 9921 9922 9923 9924 9925 9926 9927 9928 9929 9930 9931 9932 9933 9934 9935 9936 9937 9938 9939 9940 9941 9942 9943 9944 9945 9946 9947 9948 9949 9950 9951 9952 9953 9954 9955 9956 9957 9958 9959 9960 9961 9962 9963 9964 9965 9966 9967 9968 9969 9970 9971 9972 9973 9974 9975 9976 9977 9978 9979 9980 9981 9982 9983 9984 9985 9986 9987 9988 9989 9990 9991 9992 9993 9994 9995 9996 9997 9998 9999 10000 10001 10002 10003 10004 10005 10006 10007 10008 10009 10010 10011 10012 10013 10014 10015 10016 10017 10018 10019 10020 10021 10022 10023 10024 10025 10026 10027 10028 10029 10030 10031 10032 10033 10034 10035 10036 10037 10038 10039 10040 10041 10042 10043 10044 10045 10046 10047 10048 10049 10050 10051 10052 10053 10054 10055 10056 10057 10058 10059 10060 10061 10062 10063 10064 10065 10066 10067 10068 10069 10070 10071 10072 10073 10074 10075 10076 10077 10078 10079 10080 10081 10082 10083 10084 10085 10086 10087 10088 10089 10090 10091 10092 10093 10094 10095 10096 10097 10098 10099 10100 10101 10102 10103 10104 10105 10106 10107 10108 10109 10110 10111 10112 10113 10114 10115 10116 10117 10118 10119 10120 10121 10122 10123 10124 10125 10126 10127 10128 10129 10130 10131 10132 10133 10134 10135 10136 10137 10138 10139 10140 10141 10142 10143 10144 10145 10146 10147 10148 10149 10150 10151 10152 10153 10154 10155 10156 10157 10158 10159 10160 10161 10162 10163 10164 10165 10166 10167 10168 10169 10170 10171 10172 10173 10174 10175 10176 10177 10178 10179 10180 10181 10182 10183 10184 10185 10186 10187 10188 10189 10190 10191 10192 10193 10194 10195 10196 10197 10198 10199 10200 10201 10202 10203 10204 10205 10206 10207 10208 10209 10210 10211 10212 10213 10214 10215 10216 10217 10218 10219 10220 10221 10222 10223 10224 10225 10226 10227 10228 10229 10230 10231 10232 10233 10234 10235 10236 10237 10238 10239 10240 10241 10242 10243 10244 10245 10246 10247 10248 10249 10250 10251 10252 10253 10254 10255 10256 10257 10258 10259 10260 10261 10262 10263 10264 10265 10266 10267 10268 10269 10270 10271 10272 10273 10274 10275 10276 10277 10278 10279 10280 10281 10282 10283 10284 10285 10286 10287 10288 10289 10290 10291 10292 10293 10294 10295 10296 10297 10298 10299 10300 10301 10302 10303 10304 10305 10306 10307 10308 10309 10310 10311 10312 10313 10314 10315 10316 10317 10318 10319 10320 10321 10322 10323 10324 10325 10326 10327 10328 10329 10330 10331 10332 10333 10334 10335 10336 10337 10338 10339 10340 10341 10342 10343 10344 10345 10346 10347 10348 10349 10350 10351 10352 10353 10354 10355 10356 10357 10358 10359 10360 10361 10362 10363 10364 10365 10366 10367 10368 10369 10370 10371 10372 10373 10374 10375 10376 10377 10378 10379 10380 10381 10382 10383 10384 10385 10386 10387 10388 10389 10390 10391 10392 10393 10394 10395 10396 10397 10398 10399 10400 10401 10402 10403 10404 10405 10406 10407 10408 10409 10410 10411 10412 10413 10414 10415 10416 10417 10418 10419 10420 10421 10422 10423 10424 10425 10426 10427 10428 10429 10430 10431 10432 10433 10434 10435 10436 10437 10438 10439 10440 10441 10442 10443 10444 10445 10446 10447 10448 10449 10450 10451 10452 10453 10454 10455 10456 10457 10458 10459 10460 10461 10462 10463 10464 10465 10466 10467 10468 10469 10470 10471 10472 10473 10474 10475 10476 10477 10478 10479 10480 10481 10482 10483 10484 10485 10486 10487 10488 10489 10490 10491 10492 10493 10494 10495 10496 10497 10498 10499 10500 10501 10502 10503 10504 10505 10506 10507 10508 10509 10510 10511 10512 10513 10514 10515 10516 10517 10518 10519 10520 10521 10522 10523 10524 10525 10526 10527 10528 10529 10530 10531 10532 10533 10534 10535 10536 10537 10538 10539 10540 10541 10542 10543 10544 10545 10546 10547 10548 10549 10550 10551 10552 10553 10554 10555 10556 10557 10558 10559 10560 10561 10562 10563 10564 10565 10566 10567 10568 10569 10570 10571 10572 10573 10574 10575 10576 10577 10578 10579 10580 10581 10582 10583 10584 10585 10586 10587 10588 10589 10590 10591 10592 10593 10594 10595 10596 10597 10598 10599 10600 10601 10602 10603 10604 10605 10606 10607 10608 10609 10610 10611 10612 10613 10614 10615 10616 10617 10618 10619 10620 10621 10622 10623 10624 10625 10626 10627 10628 10629 10630 10631 10632 10633 10634 10635 10636 10637 10638 10639 10640 10641 10642 10643 10644 10645 10646 10647 10648 10649 10650 10651 10652 10653 10654 10655 10656 10657 10658 10659 10660 10661 10662 10663 10664 10665 10666 10667 10668 10669 10670 10671 10672 10673 10674 10675 10676 10677 10678 10679 10680 10681 10682 10683 10684 10685 10686 10687 10688 10689 10690 10691 10692 10693 10694 10695 10696 10697 10698 10699 10700 10701 10702 10703 10704 10705 10706 10707 10708 10709 10710 10711 10712 10713 10714 10715 10716 10717 10718 10719 10720 10721 10722 10723 10724 10725 10726 10727 10728 10729 10730 10731 10732 10733 10734 10735 10736 10737 10738 10739 10740 10741 10742 10743 10744 10745 10746 10747 10748 10749 10750 10751 10752 10753 10754 10755 10756 10757 10758 10759 10760 10761 10762 10763 10764 10765 10766 10767 10768 10769 10770 10771 10772 10773 10774 10775 10776 10777 10778 10779 10780 10781 10782 10783 10784 10785 10786 10787 10788 10789 10790 10791 10792 10793 10794 10795 10796 10797 10798 10799 10800 10801 10802 10803 10804 10805 10806 10807 10808 10809 10810 10811 10812 10813 10814 10815 10816 10817 10818 10819 10820 10821 10822 10823 10824 10825 10826 10827 10828 10829 10830 10831 10832 10833 10834 10835 10836 10837 10838 10839 10840 10841 10842 10843 10844 10845 10846 10847 10848 10849 10850 10851 10852 10853 10854 10855 10856 10857 10858 10859 10860 10861 10862 10863 10864 10865 10866 10867 10868 10869 10870 10871 10872 10873 10874 10875 10876 10877 10878 10879 10880 10881 10882 10883 10884 10885 10886 10887 10888 10889 10890 10891 10892 10893 10894 10895 10896 10897 10898 10899 10900 10901 10902 10903 10904 10905 10906 10907 10908 10909 10910 10911 10912 10913 10914 10915 10916 10917 10918 10919 10920 10921 10922 10923 10924 10925 10926 10927 10928 10929 10930 10931 10932 10933 10934 10935 10936 10937 10938 10939 10940 10941 10942 10943 10944 10945 10946 10947 10948 10949 10950 10951 10952 10953 10954 10955 10956 10957 10958 10959 10960 10961 10962 10963 10964 10965 10966 10967 10968 10969 10970 10971 10972 10973 10974 10975 10976 10977 10978 10979 10980 10981 10982 10983 10984 10985 10986 10987 10988 10989 10990 10991 10992 10993 10994 10995 10996 10997 10998 10999 11000 11001 11002 11003 11004 11005 11006 11007 11008 11009 11010 11011 11012 11013 11014 11015 11016 11017 11018 11019 11020 11021 11022 11023 11024 11025 11026 11027 11028 11029 11030 11031 11032 11033 11034 11035 11036 11037 11038 11039 11040 11041 11042 11043 11044 11045 11046 11047 11048 11049 11050 11051 11052 11053 11054 11055 11056 11057 11058 11059 11060 11061 11062 11063 11064 11065 11066 11067 11068 11069 11070 11071 11072 11073 11074 11075 11076 11077 11078 11079 11080 11081 11082 11083 11084 11085 11086 11087 11088 11089 11090 11091 11092 11093 11094 11095 11096 11097 11098 11099 11100 11101 11102 11103 11104 11105 11106 11107 11108 11109 11110 11111 11112 11113 11114 11115 11116 11117 11118 11119 11120 11121 11122 11123 11124 11125 11126 11127 11128 11129 11130 11131 11132 11133 11134 11135 11136 11137 11138 11139 11140 11141 11142 11143 11144 11145 11146 11147 11148 11149 11150 11151 11152 11153 11154 11155 11156 11157 11158 11159 11160 11161 11162 11163 11164 11165 11166 11167 11168 11169 11170 11171 11172 11173 11174 11175 11176 11177 11178 11179 11180 11181 11182 11183 11184 11185 11186 11187 11188 11189 11190 11191 11192 11193 11194 11195 11196 11197 11198 11199 11200 11201 11202 11203 11204 11205 11206 11207 11208 11209 11210 11211 11212 11213 11214 11215 11216 11217 11218 11219 11220 11221 11222 11223 11224 11225 11226 11227 11228 11229 11230 11231 11232 11233 11234 11235 11236 11237 11238 11239 11240 11241 11242 11243 11244 11245 11246 11247 11248 11249 11250 11251 11252 11253 11254 11255 11256 11257 11258 11259 11260 11261 11262 11263 11264 11265 11266 11267 11268 11269 11270 11271 11272 11273 11274 11275 11276 11277 11278 11279 11280 11281 11282 11283 11284 11285 11286 11287 11288 11289 11290 11291 11292 11293 11294 11295 11296 11297 11298 11299 11300 11301 11302 11303 11304 11305 11306 11307 11308 11309 11310 11311 11312 11313 11314 11315 11316 11317 11318 11319 11320 11321 11322 11323 11324 11325 11326 11327 11328 11329 11330 11331 11332 11333 11334 11335 11336 11337 11338 11339 11340 11341 11342 11343 11344 11345 11346 11347 11348 11349 11350 11351 11352 11353 11354 11355 11356 11357 11358 11359 11360 11361 11362 11363 11364 11365 11366 11367 11368 11369 11370 11371 11372 11373 11374 11375 11376 11377 11378 11379 11380 11381 11382 11383 11384 11385 11386 11387 11388 11389 11390 11391 11392 11393 11394 11395 11396 11397 11398 11399 11400 11401 11402 11403 11404 11405 11406 11407 11408 11409 11410 11411 11412 11413 11414 11415 11416 11417 11418 11419 11420 11421 11422 11423 11424 11425 11426 11427 11428 11429 11430 11431 11432 11433 11434 11435 11436 11437 11438 11439 11440 11441 11442 11443 11444 11445 11446 11447 11448 11449 11450 11451 11452 11453 11454 11455 11456 11457 11458 11459 11460 11461 11462 11463 11464 11465 11466 11467 11468 11469 11470 11471 11472 11473 11474 11475 11476 11477 11478 11479 11480 11481 11482 11483 11484 11485 11486 11487 11488 11489 11490 11491 11492 11493 11494 11495 11496 11497 11498 11499 11500 11501 11502 11503 11504 11505 11506 11507 11508 11509 11510 11511 11512 11513 11514 11515 11516 11517 11518 11519 11520 11521 11522 11523 11524 11525 11526 11527 11528 11529 11530 11531 11532 11533 11534 11535 11536 11537 11538 11539 11540 11541 11542 11543 11544 11545 11546 11547 11548 11549 11550 11551 11552 11553 11554 11555 11556 11557 11558 11559 11560 11561 11562 11563 11564 11565 11566 11567 11568 11569 11570 11571 11572 11573 11574 11575 11576 11577 11578 11579 11580 11581 11582 11583 11584 11585 11586 11587 11588 11589 11590 11591 11592 11593 11594 11595 11596 11597 11598 11599 11600 11601 11602 11603 11604 11605 11606 11607 11608 11609 11610 11611 11612 11613 11614 11615 11616 11617 11618 11619 11620 11621 11622 11623 11624 11625 11626 11627 11628 11629 11630 11631 11632 11633 11634 11635 11636 11637 11638 11639 11640 11641 11642 11643 11644 11645 11646 11647 11648 11649 11650 11651 11652 11653 11654 11655 11656 11657 11658 11659 11660 11661 11662 11663 11664 11665 11666 11667 11668 11669 11670 11671 11672 11673 11674 11675 11676 11677 11678 11679 11680 11681 11682 11683 11684 11685 11686 11687 11688 11689 11690 11691 11692 11693 11694 11695 11696 11697 11698 11699 11700 11701 11702 11703 11704 11705 11706 11707 11708 11709 11710 11711 11712 11713 11714 11715 11716 11717 11718 11719 11720 11721 11722 11723 11724 11725 11726 11727 11728 11729 11730 11731 11732 11733 11734 11735 11736 11737 11738 11739 11740 11741 11742 11743 11744 11745 11746 11747 11748 11749 11750 11751 11752 11753 11754 11755 11756 11757 11758 11759 11760 11761 11762 11763 11764 11765 11766 11767 11768 11769 11770 11771 11772 11773 11774 11775 11776 11777 11778 11779 11780 11781 11782 11783 11784 11785 11786 11787 11788 11789 11790 11791 11792 11793 11794 11795 11796 11797 11798 11799 11800 11801 11802 11803 11804 11805 11806 11807 11808 11809 11810 11811 11812 11813 11814 11815 11816 11817 11818 11819 11820 11821 11822 11823 11824 11825 11826 11827 11828 11829 11830 11831 11832 11833 11834 11835 11836 11837 11838 11839 11840 11841 11842 11843 11844 11845 11846 11847 11848 11849 11850 11851 11852 11853 11854 11855 11856 11857 11858 11859 11860 11861 11862 11863 11864 11865 11866 11867 11868 11869 11870 11871 11872 11873 11874 11875 11876 11877 11878 11879 11880 11881 11882 11883 11884 11885 11886 11887 11888 11889 11890 11891 11892 11893 11894 11895 11896 11897 11898 11899 11900 11901 11902 11903 11904 11905 11906 11907 11908 11909 11910 11911 11912 11913 11914 11915 11916 11917 11918 11919 11920 11921 11922 11923 11924 11925 11926 11927 11928 11929 11930 11931 11932 11933 11934 11935 11936 11937 11938 11939 11940 11941 11942 11943 11944 11945 11946 11947 11948 11949 11950 11951 11952 11953 11954 11955 11956 11957 11958 11959 11960 11961 11962 11963 11964 11965 11966 11967 11968 11969 11970 11971 11972 11973 11974 11975 11976 11977 11978 11979 11980 11981 11982 11983 11984 11985 11986 11987 11988 11989 11990 11991 11992 11993 11994 11995 11996 11997 11998 11999 12000 12001 12002 12003 12004 12005 12006 12007 12008 12009 12010 12011 12012 12013 12014 12015 12016 12017 12018 12019 12020 12021 12022 12023 12024 12025 12026 12027 12028 12029 12030 12031 12032 12033 12034 12035 12036 12037 12038 12039 12040 12041 12042 12043 12044 12045 12046 12047 12048 12049 12050 12051 12052 12053 12054 12055 12056 12057 12058 12059 12060 12061 12062 12063 12064 12065 12066 12067 12068 12069 12070 12071 12072 12073 12074 12075 12076 12077 12078 12079 12080 12081 12082 12083 12084 12085 12086 12087 12088 12089 12090 12091 12092 12093 12094 12095 12096 12097 12098 12099 12100 12101 12102 12103 12104 12105 12106 12107 12108 12109 12110 12111 12112 12113 12114 12115 12116 12117 12118 12119 12120 12121 12122 12123 12124 12125 12126 12127 12128 12129 12130 12131 12132 12133 12134 12135 12136 12137 12138 12139 12140 12141 12142 12143 12144 12145 12146 12147 12148 12149 12150 12151 12152 12153 12154 12155 12156 12157 12158 12159 12160 12161 12162 12163 12164 12165 12166 12167 12168 12169 12170 12171 12172 12173 12174 12175 12176 12177 12178 12179 12180 12181 12182 12183 12184 12185 12186 12187 12188 12189 12190 12191 12192 12193 12194 12195 12196 12197 12198 12199 12200 12201 12202 12203 12204 12205 12206 12207 12208 12209 12210 12211 12212 12213 12214 12215 12216 12217 12218 12219 12220 12221 12222 12223 12224 12225 12226 12227 12228 12229 12230 12231 12232 12233 12234 12235 12236 12237 12238 12239 12240 12241 12242 12243 12244 12245 12246 12247 12248 12249 12250 12251 12252 12253 12254 12255 12256 12257 12258 12259 12260 12261 12262 12263 12264 12265 12266 12267 12268 12269 12270 12271 12272 12273 12274 12275 12276 12277 12278 12279 12280 12281 12282 12283 12284 12285 12286 12287 12288 12289 12290 12291 12292 12293 12294 12295 12296 12297 12298 12299 12300 12301 12302 12303 12304 12305 12306 12307 12308 12309 12310 12311 12312 12313 12314 12315 12316 12317 12318 12319 12320 12321 12322 12323 12324 12325 12326 12327 12328 12329 12330 12331 12332 12333 12334 12335 12336 12337 12338 12339 12340 12341 12342 12343 12344 12345 12346 12347 12348 12349 12350 12351 12352 12353 12354 12355 12356 12357 12358 12359 12360 12361 12362 12363 12364 12365 12366 12367 12368 12369 12370 12371 12372 12373 12374 12375 12376 12377 12378 12379 12380 12381 12382 12383 12384 12385 12386 12387 12388 12389 12390 12391 12392 12393 12394 12395 12396 12397 12398 12399 12400 12401 12402 12403 12404 12405 12406 12407 12408 12409 12410 12411 12412 12413 12414 12415 12416 12417 12418 12419 12420 12421 12422 12423 12424 12425 12426 12427 12428 12429 12430 12431 12432 12433 12434 12435 12436 12437 12438 12439 12440 12441 12442 12443 12444 12445 12446 12447 12448 12449 12450 12451 12452 12453 12454 12455 12456 12457 12458 12459 12460 12461 12462 12463 12464 12465 12466 12467 12468 12469 12470 12471 12472 12473 12474 12475 12476 12477 12478 12479 12480 12481 12482 12483 12484 12485 12486 12487 12488 12489 12490 12491 12492 12493 12494 12495 12496 12497 12498 12499 12500 12501 12502 12503 12504 12505 12506 12507 12508 12509 12510 12511 12512 12513 12514 12515 12516 12517 12518 12519 12520 12521 12522 12523 12524 12525 12526 12527 12528 12529 12530 12531 12532 12533 12534 12535 12536 12537 12538 12539 12540 12541 12542 12543 12544 12545 12546 12547 12548 12549 12550 12551 12552 12553 12554 12555 12556 12557 12558 12559 12560 12561 12562 12563 12564 12565 12566 12567 12568 12569 12570 12571 12572 12573 12574 12575 12576 12577 12578 12579 12580 12581 12582 12583 12584 12585 12586 12587 12588 12589 12590 12591 12592 12593 12594 12595 12596 12597 12598 12599 12600 12601 12602 12603 12604 12605 12606 12607 12608 12609 12610 12611 12612 12613 12614 12615 12616 12617 12618 12619 12620 12621 12622 12623 12624 12625 12626 12627 12628 12629 12630 12631 12632 12633 12634 12635 12636 12637 12638 12639 12640 12641 12642 12643 12644 12645 12646 12647 12648 12649 12650 12651 12652 12653 12654 12655 12656 12657 12658 12659 12660 12661 12662 12663 12664 12665 12666 12667 12668 12669 12670 12671 12672 12673 12674 12675 12676 12677 12678 12679 12680 12681 12682 12683 12684 12685 12686 12687 12688 12689 12690 12691 12692 12693 12694 12695 12696 12697 12698 12699 12700 12701 12702 12703 12704 12705 12706 12707 12708 12709 12710 12711 12712 12713 12714 12715 12716 12717 12718 12719 12720 12721 12722 12723 12724 12725 12726 12727 12728 12729 12730 12731 12732 12733 12734 12735 12736 12737 12738 12739 12740 12741 12742 12743 12744 12745 12746 12747 12748 12749 12750 12751 12752 12753 12754 12755 12756 12757 12758 12759 12760 12761 12762 12763 12764 12765 12766 12767 12768 12769 12770 12771 12772 12773 12774 12775 12776 12777 12778 12779 12780 12781 12782 12783 12784 12785 12786 12787 12788 12789 12790 12791 12792 12793 12794 12795 12796 12797 12798 12799 12800 12801 12802 12803 12804 12805 12806 12807 12808 12809 12810 12811 12812 12813 12814 12815 12816 12817 12818 12819 12820 12821 12822 12823 12824 12825 12826 12827 12828 12829 12830 12831 12832 12833 12834 12835 12836 12837 12838 12839 12840 12841 12842 12843 12844 12845 12846 12847 12848 12849 12850 12851 12852 12853 12854 12855 12856 12857 12858 12859 12860 12861 12862 12863 12864 12865 12866 12867 12868 12869 12870 12871 12872 12873 12874 12875 12876 12877 12878 12879 12880 12881 12882 12883 12884 12885 12886 12887 12888 12889 12890 12891 12892 12893 12894 12895 12896 12897 12898 12899 12900 12901 12902 12903 12904 12905 12906 12907 12908 12909 12910 12911 12912 12913 12914 12915 12916 12917 12918 12919 12920 12921 12922 12923 12924 12925 12926 12927 12928 12929 12930 12931 12932 12933 12934 12935 12936 12937 12938 12939 12940 12941 12942 12943 12944 12945 12946 12947 12948 12949 12950 12951 12952 12953 12954 12955 12956 12957 12958 12959 12960 12961 12962 12963 12964 12965 12966 12967 12968 12969 12970 12971 12972 12973 12974 12975 12976 12977 12978 12979 12980 12981 12982 12983 12984 12985 12986 12987 12988 12989 12990 12991 12992 12993 12994 12995 12996 12997 12998 12999 13000 13001 13002 13003 13004 13005 13006 13007 13008 13009 13010 13011 13012 13013 13014 13015 13016 13017 13018 13019 13020 13021 13022 13023 13024 13025 13026 13027 13028 13029 13030 13031 13032 13033 13034 13035 13036 13037 13038 13039 13040 13041 13042 13043 13044 13045 13046 13047 13048 13049 13050 13051 13052 13053 13054 13055 13056 13057 13058 13059 13060 13061 13062 13063 13064 13065 13066 13067 13068 13069 13070 13071 13072 13073 13074 13075 13076 13077 13078 13079 13080 13081 13082 13083 13084 13085 13086 13087 13088 13089 13090 13091 13092 13093 13094 13095 13096 13097 13098 13099 13100 13101 13102 13103 13104 13105 13106 13107 13108 13109 13110 13111 13112 13113 13114 13115 13116 13117 13118 13119 13120 13121 13122 13123 13124 13125 13126 13127 13128 13129 13130 13131 13132 13133 13134 13135 13136 13137 13138 13139 13140 13141 13142 13143 13144 13145 13146 13147 13148 13149 13150 13151 13152 13153 13154 13155 13156 13157 13158 13159 13160 13161 13162 13163 13164 13165 13166 13167 13168 13169 13170 13171 13172 13173 13174 13175 13176 13177 13178 13179 13180 13181 13182 13183 13184 13185 13186 13187 13188 13189 13190 13191 13192 13193 13194 13195 13196 13197 13198 13199 13200 13201 13202 13203 13204 13205 13206 13207 13208 13209 13210 13211 13212 13213 13214 13215 13216 13217 13218 13219 13220 13221 13222 13223 13224 13225 13226 13227 13228 13229 13230 13231 13232 13233 13234 13235 13236 13237 13238 13239 13240 13241 13242 13243 13244 13245 13246 13247 13248 13249 13250 13251 13252 13253 13254 13255 13256 13257 13258 13259 13260 13261 13262 13263 13264 13265 13266 13267 13268 13269 13270 13271 13272 13273 13274 13275 13276 13277 13278 13279 13280 13281 13282 13283 13284 13285 13286 13287 13288 13289 13290 13291 13292 13293 13294 13295 13296 13297 13298 13299 13300 13301 13302 13303 13304 13305 13306 13307 13308 13309 13310 13311 13312 13313 13314 13315 13316 13317 13318 13319 13320 13321 13322 13323 13324 13325 13326 13327 13328 13329 13330 13331 13332 13333 13334 13335 13336 13337 13338 13339 13340 13341 13342 13343 13344 13345 13346 13347 13348 13349 13350 13351 13352 13353 13354 13355 13356 13357 13358 13359 13360 13361 13362 13363 13364 13365 13366 13367 13368 13369 13370 13371 13372 13373 13374 13375 13376 13377 13378 13379 13380 13381 13382 13383 13384 13385 13386 13387 13388 13389 13390 13391 13392 13393 13394 13395 13396 13397 13398 13399 13400 13401 13402 13403 13404 13405 13406 13407 13408 13409 13410 13411 13412 13413 13414 13415 13416 13417 13418 13419 13420 13421 13422 13423 13424 13425 13426 13427 13428 13429 13430 13431 13432 13433 13434 13435 13436 13437 13438 13439 13440 13441 13442 13443 13444 13445 13446 13447 13448 13449 13450 13451 13452 13453 13454 13455 13456 13457 13458 13459 13460 13461 13462 13463 13464 13465 13466 13467 13468 13469 13470 13471 13472 13473 13474 13475 13476 13477 13478 13479 13480 13481 13482 13483 13484 13485 13486 13487 13488 13489 13490 13491 13492 13493 13494 13495 13496 13497 13498 13499 13500 13501 13502 13503 13504 13505 13506 13507 13508 13509 13510 13511 13512 13513 13514 13515 13516 13517 13518 13519 13520 13521 13522 13523 13524 13525 13526 13527 13528 13529 13530 13531 13532 13533 13534 13535 13536 13537 13538 13539 13540 13541 13542 13543 13544 13545 13546 13547 13548 13549 13550 13551 13552 13553 13554 13555 13556 13557 13558 13559 13560 13561 13562 13563 13564 13565 13566 13567 13568 13569 13570 13571 13572 13573 13574 13575 13576 13577 13578 13579 13580 13581 13582 13583 13584 13585 13586 13587 13588 13589 13590 13591 13592 13593 13594 13595 13596 13597 13598 13599 13600 13601 13602 13603 13604 13605 13606 13607 13608 13609 13610 13611 13612 13613 13614 13615 13616 13617 13618 13619 13620 13621 13622 13623 13624 13625 13626 13627 13628 13629 13630 13631 13632 13633 13634 13635 13636 13637 13638 13639 13640 13641 13642 13643 13644 13645 13646 13647 13648 13649 13650 13651 13652 13653 13654 13655 13656 13657 13658 13659 13660 13661 13662 13663 13664 13665 13666 13667 13668 13669 13670 13671 13672 13673 13674 13675 13676 13677 13678 13679 13680 13681 13682 13683 13684 13685 13686 13687 13688 13689 13690 13691 13692 13693 13694 13695 13696 13697 13698 13699 13700 13701 13702 13703 13704 13705 13706 13707 13708 13709 13710 13711 13712 13713 13714 13715 13716 13717 13718 13719 13720 13721 13722 13723 13724 13725 13726 13727 13728 13729 13730 13731 13732 13733 13734 13735 13736 13737 13738 13739 13740 13741 13742 13743 13744 13745 13746 13747 13748 13749 13750 13751 13752 13753 13754 13755 13756 13757 13758 13759 13760 13761 13762 13763 13764 13765 13766 13767 13768 13769 13770 13771 13772 13773 13774 13775 13776 13777 13778 13779 13780 13781 13782 13783 13784 13785 13786 13787 13788 13789 13790 13791 13792 13793 13794 13795 13796 13797 13798 13799 13800 13801 13802 13803 13804 13805 13806 13807 13808 13809 13810 13811 13812 13813 13814 13815 13816 13817 13818 13819 13820 13821 13822 13823 13824 13825 13826 13827 13828 13829 13830 13831 13832 13833 13834 13835 13836 13837 13838 13839 13840 13841 13842 13843 13844 13845 13846 13847 13848 13849 13850 13851 13852 13853 13854 13855 13856 13857 13858 13859 13860 13861 13862 13863 13864 13865 13866 13867 13868 13869 13870 13871 13872 13873 13874 13875 13876 13877 13878 13879 13880 13881 13882 13883 13884 13885 13886 13887 13888 13889 13890 13891 13892 13893 13894 13895 13896 13897 13898 13899 13900 13901 13902 13903 13904 13905 13906 13907 13908 13909 13910 13911 13912 13913 13914 13915 13916 13917 13918 13919 13920 13921 13922 13923 13924 13925 13926 13927 13928 13929 13930 13931 13932 13933 13934 13935 13936 13937 13938 13939 13940 13941 13942 13943 13944 13945 13946 13947 13948 13949 13950 13951 13952 13953 13954 13955 13956 13957 13958 13959 13960 13961 13962 13963 13964 13965 13966 13967 13968 13969 13970 13971 13972 13973 13974 13975 13976 13977 13978 13979 13980 13981 13982 13983 13984 13985 13986 13987 13988 13989 13990 13991 13992 13993 13994 13995 13996 13997 13998 13999 14000 14001 14002 14003 14004 14005 14006 14007 14008 14009 14010 14011 14012 14013 14014 14015 14016 14017 14018 14019 14020 14021 14022 14023 14024 14025 14026 14027 14028 14029 14030 14031 14032 14033 14034 14035 14036 14037 14038 14039 14040 14041 14042 14043 14044 14045 14046 14047 14048 14049 14050 14051 14052 14053 14054 14055 14056 14057 14058 14059 14060 14061 14062 14063 14064 14065 14066 14067 14068 14069 14070 14071 14072 14073 14074 14075 14076 14077 14078 14079 14080 14081 14082 14083 14084 14085 14086 14087 14088 14089 14090 14091 14092 14093 14094 14095 14096 14097 14098 14099 14100 14101 14102 14103 14104 14105 14106 14107 14108 14109 14110 14111 14112 14113 14114 14115 14116 14117 14118 14119 14120 14121 14122 14123 14124 14125 14126 14127 14128 14129 14130 14131 14132 14133 14134 14135 14136 14137 14138 14139 14140 14141 14142 14143 14144 14145 14146 14147 14148 14149 14150 14151 14152 14153 14154 14155 14156 14157 14158 14159 14160 14161 14162 14163 14164 14165 14166 14167 14168 14169 14170 14171 14172 14173 14174 14175 14176 14177 14178 14179 14180 14181 14182 14183 14184 14185 14186 14187 14188 14189 14190 14191 14192 14193 14194 14195 14196 14197 14198 14199 14200 14201 14202 14203 14204 14205 14206 14207 14208 14209 14210 14211 14212 14213 14214 14215 14216 14217 14218 14219 14220 14221 14222 14223 14224 14225 14226 14227 14228 14229 14230 14231 14232 14233 14234 14235 14236 14237 14238 14239 14240 14241 14242 14243 14244 14245 14246 14247 14248 14249 14250 14251 14252 14253 14254 14255 14256 14257 14258 14259 14260 14261 14262 14263 14264 14265 14266 14267 14268 14269 14270 14271 14272 14273 14274 14275 14276 14277 14278 14279 14280 14281 14282 14283 14284 14285 14286 14287 14288 14289 14290 14291 14292 14293 14294 14295 14296 14297 14298 14299 14300 14301 14302 14303 14304 14305 14306 14307 14308 14309 14310 14311 14312 14313 14314 14315 14316 14317 14318 14319 14320 14321 14322 14323 14324 14325 14326 14327 14328 14329 14330 14331 14332 14333 14334 14335 14336 14337 14338 14339 14340 14341 14342 14343 14344 14345 14346 14347 14348 14349 14350 14351 14352 14353 14354 14355 14356 14357 14358 14359 14360 14361 14362 14363 14364 14365 14366 14367 14368 14369 14370 14371 14372 14373 14374 14375 14376 14377 14378 14379 14380 14381 14382 14383 14384 14385 14386 14387 14388 14389 14390 14391 14392 14393 14394 14395 14396 14397 14398 14399 14400 14401 14402 14403 14404 14405 14406 14407 14408 14409 14410 14411 14412 14413 14414 14415 14416 14417 14418 14419 14420 14421 14422 14423 14424 14425 14426 14427 14428 14429 14430 14431 14432 14433 14434 14435 14436 14437 14438 14439 14440 14441 14442 14443 14444 14445 14446 14447 14448 14449 14450 14451 14452 14453 14454 14455 14456 14457 14458 14459 14460 14461 14462 14463 14464 14465 14466 14467 14468 14469 14470 14471 14472 14473 14474 14475 14476 14477 14478 14479 14480 14481 14482 14483 14484 14485 14486 14487 14488 14489 14490 14491 14492 14493 14494 14495 14496 14497 14498 14499 14500 14501 14502 14503 14504 14505 14506 14507 14508 14509 14510 14511 14512 14513 14514 14515 14516 14517 14518 14519 14520 14521 14522 14523 14524 14525 14526 14527 14528 14529 14530 14531 14532 14533 14534 14535 14536 14537 14538 14539 14540 14541 14542 14543 14544 14545 14546 14547 14548 14549 14550 14551 14552 14553 14554 14555 14556 14557 14558 14559 14560 14561 14562 14563 14564 14565 14566 14567 14568 14569 14570 14571 14572 14573 14574 14575 14576 14577 14578 14579 14580 14581 14582 14583 14584 14585 14586 14587 14588 14589 14590 14591 14592 14593 14594 14595 14596 14597 14598 14599 14600 14601 14602 14603 14604 14605 14606 14607 14608 14609 14610 14611 14612 14613 14614 14615 14616 14617 14618 14619 14620 14621 14622 14623 14624 14625 14626 14627 14628 14629 14630 14631 14632 14633 14634 14635 14636 14637 14638 14639 14640 14641 14642 14643 14644 14645 14646 14647 14648 14649 14650 14651 14652 14653 14654 14655 14656 14657 14658 14659 14660 14661 14662 14663 14664 14665 14666 14667 14668 14669 14670 14671 14672 14673 14674 14675 14676 14677 14678 14679 14680 14681 14682 14683 14684 14685 14686 14687 14688 14689 14690 14691 14692 14693 14694 14695 14696 14697 14698 14699 14700 14701 14702 14703 14704 14705 14706 14707 14708 14709 14710 14711 14712 14713 14714 14715 14716 14717 14718 14719 14720 14721 14722 14723 14724 14725 14726 14727 14728 14729 14730 14731 14732 14733 14734 14735 14736 14737 14738 14739 14740 14741 14742 14743 14744 14745 14746 14747 14748 14749 14750 14751 14752 14753 14754 14755 14756 14757 14758 14759 14760 14761 14762 14763 14764 14765 14766 14767 14768 14769 14770 14771 14772 14773 14774 14775 14776 14777 14778 14779 14780 14781 14782 14783 14784 14785 14786 14787 14788 14789 14790 14791 14792 14793 14794 14795 14796 14797 14798 14799 14800 14801 14802 14803 14804 14805 14806 14807 14808 14809 14810 14811 14812 14813 14814 14815 14816 14817 14818 14819 14820 14821 14822 14823 14824 14825 14826 14827 14828 14829 14830 14831 14832 14833 14834 14835 14836 14837 14838 14839 14840 14841 14842 14843 14844 14845 14846 14847 14848 14849 14850 14851 14852 14853 14854 14855 14856 14857 14858 14859 14860 14861 14862 14863 14864 14865 14866 14867 14868 14869 14870 14871 14872 14873 14874 14875 14876 14877 14878 14879 14880 14881 14882 14883 14884 14885 14886 14887 14888 14889 14890 14891 14892 14893 14894 14895 14896 14897 14898 14899 14900 14901 14902 14903 14904 14905 14906 14907 14908 14909 14910 14911 14912 14913 14914 14915 14916 14917 14918 14919 14920 14921 14922 14923 14924 14925 14926 14927 14928 14929 14930 14931 14932 14933 14934 14935 14936 14937 14938 14939 14940 14941 14942 14943 14944 14945 14946 14947 14948 14949 14950 14951 14952 14953 14954 14955 14956 14957 14958 14959 14960 14961 14962 14963 14964 14965 14966 14967 14968 14969 14970 14971 14972 14973 14974 14975 14976 14977 14978 14979 14980 14981 14982 14983 14984 14985 14986 14987 14988 14989 14990 14991 14992 14993 14994 14995 14996 14997 14998 14999 15000 15001 15002 15003 15004 15005 15006 15007 15008 15009 15010 15011 15012 15013 15014 15015 15016 15017 15018 15019 15020 15021 15022 15023 15024 15025 15026 15027 15028 15029 15030 15031 15032 15033 15034 15035 15036 15037 15038 15039 15040 15041 15042 15043 15044 15045 15046 15047 15048 15049 15050 15051 15052 15053 15054 15055 15056 15057 15058 15059 15060 15061 15062 15063 15064 15065 15066 15067 15068 15069 15070 15071 15072 15073 15074 15075 15076 15077 15078 15079 15080 15081 15082 15083 15084 15085 15086 15087 15088 15089 15090 15091 15092 15093 15094 15095 15096 15097 15098 15099 15100 15101 15102 15103 15104 15105 15106 15107 15108 15109 15110 15111 15112 15113 15114 15115 15116 15117 15118 15119 15120 15121 15122 15123 15124 15125 15126 15127 15128 15129 15130 15131 15132 15133 15134 15135 15136 15137 15138 15139 15140 15141 15142 15143 15144 15145 15146 15147 15148 15149 15150 15151 15152 15153 15154 15155 15156 15157 15158 15159 15160 15161 15162 15163 15164 15165 15166 15167 15168 15169 15170 15171 15172 15173 15174 15175 15176 15177 15178 15179 15180 15181 15182 15183 15184 15185 15186 15187 15188 15189 15190 15191 15192 15193 15194 15195 15196 15197 15198 15199 15200 15201 15202 15203 15204 15205 15206 15207 15208 15209 15210 15211 15212 15213 15214 15215 15216 15217 15218 15219 15220 15221 15222 15223 15224 15225 15226 15227 15228 15229 15230 15231 15232 15233 15234 15235 15236 15237 15238 15239 15240 15241 15242 15243 15244 15245 15246 15247 15248 15249 15250 15251 15252 15253 15254 15255 15256 15257 15258 15259 15260 15261 15262 15263 15264 15265 15266 15267 15268 15269 15270 15271 15272 15273 15274 15275 15276 15277 15278 15279 15280 15281 15282 15283 15284 15285 15286 15287 15288 15289 15290 15291 15292 15293 15294 15295 15296 15297 15298 15299 15300 15301 15302 15303 15304 15305 15306 15307 15308 15309 15310 15311 15312 15313 15314 15315 15316 15317 15318 15319 15320 15321 15322 15323 15324 15325 15326 15327 15328 15329 15330 15331 15332 15333 15334 15335 15336 15337 15338 15339 15340 15341 15342 15343 15344 15345 15346 15347 15348 15349 15350 15351 15352 15353 15354 15355 15356 15357 15358 15359 15360 15361 15362 15363 15364 15365 15366 15367 15368 15369 15370 15371 15372 15373 15374 15375 15376 15377 15378 15379 15380 15381 15382 15383 15384 15385 15386 15387 15388 15389 15390 15391 15392 15393 15394 15395 15396 15397 15398 15399 15400 15401 15402 15403 15404 15405 15406 15407 15408 15409 15410 15411 15412 15413 15414 15415 15416 15417 15418 15419 15420 15421 15422 15423 15424 15425 15426 15427 15428 15429 15430 15431 15432 15433 15434 15435 15436 15437 15438 15439 15440 15441 15442 15443 15444 15445 15446 15447 15448 15449 15450 15451 15452 15453 15454 15455 15456 15457 15458 15459 15460 15461 15462 15463 15464 15465 15466 15467 15468 15469 15470 15471 15472 15473 15474 15475 15476 15477 15478 15479 15480 15481 15482 15483 15484 15485 15486 15487 15488 15489 15490 15491 15492 15493 15494 15495 15496 15497 15498 15499 15500 15501 15502 15503 15504 15505 15506 15507 15508 15509 15510 15511 15512 15513 15514 15515 15516 15517 15518 15519 15520 15521 15522 15523 15524 15525 15526 15527 15528 15529 15530 15531 15532 15533 15534 15535 15536 15537 15538 15539 15540 15541 15542 15543 15544 15545 15546 15547 15548 15549 15550 15551 15552 15553 15554 15555 15556 15557 15558 15559 15560 15561 15562 15563 15564 15565 15566 15567 15568 15569 15570 15571 15572 15573 15574 15575 15576 15577 15578 15579 15580 15581 15582 15583 15584 15585 15586 15587 15588 15589 15590 15591 15592 15593 15594 15595 15596 15597 15598 15599 15600 15601 15602 15603 15604 15605 15606 15607 15608 15609 15610 15611 15612 15613 15614 15615 15616 15617 15618 15619 15620 15621 15622 15623 15624 15625 15626 15627 15628 15629 15630 15631 15632 15633 15634 15635 15636 15637 15638 15639 15640 15641 15642 15643 15644 15645 15646 15647 15648 15649 15650 15651 15652 15653 15654 15655 15656 15657 15658 15659 15660 15661 15662 15663 15664 15665 15666 15667 15668 15669 15670 15671 15672 15673 15674 15675 15676 15677 15678 15679 15680 15681 15682 15683 15684 15685 15686 15687 15688 15689 15690 15691 15692 15693 15694 15695 15696 15697 15698 15699 15700 15701 15702 15703 15704 15705 15706 15707 15708 15709 15710 15711 15712 15713 15714 15715 15716 15717 15718 15719 15720 15721 15722 15723 15724 15725 15726 15727 15728 15729 15730 15731 15732 15733 15734 15735 15736 15737 15738 15739 15740 15741 15742 15743 15744 15745 15746 15747 15748 15749 15750 15751 15752 15753 15754 15755 15756 15757 15758 15759 15760 15761 15762 15763 15764 15765 15766 15767 15768 15769 15770 15771 15772 15773 15774 15775 15776 15777 15778 15779 15780 15781 15782 15783 15784 15785 15786 15787 15788 15789 15790 15791 15792 15793 15794 15795 15796 15797 15798 15799 15800 15801 15802 15803 15804 15805 15806 15807 15808 15809 15810 15811 15812 15813 15814 15815 15816 15817 15818 15819 15820 15821 15822 15823 15824 15825 15826 15827 15828 15829 15830 15831 15832 15833 15834 15835 15836 15837 15838 15839 15840 15841 15842 15843 15844 15845 15846 15847 15848 15849 15850 15851 15852 15853 15854 15855 15856 15857 15858 15859 15860 15861 15862 15863 15864 15865 15866 15867 15868 15869 15870 15871 15872 15873 15874 15875 15876 15877 15878 15879 15880 15881 15882 15883 15884 15885 15886 15887 15888 15889 15890 15891 15892 15893 15894 15895 15896 15897 15898 15899 15900 15901 15902 15903 15904 15905 15906 15907 15908 15909 15910 15911 15912 15913 15914 15915 15916 15917 15918 15919 15920 15921 15922 15923 15924 15925 15926 15927 15928 15929 15930 15931 15932 15933 15934 15935 15936 15937 15938 15939 15940 15941 15942 15943 15944 15945 15946 15947 15948 15949 15950 15951 15952 15953 15954 15955 15956 15957 15958 15959 15960 15961 15962 15963 15964 15965 15966 15967 15968 15969 15970 15971 15972 15973 15974 15975 15976 15977 15978 15979 15980 15981 15982 15983 15984 15985 15986 15987 15988 15989 15990 15991 15992 15993 15994 15995 15996 15997 15998 15999 16000 16001 16002 16003 16004 16005 16006 16007 16008 16009 16010 16011 16012 16013 16014 16015 16016 16017 16018 16019 16020 16021 16022 16023 16024 16025 16026 16027 16028 16029 16030 16031 16032 16033 16034 16035 16036 16037 16038 16039 16040 16041 16042 16043 16044 16045 16046 16047 16048 16049 16050 16051 16052 16053 16054 16055 16056 16057 16058 16059 16060 16061 16062 16063 16064 16065 16066 16067 16068 16069 16070 16071 16072 16073 16074 16075 16076 16077 16078 16079 16080 16081 16082 16083 16084 16085 16086 16087 16088 16089 16090 16091 16092 16093 16094 16095 16096 16097 16098 16099 16100 16101 16102 16103 16104 16105 16106 16107 16108 16109 16110 16111 16112 16113 16114 16115 16116 16117 16118 16119 16120 16121 16122 16123 16124 16125 16126 16127 16128 16129 16130 16131 16132 16133 16134 16135 16136 16137 16138 16139 16140 16141 16142 16143 16144 16145 16146 16147 16148 16149 16150 16151 16152 16153 16154 16155 16156 16157 16158 16159 16160 16161 16162 16163 16164 16165 16166 16167 16168 16169 16170 16171 16172 16173 16174 16175 16176 16177 16178 16179 16180 16181 16182 16183 16184 16185 16186 16187 16188 16189 16190 16191 16192 16193 16194 16195 16196 16197 16198 16199 16200 16201 16202 16203 16204 16205 16206 16207 16208 16209 16210 16211 16212 16213 16214 16215 16216 16217 16218 16219 16220 16221 16222 16223 16224 16225 16226 16227 16228 16229 16230 16231 16232 16233 16234 16235 16236 16237 16238 16239 16240 16241 16242 16243 16244 16245 16246 16247 16248 16249 16250 16251 16252 16253 16254 16255 16256 16257 16258 16259 16260 16261 16262 16263 16264 16265 16266 16267 16268 16269 16270 16271 16272 16273 16274 16275 16276 16277 16278 16279 16280 16281 16282 16283 16284 16285 16286 16287 16288 16289 16290 16291 16292 16293 16294 16295 16296 16297 16298 16299 16300 16301 16302 16303 16304 16305 16306 16307 16308 16309 16310 16311 16312 16313 16314 16315 16316 16317 16318 16319 16320 16321 16322 16323 16324 16325 16326 16327 16328 16329 16330 16331 16332 16333 16334 16335 16336 16337 16338 16339 16340 16341 16342 16343 16344 16345 16346 16347 16348 16349 16350 16351 16352 16353 16354 16355 16356 16357 16358 16359 16360 16361 16362 16363 16364 16365 16366 16367 16368 16369 16370 16371 16372 16373 16374 16375 16376 16377 16378 16379 16380 16381 16382 16383 16384 16385 16386 16387 16388 16389 16390 16391 16392 16393 16394 16395 16396 16397 16398 16399 16400 16401 16402 16403 16404 16405 16406 16407 16408 16409 16410 16411 16412 16413 16414 16415 16416 16417 16418 16419 16420 16421 16422 16423 16424 16425 16426 16427 16428 16429 16430 16431 16432 16433 16434 16435 16436 16437 16438 16439 16440 16441 16442 16443 16444 16445 16446 16447 16448 16449 16450 16451 16452 16453 16454 16455 16456 16457 16458 16459 16460 16461 16462 16463 16464 16465 16466 16467 16468 16469 16470 16471 16472 16473 16474 16475 16476 16477 16478 16479 16480 16481 16482 16483 16484 16485 16486 16487 16488 16489 16490 16491 16492 16493 16494 16495 16496 16497 16498 16499 16500 16501 16502 16503 16504 16505 16506 16507 16508 16509 16510 16511 16512 16513 16514 16515 16516 16517 16518 16519 16520 16521 16522 16523 16524 16525 16526 16527 16528 16529 16530 16531 16532 16533 16534 16535 16536 16537 16538 16539 16540 16541 16542 16543 16544 16545 16546 16547 16548 16549 16550 16551 16552 16553 16554 16555 16556 16557 16558 16559 16560 16561 16562 16563 16564 16565 16566 16567 16568 16569 16570 16571 16572 16573 16574 16575 16576 16577 16578 16579 16580 16581 16582 16583 16584 16585 16586 16587 16588 16589 16590 16591 16592 16593 16594 16595 16596 16597 16598 16599 16600 16601 16602 16603 16604 16605 16606 16607 16608 16609 16610 16611 16612 16613 16614 16615 16616 16617 16618 16619 16620 16621 16622 16623 16624 16625 16626 16627 16628 16629 16630 16631 16632 16633 16634 16635 16636 16637 16638 16639 16640 16641 16642 16643 16644 16645 16646 16647 16648 16649 16650 16651 16652 16653 16654 16655 16656 16657 16658 16659 16660 16661 16662 16663 16664 16665 16666 16667 16668 16669 16670 16671 16672 16673 16674 16675 16676 16677 16678 16679 16680 16681 16682 16683 16684 16685 16686 16687 16688 16689 16690 16691 16692 16693 16694 16695 16696 16697 16698 16699 16700 16701 16702 16703 16704 16705 16706 16707 16708 16709 16710 16711 16712 16713 16714 16715 16716 16717 16718 16719 16720 16721 16722 16723 16724 16725 16726 16727 16728 16729 16730 16731 16732 16733 16734 16735 16736 16737 16738 16739 16740 16741 16742 16743 16744 16745 16746 16747 16748 16749 16750 16751 16752 16753 16754 16755 16756 16757 16758 16759 16760 16761 16762 16763 16764 16765 16766 16767 16768 16769 16770 16771 16772 16773 16774 16775 16776 16777 16778 16779 16780 16781 16782 16783 16784 16785 16786 16787 16788 16789 16790 16791 16792 16793 16794 16795 16796 16797 16798 16799 16800 16801 16802 16803 16804 16805 16806 16807 16808 16809 16810 16811 16812 16813 16814 16815 16816 16817 16818 16819 16820 16821 16822 16823 16824 16825 16826 16827 16828 16829 16830 16831 16832 16833 16834 16835 16836 16837 16838 16839 16840 16841 16842 16843 16844 16845 16846 16847 16848 16849 16850 16851 16852 16853 16854 16855 16856 16857 16858 16859 16860 16861 16862 16863 16864 16865 16866 16867 16868 16869 16870 16871 16872 16873 16874 16875 16876 16877 16878 16879 16880 16881 16882 16883 16884 16885 16886 16887 16888 16889 16890 16891 16892 16893 16894 16895 16896 16897 16898 16899 16900 16901 16902 16903 16904 16905 16906 16907 16908 16909 16910 16911 16912 16913 16914 16915 16916 16917 16918 16919 16920 16921 16922 16923 16924 16925 16926 16927 16928 16929 16930 16931 16932 16933 16934 16935 16936 16937 16938 16939 16940 16941 16942 16943 16944 16945 16946 16947 16948 16949 16950 16951 16952 16953 16954 16955 16956 16957 16958 16959 16960 16961 16962 16963 16964 16965 16966 16967 16968 16969 16970 16971 16972 16973 16974 16975 16976 16977 16978 16979 16980 16981 16982 16983 16984 16985 16986 16987 16988 16989 16990 16991 16992 16993 16994 16995 16996 16997 16998 16999 17000 17001 17002 17003 17004 17005 17006 17007 17008 17009 17010 17011 17012 17013 17014 17015 17016 17017 17018 17019 17020 17021 17022 17023 17024 17025 17026 17027 17028 17029 17030 17031 17032 17033 17034 17035 17036 17037 17038 17039 17040 17041 17042 17043 17044 17045 17046 17047 17048 17049 17050 17051 17052 17053 17054 17055 17056 17057 17058 17059 17060 17061 17062 17063 17064 17065 17066 17067 17068 17069 17070 17071 17072 17073 17074 17075 17076 17077 17078 17079 17080 17081 17082 17083 17084 17085 17086 17087 17088 17089 17090 17091 17092 17093 17094 17095 17096 17097 17098 17099 17100 17101 17102 17103 17104 17105 17106 17107 17108 17109 17110 17111 17112 17113 17114 17115 17116 17117 17118 17119 17120 17121 17122 17123 17124 17125 17126 17127 17128 17129 17130 17131 17132 17133 17134 17135 17136 17137 17138 17139 17140 17141 17142 17143 17144 17145 17146 17147 17148 17149 17150 17151 17152 17153 17154 17155 17156 17157 17158 17159 17160 17161 17162 17163 17164 17165 17166 17167 17168 17169 17170 17171 17172 17173 17174 17175 17176 17177 17178 17179 17180 17181 17182 17183 17184 17185 17186 17187 17188 17189 17190 17191 17192 17193 17194 17195 17196 17197 17198 17199 17200 17201 17202 17203 17204 17205 17206 17207 17208 17209 17210 17211 17212 17213 17214 17215 17216 17217 17218 17219 17220 17221 17222 17223 17224 17225 17226 17227 17228 17229 17230 17231 17232 17233 17234 17235 17236 17237 17238 17239 17240 17241 17242 17243 17244 17245 17246 17247 17248 17249 17250 17251 17252 17253 17254 17255 17256 17257 17258 17259 17260 17261 17262 17263 17264 17265 17266 17267 17268 17269 17270 17271 17272 17273 17274 17275 17276 17277 17278 17279 17280 17281 17282 17283 17284 17285 17286 17287 17288 17289 17290 17291 17292 17293 17294 17295 17296 17297 17298 17299 17300 17301 17302 17303 17304 17305 17306 17307 17308 17309 17310 17311 17312 17313 17314 17315 17316 17317 17318 17319 17320 17321 17322 17323 17324 17325 17326 17327 17328 17329 17330 17331 17332 17333 17334 17335 17336 17337 17338 17339 17340 17341 17342 17343 17344 17345 17346 17347 17348 17349 17350 17351 17352 17353 17354 17355 17356 17357 17358 17359 17360 17361 17362 17363 17364 17365 17366 17367 17368 17369 17370 17371 17372 17373 17374 17375 17376 17377 17378 17379 17380 17381 17382 17383 17384 17385 17386 17387 17388 17389 17390 17391 17392 17393 17394 17395 17396 17397 17398 17399 17400 17401 17402 17403 17404 17405 17406 17407 17408 17409 17410 17411 17412 17413 17414 17415 17416 17417 17418 17419 17420 17421 17422 17423 17424 17425 17426 17427 17428 17429 17430 17431 17432 17433 17434 17435 17436 17437 17438 17439 17440 17441 17442 17443 17444 17445 17446 17447 17448 17449 17450 17451 17452 17453 17454 17455 17456 17457 17458 17459 17460 17461 17462 17463 17464 17465 17466 17467 17468 17469 17470 17471 17472 17473 17474 17475 17476 17477 17478 17479 17480 17481 17482 17483 17484 17485 17486 17487 17488 17489 17490 17491 17492 17493 17494 17495 17496 17497 17498 17499 17500 17501 17502 17503 17504 17505 17506 17507 17508 17509 17510 17511 17512 17513 17514 17515 17516 17517 17518 17519 17520 17521 17522 17523 17524 17525 17526 17527 17528 17529 17530 17531 17532 17533 17534 17535 17536 17537 17538 17539 17540 17541 17542 17543 17544 17545 17546 17547 17548 17549 17550 17551 17552 17553 17554 17555 17556 17557 17558 17559 17560 17561 17562 17563 17564 17565 17566 17567 17568 17569 17570 17571 17572 17573 17574 17575 17576 17577 17578 17579 17580 17581 17582 17583 17584 17585 17586 17587 17588 17589 17590 17591 17592 17593 17594 17595 17596 17597 17598 17599 17600 17601 17602 17603 17604 17605 17606 17607 17608 17609 17610 17611 17612 17613 17614 17615 17616 17617 17618 17619 17620 17621 17622 17623 17624 17625 17626 17627 17628 17629 17630 17631 17632 17633 17634 17635 17636 17637 17638 17639 17640 17641 17642 17643 17644 17645 17646 17647 17648 17649 17650 17651 17652 17653 17654 17655 17656 17657 17658 17659 17660 17661 17662 17663 17664 17665 17666 17667 17668 17669 17670 17671 17672 17673 17674 17675 17676 17677 17678 17679 17680 17681 17682 17683 17684 17685 17686 17687 17688 17689 17690 17691 17692 17693 17694 17695 17696 17697 17698 17699 17700 17701 17702 17703 17704 17705 17706 17707 17708 17709 17710 17711 17712 17713 17714 17715 17716 17717 17718 17719 17720 17721 17722 17723 17724 17725 17726 17727 17728 17729 17730 17731 17732 17733 17734 17735 17736 17737 17738 17739 17740 17741 17742 17743 17744 17745 17746 17747 17748 17749 17750 17751 17752 17753 17754 17755 17756 17757 17758 17759 17760 17761 17762 17763 17764 17765 17766 17767 17768 17769 17770 17771 17772 17773 17774 17775 17776 17777 17778 17779 17780 17781 17782 17783 17784 17785 17786 17787 17788 17789 17790 17791 17792 17793 17794 17795 17796 17797 17798 17799 17800 17801 17802 17803 17804 17805 17806 17807 17808 17809 17810 17811 17812 17813 17814 17815 17816 17817 17818 17819 17820 17821 17822 17823 17824 17825 17826 17827 17828 17829 17830 17831 17832 17833 17834 17835 17836 17837 17838 17839 17840 17841 17842 17843 17844 17845 17846 17847 17848 17849 17850 17851 17852 17853 17854 17855 17856 17857 17858 17859 17860 17861 17862 17863 17864 17865 17866 17867 17868 17869 17870 17871 17872 17873 17874 17875 17876 17877 17878 17879 17880 17881 17882 17883 17884 17885 17886 17887 17888 17889 17890 17891 17892 17893 17894 17895 17896 17897 17898 17899 17900 17901 17902 17903 17904 17905 17906 17907 17908 17909 17910 17911 17912 17913 17914 17915 17916 17917 17918 17919 17920 17921 17922 17923 17924 17925 17926 17927 17928 17929 17930 17931 17932 17933 17934 17935 17936 17937 17938 17939 17940 17941 17942 17943 17944 17945 17946 17947 17948 17949 17950 17951 17952 17953 17954 17955 17956 17957 17958 17959 17960 17961 17962 17963 17964 17965 17966 17967 17968 17969 17970 17971 17972 17973 17974 17975 17976 17977 17978 17979 17980 17981 17982 17983 17984 17985 17986 17987 17988 17989 17990 17991 17992 17993 17994 17995 17996 17997 17998 17999 18000 18001 18002 18003 18004 18005 18006 18007 18008 18009 18010 18011 18012 18013 18014 18015 18016 18017 18018 18019 18020 18021 18022 18023 18024 18025 18026 18027 18028 18029 18030 18031 18032 18033 18034 18035 18036 18037 18038 18039 18040 18041 18042 18043 18044 18045 18046 18047 18048 18049 18050 18051 18052 18053 18054 18055 18056 18057 18058 18059 18060 18061 18062 18063 18064 18065 18066 18067 18068 18069 18070 18071 18072 18073 18074 18075 18076 18077 18078 18079 18080 18081 18082 18083 18084 18085 18086 18087 18088 18089 18090 18091 18092 18093 18094 18095 18096 18097 18098 18099 18100 18101 18102 18103 18104 18105 18106 18107 18108 18109 18110 18111 18112 18113 18114 18115 18116 18117 18118 18119 18120 18121 18122 18123 18124 18125 18126 18127 18128 18129 18130 18131 18132 18133 18134 18135 18136 18137 18138 18139 18140 18141 18142 18143 18144 18145 18146 18147 18148 18149 18150 18151 18152 18153 18154 18155 18156 18157 18158 18159 18160 18161 18162 18163 18164 18165 18166 18167 18168 18169 18170 18171 18172 18173 18174 18175 18176 18177 18178 18179 18180 18181 18182 18183 18184 18185 18186 18187 18188 18189 18190 18191 18192 18193 18194 18195 18196 18197 18198 18199 18200 18201 18202 18203 18204 18205 18206 18207 18208 18209 18210 18211 18212 18213 18214 18215 18216 18217 18218 18219 18220 18221 18222 18223 18224 18225 18226 18227 18228 18229 18230 18231 18232 18233 18234 18235 18236 18237 18238 18239 18240 18241 18242 18243 18244 18245 18246 18247 18248 18249 18250 18251 18252 18253 18254 18255 18256 18257 18258 18259 18260 18261 18262 18263 18264 18265 18266 18267 18268 18269 18270 18271 18272 18273 18274 18275 18276 18277 18278 18279 18280 18281 18282 18283 18284 18285 18286 18287 18288 18289 18290 18291 18292 18293 18294 18295 18296 18297 18298 18299 18300 18301 18302 18303 18304 18305 18306 18307 18308 18309 18310 18311 18312 18313 18314 18315 18316 18317 18318 18319 18320 18321 18322 18323 18324 18325 18326 18327 18328 18329 18330 18331 18332 18333 18334 18335 18336 18337 18338 18339 18340 18341 18342 18343 18344 18345 18346 18347 18348 18349 18350 18351 18352 18353 18354 18355 18356 18357 18358 18359 18360 18361 18362 18363 18364 18365 18366 18367 18368 18369 18370 18371 18372 18373 18374 18375 18376 18377 18378 18379 18380 18381 18382 18383 18384 18385 18386 18387 18388 18389 18390 18391 18392 18393 18394 18395 18396 18397 18398 18399 18400 18401 18402 18403 18404 18405 18406 18407 18408 18409 18410 18411 18412 18413 18414 18415 18416 18417 18418 18419 18420 18421 18422 18423 18424 18425 18426 18427 18428 18429 18430 18431 18432 18433 18434 18435 18436 18437 18438 18439 18440 18441 18442 18443 18444 18445 18446 18447 18448 18449 18450 18451 18452 18453 18454 18455 18456 18457 18458 18459 18460 18461 18462 18463 18464 18465 18466 18467 18468 18469 18470 18471 18472 18473 18474 18475 18476 18477 18478 18479 18480 18481 18482 18483 18484 18485 18486 18487 18488 18489 18490 18491 18492 18493 18494 18495 18496 18497 18498 18499 18500 18501 18502 18503 18504 18505 18506 18507 18508 18509 18510 18511 18512 18513 18514 18515 18516 18517 18518 18519 18520 18521 18522 18523 18524 18525 18526 18527 18528 18529 18530 18531 18532 18533 18534 18535 18536 18537 18538 18539 18540 18541 18542 18543 18544 18545 18546 18547 18548 18549 18550 18551 18552 18553 18554 18555 18556 18557 18558 18559 18560 18561 18562 18563 18564 18565 18566 18567 18568 18569 18570 18571 18572 18573 18574 18575 18576 18577 18578 18579 18580 18581 18582 18583 18584 18585 18586 18587 18588 18589 18590 18591 18592 18593 18594 18595 18596 18597 18598 18599 18600 18601 18602 18603 18604 18605 18606 18607 18608 18609 18610 18611 18612 18613 18614 18615 18616 18617 18618 18619 18620 18621 18622 18623 18624 18625 18626 18627 18628 18629 18630 18631 18632 18633 18634 18635 18636 18637 18638 18639 18640 18641 18642 18643 18644 18645 18646 18647 18648 18649 18650 18651 18652 18653 18654 18655 18656 18657 18658 18659 18660 18661 18662 18663 18664 18665 18666 18667 18668 18669 18670 18671 18672 18673 18674 18675 18676 18677 18678 18679 18680 18681 18682 18683 18684 18685 18686 18687 18688 18689 18690 18691 18692 18693 18694 18695 18696 18697 18698 18699 18700 18701 18702 18703 18704 18705 18706 18707 18708 18709 18710 18711 18712 18713 18714 18715 18716 18717 18718 18719 18720 18721 18722 18723 18724 18725 18726 18727 18728 18729 18730 18731 18732 18733 18734 18735 18736 18737 18738 18739 18740 18741 18742 18743 18744 18745 18746 18747 18748 18749 18750 18751 18752 18753 18754 18755 18756 18757 18758 18759 18760 18761 18762 18763 18764 18765 18766 18767 18768 18769 18770 18771 18772 18773 18774 18775 18776 18777 18778 18779 18780 18781 18782 18783 18784 18785 18786 18787 18788 18789 18790 18791 18792 18793 18794 18795 18796 18797 18798 18799 18800 18801 18802 18803 18804 18805 18806 18807 18808 18809 18810 18811 18812 18813 18814 18815 18816 18817 18818 18819 18820 18821 18822 18823 18824 18825 18826 18827 18828 18829 18830 18831 18832 18833 18834 18835 18836 18837 18838 18839 18840 18841 18842 18843 18844 18845 18846 18847 18848 18849 18850 18851 18852 18853 18854 18855 18856 18857 18858 18859 18860 18861 18862 18863 18864 18865 18866 18867 18868 18869 18870 18871 18872 18873 18874 18875 18876 18877 18878 18879 18880 18881 18882 18883 18884 18885 18886 18887 18888 18889 18890 18891 18892 18893 18894 18895 18896 18897 18898 18899 18900 18901 18902 18903 18904 18905 18906 18907 18908 18909 18910 18911 18912 18913 18914 18915 18916 18917 18918 18919 18920 18921 18922 18923 18924 18925 18926 18927 18928 18929 18930 18931 18932 18933 18934 18935 18936 18937 18938 18939 18940 18941 18942 18943 18944 18945 18946 18947 18948 18949 18950 18951 18952 18953 18954 18955 18956 18957 18958 18959 18960 18961 18962 18963 18964 18965 18966 18967 18968 18969 18970 18971 18972 18973 18974 18975 18976 18977 18978 18979 18980 18981 18982 18983 18984 18985 18986 18987 18988 18989 18990 18991 18992 18993 18994 18995 18996 18997 18998 18999 19000 19001 19002 19003 19004 19005 19006 19007 19008 19009 19010 19011 19012 19013 19014 19015 19016 19017 19018 19019 19020 19021 19022 19023 19024 19025 19026 19027 19028 19029 19030 19031 19032 19033 19034 19035 19036 19037 19038 19039 19040 19041 19042 19043 19044 19045 19046 19047 19048 19049 19050 19051 19052 19053 19054 19055 19056 19057 19058 19059 19060 19061 19062 19063 19064 19065 19066 19067 19068 19069 19070 19071 19072 19073 19074 19075 19076 19077 19078 19079 19080 19081 19082 19083 19084 19085 19086 19087 19088 19089 19090 19091 19092 19093 19094 19095 19096 19097 19098 19099 19100 19101 19102 19103 19104 19105 19106 19107 19108 19109 19110 19111 19112 19113 19114 19115 19116 19117 19118 19119 19120 19121 19122 19123 19124 19125 19126 19127 19128 19129 19130 19131 19132 19133 19134 19135 19136 19137 19138 19139 19140 19141 19142 19143 19144 19145 19146 19147 19148 19149 19150 19151 19152 19153 19154 19155 19156 19157 19158 19159 19160 19161 19162 19163 19164 19165 19166 19167 19168 19169 19170 19171 19172 19173 19174 19175 19176 19177 19178 19179 19180 19181 19182 19183 19184 19185 19186 19187 19188 19189 19190 19191 19192 19193 19194 19195 19196 19197 19198 19199 19200 19201 19202 19203 19204 19205 19206 19207 19208 19209 19210 19211 19212 19213 19214 19215 19216 19217 19218 19219 19220 19221 19222 19223 19224 19225 19226 19227 19228 19229 19230 19231 19232 19233 19234 19235 19236 19237 19238 19239 19240 19241 19242 19243 19244 19245 19246 19247 19248 19249 19250 19251 19252 19253 19254 19255 19256 19257 19258 19259 19260 19261 19262 19263 19264 19265 19266 19267 19268 19269 19270 19271 19272 19273 19274 19275 19276 19277 19278 19279 19280 19281 19282 19283 19284 19285 19286 19287 19288 19289 19290 19291 19292 19293 19294 19295 19296 19297 19298 19299 19300 19301 19302 19303 19304 19305 19306 19307 19308 19309 19310 19311 19312 19313 19314 19315 19316 19317 19318 19319 19320 19321 19322 19323 19324 19325 19326 19327 19328 19329 19330 19331 19332 19333 19334 19335 19336 19337 19338 19339 19340 19341 19342 19343 19344 19345 19346 19347 19348 19349 19350 19351 19352 19353 19354 19355 19356 19357 19358 19359 19360 19361 19362 19363 19364 19365 19366 19367 19368 19369 19370 19371 19372 19373 19374 19375 19376 19377 19378 19379 19380 19381 19382 19383 19384 19385 19386 19387 19388 19389 19390 19391 19392 19393 19394 19395 19396 19397 19398 19399 19400 19401 19402 19403 19404 19405 19406 19407 19408 19409 19410 19411 19412 19413 19414 19415 19416 19417 19418 19419 19420 19421 19422 19423 19424 19425 19426 19427 19428 19429 19430 19431 19432 19433 19434 19435 19436 19437 19438 19439 19440 19441 19442 19443 19444 19445 19446 19447 19448 19449 19450 19451 19452 19453 19454 19455 19456 19457 19458 19459 19460 19461 19462 19463 19464 19465 19466 19467 19468 19469 19470 19471 19472 19473 19474 19475 19476 19477 19478 19479 19480 19481 19482 19483 19484 19485 19486 19487 19488 19489 19490 19491 19492 19493 19494 19495 19496 19497 19498 19499 19500 19501 19502 19503 19504 19505 19506 19507 19508 19509 19510 19511 19512 19513 19514 19515 19516 19517 19518 19519 19520 19521 19522 19523 19524 19525 19526 19527 19528 19529 19530 19531 19532 19533 19534 19535 19536 19537 19538 19539 19540 19541 19542 19543 19544 19545 19546 19547 19548 19549 19550 19551 19552 19553 19554 19555 19556 19557 19558 19559 19560 19561 19562 19563 19564 19565 19566 19567 19568 19569 19570 19571 19572 19573 19574 19575 19576 19577 19578 19579 19580 19581 19582 19583 19584 19585 19586 19587 19588 19589 19590 19591 19592 19593 19594 19595 19596 19597 19598 19599 19600 19601 19602 19603 19604 19605 19606 19607 19608 19609 19610 19611 19612 19613 19614 19615 19616 19617 19618 19619 19620 19621 19622 19623 19624 19625 19626 19627 19628 19629 19630 19631 19632 19633 19634 19635 19636 19637 19638 19639 19640 19641 19642 19643 19644 19645 19646 19647 19648 19649 19650 19651 19652 19653 19654 19655 19656 19657 19658 19659 19660 19661 19662 19663 19664 19665 19666 19667 19668 19669 19670 19671 19672 19673 19674 19675 19676 19677 19678 19679 19680 19681 19682 19683 19684 19685 19686 19687 19688 19689 19690 19691 19692 19693 19694 19695 19696 19697 19698 19699 19700 19701 19702 19703 19704 19705 19706 19707 19708 19709 19710 19711 19712 19713 19714 19715 19716 19717 19718 19719 19720 19721 19722 19723 19724 19725 19726 19727 19728 19729 19730 19731 19732 19733 19734 19735 19736 19737 19738 19739 19740 19741 19742 19743 19744 19745 19746 19747 19748 19749 19750 19751 19752 19753 19754 19755 19756 19757 19758 19759 19760 19761 19762 19763 19764 19765 19766 19767 19768 19769 19770 19771 19772 19773 19774 19775 19776 19777 19778 19779 19780 19781 19782 19783 19784 19785 19786 19787 19788 19789 19790 19791 19792 19793 19794 19795 19796 19797 19798 19799 19800 19801 19802 19803 19804 19805 19806 19807 19808 19809 19810 19811 19812 19813 19814 19815 19816 19817 19818 19819 19820 19821 19822 19823 19824 19825 19826 19827 19828 19829 19830 19831 19832 19833 19834 19835 19836 19837 19838 19839 19840 19841 19842 19843 19844 19845 19846 19847 19848 19849 19850 19851 19852 19853 19854 19855 19856 19857 19858 19859 19860 19861 19862 19863 19864 19865 19866 19867 19868 19869 19870 19871 19872 19873 19874 19875 19876 19877 19878 19879 19880 19881 19882 19883 19884 19885 19886 19887 19888 19889 19890 19891 19892 19893 19894 19895 19896 19897 19898 19899 19900 19901 19902 19903 19904 19905 19906 19907 19908 19909 19910 19911 19912 19913 19914 19915 19916 19917 19918 19919 19920 19921 19922 19923 19924 19925 19926 19927 19928 19929 19930 19931 19932 19933 19934 19935 19936 19937 19938 19939 19940 19941 19942 19943 19944 19945 19946 19947 19948 19949 19950 19951 19952 19953 19954 19955 19956 19957 19958 19959 19960 19961 19962 19963 19964 19965 19966 19967 19968 19969 19970 19971 19972 19973 19974 19975 19976 19977 19978 19979 19980 19981 19982 19983 19984 19985 19986 19987 19988 19989 19990 19991 19992 19993 19994 19995 19996 19997 19998 19999 20000 20001 20002 20003 20004 20005 20006 20007 20008 20009 20010 20011 20012 20013 20014 20015 20016 20017 20018 20019 20020 20021 20022 20023 20024 20025 20026 20027 20028 20029 20030 20031 20032 20033 20034 20035 20036 20037 20038 20039 20040 20041 20042 20043 20044 20045 20046 20047 20048 20049 20050 20051 20052 20053 20054 20055 20056 20057 20058 20059 20060 20061 20062 20063 20064 20065 20066 20067 20068 20069 20070 20071 20072 20073 20074 20075 20076 20077 20078 20079 20080 20081 20082 20083 20084 20085 20086 20087 20088 20089 20090 20091 20092 20093 20094 20095 20096 20097 20098 20099 20100 20101 20102 20103 20104 20105 20106 20107 20108 20109 20110 20111 20112 20113 20114 20115 20116 20117 20118 20119 20120 20121 20122 20123 20124 20125 20126 20127 20128 20129 20130 20131 20132 20133 20134 20135 20136 20137 20138 20139 20140 20141 20142 20143 20144 20145 20146 20147 20148 20149 20150 20151 20152 20153 20154 20155 20156 20157 20158 20159 20160 20161 20162 20163 20164 20165 20166 20167 20168 20169 20170 20171 20172 20173 20174 20175 20176 20177 20178 20179 20180 20181 20182 20183 20184 20185 20186 20187 20188 20189 20190 20191 20192 20193 20194 20195 20196 20197 20198 20199 20200 20201 20202 20203 20204 20205 20206 20207 20208 20209 20210 20211 20212 20213 20214 20215 20216 20217 20218 20219 20220 20221 20222 20223 20224 20225 20226 20227 20228 20229 20230 20231 20232 20233 20234 20235 20236 20237 20238 20239 20240 20241 20242 20243 20244 20245 20246 20247 20248 20249 20250 20251 20252 20253 20254 20255 20256 20257 20258 20259 20260 20261 20262 20263 20264 20265 20266 20267 20268 20269 20270 20271 20272 20273 20274 20275 20276 20277 20278 20279 20280 20281 20282 20283 20284 20285 20286 20287 20288 20289 20290 20291 20292 20293 20294 20295 20296 20297 20298 20299 20300 20301 20302 20303 20304 20305 20306 20307 20308 20309 20310 20311 20312 20313 20314 20315 20316 20317 20318 20319 20320 20321 20322 20323 20324 20325 20326 20327 20328 20329 20330 20331 20332 20333 20334 20335 20336 20337 20338 20339 20340 20341 20342 20343 20344 20345 20346 20347 20348 20349 20350 20351 20352 20353 20354 20355 20356 20357 20358 20359 20360 20361 20362 20363 20364 20365 20366 20367 20368 20369 20370 20371 20372 20373 20374 20375 20376 20377 20378 20379 20380 20381 20382 20383 20384 20385 20386 20387 20388 20389 20390 20391 20392 20393 20394 20395 20396 20397 20398 20399 20400 20401 20402 20403 20404 20405 20406 20407 20408 20409 20410 20411 20412 20413 20414 20415 20416 20417 20418 20419 20420 20421 20422 20423 20424 20425 20426 20427 20428 20429 20430 20431 20432 20433 20434 20435 20436 20437 20438 20439 20440 20441 20442 20443 20444 20445 20446 20447 20448 20449 20450 20451 20452 20453 20454 20455 20456 20457 20458 20459 20460 20461 20462 20463 20464 20465 20466 20467 20468 20469 20470 20471 20472 20473 20474 20475 20476 20477 20478 20479 20480 20481 20482 20483 20484 20485 20486 20487 20488 20489 20490 20491 20492 20493 20494 20495 20496 20497 20498 20499 20500 20501 20502 20503 20504 20505 20506 20507 20508 20509 20510 20511 20512 20513 20514 20515 20516 20517 20518 20519 20520 20521 20522 20523 20524 20525 20526 20527 20528 20529 20530 20531 20532 20533 20534 20535 20536 20537 20538 20539 20540 20541 20542 20543 20544 20545 20546 20547 20548 20549 20550 20551 20552 20553 20554 20555 20556 20557 20558 20559 20560 20561 20562 20563 20564 20565 20566 20567 20568 20569 20570 20571 20572 20573 20574 20575 20576 20577 20578 20579 20580 20581 20582 20583 20584 20585 20586 20587 20588 20589 20590 20591 20592 20593 20594 20595 20596 20597 20598 20599 20600 20601 20602 20603 20604 20605 20606 20607 20608 20609 20610 20611 20612 20613 20614 20615 20616 20617 20618 20619 20620 20621 20622 20623 20624 20625 20626 20627 20628 20629 20630 20631 20632 20633 20634 20635 20636 20637 20638 20639 20640 20641 20642 20643 20644 20645 20646 20647 20648 20649 20650 20651 20652 20653 20654 20655 20656 20657 20658 20659 20660 20661 20662 20663 20664 20665 20666 20667 20668 20669 20670 20671 20672 20673 20674 20675 20676 20677 20678 20679 20680 20681 20682 20683 20684 20685 20686 20687 20688 20689 20690 20691 20692 20693 20694 20695 20696 20697 20698 20699 20700 20701 20702 20703 20704 20705 20706 20707 20708 20709 20710 20711 20712 20713 20714 20715 20716 20717 20718 20719 20720 20721 20722 20723 20724 20725 20726 20727 20728 20729 20730 20731 20732 20733 20734 20735 20736 20737 20738 20739 20740 20741 20742 20743 20744 20745 20746 20747 20748 20749 20750 20751 20752 20753 20754 20755 20756 20757 20758 20759 20760 20761 20762 20763 20764 20765 20766 20767 20768 20769 20770 20771 20772 20773 20774 20775 20776 20777 20778 20779 20780 20781 20782 20783 20784 20785 20786 20787 20788 20789 20790 20791 20792 20793 20794 20795 20796 20797 20798 20799 20800 20801 20802 20803 20804 20805 20806 20807 20808 20809 20810 20811 20812 20813 20814 20815 20816 20817 20818 20819 20820 20821 20822 20823 20824 20825 20826 20827 20828 20829 20830 20831 20832 20833 20834 20835 20836 20837 20838 20839 20840 20841 20842 20843 20844 20845 20846 20847 20848 20849 20850 20851 20852 20853 20854 20855 20856 20857 20858 20859 20860 20861 20862 20863 20864 20865 20866 20867 20868 20869 20870 20871 20872 20873 20874 20875 20876 20877 20878 20879 20880 20881 20882 20883 20884 20885 20886 20887 20888 20889 20890 20891 20892 20893 20894 20895 20896 20897 20898 20899 20900 20901 20902 20903 20904 20905 20906 20907 20908 20909 20910 20911 20912 20913 20914 20915 20916 20917 20918 20919 20920 20921 20922 20923 20924 20925 20926 20927 20928 20929 20930 20931 20932 20933 20934 20935 20936 20937 20938 20939 20940 20941 20942 20943 20944 20945 20946 20947 20948 20949 20950 20951 20952 20953 20954 20955 20956 20957 20958 20959 20960 20961 20962 20963 20964 20965 20966 20967 20968 20969 20970 20971 20972 20973 20974 20975 20976 20977 20978 20979 20980 20981 20982 20983 20984 20985 20986 20987 20988 20989 20990 20991 20992 20993 20994 20995 20996 20997 20998 20999 21000 21001 21002 21003 21004 21005 21006 21007 21008 21009 21010 21011 21012 21013 21014 21015 21016 21017 21018 21019 21020 21021 21022 21023 21024 21025 21026 21027 21028 21029 21030 21031 21032 21033 21034 21035 21036 21037 21038 21039 21040 21041 21042 21043 21044 21045 21046 21047 21048 21049 21050 21051 21052 21053 21054 21055 21056 21057 21058 21059 21060 21061 21062 21063 21064 21065 21066 21067 21068 21069 21070 21071 21072 21073 21074 21075 21076 21077 21078 21079 21080 21081 21082 21083 21084 21085 21086 21087 21088 21089 21090 21091 21092 21093 21094 21095 21096 21097 21098 21099 21100 21101 21102 21103 21104 21105 21106 21107 21108 21109 21110 21111 21112 21113 21114 21115 21116 21117 21118 21119 21120 21121 21122 21123 21124 21125 21126 21127 21128 21129 21130 21131 21132 21133 21134 21135 21136 21137 21138 21139 21140 21141 21142 21143 21144 21145 21146 21147 21148 21149 21150 21151 21152 21153 21154 21155 21156 21157 21158 21159 21160 21161 21162 21163 21164 21165 21166 21167 21168 21169 21170 21171 21172 21173 21174 21175 21176 21177 21178 21179 21180 21181 21182 21183 21184 21185 21186 21187 21188 21189 21190 21191 21192 21193 21194 21195 21196 21197 21198 21199 21200 21201 21202 21203 21204 21205 21206 21207 21208 21209 21210 21211 21212 21213 21214 21215 21216 21217 21218 21219 21220 21221 21222 21223 21224 21225 21226 21227 21228 21229 21230 21231 21232 21233 21234 21235 21236 21237 21238 21239 21240 21241 21242 21243 21244 21245 21246 21247 21248 21249 21250 21251 21252 21253 21254 21255 21256 21257 21258 21259 21260 21261 21262 21263 21264 21265 21266 21267 21268 21269 21270 21271 21272 21273 21274 21275 21276 21277 21278 21279 21280 21281 21282 21283 21284 21285 21286 21287 21288 21289 21290 21291 21292 21293 21294 21295 21296 21297 21298 21299 21300 21301 21302 21303 21304 21305 21306 21307 21308 21309 21310 21311 21312 21313 21314 21315 21316 21317 21318 21319 21320 21321 21322 21323 21324 21325 21326 21327 21328 21329 21330 21331 21332 21333 21334 21335 21336 21337 21338 21339 21340 21341 21342 21343 21344 21345 21346 21347 21348 21349 21350 21351 21352 21353 21354 21355 21356 21357 21358 21359 21360 21361 21362 21363 21364 21365 21366 21367 21368 21369 21370 21371 21372 21373 21374 21375 21376 21377 21378 21379 21380 21381 21382 21383 21384 21385 21386 21387 21388 21389 21390 21391 21392 21393 21394 21395 21396 21397 21398 21399 21400 21401 21402 21403 21404 21405 21406 21407 21408 21409 21410 21411 21412 21413 21414 21415 21416 21417 21418 21419 21420 21421 21422 21423 21424 21425 21426 21427 21428 21429 21430 21431 21432 21433 21434 21435 21436 21437 21438 21439 21440 21441 21442 21443 21444 21445 21446 21447 21448 21449 21450 21451 21452 21453 21454 21455 21456 21457 21458 21459 21460 21461 21462 21463 21464 21465 21466 21467 21468 21469 21470 21471 21472 21473 21474 21475 21476 21477 21478 21479 21480 21481 21482 21483 21484 21485 21486 21487 21488 21489 21490 21491 21492 21493 21494 21495 21496 21497 21498 21499 21500 21501 21502 21503 21504 21505 21506 21507 21508 21509 21510 21511 21512 21513 21514 21515 21516 21517 21518 21519 21520 21521 21522 21523 21524 21525 21526 21527 21528 21529 21530 21531 21532 21533 21534 21535 21536 21537 21538 21539 21540 21541 21542 21543 21544 21545 21546 21547 21548 21549 21550 21551 21552 21553 21554 21555 21556 21557 21558 21559 21560 21561 21562 21563 21564 21565 21566 21567 21568 21569 21570 21571 21572 21573 21574 21575 21576 21577 21578 21579 21580 21581 21582 21583 21584 21585 21586 21587 21588 21589 21590 21591 21592 21593 21594 21595 21596 21597 21598 21599 21600 21601 21602 21603 21604 21605 21606 21607 21608 21609 21610 21611 21612 21613 21614 21615 21616 21617 21618 21619 21620 21621 21622 21623 21624 21625 21626 21627 21628 21629 21630 21631 21632 21633 21634 21635 21636 21637 21638 21639 21640 21641 21642 21643 21644 21645 21646 21647 21648 21649 21650 21651 21652 21653 21654 21655 21656 21657 21658 21659 21660 21661 21662 21663 21664 21665 21666 21667 21668 21669 21670 21671 21672 21673 21674 21675 21676 21677 21678 21679 21680 21681 21682 21683 21684 21685 21686 21687 21688 21689 21690 21691 21692 21693 21694 21695 21696 21697 21698 21699 21700 21701 21702 21703 21704 21705 21706 21707 21708 21709 21710 21711 21712 21713 21714 21715 21716 21717 21718 21719 21720 21721 21722 21723 21724 21725 21726 21727 21728 21729 21730 21731 21732 21733 21734 21735 21736 21737 21738 21739 21740 21741 21742 21743 21744 21745 21746 21747 21748 21749 21750 21751 21752 21753 21754 21755 21756 21757 21758 21759 21760 21761 21762 21763 21764 21765 21766 21767 21768 21769 21770 21771 21772 21773 21774 21775 21776 21777 21778 21779 21780 21781 21782 21783 21784 21785 21786 21787 21788 21789 21790 21791 21792 21793 21794 21795 21796 21797 21798 21799 21800 21801 21802 21803 21804 21805 21806 21807 21808 21809 21810 21811 21812 21813 21814 21815 21816 21817 21818 21819 21820 21821 21822 21823 21824 21825 21826 21827 21828 21829 21830 21831 21832 21833 21834 21835 21836 21837 21838 21839 21840 21841 21842 21843 21844 21845 21846 21847 21848 21849 21850 21851 21852 21853 21854 21855 21856 21857 21858 21859 21860 21861 21862 21863 21864 21865 21866 21867 21868 21869 21870 21871 21872 21873 21874 21875 21876 21877 21878 21879 21880 21881 21882 21883 21884 21885 21886 21887 21888 21889 21890 21891 21892 21893 21894 21895 21896 21897 21898 21899 21900 21901 21902 21903 21904 21905 21906 21907 21908 21909 21910 21911 21912 21913 21914 21915 21916 21917 21918 21919 21920 21921 21922 21923 21924 21925 21926 21927 21928 21929 21930 21931 21932 21933 21934 21935 21936 21937 21938 21939 21940 21941 21942 21943 21944 21945 21946 21947 21948 21949 21950 21951 21952 21953 21954 21955 21956 21957 21958 21959 21960 21961 21962 21963 21964 21965 21966 21967 21968 21969 21970 21971 21972 21973 21974 21975 21976 21977 21978 21979 21980 21981 21982 21983 21984 21985 21986 21987 21988 21989 21990 21991 21992 21993 21994 21995 21996 21997 21998 21999 22000 22001 22002 22003 22004 22005 22006 22007 22008 22009 22010 22011 22012 22013 22014 22015 22016 22017 22018 22019 22020 22021 22022 22023 22024 22025 22026 22027 22028 22029 22030 22031 22032 22033 22034 22035 22036 22037 22038 22039 22040 22041 22042 22043 22044 22045 22046 22047 22048 22049 22050 22051 22052 22053 22054 22055 22056 22057 22058 22059 22060 22061 22062 22063 22064 22065 22066 22067 22068 22069 22070 22071 22072 22073 22074 22075 22076 22077 22078 22079 22080 22081 22082 22083 22084 22085 22086 22087 22088 22089 22090 22091 22092 22093 22094 22095 22096 22097 22098 22099 22100 22101 22102 22103 22104 22105 22106 22107 22108 22109 22110 22111 22112 22113 22114 22115 22116 22117 22118 22119 22120 22121 22122 22123 22124 22125 22126 22127 22128 22129 22130 22131 22132 22133 22134 22135 22136 22137 22138 22139 22140 22141 22142 22143 22144 22145 22146 22147 22148 22149 22150 22151 22152 22153 22154 22155 22156 22157 22158 22159 22160 22161 22162 22163 22164 22165 22166 22167 22168 22169 22170 22171 22172 22173 22174 22175 22176 22177 22178 22179 22180 22181 22182 22183 22184 22185 22186 22187 22188 22189 22190 22191 22192 22193 22194 22195 22196 22197 22198 22199 22200 22201 22202 22203 22204 22205 22206 22207 22208 22209 22210 22211 22212 22213 22214 22215 22216 22217 22218 22219 22220 22221 22222 22223 22224 22225 22226 22227 22228 22229 22230 22231 22232 22233 22234 22235 22236 22237 22238 22239 22240 22241 22242 22243 22244 22245 22246 22247 22248 22249 22250 22251 22252 22253 22254 22255 22256 22257 22258 22259 22260 22261 22262 22263 22264 22265 22266 22267 22268 22269 22270 22271 22272 22273 22274 22275 22276 22277 22278 22279 22280 22281 22282 22283 22284 22285 22286 22287 22288 22289 22290 22291 22292 22293 22294 22295 22296 22297 22298 22299 22300 22301 22302 22303 22304 22305 22306 22307 22308 22309 22310 22311 22312 22313 22314 22315 22316 22317 22318 22319 22320 22321 22322 22323 22324 22325 22326 22327 22328 22329 22330 22331 22332 22333 22334 22335 22336 22337 22338 22339 22340 22341 22342 22343 22344 22345 22346 22347 22348 22349 22350 22351 22352 22353 22354 22355 22356 22357 22358 22359 22360 22361 22362 22363 22364 22365 22366 22367 22368 22369 22370 22371 22372 22373 22374 22375 22376 22377 22378 22379 22380 22381 22382 22383 22384 22385 22386 22387 22388 22389 22390 22391 22392 22393 22394 22395 22396 22397 22398 22399 22400 22401 22402 22403 22404 22405 22406 22407 22408 22409 22410 22411 22412 22413 22414 22415 22416 22417 22418 22419 22420 22421 22422 22423 22424 22425 22426 22427 22428 22429 22430 22431 22432 22433 22434 22435 22436 22437 22438 22439 22440 22441 22442 22443 22444 22445 22446 22447 22448 22449 22450 22451 22452 22453 22454 22455 22456 22457 22458 22459 22460 22461 22462 22463 22464 22465 22466 22467 22468 22469 22470 22471 22472 22473 22474 22475 22476 22477 22478 22479 22480 22481 22482 22483 22484 22485 22486 22487 22488 22489 22490 22491 22492 22493 22494 22495 22496 22497 22498 22499 22500 22501 22502 22503 22504 22505 22506 22507 22508 22509 22510 22511 22512 22513 22514 22515 22516 22517 22518 22519 22520 22521 22522 22523 22524 22525 22526 22527 22528 22529 22530 22531 22532 22533 22534 22535 22536 22537 22538 22539 22540 22541 22542 22543 22544 22545 22546 22547 22548 22549 22550 22551 22552 22553 22554 22555 22556 22557 22558 22559 22560 22561 22562 22563 22564 22565 22566 22567 22568 22569 22570 22571 22572 22573 22574 22575 22576 22577 22578 22579 22580 22581 22582 22583 22584 22585 22586 22587 22588 22589 22590 22591 22592 22593 22594 22595 22596 22597 22598 22599 22600 22601 22602 22603 22604 22605 22606 22607 22608 22609 22610 22611 22612 22613 22614 22615 22616 22617 22618 22619 22620 22621 22622 22623 22624 22625 22626 22627 22628 22629 22630 22631 22632 22633 22634 22635 22636 22637 22638 22639 22640 22641 22642 22643 22644 22645 22646 22647 22648 22649 22650 22651 22652 22653 22654 22655 22656 22657 22658 22659 22660 22661 22662 22663 22664 22665 22666 22667 22668 22669 22670 22671 22672 22673 22674 22675 22676 22677 22678 22679 22680 22681 22682 22683 22684 22685 22686 22687 22688 22689 22690 22691 22692 22693 22694 22695 22696 22697 22698 22699 22700 22701 22702 22703 22704 22705 22706 22707 22708 22709 22710 22711 22712 22713 22714 22715 22716 22717 22718 22719 22720 22721 22722 22723 22724 22725 22726 22727 22728 22729 22730 22731 22732 22733 22734 22735 22736 22737 22738 22739 22740 22741 22742 22743 22744 22745 22746 22747 22748 22749 22750 22751 22752 22753 22754 22755 22756 22757 22758 22759 22760 22761 22762 22763 22764 22765 22766 22767 22768 22769 22770 22771 22772 22773 22774 22775 22776 22777 22778 22779 22780 22781 22782 22783 22784 22785 22786 22787 22788 22789 22790 22791 22792 22793 22794 22795 22796 22797 22798 22799 22800 22801 22802 22803 22804 22805 22806 22807 22808 22809 22810 22811 22812 22813 22814 22815 22816 22817 22818 22819 22820 22821 22822 22823 22824 22825 22826 22827 22828 22829 22830 22831 22832 22833 22834 22835 22836 22837 22838 22839 22840 22841 22842 22843 22844 22845 22846 22847 22848 22849 22850 22851 22852 22853 22854 22855 22856 22857 22858 22859 22860 22861 22862 22863 22864 22865 22866 22867 22868 22869 22870 22871 22872 22873 22874 22875 22876 22877 22878 22879 22880 22881 22882 22883 22884 22885 22886 22887 22888 22889 22890 22891 22892 22893 22894 22895 22896 22897 22898 22899 22900 22901 22902 22903 22904 22905 22906 22907 22908 22909 22910 22911 22912 22913 22914 22915 22916 22917 22918 22919 22920 22921 22922 22923 22924 22925 22926 22927 22928 22929 22930 22931 22932 22933 22934 22935 22936 22937 22938 22939 22940 22941 22942 22943 22944 22945 22946 22947 22948 22949 22950 22951 22952 22953 22954 22955 22956 22957 22958 22959 22960 22961 22962 22963 22964 22965 22966 22967 22968 22969 22970 22971 22972 22973 22974 22975 22976 22977 22978 22979 22980 22981 22982 22983 22984 22985 22986 22987 22988 22989 22990 22991 22992 22993 22994 22995 22996 22997 22998 22999 23000 23001 23002 23003 23004 23005 23006 23007 23008 23009 23010 23011 23012 23013 23014 23015 23016 23017 23018 23019 23020 23021 23022 23023 23024 23025 23026 23027 23028 23029 23030 23031 23032 23033 23034 23035 23036 23037 23038 23039 23040 23041 23042 23043 23044 23045 23046 23047 23048 23049 23050 23051 23052 23053 23054 23055 23056 23057 23058 23059 23060 23061 23062 23063 23064 23065 23066 23067 23068 23069 23070 23071 23072 23073 23074 23075 23076 23077 23078 23079 23080 23081 23082 23083 23084 23085 23086 23087 23088 23089 23090 23091 23092 23093 23094 23095 23096 23097 23098 23099 23100 23101 23102 23103 23104 23105 23106 23107 23108 23109 23110 23111 23112 23113 23114 23115 23116 23117 23118 23119 23120 23121 23122 23123 23124 23125 23126 23127 23128 23129 23130 23131 23132 23133 23134 23135 23136 23137 23138 23139 23140 23141 23142 23143 23144 23145 23146 23147 23148 23149 23150 23151 23152 23153 23154 23155 23156 23157 23158 23159 23160 23161 23162 23163 23164 23165 23166 23167 23168 23169 23170 23171 23172 23173 23174 23175 23176 23177 23178 23179 23180 23181 23182 23183 23184 23185 23186 23187 23188 23189 23190 23191 23192 23193 23194 23195 23196 23197 23198 23199 23200 23201 23202 23203 23204 23205 23206 23207 23208 23209 23210 23211 23212 23213 23214 23215 23216 23217 23218 23219 23220 23221 23222 23223 23224 23225 23226 23227 23228 23229 23230 23231 23232 23233 23234 23235 23236 23237 23238 23239 23240 23241 23242 23243 23244 23245 23246 23247 23248 23249 23250 23251 23252 23253 23254 23255 23256 23257 23258 23259 23260 23261 23262 23263 23264 23265 23266 23267 23268 23269 23270 23271 23272 23273 23274 23275 23276 23277 23278 23279 23280 23281 23282 23283 23284 23285 23286 23287 23288 23289 23290 23291 23292 23293 23294 23295 23296 23297 23298 23299 23300 23301 23302 23303 23304 23305 23306 23307 23308 23309 23310 23311 23312 23313 23314 23315 23316 23317 23318 23319 23320 23321 23322 23323 23324 23325 23326 23327 23328 23329 23330 23331 23332 23333 23334 23335 23336 23337 23338 23339 23340 23341 23342 23343 23344 23345 23346 23347 23348 23349 23350 23351 23352 23353 23354 23355 23356 23357 23358 23359 23360 23361 23362 23363 23364 23365 23366 23367 23368 23369 23370 23371 23372 23373 23374 23375 23376 23377 23378 23379 23380 23381 23382 23383 23384 23385 23386 23387 23388 23389 23390 23391 23392 23393 23394 23395 23396 23397 23398 23399 23400 23401 23402 23403 23404 23405 23406 23407 23408 23409 23410 23411 23412 23413 23414 23415 23416 23417 23418 23419 23420 23421 23422 23423 23424 23425 23426 23427 23428 23429 23430 23431 23432 23433 23434 23435 23436 23437 23438 23439 23440 23441 23442 23443 23444 23445 23446 23447 23448 23449 23450 23451 23452 23453 23454 23455 23456 23457 23458 23459 23460 23461 23462 23463 23464 23465 23466 23467 23468 23469 23470 23471 23472 23473 23474 23475 23476 23477 23478 23479 23480 23481 23482 23483 23484 23485 23486 23487 23488 23489 23490 23491 23492 23493 23494 23495 23496 23497 23498 23499 23500 23501 23502 23503 23504 23505 23506 23507 23508 23509 23510 23511 23512 23513 23514 23515 23516 23517 23518 23519 23520 23521 23522 23523 23524 23525 23526 23527 23528 23529 23530 23531 23532 23533 23534 23535 23536 23537 23538 23539 23540 23541 23542 23543 23544 23545 23546 23547 23548 23549 23550 23551 23552 23553 23554 23555 23556 23557 23558 23559 23560 23561 23562 23563 23564 23565 23566 23567 23568 23569 23570 23571 23572 23573 23574 23575 23576 23577 23578 23579 23580 23581 23582 23583 23584 23585 23586 23587 23588 23589 23590 23591 23592 23593 23594 23595 23596 23597 23598 23599 23600 23601 23602 23603 23604 23605 23606 23607 23608 23609 23610 23611 23612 23613 23614 23615 23616 23617 23618 23619 23620 23621 23622 23623 23624 23625 23626 23627 23628 23629 23630 23631 23632 23633 23634 23635 23636 23637 23638 23639 23640 23641 23642 23643 23644 23645 23646 23647 23648 23649 23650 23651 23652 23653 23654 23655 23656 23657 23658 23659 23660 23661 23662 23663 23664 23665 23666 23667 23668 23669 23670 23671 23672 23673 23674 23675 23676 23677 23678 23679 23680 23681 23682 23683 23684 23685 23686 23687 23688 23689 23690 23691 23692 23693 23694 23695 23696 23697 23698 23699 23700 23701 23702 23703 23704 23705 23706 23707 23708 23709 23710 23711 23712 23713 23714 23715 23716 23717 23718 23719 23720 23721 23722 23723 23724 23725 23726 23727 23728 23729 23730 23731 23732 23733 23734 23735 23736 23737 23738 23739 23740 23741 23742 23743 23744 23745 23746 23747 23748 23749 23750 23751 23752 23753 23754 23755 23756 23757 23758 23759 23760 23761 23762 23763 23764 23765 23766 23767 23768 23769 23770 23771 23772 23773 23774 23775 23776 23777 23778 23779 23780 23781 23782 23783 23784 23785 23786 23787 23788 23789 23790 23791 23792 23793 23794 23795 23796 23797 23798 23799 23800 23801 23802 23803 23804 23805 23806 23807 23808 23809 23810 23811 23812 23813 23814 23815 23816 23817 23818 23819 23820 23821 23822 23823 23824 23825 23826 23827 23828 23829 23830 23831 23832 23833 23834 23835 23836 23837 23838 23839 23840 23841 23842 23843 23844 23845 23846 23847 23848 23849 23850 23851 23852 23853 23854 23855 23856 23857 23858 23859 23860 23861 23862 23863 23864 23865 23866 23867 23868 23869 23870 23871 23872 23873 23874 23875 23876 23877 23878 23879 23880 23881 23882 23883 23884 23885 23886 23887 23888 23889 23890 23891 23892 23893 23894 23895 23896 23897 23898 23899 23900 23901 23902 23903 23904 23905 23906 23907 23908 23909 23910 23911 23912 23913 23914 23915 23916 23917 23918 23919 23920 23921 23922 23923 23924 23925 23926 23927 23928 23929 23930 23931 23932 23933 23934 23935 23936 23937 23938 23939 23940 23941 23942 23943 23944 23945 23946 23947 23948 23949 23950 23951 23952 23953 23954 23955 23956 23957 23958 23959 23960 23961 23962 23963 23964 23965 23966 23967 23968 23969 23970 23971 23972 23973 23974 23975 23976 23977 23978 23979 23980 23981 23982 23983 23984 23985 23986 23987 23988 23989 23990 23991 23992 23993 23994 23995 23996 23997 23998 23999 24000 24001 24002 24003 24004 24005 24006 24007 24008 24009 24010 24011 24012 24013 24014 24015 24016 24017 24018 24019 24020 24021 24022 24023 24024 24025 24026 24027 24028 24029 24030 24031 24032 24033 24034 24035 24036 24037 24038 24039 24040 24041 24042 24043 24044 24045 24046 24047 24048 24049 24050 24051 24052 24053 24054 24055 24056 24057 24058 24059 24060 24061 24062 24063 24064 24065 24066 24067 24068 24069 24070 24071 24072 24073 24074 24075 24076 24077 24078 24079 24080 24081 24082 24083 24084 24085 24086 24087 24088 24089 24090 24091 24092 24093 24094 24095 24096 24097 24098 24099 24100 24101 24102 24103 24104 24105 24106 24107 24108 24109 24110 24111 24112 24113 24114 24115 24116 24117 24118 24119 24120 24121 24122 24123 24124 24125 24126 24127 24128 24129 24130 24131 24132 24133 24134 24135 24136 24137 24138 24139 24140 24141 24142 24143 24144 24145 24146 24147 24148 24149 24150 24151 24152 24153 24154 24155 24156 24157 24158 24159 24160 24161 24162 24163 24164 24165 24166 24167 24168 24169 24170 24171 24172 24173 24174 24175 24176 24177 24178 24179 24180 24181 24182 24183 24184 24185 24186 24187 24188 24189 24190 24191 24192 24193 24194 24195 24196 24197 24198 24199 24200 24201 24202 24203 24204 24205 24206 24207 24208 24209 24210 24211 24212 24213 24214 24215 24216 24217 24218 24219 24220 24221 24222 24223 24224 24225 24226 24227 24228 24229 24230 24231 24232 24233 24234 24235 24236 24237 24238 24239 24240 24241 24242 24243 24244 24245 24246 24247 24248 24249 24250 24251 24252 24253 24254 24255 24256 24257 24258 24259 24260 24261 24262 24263 24264 24265 24266 24267 24268 24269 24270 24271 24272 24273 24274 24275 24276 24277 24278 24279 24280 24281 24282 24283 24284 24285 24286 24287 24288 24289 24290 24291 24292 24293 24294 24295 24296 24297 24298 24299 24300 24301 24302 24303 24304 24305 24306 24307 24308 24309 24310 24311 24312 24313 24314 24315 24316 24317 24318 24319 24320 24321 24322 24323 24324 24325 24326 24327 24328 24329 24330 24331 24332 24333 24334 24335 24336 24337 24338 24339 24340 24341 24342 24343 24344 24345 24346 24347 24348 24349 24350 24351 24352 24353 24354 24355 24356 24357 24358 24359 24360 24361 24362 24363 24364 24365 24366 24367 24368 24369 24370 24371 24372 24373 24374 24375 24376 24377 24378 24379 24380 24381 24382 24383 24384 24385 24386 24387 24388 24389 24390 24391 24392 24393 24394 24395 24396 24397 24398 24399 24400 24401 24402 24403 24404 24405 24406 24407 24408 24409 24410 24411 24412 24413 24414 24415 24416 24417 24418 24419 24420 24421 24422 24423 24424 24425 24426 24427 24428 24429 24430 24431 24432 24433 24434 24435 24436 24437 24438 24439 24440 24441 24442 24443 24444 24445 24446 24447 24448 24449 24450 24451 24452 24453 24454 24455 24456 24457 24458 24459 24460 24461 24462 24463 24464 24465 24466 24467 24468 24469 24470 24471 24472 24473 24474 24475 24476 24477 24478 24479 24480 24481 24482 24483 24484 24485 24486 24487 24488 24489 24490 24491 24492 24493 24494 24495 24496 24497 24498 24499 24500 24501 24502 24503 24504 24505 24506 24507 24508 24509 24510 24511 24512 24513 24514 24515 24516 24517 24518 24519 24520 24521 24522 24523 24524 24525 24526 24527 24528 24529 24530 24531 24532 24533 24534 24535 24536 24537 24538 24539 24540 24541 24542 24543 24544 24545 24546 24547 24548 24549 24550 24551 24552 24553 24554 24555 24556 24557 24558 24559 24560 24561 24562 24563 24564 24565 24566 24567 24568 24569 24570 24571 24572 24573 24574 24575 24576 24577 24578 24579 24580 24581 24582 24583 24584 24585 24586 24587 24588 24589 24590 24591 24592 24593 24594 24595 24596 24597 24598 24599 24600 24601 24602 24603 24604 24605 24606 24607 24608 24609 24610 24611 24612 24613 24614 24615 24616 24617 24618 24619 24620 24621 24622 24623 24624 24625 24626 24627 24628 24629 24630 24631 24632 24633 24634 24635 24636 24637 24638 24639 24640 24641 24642 24643 24644 24645 24646 24647 24648 24649 24650 24651 24652 24653 24654 24655 24656 24657 24658 24659 24660 24661 24662 24663 24664 24665 24666 24667 24668 24669 24670 24671 24672 24673 24674 24675 24676 24677 24678 24679 24680 24681 24682 24683 24684 24685 24686 24687 24688 24689 24690 24691 24692 24693 24694 24695 24696 24697 24698 24699 24700 24701 24702 24703 24704 24705 24706 24707 24708 24709 24710 24711 24712 24713 24714 24715 24716 24717 24718 24719 24720 24721 24722 24723 24724 24725 24726 24727 24728 24729 24730 24731 24732 24733 24734 24735 24736 24737 24738 24739 24740 24741 24742 24743 24744 24745 24746 24747 24748 24749 24750 24751 24752 24753 24754 24755 24756 24757 24758 24759 24760 24761 24762 24763 24764 24765 24766 24767 24768 24769 24770 24771 24772 24773 24774 24775 24776 24777 24778 24779 24780 24781 24782 24783 24784 24785 24786 24787 24788 24789 24790 24791 24792 24793 24794 24795 24796 24797 24798 24799 24800 24801 24802 24803 24804 24805 24806 24807 24808 24809 24810 24811 24812 24813 24814 24815 24816 24817 24818 24819 24820 24821 24822 24823 24824 24825 24826 24827 24828 24829 24830 24831 24832 24833 24834 24835 24836 24837 24838 24839 24840 24841 24842 24843 24844 24845 24846 24847 24848 24849 24850 24851 24852 24853 24854 24855 24856 24857 24858 24859 24860 24861 24862 24863 24864 24865 24866 24867 24868 24869 24870 24871 24872 24873 24874 24875 24876 24877 24878 24879 24880 24881 24882 24883 24884 24885 24886 24887 24888 24889 24890 24891 24892 24893 24894 24895 24896 24897 24898 24899 24900 24901 24902 24903 24904 24905 24906 24907 24908 24909 24910 24911 24912 24913 24914 24915 24916 24917 24918 24919 24920 24921 24922 24923 24924 24925 24926 24927 24928 24929 24930 24931 24932 24933 24934 24935 24936 24937 24938 24939 24940 24941 24942 24943 24944 24945 24946 24947 24948 24949 24950 24951 24952 24953 24954 24955 24956 24957 24958 24959 24960 24961 24962 24963 24964 24965 24966 24967 24968 24969 24970 24971 24972 24973 24974 24975 24976 24977 24978 24979 24980 24981 24982 24983 24984 24985 24986 24987 24988 24989 24990 24991 24992 24993 24994 24995 24996 24997 24998 24999 25000 25001 25002 25003 25004 25005 25006 25007 25008 25009 25010 25011 25012 25013 25014 25015 25016 25017 25018 25019 25020 25021 25022 25023 25024 25025 25026 25027 25028 25029 25030 25031 25032 25033 25034 25035 25036 25037 25038 25039 25040 25041 25042 25043 25044 25045 25046 25047 25048 25049 25050 25051 25052 25053 25054 25055 25056 25057 25058 25059 25060 25061 25062 25063 25064 25065 25066 25067 25068 25069 25070 25071 25072 25073 25074 25075 25076 25077 25078 25079 25080 25081 25082 25083 25084 25085 25086 25087 25088 25089 25090 25091 25092 25093 25094 25095 25096 25097 25098 25099 25100 25101 25102 25103 25104 25105 25106 25107 25108 25109 25110 25111 25112 25113 25114 25115 25116 25117 25118 25119 25120 25121 25122 25123 25124 25125 25126 25127 25128 25129 25130 25131 25132 25133 25134 25135 25136 25137 25138 25139 25140 25141 25142 25143 25144 25145 25146 25147 25148 25149 25150 25151 25152 25153 25154 25155 25156 25157 25158 25159 25160 25161 25162 25163 25164 25165 25166 25167 25168 25169 25170 25171 25172 25173 25174 25175 25176 25177 25178 25179 25180 25181 25182 25183 25184 25185 25186 25187 25188 25189 25190 25191 25192 25193 25194 25195 25196 25197 25198 25199 25200 25201 25202 25203 25204 25205 25206 25207 25208 25209 25210 25211 25212 25213 25214 25215 25216 25217 25218 25219 25220 25221 25222 25223 25224 25225 25226 25227 25228 25229 25230 25231 25232 25233 25234 25235 25236 25237 25238 25239 25240 25241 25242 25243 25244 25245 25246 25247 25248 25249 25250 25251 25252 25253 25254 25255 25256 25257 25258 25259 25260 25261 25262 25263 25264 25265 25266 25267 25268 25269 25270 25271 25272 25273 25274 25275 25276 25277 25278 25279 25280 25281 25282 25283 25284 25285 25286 25287 25288 25289 25290 25291 25292 25293 25294 25295 25296 25297 25298 25299 25300 25301 25302 25303 25304 25305 25306 25307 25308 25309 25310 25311 25312 25313 25314 25315 25316 25317 25318 25319 25320 25321 25322 25323 25324 25325 25326 25327 25328 25329 25330 25331 25332 25333 25334 25335 25336 25337 25338 25339 25340 25341 25342 25343 25344 25345 25346 25347 25348 25349 25350 25351 25352 25353 25354 25355 25356 25357 25358 25359 25360 25361 25362 25363 25364 25365 25366 25367 25368 25369 25370 25371 25372 25373 25374 25375 25376 25377 25378 25379 25380 25381 25382 25383 25384 25385 25386 25387 25388 25389 25390 25391 25392 25393 25394 25395 25396 25397 25398 25399 25400 25401 25402 25403 25404 25405 25406 25407 25408 25409 25410 25411 25412 25413 25414 25415 25416 25417 25418 25419 25420 25421 25422 25423 25424 25425 25426 25427 25428 25429 25430 25431 25432 25433 25434 25435 25436 25437 25438 25439 25440 25441 25442 25443 25444 25445 25446 25447 25448 25449 25450 25451 25452 25453 25454 25455 25456 25457 25458 25459 25460 25461 25462 25463 25464 25465 25466 25467 25468 25469 25470 25471 25472 25473 25474 25475 25476 25477 25478 25479 25480 25481 25482 25483 25484 25485 25486 25487 25488 25489 25490 25491 25492 25493 25494 25495 25496 25497 25498 25499 25500 25501 25502 25503 25504 25505 25506 25507 25508 25509 25510 25511 25512 25513 25514 25515 25516 25517 25518 25519 25520 25521 25522 25523 25524 25525 25526 25527 25528 25529 25530 25531 25532 25533 25534 25535 25536 25537 25538 25539 25540 25541 25542 25543 25544 25545 25546 25547 25548 25549 25550 25551 25552 25553 25554 25555 25556 25557 25558 25559 25560 25561 25562 25563 25564 25565 25566 25567 25568 25569 25570 25571 25572 25573 25574 25575 25576 25577 25578 25579 25580 25581 25582 25583 25584 25585 25586 25587 25588 25589 25590 25591 25592 25593 25594 25595 25596 25597 25598 25599 25600 25601 25602 25603 25604 25605 25606 25607 25608 25609 25610 25611 25612 25613 25614 25615 25616 25617 25618 25619 25620 25621 25622 25623 25624 25625 25626 25627 25628 25629 25630 25631 25632 25633 25634 25635 25636 25637 25638 25639 25640 25641 25642 25643 25644 25645 25646 25647 25648 25649 25650 25651 25652 25653 25654 25655 25656 25657 25658 25659 25660 25661 25662 25663 25664 25665 25666 25667 25668 25669 25670 25671 25672 25673 25674 25675 25676 25677 25678 25679 25680 25681 25682 25683 25684 25685 25686 25687 25688 25689 25690 25691 25692 25693 25694 25695 25696 25697 25698 25699 25700 25701 25702 25703 25704 25705 25706 25707 25708 25709 25710 25711 25712 25713 25714 25715 25716 25717 25718 25719 25720 25721 25722 25723 25724 25725 25726 25727 25728 25729 25730 25731 25732 25733 25734 25735 25736 25737 25738 25739 25740 25741 25742 25743 25744 25745 25746 25747 25748 25749 25750 25751 25752 25753 25754 25755 25756 25757 25758 25759 25760 25761 25762 25763 25764 25765 25766 25767 25768 25769 25770 25771 25772 25773 25774 25775 25776 25777 25778 25779 25780 25781 25782 25783 25784 25785 25786 25787 25788 25789 25790 25791 25792 25793 25794 25795 25796 25797 25798 25799 25800 25801 25802 25803 25804 25805 25806 25807 25808 25809 25810 25811 25812 25813 25814 25815 25816 25817 25818 25819 25820 25821 25822 25823 25824 25825 25826 25827 25828 25829 25830 25831 25832 25833 25834 25835 25836 25837 25838 25839 25840 25841 25842 25843 25844 25845 25846 25847 25848 25849 25850 25851 25852 25853 25854 25855 25856 25857 25858 25859 25860 25861 25862 25863 25864 25865 25866 25867 25868 25869 25870 25871 25872 25873 25874 25875 25876 25877 25878 25879 25880 25881 25882 25883 25884 25885 25886 25887 25888 25889 25890 25891 25892 25893 25894 25895 25896 25897 25898 25899 25900 25901 25902 25903 25904 25905 25906 25907 25908 25909 25910 25911 25912 25913 25914 25915 25916 25917 25918 25919 25920 25921 25922 25923 25924 25925 25926 25927 25928 25929 25930 25931 25932 25933 25934 25935 25936 25937 25938 25939 25940 25941 25942 25943 25944 25945 25946 25947 25948 25949 25950 25951 25952 25953 25954 25955 25956 25957 25958 25959 25960 25961 25962 25963 25964 25965 25966 25967 25968 25969 25970 25971 25972 25973 25974 25975 25976 25977 25978 25979 25980 25981 25982 25983 25984 25985 25986 25987 25988 25989 25990 25991 25992 25993 25994 25995 25996 25997 25998 25999 26000 26001 26002 26003 26004 26005 26006 26007 26008 26009 26010 26011 26012 26013 26014 26015 26016 26017 26018 26019 26020 26021 26022 26023 26024 26025 26026 26027 26028 26029 26030 26031 26032 26033 26034 26035 26036 26037 26038 26039 26040 26041 26042 26043 26044 26045 26046 26047 26048 26049 26050 26051 26052 26053 26054 26055 26056 26057 26058 26059 26060 26061 26062 26063 26064 26065 26066 26067 26068 26069 26070 26071 26072 26073 26074 26075 26076 26077 26078 26079 26080 26081 26082 26083 26084 26085 26086 26087 26088 26089 26090 26091 26092 26093 26094 26095 26096 26097 26098 26099 26100 26101 26102 26103 26104 26105 26106 26107 26108 26109 26110 26111 26112 26113 26114 26115 26116 26117 26118 26119 26120 26121 26122 26123 26124 26125 26126 26127 26128 26129 26130 26131 26132 26133 26134 26135 26136 26137 26138 26139 26140 26141 26142 26143 26144 26145 26146 26147 26148 26149 26150 26151 26152 26153 26154 26155 26156 26157 26158 26159 26160 26161 26162 26163 26164 26165 26166 26167 26168 26169 26170 26171 26172 26173 26174 26175 26176 26177 26178 26179 26180 26181 26182 26183 26184 26185 26186 26187 26188 26189 26190 26191 26192 26193 26194 26195 26196 26197 26198 26199 26200 26201 26202 26203 26204 26205 26206 26207 26208 26209 26210 26211 26212 26213 26214 26215 26216 26217 26218 26219 26220 26221 26222 26223 26224 26225 26226 26227 26228 26229 26230 26231 26232 26233 26234 26235 26236 26237 26238 26239 26240 26241 26242 26243 26244 26245 26246 26247 26248 26249 26250 26251 26252 26253 26254 26255 26256 26257 26258 26259 26260 26261 26262 26263 26264 26265 26266 26267 26268 26269 26270 26271 26272 26273 26274 26275 26276 26277 26278 26279 26280 26281 26282 26283 26284 26285 26286 26287 26288 26289 26290 26291 26292 26293 26294 26295 26296 26297 26298 26299 26300 26301 26302 26303 26304 26305 26306 26307 26308 26309 26310 26311 26312 26313 26314 26315 26316 26317 26318 26319 26320 26321 26322 26323 26324 26325 26326 26327 26328 26329 26330 26331 26332 26333 26334 26335 26336 26337 26338 26339 26340 26341 26342 26343 26344 26345 26346 26347 26348 26349 26350 26351 26352 26353 26354 26355 26356 26357 26358 26359 26360 26361 26362 26363 26364 26365 26366 26367 26368 26369 26370 26371 26372 26373 26374 26375 26376 26377 26378 26379 26380 26381 26382 26383 26384 26385 26386 26387 26388 26389 26390 26391 26392 26393 26394 26395 26396 26397 26398 26399 26400 26401 26402 26403 26404 26405 26406 26407 26408 26409 26410 26411 26412 26413 26414 26415 26416 26417 26418 26419 26420 26421 26422 26423 26424 26425 26426 26427 26428 26429 26430 26431 26432 26433 26434 26435 26436 26437 26438 26439 26440 26441 26442 26443 26444 26445 26446 26447 26448 26449 26450 26451 26452 26453 26454 26455 26456 26457 26458 26459 26460 26461 26462 26463 26464 26465 26466 26467 26468 26469 26470 26471 26472 26473 26474 26475 26476 26477 26478 26479 26480 26481 26482 26483 26484 26485 26486 26487 26488 26489 26490 26491 26492 26493 26494 26495 26496 26497 26498 26499 26500 26501 26502 26503 26504 26505 26506 26507 26508 26509 26510 26511 26512 26513 26514 26515 26516 26517 26518 26519 26520 26521 26522 26523 26524 26525 26526 26527 26528 26529 26530 26531 26532 26533 26534 26535 26536 26537 26538 26539 26540 26541 26542 26543 26544 26545 26546 26547 26548 26549 26550 26551 26552 26553 26554 26555 26556 26557 26558 26559 26560 26561 26562 26563 26564 26565 26566 26567 26568 26569 26570 26571 26572 26573 26574 26575 26576 26577 26578 26579 26580 26581 26582 26583 26584 26585 26586 26587 26588 26589 26590 26591 26592 26593 26594 26595 26596 26597 26598 26599 26600 26601 26602 26603 26604 26605 26606 26607 26608 26609 26610 26611 26612 26613 26614 26615 26616 26617 26618 26619 26620 26621 26622 26623 26624 26625 26626 26627 26628 26629 26630 26631 26632 26633 26634 26635 26636 26637 26638 26639 26640 26641 26642 26643 26644 26645 26646 26647 26648 26649 26650 26651 26652 26653 26654 26655 26656 26657 26658 26659 26660 26661 26662 26663 26664 26665 26666 26667 26668 26669 26670 26671 26672 26673 26674 26675 26676 26677 26678 26679 26680 26681 26682 26683 26684 26685 26686 26687 26688 26689 26690 26691 26692 26693 26694 26695 26696 26697 26698 26699 26700 26701 26702 26703 26704 26705 26706 26707 26708 26709 26710 26711 26712 26713 26714 26715 26716 26717 26718 26719 26720 26721 26722 26723 26724 26725 26726 26727 26728 26729 26730 26731 26732 26733 26734 26735 26736 26737 26738 26739 26740 26741 26742 26743 26744 26745 26746 26747 26748 26749 26750 26751 26752 26753 26754 26755 26756 26757 26758 26759 26760 26761 26762 26763 26764 26765 26766 26767 26768 26769 26770 26771 26772 26773 26774 26775 26776 26777 26778 26779 26780 26781 26782 26783 26784 26785 26786 26787 26788 26789 26790 26791 26792 26793 26794 26795 26796 26797 26798 26799 26800 26801 26802 26803 26804 26805 26806 26807 26808 26809 26810 26811 26812 26813 26814 26815 26816 26817 26818 26819 26820 26821 26822 26823 26824 26825 26826 26827 26828 26829 26830 26831 26832 26833 26834 26835 26836 26837 26838 26839 26840 26841 26842 26843 26844 26845 26846 26847 26848 26849 26850 26851 26852 26853 26854 26855 26856 26857 26858 26859 26860 26861 26862 26863 26864 26865 26866 26867 26868 26869 26870 26871 26872 26873 26874 26875 26876 26877 26878 26879 26880 26881 26882 26883 26884 26885 26886 26887 26888 26889 26890 26891 26892 26893 26894 26895 26896 26897 26898 26899 26900 26901 26902 26903 26904 26905 26906 26907 26908 26909 26910 26911 26912 26913 26914 26915 26916 26917 26918 26919 26920 26921 26922 26923 26924 26925 26926 26927 26928 26929 26930 26931 26932 26933 26934 26935 26936 26937 26938 26939 26940 26941 26942 26943 26944 26945 26946 26947 26948 26949 26950 26951 26952 26953 26954 26955 26956 26957 26958 26959 26960 26961 26962 26963 26964 26965 26966 26967 26968 26969 26970 26971 26972 26973 26974 26975 26976 26977 26978 26979 26980 26981 26982 26983 26984 26985 26986 26987 26988 26989 26990 26991 26992 26993 26994 26995 26996 26997 26998 26999 27000 27001 27002 27003 27004 27005 27006 27007 27008 27009 27010 27011 27012 27013 27014 27015 27016 27017 27018 27019 27020 27021 27022 27023 27024 27025 27026 27027 27028 27029 27030 27031 27032 27033 27034 27035 27036 27037 27038 27039 27040 27041 27042 27043 27044 27045 27046 27047 27048 27049 27050 27051 27052 27053 27054 27055 27056 27057 27058 27059 27060 27061 27062 27063 27064 27065 27066 27067 27068 27069 27070 27071 27072 27073 27074 27075 27076 27077 27078 27079 27080 27081 27082 27083 27084 27085 27086 27087 27088 27089 27090 27091 27092 27093 27094 27095 27096 27097 27098 27099 27100 27101 27102 27103 27104 27105 27106 27107 27108 27109 27110 27111 27112 27113 27114 27115 27116 27117 27118 27119 27120 27121 27122 27123 27124 27125 27126 27127 27128 27129 27130 27131 27132 27133 27134 27135 27136 27137 27138 27139 27140 27141 27142 27143 27144 27145 27146 27147 27148 27149 27150 27151 27152 27153 27154 27155 27156 27157 27158 27159 27160 27161 27162 27163 27164 27165 27166 27167 27168 27169 27170 27171 27172 27173 27174 27175 27176 27177 27178 27179 27180 27181 27182 27183 27184 27185 27186 27187 27188 27189 27190 27191 27192 27193 27194 27195 27196 27197 27198 27199 27200 27201 27202 27203 27204 27205 27206 27207 27208 27209 27210 27211 27212 27213 27214 27215 27216 27217 27218 27219 27220 27221 27222 27223 27224 27225 27226 27227 27228 27229 27230 27231 27232 27233 27234 27235 27236 27237 27238 27239 27240 27241 27242 27243 27244 27245 27246 27247 27248 27249 27250 27251 27252 27253 27254 27255 27256 27257 27258 27259 27260 27261 27262 27263 27264 27265 27266 27267 27268 27269 27270 27271 27272 27273 27274 27275 27276 27277 27278 27279 27280 27281 27282 27283 27284 27285 27286 27287 27288 27289 27290 27291 27292 27293 27294 27295 27296 27297 27298 27299 27300 27301 27302 27303 27304 27305 27306 27307 27308 27309 27310 27311 27312 27313 27314 27315 27316 27317 27318 27319 27320 27321 27322 27323 27324 27325 27326 27327 27328 27329 27330 27331 27332 27333 27334 27335 27336 27337 27338 27339 27340 27341 27342 27343 27344 27345 27346 27347 27348 27349 27350 27351 27352 27353 27354 27355 27356 27357 27358 27359 27360 27361 27362 27363 27364 27365 27366 27367 27368 27369 27370 27371 27372 27373 27374 27375 27376 27377 27378 27379 27380 27381 27382 27383 27384 27385 27386 27387 27388 27389 27390 27391 27392 27393 27394 27395 27396 27397 27398 27399 27400 27401 27402 27403 27404 27405 27406 27407 27408 27409 27410 27411 27412 27413 27414 27415 27416 27417 27418 27419 27420 27421 27422 27423 27424 27425 27426 27427 27428 27429 27430 27431 27432 27433 27434 27435 27436 27437 27438 27439 27440 27441 27442 27443 27444 27445 27446 27447 27448 27449 27450 27451 27452 27453 27454 27455 27456 27457 27458 27459 27460 27461 27462 27463 27464 27465 27466 27467 27468 27469 27470 27471 27472 27473 27474 27475 27476 27477 27478 27479 27480 27481 27482 27483 27484 27485 27486 27487 27488 27489 27490 27491 27492 27493 27494 27495 27496 27497 27498 27499 27500 27501 27502 27503 27504 27505 27506 27507 27508 27509 27510 27511 27512 27513 27514 27515 27516 27517 27518 27519 27520 27521 27522 27523 27524 27525 27526 27527 27528 27529 27530 27531 27532 27533 27534 27535 27536 27537 27538 27539 27540 27541 27542 27543 27544 27545 27546 27547 27548 27549 27550 27551 27552 27553 27554 27555 27556 27557 27558 27559 27560 27561 27562 27563 27564 27565 27566 27567 27568 27569 27570 27571 27572 27573 27574 27575 27576 27577 27578 27579 27580 27581 27582 27583 27584 27585 27586 27587 27588 27589 27590 27591 27592 27593 27594 27595 27596 27597 27598 27599 27600 27601 27602 27603 27604 27605 27606 27607 27608 27609 27610 27611 27612 27613 27614 27615 27616 27617 27618 27619 27620 27621 27622 27623 27624 27625 27626 27627 27628 27629 27630 27631 27632 27633 27634 27635 27636 27637 27638 27639 27640 27641 27642 27643 27644 27645 27646 27647 27648 27649 27650 27651 27652 27653 27654 27655 27656 27657 27658 27659 27660 27661 27662 27663 27664 27665 27666 27667 27668 27669 27670 27671 27672 27673 27674 27675 27676 27677 27678 27679 27680 27681 27682 27683 27684 27685 27686 27687 27688 27689 27690 27691 27692 27693 27694 27695 27696 27697 27698 27699 27700 27701 27702 27703 27704 27705 27706 27707 27708 27709 27710 27711 27712 27713 27714 27715 27716 27717 27718 27719 27720 27721 27722 27723 27724 27725 27726 27727 27728 27729 27730 27731 27732 27733 27734 27735 27736 27737 27738 27739 27740 27741 27742 27743 27744 27745 27746 27747 27748 27749 27750 27751 27752 27753 27754 27755 27756 27757 27758 27759 27760 27761 27762 27763 27764 27765 27766 27767 27768 27769 27770 27771 27772 27773 27774 27775 27776 27777 27778 27779 27780 27781 27782 27783 27784 27785 27786 27787 27788 27789 27790 27791 27792 27793 27794 27795 27796 27797 27798 27799 27800 27801 27802 27803 27804 27805 27806 27807 27808 27809 27810 27811 27812 27813 27814 27815 27816 27817 27818 27819 27820 27821 27822 27823 27824 27825 27826 27827 27828 27829 27830 27831 27832 27833 27834 27835 27836 27837 27838 27839 27840 27841 27842 27843 27844 27845 27846 27847 27848 27849 27850 27851 27852 27853 27854 27855 27856 27857 27858 27859 27860 27861 27862 27863 27864 27865 27866 27867 27868 27869 27870 27871 27872 27873 27874 27875 27876 27877 27878 27879 27880 27881 27882 27883 27884 27885 27886 27887 27888 27889 27890 27891 27892 27893 27894 27895 27896 27897 27898 27899 27900 27901 27902 27903 27904 27905 27906 27907 27908 27909 27910 27911 27912 27913 27914 27915 27916 27917 27918 27919 27920 27921 27922 27923 27924 27925 27926 27927 27928 27929 27930 27931 27932 27933 27934 27935 27936 27937 27938 27939 27940 27941 27942 27943 27944 27945 27946 27947 27948 27949 27950 27951 27952 27953 27954 27955 27956 27957 27958 27959 27960 27961 27962 27963 27964 27965 27966 27967 27968 27969 27970 27971 27972 27973 27974 27975 27976 27977 27978 27979 27980 27981 27982 27983 27984 27985 27986 27987 27988 27989 27990 27991 27992 27993 27994 27995 27996 27997 27998 27999 28000 28001 28002 28003 28004 28005 28006 28007 28008 28009 28010 28011 28012 28013 28014 28015 28016 28017 28018 28019 28020 28021 28022 28023 28024 28025 28026 28027 28028 28029 28030 28031 28032 28033 28034 28035 28036 28037 28038 28039 28040 28041 28042 28043 28044 28045 28046 28047 28048 28049 28050 28051 28052 28053 28054 28055 28056 28057 28058 28059 28060 28061 28062 28063 28064 28065 28066 28067 28068 28069 28070 28071 28072 28073 28074 28075 28076 28077 28078 28079 28080 28081 28082 28083 28084 28085 28086 28087 28088 28089 28090 28091 28092 28093 28094 28095 28096 28097 28098 28099 28100 28101 28102 28103 28104 28105 28106 28107 28108 28109 28110 28111 28112 28113 28114 28115 28116 28117 28118 28119 28120 28121 28122 28123 28124 28125 28126 28127 28128 28129 28130 28131 28132 28133 28134 28135 28136 28137 28138 28139 28140 28141 28142 28143 28144 28145 28146 28147 28148 28149 28150 28151 28152 28153 28154 28155 28156 28157 28158 28159 28160 28161 28162 28163 28164 28165 28166 28167 28168 28169 28170 28171 28172 28173 28174 28175 28176 28177 28178 28179 28180 28181 28182 28183 28184 28185 28186 28187 28188 28189 28190 28191 28192 28193 28194 28195 28196 28197 28198 28199 28200 28201 28202 28203 28204 28205 28206 28207 28208 28209 28210 28211 28212 28213 28214 28215 28216 28217 28218 28219 28220 28221 28222 28223 28224 28225 28226 28227 28228 28229 28230 28231 28232 28233 28234 28235 28236 28237 28238 28239 28240 28241 28242 28243 28244 28245 28246 28247 28248 28249 28250 28251 28252 28253 28254 28255 28256 28257 28258 28259 28260 28261 28262 28263 28264 28265 28266 28267 28268 28269 28270 28271 28272 28273 28274 28275 28276 28277 28278 28279 28280 28281 28282 28283 28284 28285 28286 28287 28288 28289 28290 28291 28292 28293 28294 28295 28296 28297 28298 28299 28300 28301 28302 28303 28304 28305 28306 28307 28308 28309 28310 28311 28312 28313 28314 28315 28316 28317 28318 28319 28320 28321 28322 28323 28324 28325 28326 28327 28328 28329 28330 28331 28332 28333 28334 28335 28336 28337 28338 28339 28340 28341 28342 28343 28344 28345 28346 28347 28348 28349 28350 28351 28352 28353 28354 28355 28356 28357 28358 28359 28360 28361 28362 28363 28364 28365 28366 28367 28368 28369 28370 28371 28372 28373 28374 28375 28376 28377 28378 28379 28380 28381 28382 28383 28384 28385 28386 28387 28388 28389 28390 28391 28392 28393 28394 28395 28396 28397 28398 28399 28400 28401 28402 28403 28404 28405 28406 28407 28408 28409 28410 28411 28412 28413 28414 28415 28416 28417 28418 28419 28420 28421 28422 28423 28424 28425 28426 28427 28428 28429 28430 28431 28432 28433 28434 28435 28436 28437 28438 28439 28440 28441 28442 28443 28444 28445 28446 28447 28448 28449 28450 28451 28452 28453 28454 28455 28456 28457 28458 28459 28460 28461 28462 28463 28464 28465 28466 28467 28468 28469 28470 28471 28472 28473 28474 28475 28476 28477 28478 28479 28480 28481 28482 28483 28484 28485 28486 28487 28488 28489 28490 28491 28492 28493 28494 28495 28496 28497 28498 28499 28500 28501 28502 28503 28504 28505 28506 28507 28508 28509 28510 28511 28512 28513 28514 28515 28516 28517 28518 28519 28520 28521 28522 28523 28524 28525 28526 28527 28528 28529 28530 28531 28532 28533 28534 28535 28536 28537 28538 28539 28540 28541 28542 28543 28544 28545 28546 28547 28548 28549 28550 28551 28552 28553 28554 28555 28556 28557 28558 28559 28560 28561 28562 28563 28564 28565 28566 28567 28568 28569 28570 28571 28572 28573 28574 28575 28576 28577 28578 28579 28580 28581 28582 28583 28584 28585 28586 28587 28588 28589 28590 28591 28592 28593 28594 28595 28596 28597 28598 28599 28600 28601 28602 28603 28604 28605 28606 28607 28608 28609 28610 28611 28612 28613 28614 28615 28616 28617 28618 28619 28620 28621 28622 28623 28624 28625 28626 28627 28628 28629 28630 28631 28632 28633 28634 28635 28636 28637 28638 28639 28640 28641 28642 28643 28644 28645 28646 28647 28648 28649 28650 28651 28652 28653 28654 28655 28656 28657 28658 28659 28660 28661 28662 28663 28664 28665 28666 28667 28668 28669 28670 28671 28672 28673 28674 28675 28676 28677 28678 28679 28680 28681 28682 28683 28684 28685 28686 28687 28688 28689 28690 28691 28692 28693 28694 28695 28696 28697 28698 28699 28700 28701 28702 28703 28704 28705 28706 28707 28708 28709 28710 28711 28712 28713 28714 28715 28716 28717 28718 28719 28720 28721 28722 28723 28724 28725 28726 28727 28728 28729 28730 28731 28732 28733 28734 28735 28736 28737 28738 28739 28740 28741 28742 28743 28744 28745 28746 28747 28748 28749 28750 28751 28752 28753 28754 28755 28756 28757 28758 28759 28760 28761 28762 28763 28764 28765 28766 28767 28768 28769 28770 28771 28772 28773 28774 28775 28776 28777 28778 28779 28780 28781 28782 28783 28784 28785 28786 28787 28788 28789 28790 28791 28792 28793 28794 28795 28796 28797 28798 28799 28800 28801 28802 28803 28804 28805 28806 28807 28808 28809 28810 28811 28812 28813 28814 28815 28816 28817 28818 28819 28820 28821 28822 28823 28824 28825 28826 28827 28828 28829 28830 28831 28832 28833 28834 28835 28836 28837 28838 28839 28840 28841 28842 28843 28844 28845 28846 28847 28848 28849 28850 28851 28852 28853 28854 28855 28856 28857 28858 28859 28860 28861 28862 28863 28864 28865 28866 28867 28868 28869 28870 28871 28872 28873 28874 28875 28876 28877 28878 28879 28880 28881 28882 28883 28884 28885 28886 28887 28888 28889 28890 28891 28892 28893 28894 28895 28896 28897 28898 28899 28900 28901 28902 28903 28904 28905 28906 28907 28908 28909 28910 28911 28912 28913 28914 28915 28916 28917 28918 28919 28920 28921 28922 28923 28924 28925 28926 28927 28928 28929 28930 28931 28932 28933 28934 28935 28936 28937 28938 28939 28940 28941 28942 28943 28944 28945 28946 28947 28948 28949 28950 28951 28952 28953 28954 28955 28956 28957 28958 28959 28960 28961 28962 28963 28964 28965 28966 28967 28968 28969 28970 28971 28972 28973 28974 28975 28976 28977 28978 28979 28980 28981 28982 28983 28984 28985 28986 28987 28988 28989 28990 28991 28992 28993 28994 28995 28996 28997 28998 28999 29000 29001 29002 29003 29004 29005 29006 29007 29008 29009 29010 29011 29012 29013 29014 29015 29016 29017 29018 29019 29020 29021 29022 29023 29024 29025 29026 29027 29028 29029 29030 29031 29032 29033 29034 29035 29036 29037 29038 29039 29040 29041 29042 29043 29044 29045 29046 29047 29048 29049 29050 29051 29052 29053 29054 29055 29056 29057 29058 29059 29060 29061 29062 29063 29064 29065 29066 29067 29068 29069 29070 29071 29072 29073 29074 29075 29076 29077 29078 29079 29080 29081 29082 29083 29084 29085 29086 29087 29088 29089 29090 29091 29092 29093 29094 29095 29096 29097 29098 29099 29100 29101 29102 29103 29104 29105 29106 29107 29108 29109 29110 29111 29112 29113 29114 29115 29116 29117 29118 29119 29120 29121 29122 29123 29124 29125 29126 29127 29128 29129 29130 29131 29132 29133 29134 29135 29136 29137 29138 29139 29140 29141 29142 29143 29144 29145 29146 29147 29148 29149 29150 29151 29152 29153 29154 29155 29156 29157 29158 29159 29160 29161 29162 29163 29164 29165 29166 29167 29168 29169 29170 29171 29172 29173 29174 29175 29176 29177 29178 29179 29180 29181 29182 29183 29184 29185 29186 29187 29188 29189 29190 29191 29192 29193 29194 29195 29196 29197 29198 29199 29200 29201 29202 29203 29204 29205 29206 29207 29208 29209 29210 29211 29212 29213 29214 29215 29216 29217 29218 29219 29220 29221 29222 29223 29224 29225 29226 29227 29228 29229 29230 29231 29232 29233 29234 29235 29236 29237 29238 29239 29240 29241 29242 29243 29244 29245 29246 29247 29248 29249 29250 29251 29252 29253 29254 29255 29256 29257 29258 29259 29260 29261 29262 29263 29264 29265 29266 29267 29268 29269 29270 29271 29272 29273 29274 29275 29276 29277 29278 29279 29280 29281 29282 29283 29284 29285 29286 29287 29288 29289 29290 29291 29292 29293 29294 29295 29296 29297 29298 29299 29300 29301 29302 29303 29304 29305 29306 29307 29308 
</DataArray>
<DataArray type="UInt32" Name="offsets" format="ascii">
2 5 8 11 14 17 20 23 26 28 31 34 36 39 42 45 48 51 54 57 59 61 64 67 70 73 76 79 82 85 88 91 94 97 100 103 106 109 111 114 117 120 123 125 128 131 134 136 139 142 145 148 151 154 157 159 162 165 168 170 173 175 178 181 183 186 189 192 195 197 200 203 205 207 210 213 215 218 221 224 227 229 231 234 237 240 243 245 247 250 253 256 259 262 264 266 269 272 275 278 280 282 285 288 290 293 295 298 300 303 305 308 311 313 316 318 321 324 327 330 333 335 338 340 342 344 347 349 351 354 357 360 362 365 367 370 373 376 379 382 385 388 391 393 396 398 401 404 407 410 412 415 418 420 423 426 429 432 435 438 441 444 446 449 452 455 458 461 464 467 470 473 476 479 482 485 488 491 494 497 500 503 506 508 511 514 517 520 523 526 529 532 535 538 541 544 547 550 553 556 559 562 565 568 571 574 577 580 583 586 588 591 594 597 600 603 606 609 612 615 618 621 624 626 629 632 635 638 641 643 646 649 652 655 658 661 664 667 670 673 675 678 681 684 687 690 692 695 698 701 703 706 709 712 715 718 720 723 726 728 731 733 736 739 742 744 746 749 751 754 757 760 762 765 768 771 774 777 780 782 785 788 790 793 795 798 801 804 807 810 812 815 818 820 822 825 828 831 833 836 839 842 844 847 850 852 855 858 861 864 867 870 873 876 879 881 884 887 890 893 896 899 902 905 908 911 914 917 920 923 926 929 932 935 938 941 944 947 949 952 954 957 960 963 966 969 972 975 977 980 983 986 989 992 995 997 1000 1003 1005 1008 1011 1014 1017 1020 1023 1025 1027 1030 1033 1036 1039 1041 1043 1046 1049 1052 1055 1057 1060 1063 1066 1069 1071 1074 1076 1079 1081 1083 1086 1089 1092 1095 1098 1101 1103 1106 1109 1111 1114 1116 1119 1122 1125 1128 1131 1134 1137 1140 1143 1145 1148 1151 1154 1157 1160 1163 1166 1169 1171 1174 1177 1180 1182 1185 1188 1191 1194 1197 1199 1202 1205 1208 1211 1214 1217 1220 1222 1225 1228 1230 1233 1235 1237 1240 1243 1246 1249 1252 1255 1258 1261 1264 1267 1270 1273 1276 1279 1282 1285 1288 1291 1294 1297 1300 1303 1306 1309 1312 1315 1318 1321 1324 1327 1330 1333 1336 1339 1342 1345 1348 1351 1354 1357 1360 1363 1366 1369 1372 1375 1378 1381 1383 1385 1388 1391 1394 1396 1399 1402 1405 1408 1411 1413 1416 1419 1422 1425 1428 1431 1434 1437 1440 1442 1445 1448 1451 1453 1456 1458 1461 1464 1467 1470 1473 1475 1478 1481 1484 1487 1490 1493 1496 1499 1501 1504 1507 1510 1513 1516 1519 1522 1525 1528 1531 1534 1537 1540 1543 1546 1549 1552 1555 1558 1561 1564 1567 1570 1573 1576 1579 1582 1585 1588 1591 1594 1597 1600 1603 1606 1609 1612 1615 1618 1620 1623 1626 1628 1631 1634 1636 1639 1642 1645 1648 1651 1654 1657 1660 1663 1666 1669 1672 1675 1677 1680 1683 1686 1689 1692 1695 1698 1701 1704 1706 1709 1712 1715 1718 1721 1724 1727 1730 1732 1735 1738 1740 1743 1746 1748 1751 1754 1757 1760 1763 1766 1768 1770 1773 1776 1779 1782 1785 1788 1790 1793 1796 1799 1802 1805 1808 1811 1814 1817 1820 1823 1826 1829 1831 1834 1837 1840 1843 1846 1849 1852 1855 1858 1861 1864 1867 1870 1873 1876 1879 1882 1885 1888 1891 1894 1897 1900 1903 1906 1909 1912 1915 1918 1921 1924 1927 1930 1933 1936 1939 1942 1945 1948 1951 1954 1957 1960 1963 1966 1969 1972 1975 1978 1981 1983 1986 1988 1991 1994 1997 1999 2002 2005 2007 2009 2012 2015 2017 2020 2023 2026 2029 2032 2034 2037 2040 2043 2046 2049 2052 2055 2058 2060 2062 2064 2067 2070 2073 2076 2079 2082 2085 2087 2090 2093 2096 2099 2102 2105 2108 2111 2114 2117 2120 2123 2126 2129 2131 2134 2137 2140 2143 2146 2149 2152 2154 2157 2160 2163 2166 2169 2172 2174 2177 2180 2183 2186 2188 2191 2194 2197 2199 2202 2205 2208 2211 2214 2217 2219 2222 2225 2228 2231 2234 2237 2240 2243 2246 2249 2252 2255 2257 2260 2263 2266 2269 2272 2275 2278 2281 2283 2286 2288 2291 2293 2296 2298 2301 2304 2307 2310 2312 2314 2317 2320 2323 2325 2327 2330 2333 2335 2338 2341 2344 2347 2350 2353 2356 2359 2362 2365 2368 2371 2374 2377 2380 2383 2386 2388 2391 2394 2397 2400 2403 2406 2409 2411 2413 2416 2419 2422 2424 2427 2430 2433 2436 2439 2442 2445 2448 2451 2454 2456 2459 2462 2465 2468 2470 2473 2475 2478 2481 2484 2487 2490 2493 2496 2498 2501 2504 2507 2509 2512 2515 2518 2521 2524 2527 2530 2533 2536 2539 2542 2545 2548 2550 2553 2556 2559 2562 2565 2567 2570 2573 2576 2579 2582 2585 2588 2591 2594 2597 2600 2603 2606 2609 2612 2614 2617 2620 2623 2626 2629 2631 2634 2636 2639 2642 2645 2648 2651 2654 2657 2660 2663 2665 2668 2671 2674 2677 2680 2683 2686 2689 2692 2695 2698 2701 2704 2707 2710 2713 2716 2719 2722 2724 2727 2729 2732 2735 2738 2741 2744 2747 2750 2753 2756 2759 2762 2765 2768 2771 2774 2777 2780 2783 2786 2789 2791 2794 2797 2800 2803 2806 2809 2812 2815 2818 2821 2823 2826 2829 2832 2835 2838 2841 2844 2847 2850 2852 2855 2858 2860 2863 2866 2869 2872 2874 2877 2880 2883 2886 2889 2892 2895 2898 2901 2904 2907 2910 2913 2916 2919 2921 2924 2927 2930 2932 2935 2938 2940 2943 2946 2949 2952 2955 2958 2961 2964 2967 2970 2973 2976 2979 2982 2985 2988 2991 2994 2997 3000 3003 3006 3009 3012 3015 3017 3020 3023 3026 3029 3032 3035 3038 3041 3044 3047 3050 3053 3056 3059 3062 3065 3068 3071 3074 3077 3080 3083 3085 3088 3091 3094 3097 3099 3102 3105 3107 3110 3112 3115 3118 3121 3124 3127 3129 3132 3135 3138 3141 3144 3147 3150 3152 3155 3158 3161 3164 3167 3170 3173 3175 3178 3181 3184 3186 3189 3192 3195 3198 3201 3204 3207 3210 3213 3216 3219 3222 3225 3228 3231 3234 3237 3239 3242 3245 3248 3250 3253 3255 3258 3261 3264 3267 3269 3271 3274 3277 3280 3283 3286 3289 3292 3295 3298 3301 3304 3307 3310 3313 3316 3319 3322 3325 3328 3330 3333 3336 3339 3341 3344 3347 3349 3352 3355 3357 3360 3362 3365 3368 3370 3373 3376 3379 3382 3385 3388 3391 3394 3397 3400 3403 3406 3409 3412 3415 3418 3420 3422 3425 3428 3431 3434 3437 3439 3442 3445 3448 3451 3454 3457 3460 3463 3466 3469 3472 3475 3478 3481 3484 3487 3489 3492 3495 3498 3501 3504 3506 3509 3512 3515 3518 3521 3524 3527 3530 3533 3536 3539 3542 3545 3548 3551 3554 3557 3559 3562 3565 3568 3571 3573 3576 3579 3582 3585 3587 3590 3593 3595 3598 3601 3603 3606 3609 3612 3615 3618 3621 3624 3627 3629 3632 3635 3638 3641 3644 3647 3649 3652 3655 3658 3660 3663 3665 3668 3671 3674 3677 3679 3682 3684 3687 3690 3692 3695 3698 3701 3704 3707 3709 3712 3715 3718 3721 3724 3726 3729 3732 3735 3737 3739 3742 3745 3748 3750 3753 3756 3758 3761 3764 3767 3770 3773 3776 3779 3782 3784 3787 3790 3793 3796 3799 3802 3805 3808 3811 3814 3816 3819 3822 3825 3827 3830 3833 3836 3838 3841 3844 3847 3850 3853 3855 3858 3861 3864 3867 3870 3873 3876 3879 3882 3885 3888 3891 3894 3897 3900 3903 3906 3909 3912 3915 3918 3921 3924 3927 3930 3933 3936 3939 3942 3945 3948 3951 3954 3957 3960 3963 3965 3968 3971 3974 3976 3979 3982 3985 3988 3991 3994 3997 4000 4002 4005 4007 4010 4013 4016 4019 4022 4025 4028 4031 4034 4036 4039 4042 4044 4047 4050 4053 4055 4058 4061 4064 4067 4069 4072 4075 4078 4081 4084 4087 4090 4093 4096 4099 4101 4104 4107 4110 4113 4116 4119 4121 4124 4127 4130 4133 4136 4138 4141 4144 4146 4149 4151 4154 4157 4160 4162 4165 4168 4171 4173 4176 4179 4182 4185 4188 4190 4192 4195 4198 4201 4204 4207 4210 4213 4216 4219 4222 4225 4227 4230 4232 4235 4238 4240 4243 4246 4249 4252 4255 4258 4261 4264 4267 4269 4271 4274 4277 4280 4283 4286 4288 4291 4293 4296 4299 4302 4305 4308 4310 4313 4316 4319 4321 4324 4326 4329 4331 4334 4337 4340 4343 4346 4349 4352 4355 4358 4361 4364 4367 4370 4373 4376 4379 4382 4385 4388 4391 4394 4396 4399 4402 4405 4408 4411 4414 4417 4420 4423 4426 4429 4432 4435 4438 4441 4444 4447 4450 4453 4456 4459 4462 4465 4468 4471 4473 4476 4478 4481 4484 4486 4489 4491 4494 4497 4500 4503 4505 4508 4511 4514 4517 4520 4523 4526 4529 4532 4535 4538 4540 4543 4546 4549 4552 4555 4558 4561 4563 4565 4568 4571 4574 4577 4580 4583 4586 4589 4592 4595 4598 4601 4604 4607 4610 4613 4616 4619 4622 4625 4628 4631 4634 4636 4639 4642 4645 4648 4651 4654 4657 4660 4663 4666 4669 4672 4675 4677 4680 4683 4686 4688 4691 4694 4697 4700 4702 4705 4708 4711 4714 4717 4720 4723 4726 4728 4731 4734 4737 4740 4743 4746 4749 4752 4755 4758 4761 4764 4767 4770 4773 4776 4779 4782 4785 4788 4791 4794 4797 4799 4802 4805 4808 4811 4814 4816 4819 4822 4824 4827 4830 4833 4836 4839 4842 4845 4848 4851 4854 4857 4860 4863 4866 4869 4872 4875 4878 4881 4884 4887 4890 4893 4896 4899 4902 4905 4908 4911 4914 4917 4920 4923 4926 4928 4931 4934 4937 4940 4943 4946 4949 4952 4955 4958 4961 4964 4967 4969 4972 4974 4977 4980 4983 4986 4989 4992 4995 4998 5001 5004 5007 5010 5012 5015 5018 5021 5024 5027 5029 5032 5035 5038 5041 5044 5047 5050 5053 5056 5059 5062 5064 5067 5070 5073 5075 5078 5081 5084 5087 5089 5092 5095 5098 5101 5104 5107 5110 5113 5116 5119 5122 5125 5127 5130 5133 5136 5139 5141 5144 5146 5148 5151 5154 5156 5159 5162 5165 5168 5171 5174 5177 5180 5183 5186 5189 5192 5195 5198 5201 5204 5207 5210 5213 5216 5219 5222 5225 5227 5230 5233 5236 5239 5242 5245 5248 5251 5254 5256 5259 5262 5265 5268 5271 5273 5276 5279 5282 5285 5288 5291 5294 5297 5300 5303 5306 5309 5312 5315 5318 5321 5324 5327 5330 5333 5336 5339 5342 5345 5348 5351 5354 5357 5360 5363 5366 5369 5372 5375 5378 5381 5384 5387 5390 5393 5396 5399 5402 5405 5408 5411 5414 5417 5420 5423 5426 5429 5432 5435 5438 5441 5444 5447 5450 5453 5456 5459 5462 5465 5468 5471 5474 5477 5480 5483 5486 5488 5491 5494 5497 5500 5503 5506 5509 5512 5514 5517 5520 5523 5526 5529 5532 5535 5538 5541 5544 5547 5550 5553 5556 5558 5561 5564 5567 5570 5573 5576 5579 5582 5585 5587 5590 5593 5596 5599 5602 5605 5608 5611 5614 5617 5620 5623 5626 5629 5631 5634 5637 5640 5642 5645 5648 5651 5654 5656 5658 5661 5663 5666 5669 5671 5674 5677 5679 5682 5684 5686 5689 5692 5695 5698 5701 5703 5706 5709 5712 5715 5718 5721 5723 5726 5729 5731 5733 5735 5738 5741 5744 5747 5749 5752 5754 5757 5760 5763 5766 5769 5772 5774 5777 5780 5782 5784 5787 5790 5793 5796 5799 5802 5804 5806 5809 5812 5815 5818 5821 5824 5827 5830 5833 5836 5838 5841 5843 5846 5849 5852 5855 5858 5861 5863 5866 5869 5872 5875 5878 5881 5884 5887 5890 5893 5896 5899 5902 5905 5908 5911 5914 5917 5919 5922 5925 5928 5931 5934 5937 5940 5943 5946 5949 5952 5955 5958 5961 5964 5967 5970 5973 5976 5979 5982 5985 5988 5991 5994 5997 6000 6003 6006 6009 6012 6015 6018 6021 6024 6027 6030 6033 6036 6039 6042 6045 6048 6050 6052 6055 6058 6061 6064 6067 6070 6073 6076 6079 6082 6085 6088 6091 6094 6097 6100 6103 6106 6109 6112 6115 6118 6121 6124 6127 6130 6133 6136 6139 6142 6145 6148 6151 6154 6157 6160 6163 6166 6169 6172 6175 6178 6181 6184 6187 6190 6193 6195 6198 6201 6204 6206 6209 6212 6215 6218 6220 6223 6225 6228 6231 6234 6237 6240 6243 6245 6248 6251 6254 6256 6258 6261 6264 6267 6269 6272 6274 6277 6280 6283 6285 6288 6291 6294 6296 6299 6302 6304 6307 6310 6312 6315 6317 6319 6322 6324 6326 6329 6332 6334 6337 6339 6342 6345 6348 6351 6353 6355 6358 6361 6364 6367 6369 6372 6375 6377 6380 6383 6385 6387 6389 6392 6394 6397 6400 6403 6405 6408 6410 6413 6416 6418 6421 6424 6427 6429 6432 6435 6438 6441 6444 6447 6450 6452 6455 6458 6461 6463 6466 6469 6472 6475 6478 6481 6484 6486 6489 6492 6495 6498 6501 6504 6507 6510 6513 6516 6519 6522 6525 6528 6531 6534 6536 6538 6541 6544 6547 6549 6552 6554 6557 6559 6562 6565 6568 6571 6573 6576 6578 6581 6584 6587 6590 6593 6596 6599 6601 6604 6607 6609 6612 6615 6618 6621 6624 6627 6629 6632 6635 6638 6641 6644 6647 6650 6653 6656 6659 6662 6664 6667 6670 6673 6676 6679 6682 6685 6688 6691 6694 6697 6699 6702 6705 6708 6710 6713 6716 6719 6722 6725 6728 6731 6734 6737 6740 6743 6746 6749 6752 6755 6758 6760 6763 6766 6769 6772 6774 6777 6780 6782 6785 6788 6791 6794 6796 6799 6802 6804 6807 6810 6813 6816 6819 6822 6825 6828 6831 6834 6837 6840 6843 6846 6849 6852 6855 6857 6860 6863 6866 6869 6872 6875 6878 6881 6883 6886 6889 6892 6895 6898 6901 6904 6907 6910 6913 6916 6919 6922 6925 6928 6931 6934 6937 6940 6943 6946 6949 6951 6954 6957 6960 6963 6965 6968 6971 6974 6976 6979 6981 6984 6987 6990 6993 6996 6999 7002 7005 7007 7010 7013 7016 7019 7022 7025 7028 7031 7034 7037 7039 7042 7045 7047 7050 7052 7055 7058 7061 7064 7067 7070 7073 7076 7078 7080 7083 7085 7087 7090 7093 7096 7098 7101 7103 7106 7109 7112 7115 7118 7121 7124 7127 7130 7133 7135 7138 7141 7144 7146 7149 7152 7155 7158 7161 7164 7166 7169 7172 7175 7178 7180 7183 7186 7189 7192 7195 7198 7201 7204 7207 7210 7213 7216 7219 7222 7225 7228 7231 7234 7237 7240 7243 7246 7249 7252 7255 7258 7261 7263 7266 7269 7272 7275 7278 7280 7283 7286 7289 7292 7295 7298 7301 7304 7307 7310 7313 7316 7319 7321 7324 7327 7330 7333 7335 7338 7341 7344 7347 7350 7353 7356 7359 7362 7365 7368 7371 7373 7376 7379 7382 7385 7388 7391 7394 7397 7400 7403 7405 7408 7411 7414 7417 7420 7423 7426 7429 7432 7435 7438 7441 7444 7447 7450 7453 7456 7459 7462 7465 7468 7471 7474 7477 7480 7483 7486 7489 7492 7495 7498 7501 7504 7507 7510 7513 7516 7519 7522 7524 7526 7529 7532 7535 7537 7540 7543 7546 7549 7552 7554 7557 7560 7562 7565 7568 7571 7574 7577 7579 7582 7585 7588 7591 7593 7596 7599 7602 7605 7608 7611 7614 7617 7620 7623 7626 7629 7632 7635 7638 7641 7644 7647 7650 7652 7655 7658 7661 7664 7667 7670 7673 7675 7678 7681 7684 7687 7690 7693 7696 7699 7702 7705 7708 7711 7713 7716 7719 7721 7724 7727 7730 7733 7736 7739 7742 7744 7747 7750 7753 7755 7757 7760 7763 7766 7769 7772 7775 7778 7781 7784 7787 7790 7793 7796 7799 7802 7805 7808 7811 7814 7817 7820 7823 7826 7829 7832 7835 7838 7841 7843 7846 7849 7852 7855 7858 7861 7864 7866 7869 7872 7875 7878 7881 7884 7887 7890 7893 7895 7898 7901 7903 7906 7909 7912 7915 7918 7921 7924 7927 7930 7933 7936 7939 7942 7945 7948 7950 7953 7956 7959 7962 7965 7968 7971 7974 7977 7980 7983 7986 7989 7992 7995 7998 8001 8004 8007 8010 8013 8016 8018 8021 8024 8027 8030 8033 8036 8039 8042 8045 8048 8051 8054 8057 8060 8063 8066 8069 8072 8075 8078 8081 8084 8087 8089 8092 8095 8098 8100 8103 8106 8108 8111 8114 8117 8120 8123 8126 8129 8132 8135 8138 8141 8144 8147 8150 8153 8155 8157 8160 8163 8166 8169 8172 8174 8177 8180 8183 8186 8189 8192 8195 8198 8201 8204 8207 8210 8213 8215 8218 8221 8224 8227 8230 8233 8236 8239 8242 8245 8248 8251 8254 8257 8260 8263 8266 8268 8271 8274 8277 8280 8283 8285 8288 8291 8294 8296 8298 8301 8304 8307 8310 8313 8316 8319 8322 8325 8328 8331 8334 8337 8340 8343 8346 8349 8352 8355 8358 8361 8364 8367 8370 8373 8376 8379 8381 8384 8387 8389 8392 8395 8398 8401 8404 8407 8410 8413 8416 8419 8422 8425 8428 8431 8433 8436 8439 8442 8445 8448 8451 8454 8457 8460 8463 8466 8469 8472 8475 8478 8481 8484 8487 8489 8492 8495 8497 8500 8503 8506 8509 8512 8515 8518 8521 8524 8527 8530 8533 8536 8539 8542 8545 8548 8551 8554 8557 8560 8563 8565 8568 8571 8574 8577 8579 8582 8585 8588 8591 8594 8597 8600 8603 8606 8609 8612 8615 8618 8620 8623 8626 8629 8632 8635 8637 8639 8642 8644 8647 8650 8653 8656 8659 8662 8664 8667 8670 8673 8675 8678 8681 8684 8687 8690 8693 8696 8698 8701 8704 8707 8709 8712 8715 8718 8721 8724 8727 8730 8733 8735 8738 8741 8744 8747 8750 8753 8755 8758 8761 8764 8767 8770 8773 8776 8779 8782 8785 8787 8790 8792 8795 8797 8799 8802 8805 8808 8811 8814 8817 8820 8823 8826 8829 8832 8835 8838 8841 8844 8847 8849 8852 8855 8858 8861 8864 8867 8870 8873 8876 8879 8882 8885 8888 8891 8894 8897 8900 8903 8906 8909 8912 8915 8918 8920 8923 8925 8927 8930 8933 8936 8939 8941 8944 8947 8950 8953 8956 8959 8961 8964 8967 8970 8972 8975 8978 8981 8983 8986 8989 8992 8994 8997 9000 9003 9006 9009 9012 9015 9018 9021 9023 9026 9029 9032 9035 9038 9041 9044 9047 9050 9053 9056 9059 9062 9065 9068 9070 9073 9076 9079 9082 9085 9087 9090 9092 9095 9098 9100 9103 9106 9108 9111 9114 9117 9120 9122 9125 9128 9130 9133 9136 9139 9142 9144 9147 9150 9152 9155 9158 9161 9164 9167 9170 9173 9176 9179 9182 9185 9188 9191 9194 9197 9200 9202 9205 9207 9210 9213 9216 9219 9222 9225 9228 9231 9234 9236 9239 9242 9245 9248 9251 9254 9257 9259 9262 9264 9267 9269 9272 9275 9278 9281 9284 9287 9290 9293 9296 9299 9302 9305 9308 9311 9314 9317 9320 9323 9326 9329 9332 9335 9338 9341 9343 9346 9349 9352 9355 9358 9361 9364 9366 9369 9372 9375 9378 9381 9384 9387 9390 9393 9395 9398 9401 9404 9407 9410 9412 9415 9418 9421 9424 9427 9430 9433 9436 9439 9442 9445 9447 9450 9453 9456 9459 9462 9465 9468 9471 9474 9477 9480 9483 9486 9489 9492 9495 9498 9501 9504 9507 9510 9513 9516 9519 9522 9524 9527 9530 9533 9536 9539 9542 9545 9548 9551 9553 9556 9559 9562 9565 9568 9570 9573 9576 9579 9581 9584 9586 9589 9592 9595 9598 9601 9604 9607 9610 9613 9616 9619 9622 9625 9628 9630 9633 9636 9639 9642 9644 9647 9650 9653 9655 9658 9661 9664 9666 9669 9672 9675 9678 9681 9684 9687 9690 9693 9696 9699 9702 9705 9708 9711 9714 9717 9720 9723 9726 9729 9732 9735 9738 9741 9743 9746 9748 9751 9754 9756 9759 9762 9764 9767 9770 9773 9776 9779 9782 9784 9787 9790 9793 9796 9799 9802 9805 9808 9811 9814 9817 9819 9821 9824 9827 9830 9833 9836 9839 9842 9845 9848 9851 9853 9855 9858 9860 9863 9866 9869 9871 9874 9877 9880 9883 9886 9889 9892 9895 9898 9901 9903 9906 9908 9911 9913 9916 9919 9922 9925 9928 9931 9933 9936 9939 9942 9945 9948 9951 9954 9957 9960 9963 9966 9969 9971 9974 9977 9980 9983 9985 9988 9991 9994 9997 10000 10002 10004 10007 10010 10013 10016 10019 10022 10025 10028 10031 10034 10037 10040 10043 10046 10049 10052 10055 10058 10061 10064 10067 10070 10073 10076 10079 10081 10084 10087 10090 10092 10095 10098 10101 10104 10107 10110 10113 10116 10119 10121 10124 10127 10130 10133 10136 10139 10142 10145 10148 10151 10154 10157 10160 10163 10166 10169 10172 10175 10178 10181 10184 10187 10190 10193 10196 10199 10202 10204 10207 10210 10213 10216 10219 10222 10225 10228 10231 10234 10237 10240 10243 10246 10249 10252 10255 10258 10261 10264 10267 10270 10273 10276 10279 10282 10285 10288 10291 10294 10297 10300 10303 10305 10308 10311 10314 10316 10319 10322 10325 10328 10330 10333 10336 10339 10342 10344 10347 10350 10352 10355 10358 10361 10364 10367 10370 10373 10375 10378 10381 10384 10387 10390 10393 10396 10399 10402 10405 10408 10411 10414 10416 10418 10421 10424 10427 10429 10432 10435 10437 10439 10442 10445 10448 10451 10454 10457 10459 10462 10465 10468 10471 10474 10477 10479 10482 10485 10487 10490 10493 10496 10498 10501 10504 10507 10509 10512 10515 10518 10521 10524 10526 10529 10531 10533 10536 10539 10541 10544 10547 10550 10552 10555 10558 10561 10564 10567 10570 10573 10576 10578 10581 10584 10587 10590 10593 10596 10599 10602 10605 10608 10611 10614 10617 10620 10623 10626 10629 10632 10635 10638 10641 10644 10647 10650 10653 10656 10659 10662 10665 10668 10671 10674 10676 10679 10682 10685 10688 10691 10694 10697 10700 10703 10706 10709 10712 10715 10718 10721 10724 10727 10730 10733 10735 10738 10741 10744 10747 10750 10752 10755 10758 10761 10764 10767 10770 10773 10776 10779 10782 10785 10788 10791 10794 10797 10800 10803 10806 10809 10811 10813 10816 10819 10822 10825 10827 10830 10833 10836 10839 10842 10845 10847 10850 10853 10856 10859 10862 10865 10868 10871 10874 10876 10879 10882 10885 10888 10891 10894 10897 10900 10903 10906 10909 10912 10915 10917 10920 10923 10926 10929 10932 10935 10937 10940 10943 10946 10949 10952 10955 10957 10960 10963 10966 10969 10972 10974 10977 10980 10983 10986 10989 10992 10994 10997 10999 11002 11005 11008 11010 11013 11016 11019 11022 11025 11028 11031 11034 11037 11040 11043 11046 11049 11052 11055 11058 11061 11064 11067 11070 11073 11076 11079 11082 11085 11088 11091 11094 11097 11100 11103 11106 11109 11112 11115 11118 11120 11123 11126 11129 11131 11134 11136 11139 11141 11144 11147 11150 11153 11156 11158 11161 11164 11167 11169 11172 11175 11178 11180 11183 11186 11189 11192 11195 11198 11201 11204 11207 11209 11212 11215 11218 11221 11224 11227 11229 11232 11235 11237 11239 11242 11245 11247 11250 11253 11255 11258 11261 11263 11266 11269 11272 11275 11278 11281 11284 11287 11290 11293 11296 11299 11302 11305 11308 11311 11314 11317 11320 11323 11326 11329 11332 11335 11338 11340 11343 11346 11349 11352 11355 11358 11361 11364 11367 11370 11373 11376 11379 11382 11385 11387 11390 11393 11395 11398 11401 11404 11406 11409 11412 11414 11416 11419 11422 11425 11428 11431 11434 11437 11439 11442 11445 11448 11451 11454 11457 11460 11463 11466 11469 11472 11475 11478 11480 11483 11486 11488 11491 11494 11497 11500 11503 11506 11509 11512 11515 11518 11521 11524 11527 11530 11533 11536 11539 11542 11545 11548 11551 11554 11557 11560 11563 11566 11569 11572 11575 11577 11580 11583 11586 11589 11592 11595 11598 11600 11603 11606 11609 11612 11615 11617 11620 11623 11626 11629 11631 11633 11636 11638 11641 11644 11647 11649 11652 11655 11657 11660 11663 11666 11669 11671 11674 11677 11680 11683 11686 11689 11692 11695 11698 11701 11704 11706 11708 11711 11714 11717 11720 11723 11726 11729 11732 11735 11737 11740 11743 11745 11748 11751 11754 11757 11760 11763 11766 11769 11772 11774 11777 11779 11782 11784 11787 11789 11792 11794 11796 11799 11801 11804 11806 11809 11812 11815 11818 11821 11823 11826 11829 11831 11834 11837 11839 11842 11844 11846 11849 11851 11854 11857 11860 11863 11866 11869 11872 11875 11878 11881 11884 11886 11889 11892 11895 11897 11900 11903 11905 11908 11911 11914 11917 11920 11923 11926 11929 11932 11935 11938 11941 11944 11947 11950 11953 11956 11959 11962 11965 11968 11971 11974 11977 11980 11983 11986 11989 11992 11995 11998 12001 12004 12007 12010 12013 12015 12018 12021 12024 12027 12030 12033 12035 12037 12040 12043 12046 12049 12052 12055 12058 12061 12064 12067 12069 12072 12075 12078 12080 12083 12086 12089 12092 12095 12098 12101 12104 12106 12109 12112 12115 12118 12121 12124 12127 12130 12133 12136 12138 12141 12144 12147 12150 12153 12156 12158 12161 12164 12167 12170 12173 12176 12178 12181 12184 12187 12189 12192 12195 12198 12201 12204 12207 12210 12213 12216 12219 12221 12224 12227 12230 12233 12236 12239 12242 12244 12247 12249 12252 12255 12258 12261 12264 12267 12270 12273 12276 12279 12282 12285 12288 12291 12294 12297 12300 12303 12306 12309 12312 12315 12318 12320 12323 12326 12329 12332 12335 12338 12341 12344 12347 12350 12353 12356 12359 12362 12365 12368 12371 12374 12377 12380 12383 12386 12389 12392 12395 12398 12401 12404 12407 12410 12413 12416 12419 12422 12425 12428 12431 12434 12437 12440 12443 12446 12449 12452 12455 12458 12461 12464 12467 12470 12473 12476 12479 12482 12485 12488 12491 12494 12497 12500 12503 12506 12509 12512 12515 12517 12520 12523 12526 12529 12532 12535 12538 12540 12543 12546 12549 12552 12555 12558 12561 12564 12567 12570 12573 12576 12579 12582 12585 12588 12591 12594 12597 12600 12603 12606 12608 12611 12614 12617 12620 12623 12626 12629 12632 12635 12638 12641 12644 12647 12650 12653 12656 12659 12662 12665 12668 12671 12674 12677 12680 12682 12685 12688 12691 12693 12696 12699 12702 12705 12708 12711 12714 12717 12720 12723 12726 12729 12732 12735 12738 12741 12744 12747 12750 12753 12756 12759 12762 12765 12768 12771 12774 12777 12780 12783 12786 12789 12792 12794 12797 12799 12802 12805 12808 12811 12814 12816 12819 12821 12824 12827 12830 12833 12836 12839 12842 12845 12848 12851 12854 12857 12860 12862 12865 12868 12871 12874 12877 12880 12883 12886 12889 12892 12894 12897 12900 12903 12906 12909 12912 12915 12918 12920 12923 12926 12929 12931 12933 12936 12939 12941 12944 12947 12950 12953 12956 12959 12961 12964 12967 12969 12972 12975 12978 12980 12983 12986 12989 12992 12995 12997 13000 13003 13005 13007 13009 13012 13015 13018 13021 13024 13027 13030 13033 13036 13039 13042 13045 13048 13051 13053 13056 13059 13062 13064 13067 13070 13073 13076 13079 13082 13084 13087 13090 13092 13095 13098 13101 13104 13107 13110 13113 13116 13119 13122 13125 13128 13131 13134 13137 13140 13143 13145 13148 13151 13154 13157 13160 13163 13166 13169 13172 13175 13178 13181 13184 13187 13190 13193 13196 13198 13201 13204 13207 13210 13213 13216 13218 13221 13224 13227 13230 13232 13235 13238 13241 13244 13247 13249 13252 13255 13258 13261 13264 13267 13270 13273 13275 13278 13281 13284 13287 13289 13292 13295 13298 13301 13304 13307 13310 13313 13316 13318 13321 13324 13327 13330 13333 13336 13339 13342 13345 13348 13351 13354 13357 13359 13362 13365 13368 13370 13373 13376 13378 13381 13384 13387 13390 13393 13395 13398 13401 13404 13407 13410 13413 13415 13418 13420 13423 13426 13429 13431 13434 13437 13440 13442 13444 13447 13449 13452 13454 13457 13459 13462 13464 13467 13470 13473 13476 13479 13481 13484 13487 13490 13493 13495 13498 13501 13504 13507 13510 13513 13516 13519 13522 13525 13527 13530 13533 13536 13539 13542 13545 13548 13551 13554 13557 13560 13563 13566 13569 13572 13575 13578 13581 13584 13587 13590 13593 13596 13599 13602 13605 13608 13611 13614 13617 13620 13623 13626 13629 13631 13634 13637 13640 13643 13646 13649 13652 13654 13657 13660 13662 13665 13668 13671 13674 13677 13680 13683 13686 13689 13692 13694 13696 13699 13702 13705 13708 13711 13714 13717 13720 13723 13726 13729 13732 13734 13737 13739 13742 13744 13747 13750 13753 13756 13758 13760 13762 13765 13768 13770 13773 13776 13778 13781 13783 13786 13789 13792 13794 13796 13799 13802 13804 13806 13809 13812 13815 13818 13821 13823 13826 13829 13832 13835 13838 13841 13844 13847 13850 13852 13855 13858 13861 13864 13867 13870 13872 13875 13878 13880 13883 13886 13889 13892 13895 13898 13901 13904 13907 13909 13912 13915 13917 13919 13922 13925 13928 13931 13934 13937 13940 13943 13946 13948 13951 13954 13957 13960 13963 13966 13968 13971 13974 13976 13979 13982 13984 13987 13989 13992 13995 13998 14001 14004 14007 14010 14013 14016 14019 14022 14025 14028 14031 14034 14036 14039 14042 14045 14047 14050 14053 14056 14059 14062 14065 14068 14071 14074 14077 14080 14083 14086 14089 14091 14094 14097 14100 14103 14105 14108 14111 14114 14117 14120 14123 14126 14128 14131 14133 14136 14139 14141 14144 14147 14150 14152 14155 14158 14161 14164 14167 14170 14172 14175 14177 14180 14183 14186 14188 14191 14193 14196 14199 14202 14205 14208 14210 14213 14215 14218 14221 14224 14227 14230 14233 14236 14239 14242 14245 14248 14251 14254 14257 14259 14262 14265 14268 14271 14273 14275 14278 14281 14283 14285 14287 14290 14293 14296 14298 14301 14304 14307 14310 14313 14316 14319 14322 14324 14327 14330 14333 14336 14338 14341 14344 14347 14350 14353 14356 14359 14361 14364 14366 14369 14372 14375 14377 14380 14383 14386 14389 14392 14395 14397 14400 14403 14405 14408 14411 14414 14416 14419 14422 14425 14428 14431 14434 14437 14439 14442 14444 14447 14449 14452 14455 14458 14461 14464 14467 14470 14473 14476 14479 14482 14485 14488 14491 14493 14496 14498 14501 14503 14506 14509 14511 14514 14517 14520 14522 14525 14527 14530 14533 14536 14539 14541 14544 14546 14548 14551 14554 14557 14560 14563 14566 14569 14571 14574 14577 14580 14583 14586 14589 14592 14595 14598 14601 14604 14607 14610 14613 14616 14619 14621 14623 14625 14627 14630 14633 14635 14638 14641 14644 14646 14649 14652 14655 14658 14660 14663 14666 14668 14670 14673 14675 14678 14681 14684 14687 14690 14693 14696 14699 14702 14705 14707 14709 14712 14715 14718 14721 14723 14725 14728 14731 14733 14736 14739 14742 14745 14747 14750 14753 14756 14759 14762 14765 14767 14770 14772 14775 14778 14781 14784 14786 14789 14792 14795 14798 14801 14804 14807 14810 14813 14816 14818 14821 14824 14827 14830 14833 14836 14838 14840 14842 14845 14848 14851 14854 14857 14860 14863 14866 14869 14871 14874 14877 14880 14882 14885 14888 14890 14893 14896 14899 14901 14904 14907 14910 14913 14916 14918 14921 14923 14926 14928 14931 14934 14937 14940 14942 14945 14947 14950 14953 14956 14959 14962 14965 14968 14971 14974 14976 14979 14982 14985 14988 14991 14994 14997 15000 15003 15006 15009 15012 15015 15018 15021 15024 15026 15028 15031 15034 15037 15040 15043 15046 15049 15052 15055 15058 15061 15064 15067 15070 15073 15075 15077 15079 15082 15085 15088 15091 15094 15096 15098 15101 15104 15107 15109 15111 15114 15117 15120 15123 15125 15128 15131 15134 15136 15138 15141 15144 15146 15149 15152 15155 15158 15161 15164 15167 15170 15173 15176 15179 15182 15185 15188 15191 15194 15197 15200 15203 15206 15209 15212 15215 15218 15221 15224 15227 15230 15233 15236 15239 15241 15244 15247 15250 15253 15256 15259 15262 15264 15267 15269 15272 15275 15278 15281 15284 15286 15289 15291 15294 15296 15299 15302 15305 15308 15310 15313 15316 15319 15322 15325 15328 15331 15334 15337 15340 15343 15346 15349 15352 15355 15358 15361 15364 15367 15370 15373 15376 15379 15382 15385 15388 15391 15394 15397 15400 15403 15406 15409 15412 15414 15417 15420 15423 15426 15429 15432 15435 15437 15440 15443 15446 15449 15452 15455 15458 15461 15464 15467 15470 15473 15476 15479 15481 15483 15486 15489 15492 15495 15498 15500 15503 15506 15509 15512 15515 15518 15521 15524 15527 15530 15533 15536 15538 15541 15544 15547 15550 15552 15555 15558 15560 15563 15566 15568 15571 15573 15576 15579 15582 15585 15588 15591 15594 15596 15599 15602 15605 15608 15610 15613 15616 15619 15622 15625 15628 15630 15633 15636 15639 15642 15645 15648 15651 15654 15657 15659 15662 15665 15668 15671 15674 15677 15680 15683 15685 15688 15690 15693 15696 15698 15701 15704 15706 15709 15712 15715 15718 15721 15724 15727 15730 15733 15735 15738 15741 15744 15746 15749 15752 15755 15757 15760 15763 15766 15769 15772 15775 15778 15781 15784 15787 15790 15793 15796 15799 15802 15805 15808 15811 15814 15817 15819 15822 15825 15828 15831 15834 15837 15839 15842 15845 15848 15850 15853 15856 15858 15861 15864 15866 15869 15872 15874 15877 15879 15882 15885 15887 15889 15892 15895 15898 15901 15904 15907 15910 15913 15916 15919 15922 15925 15928 15931 15934 15937 15940 15943 15946 15949 15952 15954 15957 15960 15963 15966 15969 15971 15973 15975 15978 15980 15983 15985 15988 15991 15994 15996 15999 16002 16004 16007 16009 16012 16015 16018 16020 16023 16025 16028 16030 16033 16036 16039 16042 16045 16047 16049 16052 16055 16058 16061 16064 16067 16070 16073 16076 16078 16081 16084 16087 16089 16092 16094 16096 16099 16102 16105 16108 16111 16114 16117 16120 16123 16126 16129 16132 16135 16138 16141 16144 16147 16150 16152 16155 16158 16161 16164 16167 16170 16173 16176 16178 16181 16184 16187 16189 16192 16195 16198 16201 16204 16207 16210 16213 16216 16219 16222 16224 16227 16230 16233 16236 16239 16242 16244 16247 16249 16252 16255 16257 16260 16263 16266 16269 16272 16275 16278 16281 16284 16287 16290 16293 16296 16299 16302 16305 16307 16310 16313 16316 16318 16320 16323 16326 16328 16331 16333 16336 16339 16342 16345 16347 16349 16352 16355 16358 16361 16364 16367 16369 16372 16375 16378 16380 16382 16385 16388 16391 16394 16397 16400 16403 16406 16409 16411 16414 16417 16420 16423 16426 16428 16431 16434 16436 16439 16441 16444 16447 16450 16453 16456 16459 16462 16465 16468 16471 16474 16477 16480 16483 16486 16488 16491 16494 16497 16500 16503 16505 16508 16511 16514 16517 16520 16523 16526 16529 16532 16534 16537 16540 16543 16546 16548 16551 16554 16557 16560 16563 16566 16569 16572 16575 16577 16580 16583 16586 16589 16592 16595 16598 16600 16603 16606 16608 16610 16613 16616 16619 16621 16624 16627 16629 16632 16635 16638 16641 16644 16647 16649 16652 16655 16657 16660 16662 16665 16668 16671 16674 16677 16680 16683 16685 16688 16690 16693 16696 16699 16701 16704 16707 16710 16713 16716 16718 16721 16724 16726 16729 16732 16734 16737 16739 16742 16745 16748 16751 16754 16757 16760 16763 16766 16769 16772 16775 16778 16781 16784 16787 16790 16793 16796 16799 16802 16804 16807 16810 16813 16816 16819 16821 16824 16826 16829 16832 16835 16838 16841 16844 16847 16849 16852 16855 16858 16861 16864 16867 16870 16873 16876 16879 16882 16884 16887 16890 16893 16896 16899 16902 16905 16908 16911 16914 16917 16920 16923 16926 16929 16931 16934 16936 16939 16941 16943 16945 16948 16951 16953 16955 16958 16961 16963 16966 16969 16972 16975 16977 16980 16983 16986 16988 16991 16993 16996 16998 17001 17004 17007 17010 17012 17015 17018 17021 17024 17027 17030 17033 17036 17038 17041 17043 17046 17049 17052 17055 17058 17061 17064 17067 17070 17073 17076 17079 17082 17085 17088 17091 17094 17097 17100 17103 17106 17109 17112 17114 17117 17120 17122 17125 17128 17131 17134 17137 17140 17143 17146 17149 17152 17154 17156 17159 17161 17164 17167 17170 17172 17174 17177 17179 17182 17185 17188 17191 17194 17197 17200 17203 17206 17209 17212 17215 17217 17220 17223 17226 17229 17232 17235 17238 17241 17243 17246 17249 17252 17255 17258 17261 17264 17267 17270 17273 17276 17279 17282 17284 17286 17289 17292 17294 17297 17300 17303 17306 17309 17311 17314 17317 17320 17323 17326 17329 17332 17335 17337 17340 17343 17346 17349 17351 17354 17357 17360 17363 17366 17369 17372 17375 17378 17380 17382 17385 17388 17391 17394 17397 17400 17402 17405 17407 17410 17412 17415 17418 17421 17423 17426 17429 17432 17434 17437 17440 17442 17445 17448 17451 17454 17457 17460 17463 17466 17469 17472 17475 17477 17480 17483 17486 17489 17491 17494 17497 17500 17503 17506 17509 17512 17515 17518 17521 17524 17527 17530 17533 17536 17539 17542 17545 17548 17551 17553 17556 17559 17562 17565 17568 17570 17573 17576 17579 17582 17585 17587 17590 17593 17596 17599 17601 17604 17607 17610 17613 17616 17619 17622 17625 17628 17631 17634 17637 17640 17643 17646 17649 17652 17655 17658 17661 17664 17667 17670 17673 17676 17679 17681 17684 17687 17690 17693 17696 17699 17702 17705 17708 17711 17714 17717 17720 17723 17726 17729 17732 17735 17738 17741 17744 17747 17750 17753 17756 17759 17762 17765 17768 17771 17774 17777 17779 17782 17785 17788 17791 17794 17797 17800 17803 17806 17809 17811 17813 17816 17819 17822 17825 17828 17831 17834 17837 17840 17843 17846 17849 17852 17854 17857 17860 17863 17866 17869 17872 17875 17878 17881 17884 17887 17890 17893 17896 17899 17902 17905 17908 17911 17914 17917 17920 17923 17926 17929 17932 17935 17938 17941 17944 17947 17950 17953 17956 17959 17962 17965 17968 17971 17974 17977 17980 17983 17986 17989 17992 17995 17998 18000 18003 18006 18009 18012 18015 18018 18021 18024 18027 18030 18033 18036 18039 18042 18045 18048 18051 18054 18057 18060 18063 18066 18069 18072 18075 18078 18081 18084 18087 18090 18092 18095 18098 18101 18103 18106 18109 18112 18115 18118 18121 18124 18127 18130 18132 18135 18138 18140 18143 18146 18149 18152 18155 18157 18160 18163 18166 18169 18172 18174 18177 18180 18183 18186 18189 18192 18195 18198 18201 18204 18207 18210 18213 18216 18219 18222 18225 18228 18231 18234 18236 18239 18242 18245 18248 18251 18254 18257 18260 18263 18266 18269 18271 18274 18277 18280 18283 18286 18289 18292 18295 18298 18301 18304 18307 18310 18313 18316 18319 18322 18325 18327 18330 18333 18336 18339 18342 18345 18348 18351 18354 18357 18360 18363 18366 18369 18372 18375 18378 18380 18383 18386 18389 18392 18395 18398 18401 18404 18407 18410 18413 18416 18419 18421 18424 18427 18430 18433 18436 18439 18442 18445 18448 18451 18454 18457 18460 18462 18465 18467 18470 18473 18476 18479 18482 18485 18488 18491 18494 18497 18500 18503 18506 18509 18512 18515 18518 18521 18524 18527 18530 18533 18536 18539 18542 18545 18547 18550 18553 18556 18559 18562 18565 18567 18570 18573 18576 18579 18581 18584 18587 18590 18593 18595 18598 18601 18604 18607 18610 18613 18616 18619 18622 18625 18627 18630 18633 18636 18639 18641 18644 18647 18650 18653 18656 18659 18662 18665 18667 18670 18673 18676 18678 18681 18684 18687 18690 18693 18696 18699 18702 18705 18708 18711 18713 18715 18718 18721 18723 18726 18729 18732 18735 18737 18739 18742 18745 18748 18751 18754 18757 18760 18763 18766 18768 18771 18774 18777 18780 18783 18786 18789 18792 18795 18798 18801 18804 18807 18810 18813 18816 18819 18822 18825 18828 18831 18834 18837 18839 18842 18844 18847 18850 18853 18856 18859 18862 18865 18868 18871 18874 18876 18879 18882 18885 18888 18890 18893 18896 18898 18901 18904 18906 18909 18912 18915 18917 18920 18923 18925 18928 18931 18934 18937 18940 18943 18946 18949 18952 18955 18958 18961 18964 18967 18970 18973 18976 18979 18982 18985 18988 18991 18994 18997 19000 19003 19006 19009 19012 19015 19018 19021 19024 19027 19030 19033 19036 19039 19042 19045 19048 19051 19054 19057 19060 19063 19066 19069 19072 19075 19078 19081 19084 19087 19090 19093 19096 19099 19102 19105 19108 19111 19114 19117 19120 19123 19125 19127 19130 19133 19136 19139 19142 19145 19148 19151 19154 19156 19159 19162 19165 19168 19171 19173 19176 19179 19182 19184 19187 19190 19193 19196 19199 19202 19205 19208 19211 19214 19217 19220 19223 19226 19229 19232 19235 19238 19241 19244 19246 19249 19252 19255 19258 19261 19264 19267 19270 19273 19276 19279 19282 19285 19288 19291 19294 19297 19300 19302 19305 19308 19311 19314 19316 19319 19322 19324 19327 19330 19333 19336 19339 19342 19345 19348 19351 19354 19357 19360 19363 19366 19369 19372 19375 19378 19381 19384 19387 19390 19393 19396 19399 19402 19405 19408 19411 19414 19417 19420 19423 19426 19429 19432 19435 19438 19441 19444 19446 19449 19452 19455 19458 19461 19464 19467 19470 19472 19475 19478 19481 19484 19487 19490 19493 19496 19499 19502 19505 19508 19511 19514 19517 19520 19523 19526 19529 19532 19535 19538 19541 19544 19547 19550 19553 19556 19558 19560 19563 19566 19569 19572 19575 19578 19581 19584 19586 19588 19591 19594 19597 19599 19602 19605 19608 19611 19614 19617 19620 19623 19626 19629 19631 19634 19637 19640 19643 19646 19649 19652 19655 19658 19661 19664 19667 19670 19673 19676 19679 19682 19685 19688 19691 19694 19697 19700 19703 19706 19709 19712 19715 19718 19721 19724 19727 19730 19733 19735 19738 19741 19744 19747 19749 19752 19755 19758 19761 19764 19767 19770 19773 19776 19779 19782 19785 19788 19791 19794 19797 19799 19802 19804 19807 19810 19813 19816 19818 19821 19824 19827 19830 19833 19836 19839 19842 19845 19848 19851 19854 19857 19860 19863 19866 19869 19872 19875 19878 19881 19884 19887 19890 19893 19896 19899 19902 19905 19908 19910 19913 19916 19919 19922 19925 19928 19931 19934 19937 19940 19943 19945 19948 19951 19953 19956 19958 19961 19964 19967 19970 19973 19976 19978 19981 19984 19987 19990 19993 19996 19999 20002 20005 20008 20011 20014 20016 20019 20021 20024 20027 20029 20032 20035 20038 20041 20044 20047 20050 20053 20056 20059 20062 20065 20068 20071 20074 20077 20080 20083 20086 20089 20092 20095 20098 20101 20104 20107 20110 20113 20116 20119 20122 20125 20128 20131 20134 20137 20140 20143 20146 20149 20152 20155 20158 20161 20164 20167 20170 20173 20176 20179 20182 20184 20187 20190 20193 20196 20199 20202 20205 20208 20211 20214 20217 20220 20223 20226 20229 20232 20235 20238 20241 20244 20247 20250 20253 20256 20259 20262 20265 20268 20271 20274 20277 20280 20283 20286 20289 20292 20295 20298 20301 20303 20306 20309 20312 20315 20318 20320 20323 20326 20329 20332 20335 20338 20341 20344 20347 20350 20353 20356 20359 20362 20365 20368 20371 20374 20377 20380 20383 20386 20389 20392 20395 20398 20401 20404 20407 20410 20413 20416 20419 20422 20425 20428 20431 20434 20437 20440 20443 20446 20449 20452 20455 20458 20461 20464 20467 20470 20473 20476 20479 20482 20484 20487 20489 20492 20495 20498 20501 20504 20507 20510 20513 20515 20518 20521 20524 20527 20530 20533 20536 20539 20542 20545 20548 20551 20554 20557 20560 20563 20566 20569 20572 20574 20577 20580 20583 20586 20589 20592 20595 20598 20600 20603 20606 20609 20612 20615 20618 20621 20624 20627 20630 20633 20636 20639 20642 20645 20648 20651 20654 20657 20660 20663 20666 20669 20672 20675 20677 20680 20683 20686 20689 20692 20695 20698 20701 20704 20707 20710 20713 20716 20718 20721 20724 20727 20730 20733 20736 20739 20742 20745 20748 20751 20754 20757 20760 20763 20766 20769 20772 20774 20777 20780 20783 20786 20789 20792 20795 20798 20801 20804 20807 20810 20813 20816 20819 20822 20825 20828 20831 20834 20837 20840 20843 20846 20849 20852 20854 20857 20860 20863 20866 20868 20871 20874 20877 20880 20883 20886 20889 20892 20895 20898 20901 20904 20907 20910 20913 20916 20919 20922 20924 20927 20930 20932 20935 20938 20941 20944 20947 20950 20953 20956 20959 20961 20964 20967 20970 20973 20975 20978 20981 20983 20986 20989 20992 20995 20998 21001 21004 21007 21010 21013 21016 21019 21022 21025 21028 21031 21034 21037 21040 21043 21046 21049 21052 21055 21058 21061 21064 21067 21070 21072 21075 21078 21080 21083 21086 21089 21092 21095 21098 21100 21103 21106 21109 21111 21114 21117 21120 21123 21126 21129 21132 21135 21138 21141 21144 21147 21150 21153 21156 21159 21162 21165 21168 21171 21174 21177 21180 21183 21186 21188 21191 21194 21197 21200 21203 21205 21208 21211 21214 21217 21220 21223 21226 21229 21232 21235 21238 21241 21244 21246 21249 21252 21255 21258 21261 21264 21267 21270 21273 21276 21279 21282 21284 21287 21290 21293 21296 21299 21301 21304 21307 21309 21312 21315 21318 21321 21324 21326 21329 21332 21334 21337 21340 21343 21346 21349 21352 21355 21358 21361 21364 21367 21369 21372 21375 21378 21381 21384 21387 21390 21393 21396 21399 21402 21405 21408 21411 21414 21417 21420 21423 21426 21429 21432 21435 21438 21441 21444 21447 21450 21453 21456 21458 21461 21464 21466 21469 21472 21474 21477 21480 21483 21485 21488 21491 21494 21496 21499 21502 21505 21508 21511 21514 21517 21520 21523 21526 21529 21532 21535 21538 21541 21544 21546 21549 21552 21555 21558 21561 21564 21567 21570 21573 21576 21579 21582 21585 21588 21590 21593 21596 21599 21602 21605 21608 21611 21614 21617 21620 21623 21626 21629 21632 21635 21638 21641 21644 21647 21650 21653 21656 21659 21662 21665 21668 21671 21674 21677 21680 21683 21686 21689 21692 21695 21697 21700 21703 21706 21709 21712 21715 21718 21721 21724 21727 21730 21733 21736 21739 21742 21745 21748 21750 21753 21756 21759 21762 21764 21767 21770 21773 21776 21779 21782 21785 21788 21791 21794 21797 21800 21802 21805 21808 21811 21814 21817 21820 21823 21825 21828 21831 21834 21837 21840 21843 21846 21849 21852 21855 21858 21860 21863 21866 21869 21872 21875 21878 21881 21884 21887 21890 21893 21896 21899 21902 21905 21908 21911 21913 21916 21919 21922 21925 21927 21930 21933 21936 21939 21942 21944 21947 21950 21952 21955 21957 21959 21962 21965 21968 21971 21974 21977 21980 21983 21986 21989 21992 21995 21998 22001 22004 22007 22009 22011 22014 22017 22020 22023 22026 22029 22032 22035 22038 22040 22043 22046 22049 22052 22055 22057 22060 22063 22066 22069 22072 22075 22077 22080 22083 22085 22088 22090 22093 22096 22098 22101 22103 22106 22109 22112 22114 22117 22120 22123 22126 22129 22132 22134 22136 22139 22141 22144 22147 22149 22152 22155 22158 22161 22164 22167 22170 22173 22176 22179 22182 22185 22188 22190 22193 22196 22199 22202 22205 22208 22211 22214 22217 22220 22222 22224 22227 22230 22232 22235 22238 22241 22243 22246 22248 22251 22254 22257 22260 22262 22265 22268 22270 22273 22276 22279 22282 22285 22288 22291 22293 22296 22299 22302 22305 22308 22311 22314 22317 22320 22323 22326 22328 22331 22334 22337 22340 22343 22345 22347 22350 22353 22356 22359 22362 22365 22367 22370 22373 22376 22379 22381 22384 22386 22389 22392 22395 22398 22401 22404 22407 22410 22413 22416 22419 22422 22425 22427 22430 22433 22436 22439 22441 22444 22447 22450 22453 22456 22459 22462 22465 22468 22471 22474 22477 22480 22483 22486 22489 22492 22495 22498 22501 22504 22507 22509 22512 22515 22518 22521 22524 22527 22530 22533 22536 22539 22542 22545 22548 22551 22554 22556 22559 22562 22565 22568 22571 22574 22576 22579 22582 22585 22588 22591 22594 22597 22600 22603 22606 22609 22612 22615 22618 22621 22624 22627 22630 22633 22636 22639 22642 22645 22648 22651 22654 22657 22660 22663 22666 22669 22672 22674 22677 22680 22683 22686 22689 22692 22695 22698 22701 22704 22707 22710 22713 22716 22719 22722 22725 22728 22731 22733 22736 22739 22742 22745 22748 22751 22753 22755 22758 22761 22764 22767 22769 22771 22774 22777 22780 22783 22786 22789 22792 22795 22798 22801 22803 22806 22809 22812 22815 22818 22821 22824 22827 22830 22833 22836 22839 22842 22845 22848 22851 22854 22857 22860 22863 22866 22869 22872 22875 22877 22880 22883 22886 22889 22892 22895 22898 22901 22904 22907 22909 22912 22915 22918 22921 22924 22927 22930 22933 22936 22939 22942 22945 22948 22951 22954 22957 22960 22962 22965 22968 22971 22974 22977 22980 22983 22986 22989 22991 22993 22996 22998 23001 23004 23007 23010 23013 23016 23019 23022 23025 23028 23031 23034 23037 23040 23043 23046 23049 23052 23055 23058 23061 23064 23066 23069 23072 23075 23077 23080 23083 23086 23089 23092 23095 23098 23101 23104 23107 23109 23112 23115 23118 23121 23124 23126 23129 23131 23133 23136 23139 23142 23145 23148 23151 23154 23157 23160 23163 23166 23169 23172 23175 23178 23181 23184 23186 23189 23192 23194 23197 23200 23203 23205 23208 23211 23213 23216 23218 23221 23224 23227 23230 23233 23236 23239 23242 23245 23248 23251 23253 23256 23259 23262 23264 23267 23270 23273 23276 23279 23282 23285 23288 23291 23294 23296 23299 23302 23305 23308 23311 23313 23316 23319 23322 23325 23328 23331 23334 23336 23339 23342 23345 23348 23351 23354 23357 23360 23363 23366 23369 23372 23375 23378 23380 23382 23385 23388 23391 23394 23396 23399 23402 23405 23408 23410 23413 23416 23419 23422 23425 23427 23430 23432 23435 23438 23441 23444 23447 23450 23453 23456 23459 23462 23465 23468 23471 23474 23476 23478 23481 23484 23487 23490 23493 23496 23499 23502 23505 23508 23511 23514 23517 23520 23523 23526 23529 23532 23535 23538 23541 23544 23547 23550 23553 23556 23559 23562 23565 23567 23570 23573 23576 23579 23582 23585 23588 23591 23594 23597 23600 23603 23606 23608 23610 23613 23616 23618 23621 23624 23627 23630 23633 23636 23639 23642 23645 23648 23651 23654 23657 23660 23663 23666 23669 23672 23675 23678 23681 23684 23687 23690 23693 23696 23699 23702 23705 23708 23711 23714 23717 23720 23723 23726 23729 23732 23735 23738 23741 23744 23747 23750 23753 23756 23759 23762 23765 23768 23771 23774 23776 23779 23781 23784 23787 23790 23793 23796 23798 23801 23804 23807 23810 23813 23815 23817 23820 23823 23826 23829 23832 23835 23838 23841 23843 23846 23849 23852 23855 23858 23861 23864 23867 23870 23873 23875 23878 23881 23883 23886 23889 23891 23894 23897 23900 23903 23906 23909 23912 23914 23916 23919 23921 23923 23926 23929 23931 23934 23937 23940 23943 23946 23949 23952 23955 23958 23961 23963 23966 23969 23972 23975 23978 23981 23984 23987 23990 23993 23996 23999 24002 24005 24008 24011 24014 24017 24020 24023 24026 24029 24032 24035 24038 24041 24044 24047 24050 24053 24056 24059 24062 24065 24068 24071 24074 24077 24080 24083 24086 24089 24092 24094 24097 24100 24103 24106 24108 24111 24114 24116 24119 24122 24125 24128 24131 24134 24137 24140 24143 24146 24149 24152 24155 24158 24161 24164 24167 24170 24173 24175 24178 24181 24184 24187 24190 24193 24196 24199 24202 24205 24208 24211 24214 24217 24220 24223 24226 24229 24232 24235 24238 24241 24243 24246 24249 24252 24255 24258 24261 24264 24267 24270 24273 24275 24278 24281 24284 24287 24290 24293 24295 24298 24301 24304 24306 24309 24312 24315 24317 24320 24323 24326 24329 24332 24335 24337 24340 24343 24346 24349 24351 24354 24356 24358 24361 24364 24367 24370 24373 24376 24379 24382 24385 24388 24391 24394 24396 24399 24402 24405 24408 24411 24414 24417 24420 24423 24426 24429 24432 24435 24438 24440 24443 24446 24449 24452 24455 24457 24460 24463 24466 24469 24472 24475 24477 24480 24483 24486 24489 24492 24495 24498 24501 24504 24507 24510 24513 24516 24519 24522 24525 24528 24531 24534 24537 24540 24543 24546 24548 24550 24553 24556 24559 24561 24564 24567 24570 24573 24576 24578 24581 24584 24587 24590 24593 24596 24599 24602 24605 24608 24611 24614 24617 24620 24623 24626 24628 24631 24634 24637 24640 24643 24646 24649 24652 24655 24658 24661 24664 24667 24670 24673 24676 24679 24682 24684 24687 24690 24693 24696 24699 24702 24705 24707 24710 24713 24716 24719 24722 24725 24728 24731 24734 24737 24739 24742 24745 24748 24751 24753 24756 24758 24761 24764 24766 24769 24772 24775 24778 24781 24783 24786 24789 24792 24795 24798 24800 24803 24805 24808 24811 24814 24817 24819 24822 24825 24828 24831 24834 24837 24840 24843 24845 24848 24851 24854 24857 24860 24863 24866 24869 24872 24875 24878 24881 24884 24887 24890 24893 24896 24898 24901 24904 24907 24910 24913 24915 24918 24921 24924 24927 24930 24933 24936 24939 24942 24945 24948 24951 24954 24957 24960 24963 24966 24969 24972 24975 24978 24981 24984 24987 24990 24993 24996 24999 25002 25005 25008 25011 25014 25017 25020 25023 25026 25029 25032 25035 25038 25041 25044 25047 25049 25052 25055 25058 25061 25064 25067 25070 25073 25076 25079 25082 25085 25088 25091 25094 25097 25100 25103 25106 25109 25112 25115 25118 25121 25124 25127 25130 25132 25135 25138 25141 25144 25147 25149 25152 25155 25158 25160 25162 25165 25168 25171 25174 25177 25180 25183 25186 25189 25192 25195 25198 25201 25203 25206 25209 25212 25215 25218 25220 25223 25225 25228 25230 25233 25235 25237 25240 25243 25246 25249 25252 25255 25258 25261 25264 25267 25269 25272 25274 25277 25280 25283 25286 25289 25292 25295 25298 25301 25304 25307 25309 25312 25315 25318 25321 25324 25327 25330 25333 25335 25338 25341 25344 25347 25350 25353 25356 25359 25362 25365 25368 25371 25373 25376 25379 25382 25385 25388 25391 25394 25397 25400 25403 25406 25409 25412 25415 25418 25421 25424 25427 25430 25433 25436 25439 25442 25445 25448 25451 25453 25456 25459 25462 25464 25467 25470 25472 25475 25477 25480 25483 25486 25488 25491 25494 25497 25500 25503 25506 25509 25512 25515 25518 25521 25524 25527 25530 25533 25536 25539 25542 25545 25548 25551 25554 25557 25560 25563 25566 25568 25571 25574 25577 25580 25583 25586 25589 25591 25594 25597 25599 25602 25605 25608 25611 25614 25617 25620 25623 25626 25629 25632 25634 25637 25640 25643 25646 25649 25651 25654 25657 25660 25663 25666 25669 25672 25674 25676 25679 25682 25685 25688 25690 25693 25696 25699 25702 25705 25708 25710 25713 25716 25719 25722 25725 25728 25731 25734 25737 25739 25741 25744 25747 25750 25753 25756 25758 25761 25764 25767 25769 25772 25774 25777 25779 25782 25785 25788 25791 25794 25796 25799 25802 25805 25808 25811 25814 25817 25820 25823 25826 25829 25832 25834 25837 25840 25843 25846 25849 25852 25855 25858 25861 25864 25867 25870 25873 25876 25879 25882 25885 25888 25891 25894 25897 25899 25902 25905 25908 25911 25914 25916 25919 25922 25925 25927 25930 25933 25936 25939 25942 25945 25948 25951 25954 25957 25960 25963 25966 25969 25972 25975 25978 25981 25984 25987 25990 25993 25996 25999 26002 26005 26008 26011 26014 26017 26020 26023 26025 26028 26031 26034 26037 26040 26043 26046 26049 26052 26055 26058 26061 26064 26066 26069 26072 26075 26077 26080 26083 26086 26089 26091 26094 26097 26100 26103 26106 26109 26112 26115 26118 26121 26124 26127 26130 26133 26136 26139 26142 26145 26148 26151 26154 26157 26160 26163 26166 26169 26172 26175 26178 26181 26184 26187 26190 26193 26196 26199 26201 26204 26207 26210 26212 26215 26218 26221 26223 26226 26229 26232 26234 26237 26240 26242 26244 26247 26250 26253 26256 26259 26262 26264 26267 26269 26272 26275 26277 26280 26283 26286 26289 26292 26295 26298 26300 26303 26306 26309 26312 26315 26318 26321 26324 26327 26329 26332 26335 26337 26340 26343 26346 26349 26352 26355 26358 26361 26364 26367 26370 26373 26376 26379 26382 26385 26388 26391 26393 26396 26399 26402 26405 26408 26411 26414 26417 26419 26422 26425 26428 26431 26434 26437 26440 26443 26446 26449 26452 26455 26458 26461 26464 26467 26470 26473 26476 26479 26482 26485 26487 26490 26493 26496 26499 26502 26505 26507 26510 26513 26516 26519 26522 26525 26527 26530 26533 26536 26539 26542 26545 26548 26551 26554 26557 26560 26563 26566 26569 26572 26575 26578 26581 26584 26587 26590 26593 26596 26599 26602 26605 26608 26611 26614 26617 26620 26623 26626 26628 26630 26633 26636 26638 26640 26643 26645 26648 26650 26653 26655 26658 26661 26664 26667 26670 26673 26676 26679 26682 26685 26687 26690 26693 26696 26699 26701 26704 26707 26709 26711 26714 26717 26719 26722 26725 26728 26731 26734 26737 26740 26743 26746 26749 26752 26755 26758 26761 26764 26766 26769 26772 26775 26778 26780 26783 26786 26789 26792 26795 26797 26800 26803 26806 26809 26812 26814 26817 26820 26823 26826 26829 26831 26834 26836 26838 26841 26844 26847 26850 26853 26856 26859 26862 26865 26868 26871 26873 26876 26878 26881 26884 26887 26890 26892 26895 26898 26901 26903 26905 26908 26910 26913 26916 26919 26921 26924 26927 26930 26933 26936 26939 26942 26945 26948 26951 26954 26957 26960 26963 26966 26969 26972 26975 26978 26981 26984 26987 26990 26993 26996 26999 27002 27005 27008 27010 27013 27015 27018 27021 27023 27026 27029 27031 27034 27037 27039 27042 27045 27047 27049 27052 27055 27058 27060 27063 27065 27068 27071 27074 27076 27079 27082 27085 27087 27090 27093 27096 27099 27102 27105 27107 27110 27113 27116 27119 27122 27125 27128 27131 27134 27137 27140 27143 27146 27149 27152 27155 27158 27161 27164 27166 27169 27172 27175 27177 27180 27183 27185 27188 27191 27194 27197 27200 27203 27206 27209 27212 27214 27217 27219 27222 27225 27228 27231 27234 27237 27240 27243 27246 27249 27252 27254 27257 27260 27263 27266 27269 27272 27274 27277 27280 27283 27286 27289 27292 27295 27298 27301 27304 27306 27308 27311 27314 27317 27320 27323 27326 27329 27332 27335 27338 27341 27343 27345 27348 27351 27353 27356 27359 27361 27364 27367 27370 27373 27376 27379 27382 27385 27388 27391 27394 27397 27399 27402 27405 27408 27411 27414 27417 27420 27423 27426 27429 27432 27435 27438 27441 27444 27447 27450 27453 27456 27459 27462 27465 27468 27471 27474 27477 27480 27483 27486 27489 27492 27495 27497 27500 27503 27506 27509 27511 27514 27516 27519 27522 27525 27528 27531 27534 27537 27540 27543 27545 27548 27551 27554 27556 27559 27562 27565 27567 27570 27573 27576 27578 27581 27584 27587 27590 27593 27596 27599 27602 27605 27608 27611 27614 27617 27620 27623 27626 27629 27631 27633 27636 27639 27642 27645 27647 27650 27652 27654 27657 27660 27663 27666 27669 27672 27675 27677 27680 27683 27685 27688 27691 27694 27697 27700 27703 27706 27709 27712 27715 27717 27720 27723 27726 27728 27731 27734 27737 27740 27743 27746 27749 27752 27755 27758 27761 27764 27767 27769 27772 27775 27778 27781 27784 27787 27790 27793 27796 27799 27801 27803 27806 27809 27812 27815 27818 27821 27824 27826 27829 27832 27835 27838 27841 27843 27846 27849 27852 27855 27858 27861 27864 27867 27870 27873 27876 27879 27882 27885 27888 27891 27894 27896 27899 27902 27905 27908 27911 27914 27917 27920 27923 27926 27929 27932 27935 27938 27941 27944 27947 27950 27953 27956 27959 27962 27965 27968 27971 27974 27977 27980 27983 27986 27989 27992 27995 27998 28001 28004 28007 28010 28013 28016 28019 28022 28025 28028 28031 28034 28037 28040 28042 28045 28048 28051 28054 28056 28059 28062 28065 28067 28070 28073 28075 28078 28081 28084 28087 28090 28093 28096 28099 28101 28104 28107 28110 28113 28116 28119 28121 28124 28127 28130 28133 28136 28139 28142 28145 28148 28151 28154 28157 28160 28163 28165 28168 28170 28173 28176 28179 28181 28184 28187 28189 28192 28195 28198 28200 28203 28205 28208 28211 28213 28215 28218 28221 28224 28226 28229 28232 28234 28237 28240 28243 28246 28249 28252 28255 28258 28261 28264 28267 28270 28273 28276 28278 28280 28283 28286 28289 28291 28294 28297 28300 28303 28306 28309 28312 28315 28318 28321 28324 28327 28330 28333 28336 28339 28342 28345 28348 28350 28353 28356 28359 28362 28365 28368 28371 28374 28377 28380 28383 28386 28389 28392 28395 28398 28401 28404 28407 28410 28413 28416 28419 28422 28425 28428 28431 28434 28436 28439 28442 28445 28448 28451 28454 28457 28460 28463 28465 28468 28471 28474 28476 28479 28482 28484 28487 28489 28492 28495 28497 28500 28503 28505 28507 28510 28512 28515 28518 28521 28523 28526 28529 28532 28535 28538 28541 28544 28547 28550 28553 28556 28559 28562 28565 28568 28571 28574 28577 28580 28583 28586 28589 28591 28594 28597 28600 28603 28605 28608 28611 28614 28617 28619 28622 28625 28628 28631 28634 28636 28639 28642 28645 28648 28651 28654 28657 28660 28663 28666 28668 28671 28674 28677 28680 28683 28685 28688 28691 28694 28697 28700 28702 28705 28708 28711 28714 28717 28720 28723 28726 28728 28731 28734 28737 28740 28743 28746 28749 28751 28753 28756 28759 28762 28765 28768 28771 28774 28777 28780 28783 28786 28789 28792 28795 28798 28801 28804 28807 28810 28813 28816 28819 28822 28825 28828 28830 28832 28835 28838 28840 28843 28846 28848 28850 28853 28855 28858 28861 28864 28867 28870 28873 28876 28879 28882 28885 28887 28890 28893 28896 28899 28901 28904 28906 28909 28912 28915 28918 28920 28923 28926 28929 28931 28934 28937 28940 28943 28946 28948 28951 28953 28956 28958 28961 28964 28967 28969 28972 28975 28978 28981 28984 28986 28989 28992 28995 28998 29001 29003 29006 29008 29011 29014 29017 29020 29023 29026 29028 29031 29034 29036 29039 29042 29045 29048 29051 29054 29057 29060 29063 29066 29069 29072 29075 29078 29081 29083 29086 29089 29092 29095 29098 29101 29104 29107 29110 29113 29116 29119 29122 29125 29128 29131 29134 29137 29140 29143 29146 29149 29152 29155 29158 29161 29164 29167 29169 29172 29175 29178 29181 29184 29186 29189 29192 29195 29198 29200 29203 29206 29209 29212 29215 29217 29220 29223 29226 29229 29232 29235 29238 29241 29244 29247 29250 29253 29256 29259 29262 29265 29268 29271 29274 29277 29280 29283 29286 29289 29292 29295 29298 29301 29303 29306 29309 
</DataArray>
<DataArray type="UInt32" Name="types" format="ascii">
3 5 5 5 5 5 5 5 5 3 5 5 3 5 5 5 5 5 5 5 3 3 5 5 5 5 5 5 5 5 5 5 5 5 5 5 5 5 3 5 5 5 5 3 5 5 5 3 5 5 5 5 5 5 5 3 5 5 5 3 5 3 5 5 3 5 5 5 5 3 5 5 3 3 5 5 3 5 5 5 5 3 3 5 5 5 5 3 3 5 5 5 5 5 3 3 5 5 5 5 3 3 5 5 3 5 3 5 3 5 3 5 5 3 5 3 5 5 5 5 5 3 5 3 3 3 5 3 3 5 5 5 3 5 3 5 5 5 5 5 5 5 5 3 5 3 5 5 5 5 3 5 5 3 5 5 5 5 5 5 5 5 3 5 5 5 5 5 5 5 5 5 5 5 5 5 5 5 5 5 5 5 5 3 5 5 5 5 5 5 5 5 5 5 5 5 5 5 5 5 5 5 5 5 5 5 5 5 5 5 3 5 5 5 5 5 5 5 5 5 5 5 5 3 5 5 5 5 5 3 5 5 5 5 5 5 5 5 5 5 3 5 5 5 5 5 3 5 5 5 3 5 5 5 5 5 3 5 5 3 5 3 5 5 5 3 3 5 3 5 5 5 3 5 5 5 5 5 5 3 5 5 3 5 3 5 5 5 5 5 3 5 5 3 3 5 5 5 3 5 5 5 3 5 5 3 5 5 5 5 5 5 5 5 5 3 5 5 5 5 5 5 5 5 5 5 5 5 5 5 5 5 5 5 5 5 5 5 3 5 3 5 5 5 5 5 5 5 3 5 5 5 5 5 5 3 5 5 3 5 5 5 5 5 5 3 3 5 5 5 5 3 3 5 5 5 5 3 5 5 5 5 3 5 3 5 3 3 5 5 5 5 5 5 3 5 5 3 5 3 5 5 5 5 5 5 5 5 5 3 5 5 5 5 5 5 5 5 3 5 5 5 3 5 5 5 5 5 3 5 5 5 5 5 5 5 3 5 5 3 5 3 3 5 5 5 5 5 5 5 5 5 5 5 5 5 5 5 5 5 5 5 5 5 5 5 5 5 5 5 5 5 5 5 5 5 5 5 5 5 5 5 5 5 5 5 5 5 5 5 5 3 3 5 5 5 3 5 5 5 5 5 3 5 5 5 5 5 5 5 5 5 3 5 5 5 3 5 3 5 5 5 5 5 3 5 5 5 5 5 5 5 5 3 5 5 5 5 5 5 5 5 5 5 5 5 5 5 5 5 5 5 5 5 5 5 5 5 5 5 5 5 5 5 5 5 5 5 5 5 5 5 5 3 5 5 3 5 5 3 5 5 5 5 5 5 5 5 5 5 5 5 5 3 5 5 5 5 5 5 5 5 5 3 5 5 5 5 5 5 5 5 3 5 5 3 5 5 3 5 5 5 5 5 5 3 3 5 5 5 5 5 5 3 5 5 5 5 5 5 5 5 5 5 5 5 5 3 5 5 5 5 5 5 5 5 5 5 5 5 5 5 5 5 5 5 5 5 5 5 5 5 5 5 5 5 5 5 5 5 5 5 5 5 5 5 5 5 5 5 5 5 5 5 5 5 5 5 3 5 3 5 5 5 3 5 5 3 3 5 5 3 5 5 5 5 5 3 5 5 5 5 5 5 5 5 3 3 3 5 5 5 5 5 5 5 3 5 5 5 5 5 5 5 5 5 5 5 5 5 5 3 5 5 5 5 5 5 5 3 5 5 5 5 5 5 3 5 5 5 5 3 5 5 5 3 5 5 5 5 5 5 3 5 5 5 5 5 5 5 5 5 5 5 5 3 5 5 5 5 5 5 5 5 3 5 3 5 3 5 3 5 5 5 5 3 3 5 5 5 3 3 5 5 3 5 5 5 5 5 5 5 5 5 5 5 5 5 5 5 5 5 3 5 5 5 5 5 5 5 3 3 5 5 5 3 5 5 5 5 5 5 5 5 5 5 3 5 5 5 5 3 5 3 5 5 5 5 5 5 5 3 5 5 5 3 5 5 5 5 5 5 5 5 5 5 5 5 5 3 5 5 5 5 5 3 5 5 5 5 5 5 5 5 5 5 5 5 5 5 5 3 5 5 5 5 5 3 5 3 5 5 5 5 5 5 5 5 5 3 5 5 5 5 5 5 5 5 5 5 5 5 5 5 5 5 5 5 5 3 5 3 5 5 5 5 5 5 5 5 5 5 5 5 5 5 5 5 5 5 5 5 3 5 5 5 5 5 5 5 5 5 5 3 5 5 5 5 5 5 5 5 5 3 5 5 3 5 5 5 5 3 5 5 5 5 5 5 5 5 5 5 5 5 5 5 5 3 5 5 5 3 5 5 3 5 5 5 5 5 5 5 5 5 5 5 5 5 5 5 5 5 5 5 5 5 5 5 5 5 3 5 5 5 5 5 5 5 5 5 5 5 5 5 5 5 5 5 5 5 5 5 5 3 5 5 5 5 3 5 5 3 5 3 5 5 5 5 5 3 5 5 5 5 5 5 5 3 5 5 5 5 5 5 5 3 5 5 5 3 5 5 5 5 5 5 5 5 5 5 5 5 5 5 5 5 5 3 5 5 5 3 5 3 5 5 5 5 3 3 5 5 5 5 5 5 5 5 5 5 5 5 5 5 5 5 5 5 5 3 5 5 5 3 5 5 3 5 5 3 5 3 5 5 3 5 5 5 5 5 5 5 5 5 5 5 5 5 5 5 5 3 3 5 5 5 5 5 3 5 5 5 5 5 5 5 5 5 5 5 5 5 5 5 5 3 5 5 5 5 5 3 5 5 5 5 5 5 5 5 5 5 5 5 5 5 5 5 5 3 5 5 5 5 3 5 5 5 5 3 5 5 3 5 5 3 5 5 5 5 5 5 5 5 3 5 5 5 5 5 5 3 5 5 5 3 5 3 5 5 5 5 3 5 3 5 5 3 5 5 5 5 5 3 5 5 5 5 5 3 5 5 5 3 3 5 5 5 3 5 5 3 5 5 5 5 5 5 5 5 3 5 5 5 5 5 5 5 5 5 5 3 5 5 5 3 5 5 5 3 5 5 5 5 5 3 5 5 5 5 5 5 5 5 5 5 5 5 5 5 5 5 5 5 5 5 5 5 5 5 5 5 5 5 5 5 5 5 5 5 5 5 3 5 5 5 3 5 5 5 5 5 5 5 5 3 5 3 5 5 5 5 5 5 5 5 5 3 5 5 3 5 5 5 3 5 5 5 5 3 5 5 5 5 5 5 5 5 5 5 3 5 5 5 5 5 5 3 5 5 5 5 5 3 5 5 3 5 3 5 5 5 3 5 5 5 3 5 5 5 5 5 3 3 5 5 5 5 5 5 5 5 5 5 5 3 5 3 5 5 3 5 5 5 5 5 5 5 5 5 3 3 5 5 5 5 5 3 5 3 5 5 5 5 5 3 5 5 5 3 5 3 5 3 5 5 5 5 5 5 5 5 5 5 5 5 5 5 5 5 5 5 5 5 5 3 5 5 5 5 5 5 5 5 5 5 5 5 5 5 5 5 5 5 5 5 5 5 5 5 5 3 5 3 5 5 3 5 3 5 5 5 5 3 5 5 5 5 5 5 5 5 5 5 5 3 5 5 5 5 5 5 5 3 3 5 5 5 5 5 5 5 5 5 5 5 5 5 5 5 5 5 5 5 5 5 5 5 3 5 5 5 5 5 5 5 5 5 5 5 5 5 3 5 5 5 3 5 5 5 5 3 5 5 5 5 5 5 5 5 3 5 5 5 5 5 5 5 5 5 5 5 5 5 5 5 5 5 5 5 5 5 5 5 3 5 5 5 5 5 3 5 5 3 5 5 5 5 5 5 5 5 5 5 5 5 5 5 5 5 5 5 5 5 5 5 5 5 5 5 5 5 5 5 5 5 5 5 3 5 5 5 5 5 5 5 5 5 5 5 5 5 3 5 3 5 5 5 5 5 5 5 5 5 5 5 5 3 5 5 5 5 5 3 5 5 5 5 5 5 5 5 5 5 5 3 5 5 5 3 5 5 5 5 3 5 5 5 5 5 5 5 5 5 5 5 5 3 5 5 5 5 3 5 3 3 5 5 3 5 5 5 5 5 5 5 5 5 5 5 5 5 5 5 5 5 5 5 5 5 5 5 3 5 5 5 5 5 5 5 5 5 3 5 5 5 5 5 3 5 5 5 5 5 5 5 5 5 5 5 5 5 5 5 5 5 5 5 5 5 5 5 5 5 5 5 5 5 5 5 5 5 5 5 5 5 5 5 5 5 5 5 5 5 5 5 5 5 5 5 5 5 5 5 5 5 5 5 5 5 5 5 5 5 5 5 5 5 5 5 3 5 5 5 5 5 5 5 5 3 5 5 5 5 5 5 5 5 5 5 5 5 5 5 3 5 5 5 5 5 5 5 5 5 3 5 5 5 5 5 5 5 5 5 5 5 5 5 5 3 5 5 5 3 5 5 5 5 3 3 5 3 5 5 3 5 5 3 5 3 3 5 5 5 5 5 3 5 5 5 5 5 5 3 5 5 3 3 3 5 5 5 5 3 5 3 5 5 5 5 5 5 3 5 5 3 3 5 5 5 5 5 5 3 3 5 5 5 5 5 5 5 5 5 5 3 5 3 5 5 5 5 5 5 3 5 5 5 5 5 5 5 5 5 5 5 5 5 5 5 5 5 5 3 5 5 5 5 5 5 5 5 5 5 5 5 5 5 5 5 5 5 5 5 5 5 5 5 5 5 5 5 5 5 5 5 5 5 5 5 5 5 5 5 5 5 5 3 3 5 5 5 5 5 5 5 5 5 5 5 5 5 5 5 5 5 5 5 5 5 5 5 5 5 5 5 5 5 5 5 5 5 5 5 5 5 5 5 5 5 5 5 5 5 5 5 3 5 5 5 3 5 5 5 5 3 5 3 5 5 5 5 5 5 3 5 5 5 3 3 5 5 5 3 5 3 5 5 5 3 5 5 5 3 5 5 3 5 5 3 5 3 3 5 3 3 5 5 3 5 3 5 5 5 5 3 3 5 5 5 5 3 5 5 3 5 5 3 3 3 5 3 5 5 5 3 5 3 5 5 3 5 5 5 3 5 5 5 5 5 5 5 3 5 5 5 3 5 5 5 5 5 5 5 3 5 5 5 5 5 5 5 5 5 5 5 5 5 5 5 5 3 3 5 5 5 3 5 3 5 3 5 5 5 5 3 5 3 5 5 5 5 5 5 5 3 5 5 3 5 5 5 5 5 5 3 5 5 5 5 5 5 5 5 5 5 5 3 5 5 5 5 5 5 5 5 5 5 5 3 5 5 5 3 5 5 5 5 5 5 5 5 5 5 5 5 5 5 5 5 3 5 5 5 5 3 5 5 3 5 5 5 5 3 5 5 3 5 5 5 5 5 5 5 5 5 5 5 5 5 5 5 5 5 3 5 5 5 5 5 5 5 5 3 5 5 5 5 5 5 5 5 5 5 5 5 5 5 5 5 5 5 5 5 5 5 3 5 5 5 5 3 5 5 5 3 5 3 5 5 5 5 5 5 5 5 3 5 5 5 5 5 5 5 5 5 5 3 5 5 3 5 3 5 5 5 5 5 5 5 5 3 3 5 3 3 5 5 5 3 5 3 5 5 5 5 5 5 5 5 5 5 3 5 5 5 3 5 5 5 5 5 5 3 5 5 5 5 3 5 5 5 5 5 5 5 5 5 5 5 5 5 5 5 5 5 5 5 5 5 5 5 5 5 5 5 3 5 5 5 5 5 3 5 5 5 5 5 5 5 5 5 5 5 5 5 3 5 5 5 5 3 5 5 5 5 5 5 5 5 5 5 5 5 3 5 5 5 5 5 5 5 5 5 5 3 5 5 5 5 5 5 5 5 5 5 5 5 5 5 5 5 5 5 5 5 5 5 5 5 5 5 5 5 5 5 5 5 5 5 5 5 5 5 5 3 3 5 5 5 3 5 5 5 5 5 3 5 5 3 5 5 5 5 5 3 5 5 5 5 3 5 5 5 5 5 5 5 5 5 5 5 5 5 5 5 5 5 5 5 3 5 5 5 5 5 5 5 3 5 5 5 5 5 5 5 5 5 5 5 5 3 5 5 3 5 5 5 5 5 5 5 3 5 5 5 3 3 5 5 5 5 5 5 5 5 5 5 5 5 5 5 5 5 5 5 5 5 5 5 5 5 5 5 5 5 3 5 5 5 5 5 5 5 3 5 5 5 5 5 5 5 5 5 3 5 5 3 5 5 5 5 5 5 5 5 5 5 5 5 5 5 5 3 5 5 5 5 5 5 5 5 5 5 5 5 5 5 5 5 5 5 5 5 5 5 3 5 5 5 5 5 5 5 5 5 5 5 5 5 5 5 5 5 5 5 5 5 5 5 3 5 5 5 3 5 5 3 5 5 5 5 5 5 5 5 5 5 5 5 5 5 5 3 3 5 5 5 5 5 3 5 5 5 5 5 5 5 5 5 5 5 5 5 3 5 5 5 5 5 5 5 5 5 5 5 5 5 5 5 5 5 3 5 5 5 5 5 3 5 5 5 3 3 5 5 5 5 5 5 5 5 5 5 5 5 5 5 5 5 5 5 5 5 5 5 5 5 5 5 5 3 5 5 3 5 5 5 5 5 5 5 5 5 5 5 5 5 5 3 5 5 5 5 5 5 5 5 5 5 5 5 5 5 5 5 5 5 3 5 5 3 5 5 5 5 5 5 5 5 5 5 5 5 5 5 5 5 5 5 5 5 5 5 3 5 5 5 5 3 5 5 5 5 5 5 5 5 5 5 5 5 5 3 5 5 5 5 5 3 3 5 3 5 5 5 5 5 5 3 5 5 5 3 5 5 5 5 5 5 5 3 5 5 5 3 5 5 5 5 5 5 5 5 3 5 5 5 5 5 5 3 5 5 5 5 5 5 5 5 5 5 3 5 3 5 3 3 5 5 5 5 5 5 5 5 5 5 5 5 5 5 5 5 3 5 5 5 5 5 5 5 5 5 5 5 5 5 5 5 5 5 5 5 5 5 5 5 3 5 3 3 5 5 5 5 3 5 5 5 5 5 5 3 5 5 5 3 5 5 5 3 5 5 5 3 5 5 5 5 5 5 5 5 5 3 5 5 5 5 5 5 5 5 5 5 5 5 5 5 5 3 5 5 5 5 5 3 5 3 5 5 3 5 5 3 5 5 5 5 3 5 5 3 5 5 5 5 3 5 5 3 5 5 5 5 5 5 5 5 5 5 5 5 5 5 5 5 3 5 3 5 5 5 5 5 5 5 5 5 3 5 5 5 5 5 5 5 3 5 3 5 3 5 5 5 5 5 5 5 5 5 5 5 5 5 5 5 5 5 5 5 5 5 5 5 5 3 5 5 5 5 5 5 5 3 5 5 5 5 5 5 5 5 5 3 5 5 5 5 5 3 5 5 5 5 5 5 5 5 5 5 5 3 5 5 5 5 5 5 5 5 5 5 5 5 5 5 5 5 5 5 5 5 5 5 5 5 5 3 5 5 5 5 5 5 5 5 5 3 5 5 5 5 5 3 5 5 5 3 5 3 5 5 5 5 5 5 5 5 5 5 5 5 5 5 3 5 5 5 5 3 5 5 5 3 5 5 5 3 5 5 5 5 5 5 5 5 5 5 5 5 5 5 5 5 5 5 5 5 5 5 5 5 5 3 5 3 5 5 3 5 5 3 5 5 5 5 5 5 3 5 5 5 5 5 5 5 5 5 5 5 3 3 5 5 5 5 5 5 5 5 5 5 3 3 5 3 5 5 5 3 5 5 5 5 5 5 5 5 5 5 3 5 3 5 3 5 5 5 5 5 5 3 5 5 5 5 5 5 5 5 5 5 5 5 3 5 5 5 5 3 5 5 5 5 5 3 3 5 5 5 5 5 5 5 5 5 5 5 5 5 5 5 5 5 5 5 5 5 5 5 5 5 3 5 5 5 3 5 5 5 5 5 5 5 5 5 3 5 5 5 5 5 5 5 5 5 5 5 5 5 5 5 5 5 5 5 5 5 5 5 5 5 5 5 3 5 5 5 5 5 5 5 5 5 5 5 5 5 5 5 5 5 5 5 5 5 5 5 5 5 5 5 5 5 5 5 5 5 3 5 5 5 3 5 5 5 5 3 5 5 5 5 3 5 5 3 5 5 5 5 5 5 5 3 5 5 5 5 5 5 5 5 5 5 5 5 5 3 3 5 5 5 3 5 5 3 3 5 5 5 5 5 5 3 5 5 5 5 5 5 3 5 5 3 5 5 5 3 5 5 5 3 5 5 5 5 5 3 5 3 3 5 5 3 5 5 5 3 5 5 5 5 5 5 5 5 3 5 5 5 5 5 5 5 5 5 5 5 5 5 5 5 5 5 5 5 5 5 5 5 5 5 5 5 5 5 5 5 5 3 5 5 5 5 5 5 5 5 5 5 5 5 5 5 5 5 5 5 5 3 5 5 5 5 5 3 5 5 5 5 5 5 5 5 5 5 5 5 5 5 5 5 5 5 5 3 3 5 5 5 5 3 5 5 5 5 5 5 3 5 5 5 5 5 5 5 5 5 3 5 5 5 5 5 5 5 5 5 5 5 5 5 3 5 5 5 5 5 5 3 5 5 5 5 5 5 3 5 5 5 5 5 3 5 5 5 5 5 5 3 5 3 5 5 5 3 5 5 5 5 5 5 5 5 5 5 5 5 5 5 5 5 5 5 5 5 5 5 5 5 5 5 5 5 5 5 5 5 5 5 5 5 3 5 5 5 3 5 3 5 3 5 5 5 5 5 3 5 5 5 3 5 5 5 3 5 5 5 5 5 5 5 5 5 3 5 5 5 5 5 5 3 5 5 3 3 5 5 3 5 5 3 5 5 3 5 5 5 5 5 5 5 5 5 5 5 5 5 5 5 5 5 5 5 5 5 5 5 5 5 3 5 5 5 5 5 5 5 5 5 5 5 5 5 5 5 3 5 5 3 5 5 5 3 5 5 3 3 5 5 5 5 5 5 5 3 5 5 5 5 5 5 5 5 5 5 5 5 5 3 5 5 3 5 5 5 5 5 5 5 5 5 5 5 5 5 5 5 5 5 5 5 5 5 5 5 5 5 5 5 5 5 3 5 5 5 5 5 5 5 3 5 5 5 5 5 3 5 5 5 5 3 3 5 3 5 5 5 3 5 5 3 5 5 5 5 3 5 5 5 5 5 5 5 5 5 5 5 3 3 5 5 5 5 5 5 5 5 5 3 5 5 3 5 5 5 5 5 5 5 5 5 3 5 3 5 3 5 3 5 3 3 5 3 5 3 5 5 5 5 5 3 5 5 3 5 5 3 5 3 3 5 3 5 5 5 5 5 5 5 5 5 5 5 3 5 5 5 3 5 5 3 5 5 5 5 5 5 5 5 5 5 5 5 5 5 5 5 5 5 5 5 5 5 5 5 5 5 5 5 5 5 5 5 5 5 5 5 3 5 5 5 5 5 5 3 3 5 5 5 5 5 5 5 5 5 5 3 5 5 5 3 5 5 5 5 5 5 5 5 3 5 5 5 5 5 5 5 5 5 5 3 5 5 5 5 5 5 3 5 5 5 5 5 5 3 5 5 5 3 5 5 5 5 5 5 5 5 5 5 3 5 5 5 5 5 5 5 3 5 3 5 5 5 5 5 5 5 5 5 5 5 5 5 5 5 5 5 5 5 5 5 5 5 3 5 5 5 5 5 5 5 5 5 5 5 5 5 5 5 5 5 5 5 5 5 5 5 5 5 5 5 5 5 5 5 5 5 5 5 5 5 5 5 5 5 5 5 5 5 5 5 5 5 5 5 5 5 5 5 5 5 5 5 5 5 5 5 5 5 3 5 5 5 5 5 5 5 3 5 5 5 5 5 5 5 5 5 5 5 5 5 5 5 5 5 5 5 5 5 5 3 5 5 5 5 5 5 5 5 5 5 5 5 5 5 5 5 5 5 5 5 5 5 5 5 3 5 5 5 3 5 5 5 5 5 5 5 5 5 5 5 5 5 5 5 5 5 5 5 5 5 5 5 5 5 5 5 5 5 5 5 5 5 3 5 3 5 5 5 5 5 3 5 3 5 5 5 5 5 5 5 5 5 5 5 5 5 3 5 5 5 5 5 5 5 5 5 5 3 5 5 5 5 5 5 5 5 3 5 5 5 3 3 5 5 3 5 5 5 5 5 5 3 5 5 3 5 5 5 3 5 5 5 5 5 3 5 5 3 3 3 5 5 5 5 5 5 5 5 5 5 5 5 5 5 3 5 5 5 3 5 5 5 5 5 5 3 5 5 3 5 5 5 5 5 5 5 5 5 5 5 5 5 5 5 5 5 3 5 5 5 5 5 5 5 5 5 5 5 5 5 5 5 5 5 3 5 5 5 5 5 5 3 5 5 5 5 3 5 5 5 5 5 3 5 5 5 5 5 5 5 5 3 5 5 5 5 3 5 5 5 5 5 5 5 5 5 3 5 5 5 5 5 5 5 5 5 5 5 5 5 3 5 5 5 3 5 5 3 5 5 5 5 5 3 5 5 5 5 5 5 3 5 3 5 5 5 3 5 5 5 3 3 5 3 5 3 5 3 5 3 5 5 5 5 5 3 5 5 5 5 3 5 5 5 5 5 5 5 5 5 5 3 5 5 5 5 5 5 5 5 5 5 5 5 5 5 5 5 5 5 5 5 5 5 5 5 5 5 5 5 5 5 5 5 5 5 3 5 5 5 5 5 5 5 3 5 5 3 5 5 5 5 5 5 5 5 5 5 3 3 5 5 5 5 5 5 5 5 5 5 5 5 3 5 3 5 3 5 5 5 5 3 3 3 5 5 3 5 5 3 5 3 5 5 5 3 3 5 5 3 3 5 5 5 5 5 3 5 5 5 5 5 5 5 5 5 3 5 5 5 5 5 5 3 5 5 3 5 5 5 5 5 5 5 5 5 3 5 5 3 3 5 5 5 5 5 5 5 5 5 3 5 5 5 5 5 5 3 5 5 3 5 5 3 5 3 5 5 5 5 5 5 5 5 5 5 5 5 5 5 5 3 5 5 5 3 5 5 5 5 5 5 5 5 5 5 5 5 5 5 3 5 5 5 5 3 5 5 5 5 5 5 5 3 5 3 5 5 3 5 5 5 3 5 5 5 5 5 5 3 5 3 5 5 5 3 5 3 5 5 5 5 5 3 5 3 5 5 5 5 5 5 5 5 5 5 5 5 5 5 3 5 5 5 5 3 3 5 5 3 3 3 5 5 5 3 5 5 5 5 5 5 5 5 3 5 5 5 5 3 5 5 5 5 5 5 5 3 5 3 5 5 5 3 5 5 5 5 5 5 3 5 5 3 5 5 5 3 5 5 5 5 5 5 5 3 5 3 5 3 5 5 5 5 5 5 5 5 5 5 5 5 5 5 3 5 3 5 3 5 5 3 5 5 5 3 5 3 5 5 5 5 3 5 3 3 5 5 5 5 5 5 5 3 5 5 5 5 5 5 5 5 5 5 5 5 5 5 5 5 3 3 3 3 5 5 3 5 5 5 3 5 5 5 5 3 5 5 3 3 5 3 5 5 5 5 5 5 5 5 5 5 3 3 5 5 5 5 3 3 5 5 3 5 5 5 5 3 5 5 5 5 5 5 3 5 3 5 5 5 5 3 5 5 5 5 5 5 5 5 5 5 3 5 5 5 5 5 5 3 3 3 5 5 5 5 5 5 5 5 5 3 5 5 5 3 5 5 3 5 5 5 3 5 5 5 5 5 3 5 3 5 3 5 5 5 5 3 5 3 5 5 5 5 5 5 5 5 5 3 5 5 5 5 5 5 5 5 5 5 5 5 5 5 5 5 3 3 5 5 5 5 5 5 5 5 5 5 5 5 5 5 5 3 3 3 5 5 5 5 5 3 3 5 5 5 3 3 5 5 5 5 3 5 5 5 3 3 5 5 3 5 5 5 5 5 5 5 5 5 5 5 5 5 5 5 5 5 5 5 5 5 5 5 5 5 5 5 5 5 5 5 3 5 5 5 5 5 5 5 3 5 3 5 5 5 5 5 3 5 3 5 3 5 5 5 5 3 5 5 5 5 5 5 5 5 5 5 5 5 5 5 5 5 5 5 5 5 5 5 5 5 5 5 5 5 5 5 5 5 5 5 3 5 5 5 5 5 5 5 3 5 5 5 5 5 5 5 5 5 5 5 5 5 5 3 3 5 5 5 5 5 3 5 5 5 5 5 5 5 5 5 5 5 5 3 5 5 5 5 3 5 5 3 5 5 3 5 3 5 5 5 5 5 5 5 3 5 5 5 5 3 5 5 5 5 5 5 3 5 5 5 5 5 5 5 5 5 3 5 5 5 5 5 5 5 5 3 5 3 5 5 3 5 5 3 5 5 5 5 5 5 5 5 5 3 5 5 5 3 5 5 5 3 5 5 5 5 5 5 5 5 5 5 5 5 5 5 5 5 5 5 5 5 3 5 5 5 5 5 5 3 5 5 5 3 5 5 3 5 5 3 5 5 3 5 3 5 5 3 3 5 5 5 5 5 5 5 5 5 5 5 5 5 5 5 5 5 5 5 5 5 3 5 5 5 5 5 3 3 3 5 3 5 3 5 5 5 3 5 5 3 5 3 5 5 5 3 5 3 5 3 5 5 5 5 5 3 3 5 5 5 5 5 5 5 5 5 3 5 5 5 3 5 3 3 5 5 5 5 5 5 5 5 5 5 5 5 5 5 5 5 5 5 3 5 5 5 5 5 5 5 5 3 5 5 5 3 5 5 5 5 5 5 5 5 5 5 5 3 5 5 5 5 5 5 3 5 3 5 5 3 5 5 5 5 5 5 5 5 5 5 5 5 5 5 5 5 3 5 5 5 3 3 5 5 3 5 3 5 5 5 5 3 3 5 5 5 5 5 5 3 5 5 5 3 3 5 5 5 5 5 5 5 5 5 3 5 5 5 5 5 3 5 5 3 5 3 5 5 5 5 5 5 5 5 5 5 5 5 5 5 5 3 5 5 5 5 5 3 5 5 5 5 5 5 5 5 5 3 5 5 5 5 3 5 5 5 5 5 5 5 5 5 3 5 5 5 5 5 5 5 3 5 5 3 3 5 5 5 3 5 5 3 5 5 5 5 5 5 3 5 5 3 5 3 5 5 5 5 5 5 5 3 5 3 5 5 5 3 5 5 5 5 5 3 5 5 3 5 5 3 5 3 5 5 5 5 5 5 5 5 5 5 5 5 5 5 5 5 5 5 5 5 5 3 5 5 5 5 5 3 5 3 5 5 5 5 5 5 5 3 5 5 5 5 5 5 5 5 5 5 5 3 5 5 5 5 5 5 5 5 5 5 5 5 5 5 5 3 5 3 5 3 3 3 5 5 3 3 5 5 3 5 5 5 5 3 5 5 5 3 5 3 5 3 5 5 5 5 3 5 5 5 5 5 5 5 5 3 5 3 5 5 5 5 5 5 5 5 5 5 5 5 5 5 5 5 5 5 5 5 5 5 5 3 5 5 3 5 5 5 5 5 5 5 5 5 5 3 3 5 3 5 5 5 3 3 5 3 5 5 5 5 5 5 5 5 5 5 5 5 3 5 5 5 5 5 5 5 5 3 5 5 5 5 5 5 5 5 5 5 5 5 5 3 3 5 5 3 5 5 5 5 5 3 5 5 5 5 5 5 5 5 3 5 5 5 5 3 5 5 5 5 5 5 5 5 5 3 3 5 5 5 5 5 5 3 5 3 5 3 5 5 5 3 5 5 5 3 5 5 3 5 5 5 5 5 5 5 5 5 5 5 3 5 5 5 5 3 5 5 5 5 5 5 5 5 5 5 5 5 5 5 5 5 5 5 5 5 3 5 5 5 5 5 3 5 5 5 5 5 3 5 5 5 5 3 5 5 5 5 5 5 5 5 5 5 5 5 5 5 5 5 5 5 5 5 5 5 5 5 5 5 3 5 5 5 5 5 5 5 5 5 5 5 5 5 5 5 5 5 5 5 5 5 5 5 5 5 5 5 5 5 5 5 5 3 5 5 5 5 5 5 5 5 5 5 3 3 5 5 5 5 5 5 5 5 5 5 5 5 5 3 5 5 5 5 5 5 5 5 5 5 5 5 5 5 5 5 5 5 5 5 5 5 5 5 5 5 5 5 5 5 5 5 5 5 5 5 5 5 5 5 5 5 5 5 5 5 5 5 3 5 5 5 5 5 5 5 5 5 5 5 5 5 5 5 5 5 5 5 5 5 5 5 5 5 5 5 5 5 5 3 5 5 5 3 5 5 5 5 5 5 5 5 5 3 5 5 3 5 5 5 5 5 3 5 5 5 5 5 3 5 5 5 5 5 5 5 5 5 5 5 5 5 5 5 5 5 5 5 5 3 5 5 5 5 5 5 5 5 5 5 5 3 5 5 5 5 5 5 5 5 5 5 5 5 5 5 5 5 5 5 3 5 5 5 5 5 5 5 5 5 5 5 5 5 5 5 5 5 3 5 5 5 5 5 5 5 5 5 5 5 5 5 3 5 5 5 5 5 5 5 5 5 5 5 5 5 3 5 3 5 5 5 5 5 5 5 5 5 5 5 5 5 5 5 5 5 5 5 5 5 5 5 5 5 5 3 5 5 5 5 5 5 3 5 5 5 5 3 5 5 5 5 3 5 5 5 5 5 5 5 5 5 5 3 5 5 5 5 3 5 5 5 5 5 5 5 5 3 5 5 5 3 5 5 5 5 5 5 5 5 5 5 5 3 3 5 5 3 5 5 5 5 3 3 5 5 5 5 5 5 5 5 5 3 5 5 5 5 5 5 5 5 5 5 5 5 5 5 5 5 5 5 5 5 5 5 5 3 5 3 5 5 5 5 5 5 5 5 5 5 3 5 5 5 5 3 5 5 3 5 5 3 5 5 5 3 5 5 3 5 5 5 5 5 5 5 5 5 5 5 5 5 5 5 5 5 5 5 5 5 5 5 5 5 5 5 5 5 5 5 5 5 5 5 5 5 5 5 5 5 5 5 5 5 5 5 5 5 5 5 5 5 5 5 5 5 5 5 5 5 5 5 5 5 5 3 3 5 5 5 5 5 5 5 5 5 3 5 5 5 5 5 3 5 5 5 3 5 5 5 5 5 5 5 5 5 5 5 5 5 5 5 5 5 5 5 5 3 5 5 5 5 5 5 5 5 5 5 5 5 5 5 5 5 5 5 3 5 5 5 5 3 5 5 3 5 5 5 5 5 5 5 5 5 5 5 5 5 5 5 5 5 5 5 5 5 5 5 5 5 5 5 5 5 5 5 5 5 5 5 5 5 5 5 5 3 5 5 5 5 5 5 5 5 3 5 5 5 5 5 5 5 5 5 5 5 5 5 5 5 5 5 5 5 5 5 5 5 5 5 5 5 5 3 3 5 5 5 5 5 5 5 5 3 3 5 5 5 3 5 5 5 5 5 5 5 5 5 5 3 5 5 5 5 5 5 5 5 5 5 5 5 5 5 5 5 5 5 5 5 5 5 5 5 5 5 5 5 5 5 5 5 5 5 3 5 5 5 5 3 5 5 5 5 5 5 5 5 5 5 5 5 5 5 5 5 3 5 3 5 5 5 5 3 5 5 5 5 5 5 5 5 5 5 5 5 5 5 5 5 5 5 5 5 5 5 5 5 5 5 5 5 5 5 3 5 5 5 5 5 5 5 5 5 5 5 3 5 5 3 5 3 5 5 5 5 5 5 3 5 5 5 5 5 5 5 5 5 5 5 5 3 5 3 5 5 3 5 5 5 5 5 5 5 5 5 5 5 5 5 5 5 5 5 5 5 5 5 5 5 5 5 5 5 5 5 5 5 5 5 5 5 5 5 5 5 5 5 5 5 5 5 5 5 5 5 5 5 3 5 5 5 5 5 5 5 5 5 5 5 5 5 5 5 5 5 5 5 5 5 5 5 5 5 5 5 5 5 5 5 5 5 5 5 5 5 5 5 3 5 5 5 5 5 3 5 5 5 5 5 5 5 5 5 5 5 5 5 5 5 5 5 5 5 5 5 5 5 5 5 5 5 5 5 5 5 5 5 5 5 5 5 5 5 5 5 5 5 5 5 5 5 5 5 5 5 5 5 5 3 5 3 5 5 5 5 5 5 5 5 3 5 5 5 5 5 5 5 5 5 5 5 5 5 5 5 5 5 5 5 3 5 5 5 5 5 5 5 5 3 5 5 5 5 5 5 5 5 5 5 5 5 5 5 5 5 5 5 5 5 5 5 5 5 5 3 5 5 5 5 5 5 5 5 5 5 5 5 5 3 5 5 5 5 5 5 5 5 5 5 5 5 5 5 5 5 5 5 3 5 5 5 5 5 5 5 5 5 5 5 5 5 5 5 5 5 5 5 5 5 5 5 5 5 5 3 5 5 5 5 3 5 5 5 5 5 5 5 5 5 5 5 5 5 5 5 5 5 5 3 5 5 3 5 5 5 5 5 5 5 5 5 3 5 5 5 5 3 5 5 3 5 5 5 5 5 5 5 5 5 5 5 5 5 5 5 5 5 5 5 5 5 5 5 5 5 5 5 5 5 3 5 5 3 5 5 5 5 5 5 3 5 5 5 3 5 5 5 5 5 5 5 5 5 5 5 5 5 5 5 5 5 5 5 5 5 5 5 5 5 3 5 5 5 5 5 3 5 5 5 5 5 5 5 5 5 5 5 5 5 3 5 5 5 5 5 5 5 5 5 5 5 5 3 5 5 5 5 5 3 5 5 3 5 5 5 5 5 3 5 5 3 5 5 5 5 5 5 5 5 5 5 5 3 5 5 5 5 5 5 5 5 5 5 5 5 5 5 5 5 5 5 5 5 5 5 5 5 5 5 5 5 5 3 5 5 3 5 5 3 5 5 5 3 5 5 5 3 5 5 5 5 5 5 5 5 5 5 5 5 5 5 5 5 3 5 5 5 5 5 5 5 5 5 5 5 5 5 5 3 5 5 5 5 5 5 5 5 5 5 5 5 5 5 5 5 5 5 5 5 5 5 5 5 5 5 5 5 5 5 5 5 5 5 5 3 5 5 5 5 5 5 5 5 5 5 5 5 5 5 5 5 5 3 5 5 5 5 3 5 5 5 5 5 5 5 5 5 5 5 5 3 5 5 5 5 5 5 5 3 5 5 5 5 5 5 5 5 5 5 5 3 5 5 5 5 5 5 5 5 5 5 5 5 5 5 5 5 5 3 5 5 5 5 3 5 5 5 5 5 3 5 5 3 5 3 3 5 5 5 5 5 5 5 5 5 5 5 5 5 5 5 5 3 3 5 5 5 5 5 5 5 5 5 3 5 5 5 5 5 3 5 5 5 5 5 5 3 5 5 3 5 3 5 5 3 5 3 5 5 5 3 5 5 5 5 5 5 3 3 5 3 5 5 3 5 5 5 5 5 5 5 5 5 5 5 5 5 3 5 5 5 5 5 5 5 5 5 5 3 3 5 5 3 5 5 5 3 5 3 5 5 5 5 3 5 5 3 5 5 5 5 5 5 5 3 5 5 5 5 5 5 5 5 5 5 5 3 5 5 5 5 5 3 3 5 5 5 5 5 5 3 5 5 5 5 3 5 3 5 5 5 5 5 5 5 5 5 5 5 5 5 3 5 5 5 5 3 5 5 5 5 5 5 5 5 5 5 5 5 5 5 5 5 5 5 5 5 5 5 3 5 5 5 5 5 5 5 5 5 5 5 5 5 5 5 3 5 5 5 5 5 5 3 5 5 5 5 5 5 5 5 5 5 5 5 5 5 5 5 5 5 5 5 5 5 5 5 5 5 5 5 5 5 5 5 3 5 5 5 5 5 5 5 5 5 5 5 5 5 5 5 5 5 5 5 3 5 5 5 5 5 5 3 3 5 5 5 5 3 3 5 5 5 5 5 5 5 5 5 5 3 5 5 5 5 5 5 5 5 5 5 5 5 5 5 5 5 5 5 5 5 5 5 5 5 3 5 5 5 5 5 5 5 5 5 5 3 5 5 5 5 5 5 5 5 5 5 5 5 5 5 5 5 5 3 5 5 5 5 5 5 5 5 5 3 3 5 3 5 5 5 5 5 5 5 5 5 5 5 5 5 5 5 5 5 5 5 5 5 5 3 5 5 5 3 5 5 5 5 5 5 5 5 5 5 3 5 5 5 5 5 3 5 3 3 5 5 5 5 5 5 5 5 5 5 5 5 5 5 5 5 5 3 5 5 3 5 5 5 3 5 5 3 5 3 5 5 5 5 5 5 5 5 5 5 5 3 5 5 5 3 5 5 5 5 5 5 5 5 5 5 3 5 5 5 5 5 3 5 5 5 5 5 5 5 3 5 5 5 5 5 5 5 5 5 5 5 5 5 5 3 3 5 5 5 5 3 5 5 5 5 3 5 5 5 5 5 3 5 3 5 5 5 5 5 5 5 5 5 5 5 5 5 5 3 3 5 5 5 5 5 5 5 5 5 5 5 5 5 5 5 5 5 5 5 5 5 5 5 5 5 5 5 5 5 3 5 5 5 5 5 5 5 5 5 5 5 5 5 3 3 5 5 3 5 5 5 5 5 5 5 5 5 5 5 5 5 5 5 5 5 5 5 5 5 5 5 5 5 5 5 5 5 5 5 5 5 5 5 5 5 5 5 5 5 5 5 5 5 5 5 5 5 5 5 5 3 5 3 5 5 5 5 5 3 5 5 5 5 5 3 3 5 5 5 5 5 5 5 5 3 5 5 5 5 5 5 5 5 5 5 3 5 5 3 5 5 3 5 5 5 5 5 5 5 3 3 5 3 3 5 5 3 5 5 5 5 5 5 5 5 5 5 3 5 5 5 5 5 5 5 5 5 5 5 5 5 5 5 5 5 5 5 5 5 5 5 5 5 5 5 5 5 5 5 5 5 5 5 5 5 5 5 5 5 5 5 3 5 5 5 5 3 5 5 3 5 5 5 5 5 5 5 5 5 5 5 5 5 5 5 5 5 5 5 3 5 5 5 5 5 5 5 5 5 5 5 5 5 5 5 5 5 5 5 5 5 5 3 5 5 5 5 5 5 5 5 5 5 3 5 5 5 5 5 5 3 5 5 5 3 5 5 5 3 5 5 5 5 5 5 3 5 5 5 5 3 5 3 3 5 5 5 5 5 5 5 5 5 5 5 5 3 5 5 5 5 5 5 5 5 5 5 5 5 5 5 3 5 5 5 5 5 3 5 5 5 5 5 5 3 5 5 5 5 5 5 5 5 5 5 5 5 5 5 5 5 5 5 5 5 5 5 5 3 3 5 5 5 3 5 5 5 5 5 3 5 5 5 5 5 5 5 5 5 5 5 5 5 5 5 5 3 5 5 5 5 5 5 5 5 5 5 5 5 5 5 5 5 5 5 3 5 5 5 5 5 5 5 3 5 5 5 5 5 5 5 5 5 5 3 5 5 5 5 3 5 3 5 5 3 5 5 5 5 5 3 5 5 5 5 5 3 5 3 5 5 5 5 3 5 5 5 5 5 5 5 5 3 5 5 5 5 5 5 5 5 5 5 5 5 5 5 5 5 5 3 5 5 5 5 5 3 5 5 5 5 5 5 5 5 5 5 5 5 5 5 5 5 5 5 5 5 5 5 5 5 5 5 5 5 5 5 5 5 5 5 5 5 5 5 5 5 5 5 5 5 3 5 5 5 5 5 5 5 5 5 5 5 5 5 5 5 5 5 5 5 5 5 5 5 5 5 5 5 3 5 5 5 5 5 3 5 5 5 3 3 5 5 5 5 5 5 5 5 5 5 5 5 5 3 5 5 5 5 5 3 5 3 5 3 5 3 3 5 5 5 5 5 5 5 5 5 5 3 5 3 5 5 5 5 5 5 5 5 5 5 5 3 5 5 5 5 5 5 5 5 3 5 5 5 5 5 5 5 5 5 5 5 5 3 5 5 5 5 5 5 5 5 5 5 5 5 5 5 5 5 5 5 5 5 5 5 5 5 5 5 3 5 5 5 3 5 5 3 5 3 5 5 5 3 5 5 5 5 5 5 5 5 5 5 5 5 5 5 5 5 5 5 5 5 5 5 5 5 5 5 3 5 5 5 5 5 5 5 3 5 5 3 5 5 5 5 5 5 5 5 5 5 5 3 5 5 5 5 5 3 5 5 5 5 5 5 5 3 3 5 5 5 5 3 5 5 5 5 5 5 3 5 5 5 5 5 5 5 5 5 3 3 5 5 5 5 5 3 5 5 5 3 5 3 5 3 5 5 5 5 5 3 5 5 5 5 5 5 5 5 5 5 5 5 3 5 5 5 5 5 5 5 5 5 5 5 5 5 5 5 5 5 5 5 5 5 3 5 5 5 5 5 3 5 5 5 3 5 5 5 5 5 5 5 5 5 5 5 5 5 5 5 5 5 5 5 5 5 5 5 5 5 5 5 5 5 5 5 5 3 5 5 5 5 5 5 5 5 5 5 5 5 5 3 5 5 5 3 5 5 5 5 3 5 5 5 5 5 5 5 5 5 5 5 5 5 5 5 5 5 5 5 5 5 5 5 5 5 5 5 5 5 5 5 5 5 5 5 5 3 5 5 5 3 5 5 5 3 5 5 5 3 5 5 3 3 5 5 5 5 5 5 3 5 3 5 5 3 5 5 5 5 5 5 5 3 5 5 5 5 5 5 5 5 5 3 5 5 3 5 5 5 5 5 5 5 5 5 5 5 5 5 5 5 5 5 5 3 5 5 5 5 5 5 5 5 3 5 5 5 5 5 5 5 5 5 5 5 5 5 5 5 5 5 5 5 5 5 5 3 5 5 5 5 5 5 3 5 5 5 5 5 5 3 5 5 5 5 5 5 5 5 5 5 5 5 5 5 5 5 5 5 5 5 5 5 5 5 5 5 5 5 5 5 5 5 5 3 3 5 5 3 3 5 3 5 3 5 3 5 5 5 5 5 5 5 5 5 5 3 5 5 5 5 3 5 5 3 3 5 5 3 5 5 5 5 5 5 5 5 5 5 5 5 5 5 5 3 5 5 5 5 3 5 5 5 5 5 3 5 5 5 5 5 3 5 5 5 5 5 3 5 3 3 5 5 5 5 5 5 5 5 5 5 5 3 5 3 5 5 5 5 3 5 5 5 3 3 5 3 5 5 5 3 5 5 5 5 5 5 5 5 5 5 5 5 5 5 5 5 5 5 5 5 5 5 5 5 5 5 5 5 5 3 5 3 5 5 3 5 5 3 5 5 3 5 5 3 3 5 5 5 3 5 3 5 5 5 3 5 5 5 3 5 5 5 5 5 5 3 5 5 5 5 5 5 5 5 5 5 5 5 5 5 5 5 5 5 5 3 5 5 5 3 5 5 3 5 5 5 5 5 5 5 5 5 3 5 3 5 5 5 5 5 5 5 5 5 5 5 3 5 5 5 5 5 5 3 5 5 5 5 5 5 5 5 5 5 3 3 5 5 5 5 5 5 5 5 5 5 5 3 3 5 5 3 5 5 3 5 5 5 5 5 5 5 5 5 5 5 5 3 5 5 5 5 5 5 5 5 5 5 5 5 5 5 5 5 5 5 5 5 5 5 5 5 5 5 5 5 5 5 5 5 3 5 5 5 5 3 5 3 5 5 5 5 5 5 5 5 5 3 5 5 5 3 5 5 5 3 5 5 5 3 5 5 5 5 5 5 5 5 5 5 5 5 5 5 5 5 5 3 3 5 5 5 5 3 5 3 3 5 5 5 5 5 5 5 3 5 5 3 5 5 5 5 5 5 5 5 5 5 3 5 5 5 3 5 5 5 5 5 5 5 5 5 5 5 5 5 3 5 5 5 5 5 5 5 5 5 5 3 3 5 5 5 5 5 5 5 3 5 5 5 5 5 3 5 5 5 5 5 5 5 5 5 5 5 5 5 5 5 5 5 3 5 5 5 5 5 5 5 5 5 5 5 5 5 5 5 5 5 5 5 5 5 5 5 5 5 5 5 5 5 5 5 5 5 5 5 5 5 5 5 5 5 5 5 5 5 5 5 5 3 5 5 5 5 3 5 5 5 3 5 5 3 5 5 5 5 5 5 5 5 3 5 5 5 5 5 5 3 5 5 5 5 5 5 5 5 5 5 5 5 5 5 3 5 3 5 5 5 3 5 5 3 5 5 5 3 5 3 5 5 3 3 5 5 5 3 5 5 3 5 5 5 5 5 5 5 5 5 5 5 5 5 5 3 3 5 5 5 3 5 5 5 5 5 5 5 5 5 5 5 5 5 5 5 5 5 5 5 3 5 5 5 5 5 5 5 5 5 5 5 5 5 5 5 5 5 5 5 5 5 5 5 5 5 5 5 5 3 5 5 5 5 5 5 5 5 5 3 5 5 5 3 5 5 3 5 3 5 5 3 5 5 3 3 5 3 5 5 5 3 5 5 5 5 5 5 5 5 5 5 5 5 5 5 5 5 5 5 5 5 5 5 3 5 5 5 5 3 5 5 5 5 3 5 5 5 5 5 3 5 5 5 5 5 5 5 5 5 5 3 5 5 5 5 5 3 5 5 5 5 5 3 5 5 5 5 5 5 5 5 3 5 5 5 5 5 5 5 3 3 5 5 5 5 5 5 5 5 5 5 5 5 5 5 5 5 5 5 5 5 5 5 5 5 5 3 3 5 5 3 5 5 3 3 5 3 5 5 5 5 5 5 5 5 5 5 3 5 5 5 5 3 5 3 5 5 5 5 3 5 5 5 3 5 5 5 5 5 3 5 3 5 3 5 5 5 3 5 5 5 5 5 3 5 5 5 5 5 3 5 3 5 5 5 5 5 5 3 5 5 3 5 5 5 5 5 5 5 5 5 5 5 5 5 5 5 3 5 5 5 5 5 5 5 5 5 5 5 5 5 5 5 5 5 5 5 5 5 5 5 5 5 5 5 5 3 5 5 5 5 5 3 5 5 5 5 3 5 5 5 5 5 3 5 5 5 5 5 5 5 5 5 5 5 5 5 5 5 5 5 5 5 5 5 5 5 5 5 5 5 5 3 5 5 
</DataArray>
</Cells>
<PointData Scalars="" Vectors="displacement," Tensors="">
<DataArray type="Float64" Name="displacement" NumberOfComponents="3" format="ascii">
1.4462599047511998e-08 -0.014859839842616129 0 -1.4449974714153921e-08 -0.014999946798837137 0 7.8396912273748759e-10 -0.014860710868545292 0 -5.6407947568843845e-10 -0.014999384114762307 0 9.3714324466292084e-11 -0.015000307641697363 0 1.1129575369822405e-07 -0.014859042826397677 0 8.0452842197049054e-06 -0.014510323033355107 0 -1.3517264301795219e-07 -0.014999371180635913 0 8.0452842197049054e-06 -0.014510323033355107 0 -1.3517264301795219e-07 -0.014999371180635913 0 3.1812639983322437e-07 -0.014999409968169492 0 8.0452842197049054e-06 -0.014510323033355107 0 -9.6825236283204808e-08 -0.014096837754903105 0 -8.4871593455875202e-05 -0.013962336046201907 0 1.1129575369822405e-07 -0.014859042826397677 0 8.0452842197049054e-06 -0.014510323033355107 0 -9.6825236283204808e-08 -0.014096837754903105 0 8.0452842197049054e-06 -0.014510323033355107 0 3.2504314558873922e-05 -0.014062132255142083 0 -8.4871593455875202e-05 -0.013962336046201907 0 3.2504314558873922e-05 -0.014062132255142083 0 -9.5034764817991245e-05 -0.01364214199435298 0 -8.4871593455875202e-05 -0.013962336046201907 0 8.0452842197049054e-06 -0.014510323033355107 0 3.2504314558873922e-05 -0.014062132255142083 0 3.1812639983322437e-07 -0.014999409968169492 0 -3.3857047598589747e-05 -0.014535569504236165 0 -6.387489155406447e-08 -0.014999717283695802 0 -3.6431314055813244e-06 -0.014998111382051099 0 -2.1573971349713942e-09 -0.014999991368168956 0 -3.7376936202114787e-06 -0.014995445881746157 0 -3.6431314055813244e-06 -0.014998111382051099 0 -1.7581940791328342e-09 -0.015000002727516067 0 -2.1573971349713942e-09 -0.014999991368168956 0 -3.3857047598589747e-05 -0.014535569504236165 0 -7.1105206702156535e-05 -0.014308857553553989 0 -3.6431314055813244e-06 -0.014998111382051099 0 -3.7376936202114787e-06 -0.014995445881746157 0 -1.0649081088111717e-05 -0.014992738656813399 0 -3.7376936202114787e-06 -0.014995445881746157 0 -7.3783703934142635e-06 -0.014989565768938092 0 -3.5819192015590699e-07 -0.014998474499618894 0 -3.7376936202114787e-06 -0.014995445881746157 0 -7.3783703934142635e-06 -0.014989565768938092 0 -1.0649081088111717e-05 -0.014992738656813399 0 -2.1573971349713942e-09 -0.014999991368168956 0 -7.2259910855472453e-10 -0.014999990562828974 0 -3.5819192015590699e-07 -0.014998474499618894 0 -2.1573971349713942e-09 -0.014999991368168956 0 -3.7376936202114787e-06 -0.014995445881746157 0 -3.5819192015590699e-07 -0.014998474499618894 0 -7.3783703934142635e-06 -0.014989565768938092 0 -1.8856291556678482e-05 -0.014982990470294459 0 -1.0649081088111717e-05 -0.014992738656813399 0 -4.4193560646303715e-06 -0.014994170673016343 0 -1.3572357633535311e-05 -0.014991672731204638 0 -8.8864358152885538e-06 -0.014989094623765251 0 -6.3863682336221889e-05 -0.014368600559673129 0 -7.1105206702156535e-05 -0.014308857553553989 0 -1.3379475573814819e-05 -0.015056532828501321 0 -6.3863682336221889e-05 -0.014368600559673129 0 -0.00014042189791730315 -0.013499356880368435 0 -9.5034764817991245e-05 -0.01364214199435298 0 -0.00012952782212497232 -0.013522176500670247 0 -9.5034764817991245e-05 -0.01364214199435298 0 -0.00012952782212497232 -0.013522176500670247 0 -0.00012695687362872753 -0.013566048873809217 0 -0.00014042189791730315 -0.013499356880368435 0 -0.00012952782212497232 -0.013522176500670247 0 -0.00013657315843239117 -0.013394801308276678 0 -0.00012952782212497232 -0.013522176500670247 0 -0.00012695687362872753 -0.013566048873809217 0 -0.00013657315843239117 -0.013394801308276678 0 -9.5034764817991245e-05 -0.01364214199435298 0 -0.00012695687362872753 -0.013566048873809217 0 -8.4871593455875202e-05 -0.013962336046201907 0 -0.00012695687362872753 -0.013566048873809217 0 -8.4871593455875202e-05 -0.013962336046201907 0 -1.9847081220240113e-07 -0.013333781362465295 0 -9.6825236283204808e-08 -0.014096837754903105 0 -8.4871593455875202e-05 -0.013962336046201907 0 -1.9847081220240113e-07 -0.013333781362465295 0 -0.00012695687362872753 -0.013566048873809217 0 -1.9847081220240113e-07 -0.013333781362465295 0 -0.00010050074089546491 -0.013159883837867262 0 -1.9847081220240113e-07 -0.013333781362465295 0 -4.4968352080028636e-07 -0.012570657778163128 0 -0.00010050074089546491 -0.013159883837867262 0 -4.4968352080028636e-07 -0.012570657778163128 0 -6.6064351196667208e-06 -0.012896580302647804 0 4.6033286817247088e-05 -0.012492566139084603 0 -4.4968352080028636e-07 -0.012570657778163128 0 -6.6064351196667208e-06 -0.012896580302647804 0 -0.00010050074089546491 -0.013159883837867262 0 -6.6064351196667208e-06 -0.012896580302647804 0 -0.00010050074089546491 -0.013159883837867262 0 -5.4393244820172726e-05 -0.01320914464026695 0 -6.6064351196667208e-06 -0.012896580302647804 0 7.8297814548944014e-05 -0.013097461349909745 0 -5.4393244820172726e-05 -0.01320914464026695 0 -6.6064351196667208e-06 -0.012896580302647804 0 7.8297814548944014e-05 -0.013097461349909745 0 0.0001295595339597842 -0.012900827865305532 0 -0.00012695687362872753 -0.013566048873809217 0 -0.00010050074089546491 -0.013159883837867262 0 -0.00013657315843239117 -0.013394801308276678 0 -0.00010050074089546491 -0.013159883837867262 0 -0.00013657315843239117 -0.013394801308276678 0 -5.4393244820172726e-05 -0.01320914464026695 0 1.1252719770268499e-07 -0.01175546888189361 0 -0.00012063538326077425 -0.010764227670230749 0 -9.0835188650222491e-07 -0.011754950176308985 0 1.3712419224782877e-06 -0.011807606076010927 0 0.00015127871418702354 -0.010141576854073783 0 -0.00012017571201855403 -0.010641459679625175 0 -9.0835188650222491e-07 -0.011754950176308985 0 -0.00029016519767147868 -0.010415446564643355 0 1.1839473686308429e-06 -0.011808928680568601 0 0.00016070194137204883 -0.012157014733935375 0 0.00067416560448743884 -0.012711677599194768 0 -0.00012017571201855403 -0.010641459679625175 0 -9.0835188650222491e-07 -0.011754950176308985 0 0.00015127871418702354 -0.010141576854073783 0 1.1067258936322544e-07 -0.011807162195558418 0 0.00039799161438690479 -0.011519375951930781 0 -0.00012017571201855403 -0.010641459679625175 0 0.00015127871418702354 -0.010141576854073783 0 -0.00020362331277341448 -0.010227128845196073 0 0.00016070194137204883 -0.012157014733935375 0 4.6033286817247088e-05 -0.012492566139084603 0 0.00043668325998283289 -0.012868112533456471 0 -4.4968352080028636e-07 -0.012570657778163128 0 1.1839473686308429e-06 -0.011808928680568601 0 4.6033286817247088e-05 -0.012492566139084603 0 0.00022190840832421268 -0.012210383793715127 0 0.0004376114970661992 -0.012968092094907662 0 1.1839473686308429e-06 -0.011808928680568601 0 0.00016070194137204883 -0.012157014733935375 0 4.6033286817247088e-05 -0.012492566139084603 0 -6.6064351196667208e-06 -0.012896580302647804 0 4.6033286817247088e-05 -0.012492566139084603 0 0.0001295595339597842 -0.012900827865305532 0 7.8297814548944014e-05 -0.013097461349909745 0 0.0001295595339597842 -0.012900827865305532 0 0.00024589581899560098 -0.013122257891091218 0 0.0001295595339597842 -0.012900827865305532 0 0.00043668325998283289 -0.012868112533456471 0 0.00024589581899560098 -0.013122257891091218 0 4.6033286817247088e-05 -0.012492566139084603 0 0.0001295595339597842 -0.012900827865305532 0 0.00043668325998283289 -0.012868112533456471 0 0.00016070194137204883 -0.012157014733935375 0 0.00046180833830719039 -0.012902527069444012 0 0.00067416560448743884 -0.012711677599194768 0 0.00046180833830719039 -0.012902527069444012 0 0.00067416560448743884 -0.012711677599194768 0 0.00095880847917602331 -0.013349567290392666 0 0.00039799161438690479 -0.011519375951930781 0 -3.9553220250628429e-06 -0.011103642891458586 0 0.00015127871418702354 -0.010141576854073783 0 -0.00017182118242400684 -0.0098928720393808775 0 -5.8022728477760924e-05 -0.00958766640589543 0 0.00015127871418702354 -0.010141576854073783 0 -0.00020362331277341448 -0.010227128845196073 0 -0.00017182118242400684 -0.0098928720393808775 0 0.00046180833830719039 -0.012902527069444012 0 0.00057421093281673512 -0.013440468736746661 0 0.00095880847917602331 -0.013349567290392666 0 0.0004376114970661992 -0.012968092094907662 0 0.00032034945481143352 -0.012697558700730192 0 -0.00012891838008832274 -0.011669048296863082 0 -0.00012792319802035944 -0.01166933215667164 0 -0.00012692733890551263 -0.011663493774486841 0 0.00032034945481143352 -0.012697558700730192 0 -3.9553220250628429e-06 -0.011103642891458586 0 0.00043668325998283289 -0.012868112533456471 0 0.00048722210248144883 -0.013259042380083644 0 0.00024589581899560098 -0.013122257891091218 0 0.00048722210248144883 -0.013259042380083644 0 0.00024589581899560098 -0.013122257891091218 0 0.00011323768025648608 -0.013325784392286284 0 0.00032034945481143352 -0.012697558700730192 0 0.00011816665742839 -0.013123321724289991 0 7.8297814548944014e-05 -0.013097461349909745 0 0.00024589581899560098 -0.013122257891091218 0 0.00011323768025648608 -0.013325784392286284 0 0.00013083101053794604 -0.012902994473418109 0 6.2984957897820734e-05 -0.012854755956415418 0 0.00013026388566820784 -0.01284061932261174 0 7.5681805116874248e-05 -0.01291256078829184 0 0.00013083101053794604 -0.012902994473418109 0 6.2984957897820734e-05 -0.012854755956415418 0 -0.00012891838008832274 -0.011669048296863082 0 -0.00013044685595028921 -0.01167335368184135 0 -0.00012792319802035944 -0.01166933215667164 0 0.00032034945481143352 -0.012697558700730192 0 -5.6563538732209404e-05 -0.012174409865112252 0 -0.00013044685595028921 -0.01167335368184135 0 -0.00012792319802035944 -0.01166933215667164 0 -0.00012855378140929155 -0.011673495988618558 0 -0.00013657315843239117 -0.013394801308276678 0 -5.4393244820172726e-05 -0.01320914464026695 0 -8.7118216071910854e-05 -0.013399052416755153 0 -0.00011236934900818065 -0.013363475295596016 0 1.7723245082343993e-05 -0.013316308828305553 0 0.00011816665742839 -0.013123321724289991 0 1.7723245082343993e-05 -0.013316308828305553 0 0.00011323768025648608 -0.013325784392286284 0 -5.4393244820172726e-05 -0.01320914464026695 0 -8.7118216071910854e-05 -0.013399052416755153 0 7.8297814548944014e-05 -0.013097461349909745 0 0.00011323768025648608 -0.013325784392286284 0 -5.4393244820172726e-05 -0.01320914464026695 0 1.7723245082343993e-05 -0.013316308828305553 0 0.00010102167873324515 -0.013396480033812122 0 0.00013083101053794604 -0.012902994473418109 0 0.00018518654880776819 -0.012893590754290465 0 0.00013026388566820784 -0.01284061932261174 0 8.9108905547613493e-07 -0.01388063207371968 0 8.0514091529427524e-07 -0.013886019867490927 0 3.3358331295379753e-06 -0.013881977423064717 0 -2.931096573762186e-06 -0.013887614977035915 0 8.9108905547613493e-07 -0.01388063207371968 0 8.0514091529427524e-07 -0.013886019867490927 0 -0.00014042189791730315 -0.013499356880368435 0 -0.00013657315843239117 -0.013394801308276678 0 -0.0001088810919078857 -0.013417589630660528 0 -6.3863682336221889e-05 -0.014368600559673129 0 1.7723245082343993e-05 -0.013316308828305553 0 -6.3863682336221889e-05 -0.014368600559673129 0 1.0708266329987301e-05 -0.014446745821333425 0 8.0514091529427524e-07 -0.013886019867490927 0 3.3358331295379753e-06 -0.013881977423064717 0 2.3598355569944383e-06 -0.01387929484428988 0 8.0514091529427524e-07 -0.013886019867490927 0 2.3598355569944383e-06 -0.01387929484428988 0 2.4118354622043649e-06 -0.013886691011682882 0 -3.3549855657620984e-05 -0.014968964247274596 0 -2.6973354492313417e-05 -0.014975638568727023 0 -4.0083226932495977e-05 -0.014969664972906102 0 -2.5634894436069466e-05 -0.014982979778229214 0 -2.6973354492313417e-05 -0.014975638568727023 0 -4.0083226932495977e-05 -0.014969664972906102 0 1.0708266329987301e-05 -0.014446745821333425 0 -7.550933372585641e-05 -0.014450562025033899 0 -8.8081146889180736e-05 -0.014833337297011702 0 -7.550933372585641e-05 -0.014450562025033899 0 -2.5634894436069466e-05 -0.014982979778229214 0 -2.6973354492313417e-05 -0.014975638568727023 0 -1.5842589444761828e-05 -0.014982959542163854 0 -3.3549855657620984e-05 -0.014968964247274596 0 -2.6973354492313417e-05 -0.014975638568727023 0 -2.1052014132486584e-05 -0.014973845508727239 0 -2.6973354492313417e-05 -0.014975638568727023 0 -2.1052014132486584e-05 -0.014973845508727239 0 -1.5842589444761828e-05 -0.014982959542163854 0 -0.00013044685595028921 -0.01167335368184135 0 -0.00013143027794984934 -0.011681267882293298 0 -0.00012855378140929155 -0.011673495988618558 0 6.2984957897820734e-05 -0.012854755956415418 0 4.988633027534651e-05 -0.012795674028068514 0 7.7242972724715138e-05 -0.012822748979744983 0 -5.6563538732209404e-05 -0.012174409865112252 0 -7.0820324938042337e-05 -0.012302447195729023 0 -7.0820324938042337e-05 -0.012302447195729023 0 -4.6423807208970157e-05 -0.013206952006030195 0 4.988633027534651e-05 -0.012795674028068514 0 7.7242972724715138e-05 -0.012822748979744983 0 7.1609399602933207e-05 -0.012786257061538721 0 6.2984957897820734e-05 -0.012854755956415418 0 7.7242972724715138e-05 -0.012822748979744983 0 0.00013026388566820784 -0.01284061932261174 0 7.7242972724715138e-05 -0.012822748979744983 0 0.00013026388566820784 -0.01284061932261174 0 7.1609399602933207e-05 -0.012786257061538721 0 3.3358331295379753e-06 -0.013881977423064717 0 2.3598355569944383e-06 -0.01387929484428988 0 -7.4118249749162729e-06 -0.013869942231239819 0 0.00010102167873324515 -0.013396480033812122 0 -4.6423807208970157e-05 -0.013206952006030195 0 -3.0887462304619141e-06 -0.013873554603593182 0 -1.6609182473372024e-05 -0.013908406551022675 0 2.3598355569944383e-06 -0.01387929484428988 0 2.4118354622043649e-06 -0.013886691011682882 0 4.5699734118319266e-06 -0.013885460894899225 0 -0.00018174422642603454 -0.014446920330273375 0 -8.8384935617770989e-05 -0.014409158838307951 0 -3.9498892493929821e-05 -0.014425010956319475 0 -8.8081146889180736e-05 -0.014833337297011702 0 -0.00015655682562533475 -0.014134205382691147 0 -0.00018174422642603454 -0.014446920330273375 0 -8.8384935617770989e-05 -0.014409158838307951 0 -9.9898549994921105e-05 -0.014401323925889281 0 -7.550933372585641e-05 -0.014450562025033899 0 -1.6609182473372024e-05 -0.013908406551022675 0 -8.8384935617770989e-05 -0.014409158838307951 0 -0.00010000908565845294 -0.014400931771607008 0 -5.6633002879518718e-05 -0.014377453984135534 0 -7.88130107474471e-05 -0.01444720345679771 0 -7.550933372585641e-05 -0.014450562025033899 0 -8.8384935617770989e-05 -0.014409158838307951 0 -3.9498892493929821e-05 -0.014425010956319475 0 -5.6633002879518718e-05 -0.014377453984135534 0 -0.00015655682562533475 -0.014134205382691147 0 -1.6609182473372024e-05 -0.013908406551022675 0 -9.0577311918366472e-05 -0.013414680256011698 0 -8.085076051940292e-05 -0.01344085993782395 0 -0.00012589894965420398 -0.013432446082984101 0 2.3598355569944383e-06 -0.01387929484428988 0 -1.7022662199735687e-07 -0.013866522374390155 0 -7.4118249749162729e-06 -0.013869942231239819 0 -1.6609182473372024e-05 -0.013908406551022675 0 -4.6423807208970157e-05 -0.013206952006030195 0 -0.00060079910559545963 -0.013573964760013693 0 3.7111063125362872e-05 -0.013632471083879815 0 1.0878381086829145e-05 -0.013497273119627028 0 -0.00015655682562533475 -0.014134205382691147 0 -0.00018009688797381807 -0.012944939579473088 0 -9.0577311918366472e-05 -0.013414680256011698 0 -0.00012589894965420398 -0.013432446082984101 0 -0.00016681494632993848 -0.013418251501702916 0 -0.00012652048026780079 -0.013461481839457516 0 -0.00012589894965420398 -0.013432446082984101 0 -0.00016522423706290737 -0.013426720745746346 0 -8.085076051940292e-05 -0.01344085993782395 0 -0.00012652048026780079 -0.013461481839457516 0 -0.00012589894965420398 -0.013432446082984101 0 -0.00012589894965420398 -0.013432446082984101 0 -0.00016681494632993848 -0.013418251501702916 0 -0.00016522423706290737 -0.013426720745746346 0 3.7111063125362872e-05 -0.013632471083879815 0 8.8211735032434674e-06 -0.013493370720075511 0 6.6836494456840593e-05 -0.013486916938019495 0 -0.00011428483306444823 -0.013225273628344062 0 -0.00018009688797381807 -0.012944939579473088 0 -3.428169191067759e-05 -0.012670556757367994 0 -0.00015838122834554861 -0.012685076237531326 0 -5.8922985742050434e-06 -0.012816651532876271 0 -0.00018009688797381807 -0.012944939579473088 0 -0.00018273375628867481 -0.012740748080069437 0 -0.00018009688797381807 -0.012944939579473088 0 -0.00017549198804617358 -0.012718441367120118 0 -0.00017549198804617358 -0.012718441367120118 0 -0.00018273375628867481 -0.012740748080069437 0 -0.00015008392026955424 -0.012823596462188717 0 -0.00012114582502717111 -0.012809951742246275 0 -0.00016004891807677932 -0.012776333186875818 0 -7.0820324938042337e-05 -0.012302447195729023 0 -0.00018273375628867481 -0.012740748080069437 0 -4.6423807208970157e-05 -0.013206952006030195 0 -0.00018273375628867481 -0.012740748080069437 0 -0.00016325172189296473 -0.011696285737885875 0 -0.0001545364731117595 -0.011736651399485905 0 -0.00013875423962007069 -0.011703551071113273 0 -0.00044860088056721713 -0.014356451434819102 0 -0.00036125991551772533 -0.014190524813983911 0 -0.00034492762693560979 -0.014298247094851122 0 3.7111063125362872e-05 -0.013632471083879815 0 -0.00032371519732116529 -0.014339424707827482 0 0.00012752068511937548 -0.013540445064726974 0 -0.00015655682562533475 -0.014134205382691147 0 -0.00032254188284268299 -0.014730163916776855 0 -0.00060079910559545963 -0.013573964760013693 0 3.7111063125362872e-05 -0.013632471083879815 0 -0.00032371519732116529 -0.014339424707827482 0 -0.00032254188284268299 -0.014730163916776855 0 -0.00025007374335274271 -0.01278624432520385 0 -0.00012155623273316777 -0.015003746918350746 0 -9.7355701015938446e-05 -0.014968564362297852 0 -0.00015306375401360415 -0.014942128847238365 0 -6.4061133760998651e-05 -0.014997173095009255 0 -0.00012155623273316777 -0.015003746918350746 0 -9.7355701015938446e-05 -0.014968564362297852 0 -9.7355701015938446e-05 -0.014968564362297852 0 -0.00010531869239536913 -0.014933120332776306 0 -6.1517730006461409e-05 -0.014942183702287642 0 -0.00010531869239536913 -0.014933120332776306 0 -7.400464939416109e-05 -0.014904837586345244 0 -6.1517730006461409e-05 -0.014942183702287642 0 -0.00010531869239536913 -0.014933120332776306 0 -7.400464939416109e-05 -0.014904837586345244 0 -0.00014002060813138334 -0.014894649865059933 0 -0.00010531869239536913 -0.014933120332776306 0 -0.00015306375401360415 -0.014942128847238365 0 -0.00014002060813138334 -0.014894649865059933 0 -9.7355701015938446e-05 -0.014968564362297852 0 -0.00010531869239536913 -0.014933120332776306 0 -0.00015306375401360415 -0.014942128847238365 0 -0.00044860088056721713 -0.014356451434819102 0 -0.00036604080949262808 -0.014361188460958199 0 -0.00039699033385129096 -0.014481825559928083 0 -0.00032254188284268299 -0.014730163916776855 0 -0.0003341892763492816 -0.014630406042047552 0 -0.00022141841511874447 -0.014952209484143693 0 -0.00027199721934321769 -0.014814427281210633 0 -0.00016551303640202134 -0.014858527203961585 0 -0.00032254188284268299 -0.014730163916776855 0 -0.00016883568674644106 -0.014882475057909938 0 -0.00044860088056721713 -0.014356451434819102 0 -0.00034492762693560979 -0.014298247094851122 0 -0.00036604080949262808 -0.014361188460958199 0 -3.8075976189733524e-05 -0.014973404309201417 0 -2.1052014132486584e-05 -0.014973845508727239 0 -2.4175058066402301e-05 -0.014968853613471571 0 -2.0877013476260079e-05 -0.014966450189077834 0 -2.547809362876366e-05 -0.014946109447470724 0 -9.9161839273676206e-06 -0.014963788892886276 0 -2.1052014132486584e-05 -0.014973845508727239 0 -2.4175058066402301e-05 -0.014968853613471571 0 -9.9161839273676206e-06 -0.014963788892886276 0 -8.8081146889180736e-05 -0.014833337297011702 0 -6.0750811870872344e-06 -0.014992118956318162 0 -2.0877013476260079e-05 -0.014966450189077834 0 -5.189036292208379e-05 -0.014964219884658398 0 -2.547809362876366e-05 -0.014946109447470724 0 -6.4061133760998651e-05 -0.014997173095009255 0 -2.0877013476260079e-05 -0.014966450189077834 0 -5.189036292208379e-05 -0.014964219884658398 0 -8.8081146889180736e-05 -0.014833337297011702 0 -2.6572981691258868e-05 -0.014978212093971602 0 -6.4061133760998651e-05 -0.014997173095009255 0 -9.7355701015938446e-05 -0.014968564362297852 0 -5.189036292208379e-05 -0.014964219884658398 0 -9.7355701015938446e-05 -0.014968564362297852 0 -5.189036292208379e-05 -0.014964219884658398 0 -6.1517730006461409e-05 -0.014942183702287642 0 -6.1517730006461409e-05 -0.014942183702287642 0 -3.1029350698809847e-05 -0.014916641555528984 0 -2.547809362876366e-05 -0.014946109447470724 0 -5.189036292208379e-05 -0.014964219884658398 0 -6.1517730006461409e-05 -0.014942183702287642 0 -2.547809362876366e-05 -0.014946109447470724 0 -7.400464939416109e-05 -0.014904837586345244 0 -6.1517730006461409e-05 -0.014942183702287642 0 -3.1029350698809847e-05 -0.014916641555528984 0 -2.547809362876366e-05 -0.014946109447470724 0 -9.9161839273676206e-06 -0.014963788892886276 0 -1.8939625039120321e-05 -0.01493202462391342 0 -3.1029350698809847e-05 -0.014916641555528984 0 -2.547809362876366e-05 -0.014946109447470724 0 -1.8939625039120321e-05 -0.01493202462391342 0 -9.9161839273676206e-06 -0.014963788892886276 0 -1.1716273827533342e-05 -0.014950446463978155 0 -1.8939625039120321e-05 -0.01493202462391342 0 -2.6572981691258868e-05 -0.014978212093971602 0 -8.681662640850091e-06 -0.014961681720563499 0 -2.1052014132486584e-05 -0.014973845508727239 0 -9.9161839273676206e-06 -0.014963788892886276 0 -1.1132777719750468e-05 -0.014976759676087305 0 -4.3229238977608748e-06 -0.014978383552684629 0 -1.4485867934230242e-06 -0.014988990241648461 0 -6.9418900465967517e-06 -0.014984688151190794 0 -1.1132777719750468e-05 -0.014976759676087305 0 -4.3229238977608748e-06 -0.014978383552684629 0 -6.9418900465967517e-06 -0.014984688151190794 0 -9.9161839273676206e-06 -0.014963788892886276 0 -1.1132777719750468e-05 -0.014976759676087305 0 -4.3229238977608748e-06 -0.014978383552684629 0 -9.9161839273676206e-06 -0.014963788892886276 0 -2.9340460527882433e-06 -0.014972488304130395 0 -1.1716273827533342e-05 -0.014950446463978155 0 -9.9161839273676206e-06 -0.014963788892886276 0 -4.3229238977608748e-06 -0.014978383552684629 0 -2.9340460527882433e-06 -0.014972488304130395 0 -7.1390103347989255e-07 -0.014987826086694238 0 1.7241858087393347e-09 -0.014999975368726458 0 -2.9340460527882433e-06 -0.014972488304130395 0 -4.3229238977608748e-06 -0.014978383552684629 0 -7.1390103347989255e-07 -0.014987826086694238 0 -2.9340460527882433e-06 -0.014972488304130395 0 -7.1390103347989255e-07 -0.014987826086694238 0 3.3557411117826622e-10 -0.014999984161319499 0 1.7241858087393347e-09 -0.014999975368726458 0 -7.1390103347989255e-07 -0.014987826086694238 0 3.3557411117826622e-10 -0.014999984161319499 0 -1.4485867934230242e-06 -0.014988990241648461 0 3.3557411117826622e-10 -0.014999984161319499 0 -1.4485867934230242e-06 -0.014988990241648461 0 -6.4579094893788847e-07 -0.014994973771826259 0 -4.3229238977608748e-06 -0.014978383552684629 0 -7.1390103347989255e-07 -0.014987826086694238 0 -1.4485867934230242e-06 -0.014988990241648461 0 -1.4485867934230242e-06 -0.014988990241648461 0 -3.3178801940969476e-06 -0.014991139800835194 0 -6.4579094893788847e-07 -0.014994973771826259 0 -1.4485867934230242e-06 -0.014988990241648461 0 -3.3178801940969476e-06 -0.014991139800835194 0 -6.9418900465967517e-06 -0.014984688151190794 0 -3.3178801940969476e-06 -0.014991139800835194 0 -6.4579094893788847e-07 -0.014994973771826259 0 -1.2749256322316587e-06 -0.014995699639545682 0 3.3557411117826622e-10 -0.014999984161319499 0 -6.4579094893788847e-07 -0.014994973771826259 0 -7.2259910855472453e-10 -0.014999990562828974 0 -4.4193560646303715e-06 -0.014994170673016343 0 -1.2749256322316587e-06 -0.014995699639545682 0 -3.5819192015590699e-07 -0.014998474499618894 0 -7.2259910855472453e-10 -0.014999990562828974 0 -1.2749256322316587e-06 -0.014995699639545682 0 -3.5819192015590699e-07 -0.014998474499618894 0 -6.4579094893788847e-07 -0.014994973771826259 0 -7.2259910855472453e-10 -0.014999990562828974 0 -1.2749256322316587e-06 -0.014995699639545682 0 -4.4193560646303715e-06 -0.014994170673016343 0 -3.3178801940969476e-06 -0.014991139800835194 0 -1.2749256322316587e-06 -0.014995699639545682 0 -1.3379475573814819e-05 -0.015056532828501321 0 4.821355517175321e-06 -0.014983361466804146 0 -4.4193560646303715e-06 -0.014994170673016343 0 -3.3178801940969476e-06 -0.014991139800835194 0 -8.8864358152885538e-06 -0.014989094623765251 0 -1.3572357633535311e-05 -0.014991672731204638 0 -8.8864358152885538e-06 -0.014989094623765251 0 -1.5842589444761828e-05 -0.014982959542163854 0 -1.3572357633535311e-05 -0.014991672731204638 0 -2.5634894436069466e-05 -0.014982979778229214 0 -1.5842589444761828e-05 -0.014982959542163854 0 -2.1052014132486584e-05 -0.014973845508727239 0 -1.1132777719750468e-05 -0.014976759676087305 0 -1.5842589444761828e-05 -0.014982959542163854 0 -1.1132777719750468e-05 -0.014976759676087305 0 -1.5842589444761828e-05 -0.014982959542163854 0 -6.9418900465967517e-06 -0.014984688151190794 0 -8.8864358152885538e-06 -0.014989094623765251 0 -1.5842589444761828e-05 -0.014982959542163854 0 -6.9418900465967517e-06 -0.014984688151190794 0 -3.3178801940969476e-06 -0.014991139800835194 0 -8.8864358152885538e-06 -0.014989094623765251 0 -6.9418900465967517e-06 -0.014984688151190794 0 -0.00015202791994662306 -0.0080889778874614019 0 -5.8664669356453727e-05 -0.007768413192694547 0 -3.7393862668184851e-05 -0.0081142628046978488 0 -0.00015202791994662306 -0.0080889778874614019 0 -0.00016368459392133351 -0.0082644747294666008 0 -0.0001222202973479213 -0.0081817525382873214 0 -0.00015202791994662306 -0.0080889778874614019 0 -0.00010418855033642319 -0.008017300180203045 0 -0.00015890372041641292 -0.0083356014193858088 0 -5.8664669356453727e-05 -0.007768413192694547 0 -0.00010418855033642319 -0.008017300180203045 0 -6.659263658101635e-05 -0.00754673382212086 0 -0.00015202791994662306 -0.0080889778874614019 0 -5.8664669356453727e-05 -0.007768413192694547 0 -0.00010418855033642319 -0.008017300180203045 0 -0.00010418855033642319 -0.008017300180203045 0 -1.8496648163902555e-07 -0.0073420981715081627 0 -6.659263658101635e-05 -0.00754673382212086 0 -1.6129911674851941e-07 -0.0082248172227044388 0 -0.00010418855033642319 -0.008017300180203045 0 -1.8496648163902555e-07 -0.0073420981715081627 0 -1.6129911674851941e-07 -0.0082248172227044388 0 -0.00010418855033642319 -0.008017300180203045 0 -9.4245386023486969e-05 -0.00873297437208094 0 -0.00010418855033642319 -0.008017300180203045 0 -9.4245386023486969e-05 -0.00873297437208094 0 -0.00015890372041641292 -0.0083356014193858088 0 -1.6129911674851941e-07 -0.0082248172227044388 0 -1.7227466469839259e-07 -0.0091073990049893392 0 -9.4245386023486969e-05 -0.00873297437208094 0 -1.7227466469839259e-07 -0.0091073990049893392 0 -3.0761068968898571e-05 -0.0090868854523786114 0 -9.4245386023486969e-05 -0.00873297437208094 0 -3.0761068968898571e-05 -0.0090868854523786114 0 -9.4245386023486969e-05 -0.00873297437208094 0 2.2176136287838683e-05 -0.0090241143017507769 0 -9.4245386023486969e-05 -0.00873297437208094 0 -0.00011543514687432707 -0.0085249460952318851 0 2.2176136287838683e-05 -0.0090241143017507769 0 -9.4245386023486969e-05 -0.00873297437208094 0 -0.00015890372041641292 -0.0083356014193858088 0 -0.00011543514687432707 -0.0085249460952318851 0 -0.00015202791994662306 -0.0080889778874614019 0 -0.00015890372041641292 -0.0083356014193858088 0 -0.00016368459392133351 -0.0082644747294666008 0 -0.00015890372041641292 -0.0083356014193858088 0 -0.00011543514687432707 -0.0085249460952318851 0 -0.00016368459392133351 -0.0082644747294666008 0 -0.00011543514687432707 -0.0085249460952318851 0 0.00011045135663664013 -0.0083818988129097816 0 -7.3388465923612798e-05 -0.0083030489722980116 0 -0.00011543514687432707 -0.0085249460952318851 0 -7.3388465923612798e-05 -0.0083030489722980116 0 -0.00016368459392133351 -0.0082644747294666008 0 -0.00011543514687432707 -0.0085249460952318851 0 0.00011045135663664013 -0.0083818988129097816 0 2.2176136287838683e-05 -0.0090241143017507769 0 4.5514796013094508e-05 -0.0088833950377785655 0 2.882779550872284e-05 -0.0090444098943020575 0 -4.2268408418014754e-06 -0.0095264996730164732 0 -0.00020107792769712151 -0.0095008048251703885 0 -0.0001643832809285159 -0.0095887707425370058 0 -4.2268408418014754e-06 -0.0095264996730164732 0 -0.00020107792769712151 -0.0095008048251703885 0 -0.00014513965851890043 -0.009337240453103789 0 -0.00014513965851890043 -0.009337240453103789 0 2.2176136287838683e-05 -0.0090241143017507769 0 -0.00016053904143108606 -0.0094341879444442625 0 -0.00020107792769712151 -0.0095008048251703885 0 -0.00014513965851890043 -0.009337240453103789 0 -0.00023761400223721427 -0.009524827738822756 0 -0.00014513965851890043 -0.009337240453103789 0 -0.00016053904143108606 -0.0094341879444442625 0 -0.00023761400223721427 -0.009524827738822756 0 -4.2268408418014754e-06 -0.0095264996730164732 0 -0.00014513965851890043 -0.009337240453103789 0 2.2176136287838683e-05 -0.0090241143017507769 0 2.2176136287838683e-05 -0.0090241143017507769 0 -5.2124936244782579e-05 -0.0094498872426656694 0 -0.00016053904143108606 -0.0094341879444442625 0 -3.0761068968898571e-05 -0.0090868854523786114 0 2.2176136287838683e-05 -0.0090241143017507769 0 -5.2124936244782579e-05 -0.0094498872426656694 0 -1.7227466469839259e-07 -0.0091073990049893392 0 -5.2124936244782579e-05 -0.0094498872426656694 0 -5.4685529065975866e-09 -0.0099900457475503093 0 -1.7227466469839259e-07 -0.0091073990049893392 0 -3.0761068968898571e-05 -0.0090868854523786114 0 -5.2124936244782579e-05 -0.0094498872426656694 0 -5.2124936244782579e-05 -0.0094498872426656694 0 -0.00019602016313982918 -0.0095772040117957959 0 -0.00029002893113421802 -0.0097544084565952312 0 -5.2124936244782579e-05 -0.0094498872426656694 0 -5.4685529065975866e-09 -0.0099900457475503093 0 3.029016761868721e-05 -0.010292945902742965 0 -0.00010536129158764408 -0.0095743947696665631 0 -0.00014812750211750254 -0.010019555014615975 0 -5.2124936244782579e-05 -0.0094498872426656694 0 -0.00019602016313982918 -0.0095772040117957959 0 -0.00016053904143108606 -0.0094341879444442625 0 -0.00019602016313982918 -0.0095772040117957959 0 -0.00016053904143108606 -0.0094341879444442625 0 -0.00026155999613022938 -0.0096506812105499294 0 -0.00019602016313982918 -0.0095772040117957959 0 -0.00026155999613022938 -0.0096506812105499294 0 -0.00029002893113421802 -0.0097544084565952312 0 -0.00026155999613022938 -0.0096506812105499294 0 -0.00029002893113421802 -0.0097544084565952312 0 -0.00028141862008585167 -0.0099170858486006142 0 -0.00026155999613022938 -0.0096506812105499294 0 -0.00028141862008585167 -0.0099170858486006142 0 -0.00023463079900245501 -0.0096345620334006479 0 -0.00014812750211750254 -0.010019555014615975 0 -0.00012063538326077425 -0.010764227670230749 0 -5.4685529065975866e-09 -0.0099900457475503093 0 3.029016761868721e-05 -0.010292945902742965 0 9.6886426505247935e-08 -0.010872944330586847 0 -0.00029002893113421802 -0.0097544084565952312 0 -0.00029016519767147868 -0.010415446564643355 0 -0.00028141862008585167 -0.0099170858486006142 0 1.5401960196490609e-08 -0.011755697174281564 0 9.6886426505247935e-08 -0.010872944330586847 0 6.7297776955392953e-06 -0.011035826687860068 0 3.029016761868721e-05 -0.010292945902742965 0 9.6886426505247935e-08 -0.010872944330586847 0 6.7297776955392953e-06 -0.011035826687860068 0 -0.00012017571201855403 -0.010641459679625175 0 -0.00029016519767147868 -0.010415446564643355 0 -0.00020362331277341448 -0.010227128845196073 0 -0.00029016519767147868 -0.010415446564643355 0 -0.00020362331277341448 -0.010227128845196073 0 -0.00028141862008585167 -0.0099170858486006142 0 -0.00028141862008585167 -0.0099170858486006142 0 -0.00017182118242400684 -0.0098928720393808775 0 -0.00023463079900245501 -0.0096345620334006479 0 -0.00020362331277341448 -0.010227128845196073 0 -0.00028141862008585167 -0.0099170858486006142 0 -0.00017182118242400684 -0.0098928720393808775 0 -0.00019662735724156492 -0.0096320621136965073 0 -0.00023463079900245501 -0.0096345620334006479 0 -0.00025751986615246653 -0.0095412330009871267 0 -0.00017182118242400684 -0.0098928720393808775 0 -5.8022728477760924e-05 -0.00958766640589543 0 -0.00023463079900245501 -0.0096345620334006479 0 -3.9553220250628429e-06 -0.011103642891458586 0 -5.8454818308504738e-05 -0.010114764572047534 0 -0.00023463079900245501 -0.0096345620334006479 0 -0.00023761400223721427 -0.009524827738822756 0 -0.00025751986615246653 -0.0095412330009871267 0 -0.00026155999613022938 -0.0096506812105499294 0 -0.00023463079900245501 -0.0096345620334006479 0 -0.00023761400223721427 -0.009524827738822756 0 -0.00016053904143108606 -0.0094341879444442625 0 -0.00026155999613022938 -0.0096506812105499294 0 -0.00023761400223721427 -0.009524827738822756 0 -0.00020107792769712151 -0.0095008048251703885 0 -0.00023761400223721427 -0.009524827738822756 0 -0.00025751986615246653 -0.0095412330009871267 0 -0.00020107792769712151 -0.0095008048251703885 0 -0.00025751986615246653 -0.0095412330009871267 0 -0.0001643832809285159 -0.0095887707425370058 0 -3.9553220250628429e-06 -0.011103642891458586 0 -0.00023510986183485267 -0.01047731579277549 0 -0.00012792319802035944 -0.01166933215667164 0 -0.00012692733890551263 -0.011663493774486841 0 -0.00012169177654650841 -0.011669007163184987 0 -0.00012792319802035944 -0.01166933215667164 0 -0.00012169177654650841 -0.011669007163184987 0 -0.00012855378140929155 -0.011673495988618558 0 -0.00016325172189296473 -0.011696285737885875 0 -0.00012996714968186826 -0.011676518852724757 0 -0.00013875423962007069 -0.011703551071113273 0 -7.0820324938042337e-05 -0.012302447195729023 0 -1.5349254735318029e-05 -0.011854737884656718 0 -0.00011974550144918037 -0.011669571237257158 0 -0.00012996714968186826 -0.011676518852724757 0 -0.00013875423962007069 -0.011703551071113273 0 -0.00012169177654650841 -0.011669007163184987 0 -0.00012855378140929155 -0.011673495988618558 0 -0.00012996714968186826 -0.011676518852724757 0 -0.00013143027794984934 -0.011681267882293298 0 -0.00012855378140929155 -0.011673495988618558 0 -0.00012996714968186826 -0.011676518852724757 0 -0.00012169177654650841 -0.011669007163184987 0 -0.00011974550144918037 -0.011669571237257158 0 -0.00012996714968186826 -0.011676518852724757 0 -0.00025751986615246653 -0.0095412330009871267 0 -0.00022426315049411643 -0.0096913056918039881 0 -0.0001643832809285159 -0.0095887707425370058 0 -0.00023510986183485267 -0.01047731579277549 0 -0.00016868199528945047 -0.010865392984104617 0 -0.00012169177654650841 -0.011669007163184987 0 -0.00011974550144918037 -0.011669571237257158 0 -0.00012400525875974839 -0.01166118949816527 0 -0.00011974550144918037 -0.011669571237257158 0 -0.00012400525875974839 -0.01166118949816527 0 -0.00011477175466761235 -0.011664695637524503 0 -0.00016868199528945047 -0.010865392984104617 0 -1.6034420911951434e-05 -0.012244812204883109 0 -0.00011974550144918037 -0.011669571237257158 0 -0.00013875423962007069 -0.011703551071113273 0 -0.0001356690718305373 -0.011740836111883032 0 -7.1467458227700967e-05 -0.01152382047905676 0 -1.6034420911951434e-05 -0.012244812204883109 0 -3.6020614670618426e-06 -0.011016453577619285 0 2.0019201764017466e-05 -0.011031720180086507 0 2.8631146925178182e-07 -0.0110018798098059 0 -0.0001545364731117595 -0.011736651399485905 0 -0.00013875423962007069 -0.011703551071113273 0 -0.0001356690718305373 -0.011740836111883032 0 -0.00014657129872586757 -0.01174315254158812 0 -0.0001545364731117595 -0.011736651399485905 0 -0.0001356690718305373 -0.011740836111883032 0 -1.6034420911951434e-05 -0.012244812204883109 0 -0.00025007374335274271 -0.01278624432520385 0 -0.00017549198804617358 -0.012718441367120118 0 -1.6034420911951434e-05 -0.012244812204883109 0 -6.6673480371297336e-05 -0.012587405886813742 0 -0.00057132433714832012 -0.012645932280709525 0 -0.00038180924270327739 -0.012314956240198877 0 -0.00017549198804617358 -0.012718441367120118 0 -0.00025007374335274271 -0.01278624432520385 0 3.7111063125362872e-05 -0.013632471083879815 0 6.6836494456840593e-05 -0.013486916938019495 0 0.00012752068511937548 -0.013540445064726974 0 -0.00036125991551772533 -0.014190524813983911 0 -0.00034492762693560979 -0.014298247094851122 0 -0.0002594610364273485 -0.014300567846764634 0 2.0019201764017466e-05 -0.011031720180086507 0 2.1576384557079294e-05 -0.01103013745442896 0 2.8631146925178182e-07 -0.0110018798098059 0 -0.00025007374335274271 -0.01278624432520385 0 -0.00014828367903688095 -0.012613255200888148 0 -0.00029220343946471169 -0.014335967737896159 0 -0.00034492762693560979 -0.014298247094851122 0 -0.0002594610364273485 -0.014300567846764634 0 -0.00029220343946471169 -0.014335967737896159 0 -0.00034492762693560979 -0.014298247094851122 0 -0.00036604080949262808 -0.014361188460958199 0 -0.00036604080949262808 -0.014361188460958199 0 -0.00032639334386533293 -0.014411627148938863 0 -0.00039699033385129096 -0.014481825559928083 0 -0.00029220343946471169 -0.014335967737896159 0 -0.00036604080949262808 -0.014361188460958199 0 -0.00032639334386533293 -0.014411627148938863 0 -0.00029220343946471169 -0.014335967737896159 0 -0.00032639334386533293 -0.014411627148938863 0 -0.00027834051502310405 -0.014393317659755114 0 -0.00027834051502310405 -0.014393317659755114 0 -0.00033111310764140719 -0.014402148250113961 0 -0.00030854697609098927 -0.014227876951626502 0 -0.00014828367903688095 -0.012613255200888148 0 -1.6659103419367682e-05 -0.012824864205428495 0 -0.00029220343946471169 -0.014335967737896159 0 -0.00027834051502310405 -0.014393317659755114 0 -0.00033111310764140719 -0.014402148250113961 0 -0.00029220343946471169 -0.014335967737896159 0 -0.0002594610364273485 -0.014300567846764634 0 -0.00019166006846424769 -0.014320450196295761 0 -0.00027263915153028363 -0.014655709500213249 0 -1.6659103419367682e-05 -0.012824864205428495 0 -3.6020614670618426e-06 -0.011016453577619285 0 2.8631146925178182e-07 -0.0110018798098059 0 7.5431971060512687e-06 -0.01098507378726135 0 -0.00016868199528945047 -0.010865392984104617 0 2.898573079462265e-05 -0.011011416597507455 0 2.8631146925178182e-07 -0.0110018798098059 0 7.5431971060512687e-06 -0.01098507378726135 0 1.0882688958484044e-05 -0.01103553659211412 0 5.8450666913156676e-05 -0.010885434948174946 0 7.5431971060512687e-06 -0.01098507378726135 0 0.00013599645030694247 -0.010954734877352443 0 7.5431971060512687e-06 -0.01098507378726135 0 6.6684130318783949e-05 -0.011012718643873773 0 0.00013599645030694247 -0.010954734877352443 0 -8.6672710696855234e-05 -0.010812732039728951 0 5.8450666913156676e-05 -0.010885434948174946 0 7.5431971060512687e-06 -0.01098507378726135 0 0.00043664773857246184 -0.011434956228067039 0 -3.5702331580468287e-05 -0.011000799818414238 0 -0.00011909688631524206 -0.011174634856103604 0 -1.6659103419367682e-05 -0.012824864205428495 0 -0.00021359214917883687 -0.010179677663008728 0 7.5431971060512687e-06 -0.01098507378726135 0 6.6684130318783949e-05 -0.011012718643873773 0 1.0882688958484044e-05 -0.01103553659211412 0 6.6684130318783949e-05 -0.011012718643873773 0 1.0882688958484044e-05 -0.01103553659211412 0 0.00011057762357175067 -0.011083393028363182 0 -1.6659103419367682e-05 -0.012824864205428495 0 -0.00019505029481279318 -0.012742229187412414 0 -3.9626169812315288e-05 -0.009593941681315242 0 -0.00021359214917883687 -0.010179677663008728 0 -0.00020094316296157306 -0.0083686470684569397 0 -0.00022797560244206268 -0.008316593107246641 0 -0.00016467639838853713 -0.0083413421724276206 0 6.6684130318783949e-05 -0.011012718643873773 0 0.00013599645030694247 -0.010954734877352443 0 0.00011057762357175067 -0.011083393028363182 0 -0.00020094316296157306 -0.0083686470684569397 0 -0.00022797560244206268 -0.008316593107246641 0 -0.00023675706759346399 -0.0083995552480442878 0 -3.9626169812315288e-05 -0.009593941681315242 0 5.2562865262708165e-05 -0.0092639949198734511 0 -0.00022797560244206268 -0.008316593107246641 0 -0.00021927219551724075 -0.008224394120247636 0 -0.00017135959275359078 -0.008271963369177791 0 5.8450666913156676e-05 -0.010885434948174946 0 0.00013599645030694247 -0.010954734877352443 0 0.00016320845506078704 -0.010777160032169754 0 -0.00022426315049411643 -0.0096913056918039881 0 -3.3743711848006605e-05 -0.0096817274782807581 0 -0.0001643832809285159 -0.0095887707425370058 0 -0.00016868199528945047 -0.010865392984104617 0 5.2562865262708165e-05 -0.0092639949198734511 0 -8.6672710696855234e-05 -0.010812732039728951 0 5.8450666913156676e-05 -0.010885434948174946 0 0.00016320845506078704 -0.010777160032169754 0 0.00011045135663664013 -0.0083818988129097816 0 7.2707677017010331e-05 -0.0081652817968952615 0 -7.3388465923612798e-05 -0.0083030489722980116 0 4.5514796013094508e-05 -0.0088833950377785655 0 5.2562865262708165e-05 -0.0092639949198734511 0 -4.2268408418014754e-06 -0.0095264996730164732 0 -3.3743711848006605e-05 -0.0096817274782807581 0 -0.0001643832809285159 -0.0095887707425370058 0 -7.3388465923612798e-05 -0.0083030489722980116 0 -0.00016368459392133351 -0.0082644747294666008 0 -0.00012159023870011768 -0.0082086454336453337 0 7.2707677017010331e-05 -0.0081652817968952615 0 -7.3388465923612798e-05 -0.0083030489722980116 0 -0.00012159023870011768 -0.0082086454336453337 0 -0.00016368459392133351 -0.0082644747294666008 0 -0.00013267175435006392 -0.0082179105084863556 0 -0.0001222202973479213 -0.0081817525382873214 0 -0.00016368459392133351 -0.0082644747294666008 0 -0.00013267175435006392 -0.0082179105084863556 0 -0.00012159023870011768 -0.0082086454336453337 0 -0.00013267175435006392 -0.0082179105084863556 0 -0.00013207319751826083 -0.008265860192159049 0 -8.875081928198755e-05 -0.0082625375812433368 0 -0.00013267175435006392 -0.0082179105084863556 0 -0.00012159023870011768 -0.0082086454336453337 0 -0.00013207319751826083 -0.008265860192159049 0 -0.00012159023870011768 -0.0082086454336453337 0 -0.00017135959275359078 -0.008271963369177791 0 -0.00013207319751826083 -0.008265860192159049 0 -0.00021927219551724075 -0.008224394120247636 0 -0.00012159023870011768 -0.0082086454336453337 0 -0.00017135959275359078 -0.008271963369177791 0 5.2562865262708165e-05 -0.0092639949198734511 0 -0.00012041850400066509 -0.0081589906338487509 0 -0.00022797560244206268 -0.008316593107246641 0 -0.00017135959275359078 -0.008271963369177791 0 -0.00016467639838853713 -0.0083413421724276206 0 -0.00017135959275359078 -0.008271963369177791 0 -0.00016467639838853713 -0.0083413421724276206 0 -0.00013207319751826083 -0.008265860192159049 0 -0.00020094316296157306 -0.0083686470684569397 0 -0.00016467639838853713 -0.0083413421724276206 0 -0.0001741115805701173 -0.0084175235305075681 0 -0.00016467639838853713 -0.0083413421724276206 0 -0.0001088221103602064 -0.0083312191962058354 0 -0.00013254453170639615 -0.0083950503805833316 0 -0.0001088221103602064 -0.0083312191962058354 0 -8.4995878265628838e-05 -0.0083888366353260125 0 -0.00013254453170639615 -0.0083950503805833316 0 -0.0001088221103602064 -0.0083312191962058354 0 -0.00013207319751826083 -0.008265860192159049 0 -8.875081928198755e-05 -0.0082625375812433368 0 -0.00016467639838853713 -0.0083413421724276206 0 -0.0001088221103602064 -0.0083312191962058354 0 -0.00013207319751826083 -0.008265860192159049 0 -0.0001088221103602064 -0.0083312191962058354 0 -8.875081928198755e-05 -0.0082625375812433368 0 -3.6230293515674314e-05 -0.008330212276456684 0 -0.0001088221103602064 -0.0083312191962058354 0 -3.6230293515674314e-05 -0.008330212276456684 0 -8.4995878265628838e-05 -0.0083888366353260125 0 -3.6230293515674314e-05 -0.008330212276456684 0 -3.6709434545027811e-06 -0.0084271140830453131 0 8.8367103319673756e-05 -0.0083119661568839091 0 -3.6230293515674314e-05 -0.008330212276456684 0 -3.4458546147879857e-06 -0.0082559824515364751 0 8.8367103319673756e-05 -0.0083119661568839091 0 -8.875081928198755e-05 -0.0082625375812433368 0 -3.6230293515674314e-05 -0.008330212276456684 0 -3.4458546147879857e-06 -0.0082559824515364751 0 -3.4458546147879857e-06 -0.0082559824515364751 0 8.4603661101182251e-06 -0.0081908233142994179 0 -6.8595588429621275e-05 -0.0082088613633835971 0 -8.875081928198755e-05 -0.0082625375812433368 0 -3.4458546147879857e-06 -0.0082559824515364751 0 -6.8595588429621275e-05 -0.0082088613633835971 0 -0.00013267175435006392 -0.0082179105084863556 0 -6.8595588429621275e-05 -0.0082088613633835971 0 -0.0001222202973479213 -0.0081817525382873214 0 -0.00013267175435006392 -0.0082179105084863556 0 -8.875081928198755e-05 -0.0082625375812433368 0 -6.8595588429621275e-05 -0.0082088613633835971 0 -0.00015202791994662306 -0.0080889778874614019 0 -0.0001222202973479213 -0.0081817525382873214 0 -3.7393862668184851e-05 -0.0081142628046978488 0 -6.8595588429621275e-05 -0.0082088613633835971 0 -0.0001222202973479213 -0.0081817525382873214 0 -3.7393862668184851e-05 -0.0081142628046978488 0 8.4603661101182251e-06 -0.0081908233142994179 0 -6.8595588429621275e-05 -0.0082088613633835971 0 -3.7393862668184851e-05 -0.0081142628046978488 0 0.00032866374917233851 -0.0095257769513248935 0 -1.8197784936928164e-05 -0.0095160264557936601 0 0.0002235523579783446 -0.0092620314073102103 0 0.00032866374917233851 -0.0095257769513248935 0 0.0002235523579783446 -0.0092620314073102103 0 0.00059372758940386366 -0.0093649742302168715 0 0.00032866374917233851 -0.0095257769513248935 0 -1.8197784936928164e-05 -0.0095160264557936601 0 0.00032245348350328466 -0.0098121801863838877 0 -0.00037436804392099453 -0.011349334125362633 0 -6.6583779588913589e-05 -0.011745861884922522 0 -0.00067862339875801787 -0.013255248540647847 0 -0.00089983815597745342 -0.013305042607206505 0 -0.00074146095072653178 -0.013411524007639616 0 -0.00037436804392099453 -0.011349334125362633 0 -0.00060385731532980032 -0.011258719131385589 0 -0.00011177362840139853 -0.0091496747320804241 0 0.0002235523579783446 -0.0092620314073102103 0 7.8593265155648697e-05 -0.0089962218369632769 0 -1.8197784936928164e-05 -0.0095160264557936601 0 -0.00011177362840139853 -0.0091496747320804241 0 0.0002235523579783446 -0.0092620314073102103 0 -1.8197784936928164e-05 -0.0095160264557936601 0 -0.00011177362840139853 -0.0091496747320804241 0 -0.00034842147817800264 -0.0092368355078152886 0 0.0002235523579783446 -0.0092620314073102103 0 7.8593265155648697e-05 -0.0089962218369632769 0 0.00044691726943196569 -0.0090316143030212143 0 0.00024065999709889984 -0.0086852668542988266 0 7.8593265155648697e-05 -0.0089962218369632769 0 0.00044691726943196569 -0.0090316143030212143 0 -3.6230293515674314e-05 -0.008330212276456684 0 -3.6709434545027811e-06 -0.0084271140830453131 0 -8.4995878265628838e-05 -0.0083888366353260125 0 -3.6709434545027811e-06 -0.0084271140830453131 0 -8.4995878265628838e-05 -0.0083888366353260125 0 -0.00010776737182586674 -0.0084411230923772812 0 0.00014170933297484586 -0.008471441305539144 0 -0.00022302182139437394 -0.0091182762114677754 0 -0.00011177362840139853 -0.0091496747320804241 0 7.8593265155648697e-05 -0.0089962218369632769 0 -0.00026051987845693259 -0.008809880985432875 0 0.00024065999709889984 -0.0086852668542988266 0 7.8593265155648697e-05 -0.0089962218369632769 0 -0.00026051987845693259 -0.008809880985432875 0 -0.00033451565276207905 -0.0090835585972890674 0 -0.0007498451269454205 -0.0089214874871205527 0 -0.00034940899352106349 -0.009249179506794233 0 -0.00011177362840139853 -0.0091496747320804241 0 -0.00033451565276207905 -0.0090835585972890674 0 -0.00026051987845693259 -0.008809880985432875 0 -0.00033451565276207905 -0.0090835585972890674 0 -0.0002962000059769874 -0.0088190010245742696 0 -0.0007498451269454205 -0.0089214874871205527 0 -0.00033451565276207905 -0.0090835585972890674 0 -0.0002962000059769874 -0.0088190010245742696 0 -0.00026051987845693259 -0.008809880985432875 0 -0.00038415770618416289 -0.0093621695592298326 0 -0.00022302182139437394 -0.0091182762114677754 0 -0.00011451578804503802 -0.008441965529964705 0 -0.00011006681326078444 -0.0084165963377644155 0 -0.00013254453170639615 -0.0083950503805833316 0 -0.00011451578804503802 -0.008441965529964705 0 -0.00013254453170639615 -0.0083950503805833316 0 -0.0001741115805701173 -0.0084175235305075681 0 -0.00038415770618416289 -0.0093621695592298326 0 -0.00034278284485111677 -0.0096671724481522947 0 -8.4995878265628838e-05 -0.0083888366353260125 0 -0.00010776737182586674 -0.0084411230923772812 0 -0.00011006681326078444 -0.0084165963377644155 0 -0.00011451578804503802 -0.008441965529964705 0 -0.00010776737182586674 -0.0084411230923772812 0 -0.00011006681326078444 -0.0084165963377644155 0 -8.4995878265628838e-05 -0.0083888366353260125 0 -0.00011006681326078444 -0.0084165963377644155 0 -0.00013254453170639615 -0.0083950503805833316 0 -0.00084684094623360825 -0.010774298927296895 0 -0.00048208517729943511 -0.010946463762008219 0 -0.00036630036332251748 -0.010717875699351887 0 -0.00016467639838853713 -0.0083413421724276206 0 -0.00013254453170639615 -0.0083950503805833316 0 -0.0001741115805701173 -0.0084175235305075681 0 -0.00048208517729943511 -0.010946463762008219 0 -0.00036630036332251748 -0.010717875699351887 0 -0.00021810409001620651 -0.010962430850739748 0 -0.00038415770618416289 -0.0093621695592298326 0 -0.00066196250719956868 -0.011540535005771213 0 -0.00066196250719956868 -0.011540535005771213 0 -0.00060385731532980032 -0.011258719131385589 0 -0.000703592769027444 -0.012726144009531804 0 -0.00062903886097744825 -0.013027041394971687 0 -0.00082968388602426243 -0.013004182079344109 0 -0.000703592769027444 -0.012726144009531804 0 -0.00062903886097744825 -0.013027041394971687 0 -0.00043343325305267993 -0.012949066264568078 0 -0.00062903886097744825 -0.013027041394971687 0 -0.00043343325305267993 -0.012949066264568078 0 -0.00045208108356616978 -0.013218454733507499 0 -0.00011177362840139853 -0.0091496747320804241 0 -0.00033451565276207905 -0.0090835585972890674 0 -0.00034842147817800264 -0.0092368355078152886 0 -0.00037727498856905689 -0.0091548198527971886 0 -0.00060385731532980032 -0.011258719131385589 0 -0.00060385731532980032 -0.011258719131385589 0 -0.00069926871106168974 -0.013545747250206505 0 -0.00067862339875801787 -0.013255248540647847 0 -0.00088191021644045092 -0.013043390543531076 0 -0.00089983815597745342 -0.013305042607206505 0 -0.00062903886097744825 -0.013027041394971687 0 -0.00045208108356616978 -0.013218454733507499 0 -0.00066003799331487993 -0.013242002492563456 0 -0.00062903886097744825 -0.013027041394971687 0 -0.00066003799331487993 -0.013242002492563456 0 -0.00082968388602426243 -0.013004182079344109 0 -0.00059606368925811432 -0.014310485996253477 0 -0.00041022999063399608 -0.014375954289701088 0 -0.00048932542946289014 -0.014456249432596539 0 -0.00060456564924827347 -0.01380954307180032 0 -0.00069142440996502585 -0.01367658950671528 0 -0.00059606368925811432 -0.014310485996253477 0 -0.00041022999063399608 -0.014375954289701088 0 -0.00045540241096138004 -0.014215471941822721 0 -0.00035909192635140771 -0.014507690548865941 0 -0.00048932542946289014 -0.014456249432596539 0 -0.00034851762311485752 -0.014567631925175998 0 -0.00041022999063399608 -0.014375954289701088 0 -0.00035909192635140771 -0.014507690548865941 0 -0.00027745986834116674 -0.014541584795265279 0 -0.00041022999063399608 -0.014375954289701088 0 -0.00035909192635140771 -0.014507690548865941 0 -0.00048932542946289014 -0.014456249432596539 0 -0.00069142440996502585 -0.01367658950671528 0 -0.00055643312092787422 -0.013921280837969551 0 -0.000703592769027444 -0.012726144009531804 0 -0.00082968388602426243 -0.013004182079344109 0 -0.00099377234725171715 -0.012785705684389945 0 -0.00066196250719956868 -0.011540535005771213 0 -0.00055643312092787422 -0.013921280837969551 0 -0.0007359916397430441 -0.014054951141414401 0 -0.00053273566663767171 -0.014248539968221056 0 -0.00042564680407818615 -0.014037054563572795 0 -0.00034278284485111677 -0.0096671724481522947 0 -0.00021359214917883687 -0.010179677663008728 0 -0.00066196250719956868 -0.011540535005771213 0 -0.00019505029481279318 -0.012742229187412414 0 -0.00020094316296157306 -0.0083686470684569397 0 -0.0001741115805701173 -0.0084175235305075681 0 -0.00023675706759346399 -0.0083995552480442878 0 -0.00048208517729943511 -0.010946463762008219 0 -0.00021810409001620651 -0.010962430850739748 0 -0.00010324790189457311 -0.011120968746928682 0 -0.00036630036332251748 -0.010717875699351887 0 -0.00021810409001620651 -0.010962430850739748 0 -3.5702331580468287e-05 -0.011000799818414238 0 -0.00021810409001620651 -0.010962430850739748 0 -9.6291102462564085e-05 -0.011022524573298503 0 -3.5702331580468287e-05 -0.011000799818414238 0 -9.6291102462564085e-05 -0.011022524573298503 0 -3.5702331580468287e-05 -0.011000799818414238 0 -0.00011909688631524206 -0.011174634856103604 0 -0.00021810409001620651 -0.010962430850739748 0 -9.6291102462564085e-05 -0.011022524573298503 0 -0.00010324790189457311 -0.011120968746928682 0 -0.00021109022278945392 -0.010701964776060231 0 -0.00021359214917883687 -0.010179677663008728 0 -0.00053273566663767171 -0.014248539968221056 0 -0.00042564680407818615 -0.014037054563572795 0 -0.00030854697609098927 -0.014227876951626502 0 -0.00033111310764140719 -0.014402148250113961 0 -0.00053273566663767171 -0.014248539968221056 0 -0.00030854697609098927 -0.014227876951626502 0 -0.00055643312092787422 -0.013921280837969551 0 -0.00025603774040646452 -0.014421816266864009 0 -0.00033221665312788948 -0.01456470091301942 0 -0.00032861064411951441 -0.014563138372205943 0 -0.00026082839941958557 -0.014524854477818341 0 -0.00055643312092787422 -0.013921280837969551 0 -0.00053346335365677604 -0.013945770219929817 0 -0.00035909192635140771 -0.014507690548865941 0 -0.00034851762311485752 -0.014567631925175998 0 -0.00032861064411951441 -0.014563138372205943 0 -0.00035909192635140771 -0.014507690548865941 0 -0.00032861064411951441 -0.014563138372205943 0 -0.00030950090554751717 -0.014544486011591489 0 -0.00032861064411951441 -0.014563138372205943 0 -0.00030950090554751717 -0.014544486011591489 0 -0.0002831003341591204 -0.014557599533101926 0 -0.0002831003341591204 -0.014557599533101926 0 -0.00029857715072953563 -0.014521254468758137 0 -0.00028721663543214524 -0.014576750152785464 0 -0.00030950090554751717 -0.014544486011591489 0 -0.0002831003341591204 -0.014557599533101926 0 -0.00027745986834116674 -0.014541584795265279 0 -0.0002831003341591204 -0.014557599533101926 0 -0.00028721663543214524 -0.014576750152785464 0 -0.00027745986834116674 -0.014541584795265279 0 -0.00032861064411951441 -0.014563138372205943 0 -0.0002831003341591204 -0.014557599533101926 0 -0.00026082839941958557 -0.014524854477818341 0 -0.00027834051502310405 -0.014393317659755114 0 -0.00026082839941958557 -0.014524854477818341 0 -0.00029857715072953563 -0.014521254468758137 0 -0.0002831003341591204 -0.014557599533101926 0 -0.00026082839941958557 -0.014524854477818341 0 -0.00029857715072953563 -0.014521254468758137 0 -0.00029731657044206993 -0.014365732174848654 0 -0.00025603774040646452 -0.014421816266864009 0 -0.00029857715072953563 -0.014521254468758137 0 -0.0003038434362761428 -0.014613515052607069 0 -0.00039699033385129096 -0.014481825559928083 0 -0.00032639334386533293 -0.014411627148938863 0 -0.00029857715072953563 -0.014521254468758137 0 -0.00039699033385129096 -0.014481825559928083 0 -0.00032639334386533293 -0.014411627148938863 0 -0.00027834051502310405 -0.014393317659755114 0 -0.00029857715072953563 -0.014521254468758137 0 -0.00029857715072953563 -0.014521254468758137 0 -0.0003038434362761428 -0.014613515052607069 0 -0.00028721663543214524 -0.014576750152785464 0 -0.0003038434362761428 -0.014613515052607069 0 -0.00028721663543214524 -0.014576750152785464 0 -0.00027470465635729281 -0.014563532037165795 0 -0.00028721663543214524 -0.014576750152785464 0 -0.00027470465635729281 -0.014563532037165795 0 -0.00027745986834116674 -0.014541584795265279 0 -0.00035909192635140771 -0.014507690548865941 0 -0.00030950090554751717 -0.014544486011591489 0 -0.00027745986834116674 -0.014541584795265279 0 -0.00027470465635729281 -0.014563532037165795 0 -0.00027745986834116674 -0.014541584795265279 0 -0.0002956669428767896 -0.014538762474721419 0 -0.00027795800371167433 -0.014533842816306541 0 -0.00030046693568156542 -0.014409812977466015 0 -0.00041022999063399608 -0.014375954289701088 0 -0.00027745986834116674 -0.014541584795265279 0 -0.00029911653551276899 -0.014278181109317067 0 -0.00027470465635729281 -0.014563532037165795 0 -0.00023528972577601282 -0.014527535984131659 0 -0.0002956669428767896 -0.014538762474721419 0 -0.00023528972577601282 -0.014527535984131659 0 -0.0002956669428767896 -0.014538762474721419 0 -0.00022588423068687662 -0.014470669378408503 0 -0.00030046693568156542 -0.014409812977466015 0 -0.00036171506036562111 -0.014258023621610084 0 -0.0002956669428767896 -0.014538762474721419 0 -0.00022588423068687662 -0.014470669378408503 0 -0.00034516328536526538 -0.014437467328545697 0 -0.00022588423068687662 -0.014470669378408503 0 -0.000213723560376171 -0.01430718096162692 0 -0.00034516328536526538 -0.014437467328545697 0 -0.000213723560376171 -0.01430718096162692 0 -0.00034516328536526538 -0.014437467328545697 0 -0.00041472561403949808 -0.014127124058167901 0 -0.00037907153236345278 -0.014079304055599007 0 -0.00044246770746164129 -0.01405763791756136 0 -0.0005076323464557115 -0.014071265030747546 0 -0.00037907153236345278 -0.014079304055599007 0 -0.00044246770746164129 -0.01405763791756136 0 -0.00041472561403949808 -0.014127124058167901 0 -0.00036171506036562111 -0.014258023621610084 0 -0.00040888178269289638 -0.014132907807157653 0 -0.00044246770746164129 -0.01405763791756136 0 -0.00041472561403949808 -0.014127124058167901 0 -0.00052199383381931438 -0.01396798026137161 0 -0.00044246770746164129 -0.01405763791756136 0 -0.00052199383381931438 -0.01396798026137161 0 -0.0005076323464557115 -0.014071265030747546 0 -0.0005076323464557115 -0.014071265030747546 0 -0.00045540241096138004 -0.014215471941822721 0 -0.00056238462093541634 -0.014192236486419695 0 -0.00037907153236345278 -0.014079304055599007 0 -0.0005076323464557115 -0.014071265030747546 0 -0.00045540241096138004 -0.014215471941822721 0 -0.00041022999063399608 -0.014375954289701088 0 -0.00029911653551276899 -0.014278181109317067 0 -0.00045540241096138004 -0.014215471941822721 0 -0.00029911653551276899 -0.014278181109317067 0 -0.00037907153236345278 -0.014079304055599007 0 -0.00045540241096138004 -0.014215471941822721 0 -0.00059606368925811432 -0.014310485996253477 0 -0.00045540241096138004 -0.014215471941822721 0 -0.00056238462093541634 -0.014192236486419695 0 -0.00060456564924827347 -0.01380954307180032 0 -0.00065761179635645474 -0.013717254459064366 0 -0.00059606368925811432 -0.014310485996253477 0 -0.00056238462093541634 -0.014192236486419695 0 -0.00069752304478409377 -0.014171439533633841 0 -0.00089983815597745342 -0.013305042607206505 0 -0.00090721108132456286 -0.013531262639398538 0 -0.00074146095072653178 -0.013411524007639616 0 -0.00069926871106168974 -0.013545747250206505 0 -0.00065761179635645474 -0.013717254459064366 0 -0.00045208108356616978 -0.013218454733507499 0 -0.00066003799331487993 -0.013242002492563456 0 -0.00047672328098489184 -0.013492440350782573 0 -0.00065761179635645474 -0.013717254459064366 0 -0.00073184478015724354 -0.013728971891206559 0 -0.00065761179635645474 -0.013717254459064366 0 -0.00066921701978249189 -0.014005937322655267 0 -0.0005076323464557115 -0.014071265030747546 0 -0.00056238462093541634 -0.014192236486419695 0 -0.00069752304478409377 -0.014171439533633841 0 -0.0005076323464557115 -0.014071265030747546 0 -0.00069752304478409377 -0.014171439533633841 0 -0.0006529750493883688 -0.013889682892880504 0 -0.00052199383381931438 -0.01396798026137161 0 -0.0005076323464557115 -0.014071265030747546 0 -0.0006529750493883688 -0.013889682892880504 0 -0.00052199383381931438 -0.01396798026137161 0 -0.0006062354131846923 -0.013881654435500088 0 -0.0006529750493883688 -0.013889682892880504 0 -0.0006062354131846923 -0.013881654435500088 0 -0.00063910628572356695 -0.013821477449377296 0 -0.0006529750493883688 -0.013889682892880504 0 -0.00063910628572356695 -0.013821477449377296 0 -0.0006529750493883688 -0.013889682892880504 0 -0.00065823195627537671 -0.013790445690979132 0 -0.00067721199307756359 -0.013784847109911636 0 -0.0006529750493883688 -0.013889682892880504 0 -0.000675262513651664 -0.013766932256390073 0 -0.0006529750493883688 -0.013889682892880504 0 -0.000675262513651664 -0.013766932256390073 0 -0.00065823195627537671 -0.013790445690979132 0 -0.000675262513651664 -0.013766932256390073 0 -0.00065823195627537671 -0.013790445690979132 0 -0.00062860722751879861 -0.013708614905536572 0 -0.00065823195627537671 -0.013790445690979132 0 -0.00062860722751879861 -0.013708614905536572 0 -0.00065148195826479995 -0.013759794744555598 0 -0.00063910628572356695 -0.013821477449377296 0 -0.00065823195627537671 -0.013790445690979132 0 -0.00065148195826479995 -0.013759794744555598 0 -0.00062327814242182434 -0.013715746762756343 0 -0.00062860722751879861 -0.013708614905536572 0 -0.00065148195826479995 -0.013759794744555598 0 -0.00062327814242182434 -0.013715746762756343 0 -0.00062860722751879861 -0.013708614905536572 0 -0.00058815475773502221 -0.013604280201225586 0 -0.00062860722751879861 -0.013708614905536572 0 -0.00058424074763648872 -0.013631905865282051 0 -0.00058815475773502221 -0.013604280201225586 0 -0.00062860722751879861 -0.013708614905536572 0 -0.00058424074763648872 -0.013631905865282051 0 -0.00060294035175686512 -0.013625243952121186 0 -0.000675262513651664 -0.013766932256390073 0 -0.00062860722751879861 -0.013708614905536572 0 -0.00060294035175686512 -0.013625243952121186 0 -0.00060294035175686512 -0.013625243952121186 0 -0.00068231536289654155 -0.013554369244452084 0 -0.00054378141252095318 -0.013450014012577826 0 -0.00058424074763648872 -0.013631905865282051 0 -0.00060294035175686512 -0.013625243952121186 0 -0.00055121935924448955 -0.013599050442745918 0 -0.00060294035175686512 -0.013625243952121186 0 -0.00054378141252095318 -0.013450014012577826 0 -0.00055121935924448955 -0.013599050442745918 0 -0.000675262513651664 -0.013766932256390073 0 -0.00060294035175686512 -0.013625243952121186 0 -0.00068231536289654155 -0.013554369244452084 0 -0.00090721108132456286 -0.013531262639398538 0 -0.000675262513651664 -0.013766932256390073 0 -0.00068231536289654155 -0.013554369244452084 0 -0.00068231536289654155 -0.013554369244452084 0 -0.00074146095072653178 -0.013411524007639616 0 -0.00054378141252095318 -0.013450014012577826 0 -0.00067862339875801787 -0.013255248540647847 0 -0.00074146095072653178 -0.013411524007639616 0 -0.00054378141252095318 -0.013450014012577826 0 -0.00090721108132456286 -0.013531262639398538 0 -0.00068231536289654155 -0.013554369244452084 0 -0.00074146095072653178 -0.013411524007639616 0 -3.0449520186407718e-06 -0.014954961977479092 0 4.0104782080184755e-08 -0.014975506950851016 0 -1.146061518236346e-05 -0.01495165861061145 0 -3.0449520186407718e-06 -0.014954961977479092 0 -1.146061518236346e-05 -0.01495165861061145 0 -2.1120231703998935e-05 -0.014944374902765314 0 -3.0449520186407718e-06 -0.014954961977479092 0 -7.594929744549418e-06 -0.014933759820610839 0 -2.1120231703998935e-05 -0.014944374902765314 0 -3.0449520186407718e-06 -0.014954961977479092 0 -7.594929744549418e-06 -0.014933759820610839 0 7.5263502592755302e-06 -0.014945493692026272 0 -3.0449520186407718e-06 -0.014954961977479092 0 5.8365967940952694e-06 -0.014969774039179538 0 7.5263502592755302e-06 -0.014945493692026272 0 5.8365967940952694e-06 -0.014969774039179538 0 9.2716498989844831e-09 -0.014999959223070758 0 1.4225845990216174e-05 -0.014957978349793299 0 5.8365967940952694e-06 -0.014969774039179538 0 9.2716498989844831e-09 -0.014999959223070758 0 6.512538158845752e-10 -0.014999968681019965 0 -3.0449520186407718e-06 -0.014954961977479092 0 5.8365967940952694e-06 -0.014969774039179538 0 4.0104782080184755e-08 -0.014975506950851016 0 5.8365967940952694e-06 -0.014969774039179538 0 6.512538158845752e-10 -0.014999968681019965 0 4.0104782080184755e-08 -0.014975506950851016 0 6.512538158845752e-10 -0.014999968681019965 0 4.0104782080184755e-08 -0.014975506950851016 0 1.7241858087393347e-09 -0.014999975368726458 0 4.0104782080184755e-08 -0.014975506950851016 0 1.7241858087393347e-09 -0.014999975368726458 0 -2.9340460527882433e-06 -0.014972488304130395 0 -2.9340460527882433e-06 -0.014972488304130395 0 -1.146061518236346e-05 -0.01495165861061145 0 -1.1716273827533342e-05 -0.014950446463978155 0 4.0104782080184755e-08 -0.014975506950851016 0 -2.9340460527882433e-06 -0.014972488304130395 0 -1.146061518236346e-05 -0.01495165861061145 0 -1.146061518236346e-05 -0.01495165861061145 0 -1.1716273827533342e-05 -0.014950446463978155 0 -2.6074431641579004e-05 -0.014922510870912084 0 -1.146061518236346e-05 -0.01495165861061145 0 -2.6074431641579004e-05 -0.014922510870912084 0 -2.1120231703998935e-05 -0.014944374902765314 0 -2.3512581172097407e-05 -0.014907838482163985 0 -2.45374915730379e-05 -0.014871069130602588 0 -2.6074431641579004e-05 -0.014922510870912084 0 -1.8939625039120321e-05 -0.01493202462391342 0 -2.3512581172097407e-05 -0.014907838482163985 0 -2.6074431641579004e-05 -0.014922510870912084 0 -1.1716273827533342e-05 -0.014950446463978155 0 -1.8939625039120321e-05 -0.01493202462391342 0 -2.6074431641579004e-05 -0.014922510870912084 0 -3.1029350698809847e-05 -0.014916641555528984 0 -1.8939625039120321e-05 -0.01493202462391342 0 -2.3512581172097407e-05 -0.014907838482163985 0 -3.1029350698809847e-05 -0.014916641555528984 0 -2.3512581172097407e-05 -0.014907838482163985 0 -2.45374915730379e-05 -0.014871069130602588 0 -7.400464939416109e-05 -0.014904837586345244 0 -3.1029350698809847e-05 -0.014916641555528984 0 -2.45374915730379e-05 -0.014871069130602588 0 -7.400464939416109e-05 -0.014904837586345244 0 -2.45374915730379e-05 -0.014871069130602588 0 -0.0001153387719524154 -0.014793295894617055 0 -2.45374915730379e-05 -0.014871069130602588 0 -2.6074431641579004e-05 -0.014922510870912084 0 -2.3623501690191774e-05 -0.014942211578998948 0 -2.45374915730379e-05 -0.014871069130602588 0 -0.00012334446847811733 -0.014660624098151526 0 -5.348258545524767e-05 -0.014591673074077818 0 -2.5395204344757932e-05 -0.014866007845421471 0 -4.0376010611261789e-05 -0.01476898878937348 0 -0.00031214130831694738 -0.014624807153090513 0 -0.0003341892763492816 -0.014630406042047552 0 -0.0003038434362761428 -0.014613515052607069 0 -0.00027199721934321769 -0.014814427281210633 0 -0.00019958388609047373 -0.014744360661691696 0 -0.00027199721934321769 -0.014814427281210633 0 -0.00016551303640202134 -0.014858527203961585 0 -0.00019958388609047373 -0.014744360661691696 0 -0.00016551303640202134 -0.014858527203961585 0 -0.0001153387719524154 -0.014793295894617055 0 -0.00019958388609047373 -0.014744360661691696 0 -0.00016883568674644106 -0.014882475057909938 0 -0.00011550228758301633 -0.014798610867038488 0 -7.400464939416109e-05 -0.014904837586345244 0 -0.00014002060813138334 -0.014894649865059933 0 -0.0001153387719524154 -0.014793295894617055 0 -2.45374915730379e-05 -0.014871069130602588 0 -0.0001153387719524154 -0.014793295894617055 0 -0.00012334446847811733 -0.014660624098151526 0 -0.00012334446847811733 -0.014660624098151526 0 -0.00019958388609047373 -0.014744360661691696 0 -0.00021380366368637334 -0.014641150697671248 0 -0.0001153387719524154 -0.014793295894617055 0 -0.00012334446847811733 -0.014660624098151526 0 -0.00019958388609047373 -0.014744360661691696 0 -0.0003038434362761428 -0.014613515052607069 0 -0.00019958388609047373 -0.014744360661691696 0 -0.00021380366368637334 -0.014641150697671248 0 -0.00021006403620498664 -0.014635886687507375 0 -0.00018838865466244518 -0.014536525621083854 0 -0.0003038434362761428 -0.014613515052607069 0 -0.00027470465635729281 -0.014563532037165795 0 -0.00021380366368637334 -0.014641150697671248 0 -0.00027470465635729281 -0.014563532037165795 0 -0.00021380366368637334 -0.014641150697671248 0 -0.00020531421194187337 -0.014546558858451551 0 -0.00012334446847811733 -0.014660624098151526 0 -0.00017221305779712101 -0.014518489646663654 0 -5.348258545524767e-05 -0.014591673074077818 0 -0.00012334446847811733 -0.014660624098151526 0 -0.00021380366368637334 -0.014641150697671248 0 -0.00017221305779712101 -0.014518489646663654 0 -0.00017221305779712101 -0.014518489646663654 0 -5.348258545524767e-05 -0.014591673074077818 0 -9.0729082000993416e-05 -0.014476570142051479 0 -0.00027470465635729281 -0.014563532037165795 0 -0.00023528972577601282 -0.014527535984131659 0 -0.00020531421194187337 -0.014546558858451551 0 -2.6074431641579004e-05 -0.014922510870912084 0 -2.1120231703998935e-05 -0.014944374902765314 0 -2.3623501690191774e-05 -0.014942211578998948 0 -2.1120231703998935e-05 -0.014944374902765314 0 -2.3623501690191774e-05 -0.014942211578998948 0 -2.9224936576413199e-05 -0.014935750481556216 0 -2.3623501690191774e-05 -0.014942211578998948 0 -2.9224936576413199e-05 -0.014935750481556216 0 -6.2460722660390359e-05 -0.014920392844046804 0 -4.0376010611261789e-05 -0.01476898878937348 0 -7.6798388335714584e-05 -0.014697748214152123 0 -7.594929744549418e-06 -0.014933759820610839 0 -2.1120231703998935e-05 -0.014944374902765314 0 -2.9224936576413199e-05 -0.014935750481556216 0 -7.594929744549418e-06 -0.014933759820610839 0 -2.9224936576413199e-05 -0.014935750481556216 0 -1.4045018167814475e-05 -0.014879101909805723 0 -2.9224936576413199e-05 -0.014935750481556216 0 -6.2460722660390359e-05 -0.014920392844046804 0 -1.4045018167814475e-05 -0.014879101909805723 0 -7.6798388335714584e-05 -0.014697748214152123 0 -0.00010189175418059665 -0.014624784382853877 0 -6.2460722660390359e-05 -0.014920392844046804 0 -1.4045018167814475e-05 -0.014879101909805723 0 -0.00010350019957165454 -0.014815787392311675 0 -0.00018838865466244518 -0.014536525621083854 0 -0.00015228577877921619 -0.014474920416586308 0 -0.00023528972577601282 -0.014527535984131659 0 -0.00020531421194187337 -0.014546558858451551 0 -0.00017149212870334182 -0.014500604193577371 0 -0.00023528972577601282 -0.014527535984131659 0 -0.00022588423068687662 -0.014470669378408503 0 -0.00017149212870334182 -0.014500604193577371 0 -0.00017221305779712101 -0.014518489646663654 0 -9.0729082000993416e-05 -0.014476570142051479 0 -0.000136794381017407 -0.014451990648221415 0 -0.000136794381017407 -0.014451990648221415 0 -0.00011051555143066145 -0.014440669266584433 0 -0.00011348831121014847 -0.01443844480479891 0 -9.0729082000993416e-05 -0.014476570142051479 0 -0.000136794381017407 -0.014451990648221415 0 -0.00011348831121014847 -0.01443844480479891 0 -0.00015228577877921619 -0.014474920416586308 0 -0.00011872009148846889 -0.014440684548321987 0 -0.00022588423068687662 -0.014470669378408503 0 -0.00017149212870334182 -0.014500604193577371 0 -0.00011051555143066145 -0.014440669266584433 0 -0.00022588423068687662 -0.014470669378408503 0 -0.000213723560376171 -0.01430718096162692 0 -0.00011051555143066145 -0.014440669266584433 0 -0.00011051555143066145 -0.014440669266584433 0 -7.1086499778694114e-05 -0.014518264398677806 0 -0.00011348831121014847 -0.01443844480479891 0 -0.00011051555143066145 -0.014440669266584433 0 -7.1086499778694114e-05 -0.014518264398677806 0 -0.00010827599389936018 -0.01438573253575689 0 -0.000213723560376171 -0.01430718096162692 0 -0.00011051555143066145 -0.014440669266584433 0 -0.00010827599389936018 -0.01438573253575689 0 -1.4045018167814475e-05 -0.014879101909805723 0 -2.8554120538978594e-05 -0.014702314043774263 0 1.5590930820152403e-05 -0.014756139618190995 0 -1.4045018167814475e-05 -0.014879101909805723 0 -0.00010350019957165454 -0.014815787392311675 0 -2.8554120538978594e-05 -0.014702314043774263 0 -7.1086499778694114e-05 -0.014518264398677806 0 -0.00010350019957165454 -0.014815787392311675 0 -2.8554120538978594e-05 -0.014702314043774263 0 -7.9380883340452965e-05 -0.014525362747385596 0 -0.00010189175418059665 -0.014624784382853877 0 -7.1086499778694114e-05 -0.014518264398677806 0 -2.8554120538978594e-05 -0.014702314043774263 0 2.3143397347540896e-05 -0.01465387319323835 0 -2.8554120538978594e-05 -0.014702314043774263 0 1.5590930820152403e-05 -0.014756139618190995 0 2.3143397347540896e-05 -0.01465387319323835 0 1.5590930820152403e-05 -0.014756139618190995 0 3.0228229046395097e-05 -0.014784670064661068 0 2.3143397347540896e-05 -0.01465387319323835 0 1.5590930820152403e-05 -0.014756139618190995 0 2.6988772005403184e-05 -0.01484694707317508 0 3.0228229046395097e-05 -0.014784670064661068 0 2.7608234063717688e-05 -0.014871596414611188 0 1.5498516744660214e-05 -0.014918619047153572 0 3.0228229046395097e-05 -0.014784670064661068 0 2.7608234063717688e-05 -0.014871596414611188 0 2.6988772005403184e-05 -0.01484694707317508 0 3.0228229046395097e-05 -0.014784670064661068 0 2.7608234063717688e-05 -0.014871596414611188 0 2.6988772005403184e-05 -0.01484694707317508 0 2.1217659271606457e-05 -0.014936002076401386 0 2.6988772005403184e-05 -0.01484694707317508 0 1.6158712216196755e-05 -0.014903003013231034 0 2.1217659271606457e-05 -0.014936002076401386 0 -1.4045018167814475e-05 -0.014879101909805723 0 1.5590930820152403e-05 -0.014756139618190995 0 2.6988772005403184e-05 -0.01484694707317508 0 -1.4045018167814475e-05 -0.014879101909805723 0 2.6988772005403184e-05 -0.01484694707317508 0 1.6158712216196755e-05 -0.014903003013231034 0 1.6158712216196755e-05 -0.014903003013231034 0 7.5263502592755302e-06 -0.014945493692026272 0 1.4225845990216174e-05 -0.014957978349793299 0 -7.594929744549418e-06 -0.014933759820610839 0 1.6158712216196755e-05 -0.014903003013231034 0 7.5263502592755302e-06 -0.014945493692026272 0 -7.594929744549418e-06 -0.014933759820610839 0 -1.4045018167814475e-05 -0.014879101909805723 0 1.6158712216196755e-05 -0.014903003013231034 0 9.2716498989844831e-09 -0.014999959223070758 0 1.4225845990216174e-05 -0.014957978349793299 0 2.1638851105630972e-08 -0.014999923843174374 0 5.8365967940952694e-06 -0.014969774039179538 0 7.5263502592755302e-06 -0.014945493692026272 0 1.4225845990216174e-05 -0.014957978349793299 0 1.6158712216196755e-05 -0.014903003013231034 0 1.4225845990216174e-05 -0.014957978349793299 0 2.1217659271606457e-05 -0.014936002076401386 0 1.4225845990216174e-05 -0.014957978349793299 0 2.1638851105630972e-08 -0.014999923843174374 0 2.1217659271606457e-05 -0.014936002076401386 0 2.1638851105630972e-08 -0.014999923843174374 0 2.1217659271606457e-05 -0.014936002076401386 0 1.9356852658772826e-08 -0.014999889537682805 0 2.7608234063717688e-05 -0.014871596414611188 0 2.1217659271606457e-05 -0.014936002076401386 0 1.5498516744660214e-05 -0.014918619047153572 0 2.1217659271606457e-05 -0.014936002076401386 0 1.9356852658772826e-08 -0.014999889537682805 0 1.5498516744660214e-05 -0.014918619047153572 0 1.9356852658772826e-08 -0.014999889537682805 0 1.5498516744660214e-05 -0.014918619047153572 0 1.6835307581082072e-08 -0.014999849767770931 0 1.5498516744660214e-05 -0.014918619047153572 0 1.1621928561024601e-05 -0.014862157746671729 0 3.0228229046395097e-05 -0.014784670064661068 0 1.5498516744660214e-05 -0.014918619047153572 0 1.1621928561024601e-05 -0.014862157746671729 0 1.6835307581082072e-08 -0.014999849767770931 0 1.1621928561024601e-05 -0.014862157746671729 0 1.6835307581082072e-08 -0.014999849767770931 0 -1.3576064328943127e-08 -0.014999898591441272 0 3.0228229046395097e-05 -0.014784670064661068 0 2.6176684816961867e-05 -0.014723591120279012 0 2.3143397347540896e-05 -0.01465387319323835 0 1.1621928561024601e-05 -0.014862157746671729 0 3.0228229046395097e-05 -0.014784670064661068 0 2.6176684816961867e-05 -0.014723591120279012 0 1.1621928561024601e-05 -0.014862157746671729 0 2.6176684816961867e-05 -0.014723591120279012 0 1.529113342604628e-05 -0.014755825136254334 0 1.529113342604628e-05 -0.014755825136254334 0 6.8004016398680417e-06 -0.014779576957442213 0 3.0676388068657276e-05 -0.014652432107028799 0 2.6176684816961867e-05 -0.014723591120279012 0 1.529113342604628e-05 -0.014755825136254334 0 3.0676388068657276e-05 -0.014652432107028799 0 1.1621928561024601e-05 -0.014862157746671729 0 1.529113342604628e-05 -0.014755825136254334 0 2.3091871554095416e-06 -0.014847257758257839 0 1.529113342604628e-05 -0.014755825136254334 0 2.3091871554095416e-06 -0.014847257758257839 0 6.8004016398680417e-06 -0.014779576957442213 0 2.3091871554095416e-06 -0.014847257758257839 0 6.8004016398680417e-06 -0.014779576957442213 0 -5.3315919443527303e-06 -0.014890329608069422 0 6.8004016398680417e-06 -0.014779576957442213 0 4.5040403096173366e-05 -0.01471838719403748 0 3.0676388068657276e-05 -0.014652432107028799 0 2.3091871554095416e-06 -0.014847257758257839 0 -1.3576064328943127e-08 -0.014999898591441272 0 -4.1232400622736743e-06 -0.014946468835448123 0 1.1621928561024601e-05 -0.014862157746671729 0 2.3091871554095416e-06 -0.014847257758257839 0 -1.3576064328943127e-08 -0.014999898591441272 0 -1.3576064328943127e-08 -0.014999898591441272 0 -4.1232400622736743e-06 -0.014946468835448123 0 -1.2989981969749937e-09 -0.014999814696181748 0 -4.1232400622736743e-06 -0.014946468835448123 0 -1.2989981969749937e-09 -0.014999814696181748 0 -1.3422652794526607e-06 -0.014986534522711349 0 -2.2968865380096209e-10 -0.015000000304889299 0 3.0919192607508138e-11 -0.014999999933958282 0 -4.7682568802095945e-07 -0.0150000666687875 0 -1.2989981969749937e-09 -0.014999814696181748 0 -1.3422652794526607e-06 -0.014986534522711349 0 -8.0719100470067105e-06 -0.014948001092555126 0 -2.0033207405634995e-09 -0.014999988489179713 0 -5.5504537413573669e-06 -0.014974488320008432 0 -1.321814664300575e-05 -0.014951363789329271 0 -9.6021130201977476e-06 -0.01494271098017106 0 -8.0719100470067105e-06 -0.014948001092555126 0 -1.3422652794526607e-06 -0.014986534522711349 0 -1.321814664300575e-05 -0.014951363789329271 0 -8.0719100470067105e-06 -0.014948001092555126 0 -8.0342989408403213e-06 -0.014975632819241337 0 -5.1175109169806633e-06 -0.01491741551912386 0 2.3091871554095416e-06 -0.014847257758257839 0 -4.1232400622736743e-06 -0.014946468835448123 0 -5.3315919443527303e-06 -0.014890329608069422 0 -4.1232400622736743e-06 -0.014946468835448123 0 -1.3422652794526607e-06 -0.014986534522711349 0 -5.3315919443527303e-06 -0.014890329608069422 0 -5.1175109169806633e-06 -0.01491741551912386 0 -2.4145432797603735e-05 -0.014927240490242809 0 6.8004016398680417e-06 -0.014779576957442213 0 -5.3315919443527303e-06 -0.014890329608069422 0 1.1887326721321406e-05 -0.014812704419908999 0 6.8004016398680417e-06 -0.014779576957442213 0 1.1887326721321406e-05 -0.014812704419908999 0 4.5040403096173366e-05 -0.01471838719403748 0 -1.321814664300575e-05 -0.014951363789329271 0 -3.4168524199135392e-06 -0.014931703613996225 0 -3.727682600486841e-06 -0.014936914407582769 0 -3.4168524199135392e-06 -0.014931703613996225 0 -3.727682600486841e-06 -0.014936914407582769 0 2.2338483145179617e-06 -0.014930030065598175 0 -1.321814664300575e-05 -0.014951363789329271 0 -3.727682600486841e-06 -0.014936914407582769 0 -9.6021130201977476e-06 -0.01494271098017106 0 -3.727682600486841e-06 -0.014936914407582769 0 -9.6021130201977476e-06 -0.01494271098017106 0 9.3073565371985634e-07 -0.014937502847429942 0 9.3073565371985634e-07 -0.014937502847429942 0 -5.8901816513653596e-06 -0.014951793411273836 0 3.2018519604343115e-06 -0.014955891320287542 0 -9.6021130201977476e-06 -0.01494271098017106 0 9.3073565371985634e-07 -0.014937502847429942 0 -5.8901816513653596e-06 -0.014951793411273836 0 -9.6021130201977476e-06 -0.01494271098017106 0 -5.8901816513653596e-06 -0.014951793411273836 0 -1.2671258946617398e-05 -0.014947962782281738 0 -3.9802209320513486e-06 -0.014994718434929529 0 1.4412800766207587e-07 -0.014996612191270119 0 -7.9212125552075546e-07 -0.014985962294881928 0 -3.9802209320513486e-06 -0.014994718434929529 0 1.4412800766207587e-07 -0.014996612191270119 0 -4.7682568802095945e-07 -0.0150000666687875 0 1.4412800766207587e-07 -0.014996612191270119 0 3.0919192607508138e-11 -0.014999999933958282 0 4.4104726290502601e-09 -0.014999982031662454 0 1.4412800766207587e-07 -0.014996612191270119 0 3.0919192607508138e-11 -0.014999999933958282 0 -4.7682568802095945e-07 -0.0150000666687875 0 -7.3652022667183676e-06 -0.01497150699866733 0 -5.5504537413573669e-06 -0.014974488320008432 0 -9.6021130201977476e-06 -0.01494271098017106 0 -1.2671258946617398e-05 -0.014947962782281738 0 -8.0719100470067105e-06 -0.014948001092555126 0 0.00015682440230344651 -0.01315342971894176 0 1.6524645805485541e-05 -0.012995627417710695 0 0.00020842905703278636 -0.012974121950267004 0 0.00015682440230344651 -0.01315342971894176 0 0.00034308114118790757 -0.013057007089740212 0 0.00033343390556298138 -0.013267764985491952 0 0.00015682440230344651 -0.01315342971894176 0 0.00020842905703278636 -0.012974121950267004 0 0.00034308114118790757 -0.013057007089740212 0 0.00015682440230344651 -0.01315342971894176 0 0.00033343390556298138 -0.013267764985491952 0 0.00015854953254933866 -0.013414848804249148 0 1.6524645805485541e-05 -0.012995627417710695 0 -0.00010771111638729379 -0.013255352922759365 0 -0.00018847108948434041 -0.013004525493133603 0 0.00015682440230344651 -0.01315342971894176 0 1.6524645805485541e-05 -0.012995627417710695 0 -0.00010771111638729379 -0.013255352922759365 0 1.6524645805485541e-05 -0.012995627417710695 0 0.00023260513998118107 -0.012589049404602797 0 0.00011489124459204965 -0.012671833973416261 0 -6.5027447251508384e-05 -0.012822963743263185 0 -0.00022133159078448268 -0.012695704074796579 0 0.00011489124459204965 -0.012671833973416261 0 7.3253050706949583e-06 -0.013016790982776342 0 0.00025839372149418768 -0.012630294372980931 0 1.6524645805485541e-05 -0.012995627417710695 0 -6.5027447251508384e-05 -0.012822963743263185 0 0.00011489124459204965 -0.012671833973416261 0 1.6524645805485541e-05 -0.012995627417710695 0 -6.5027447251508384e-05 -0.012822963743263185 0 -0.00018847108948434041 -0.013004525493133603 0 1.6524645805485541e-05 -0.012995627417710695 0 0.00020842905703278636 -0.012974121950267004 0 0.00020390691477269624 -0.012811900983933011 0 0.00020842905703278636 -0.012974121950267004 0 0.00034115335224706471 -0.012889139203604971 0 0.00020390691477269624 -0.012811900983933011 0 0.00045314160595001689 -0.012964607778835249 0 0.00034308114118790757 -0.013057007089740212 0 0.00054295976393775624 -0.013184475270135432 0 0.00045314160595001689 -0.012964607778835249 0 0.00034308114118790757 -0.013057007089740212 0 0.00034115335224706471 -0.012889139203604971 0 0.00045314160595001689 -0.012964607778835249 0 0.00045294368488051426 -0.012837691983710211 0 0.00034115335224706471 -0.012889139203604971 0 0.00020842905703278636 -0.012974121950267004 0 0.00034308114118790757 -0.013057007089740212 0 0.00034115335224706471 -0.012889139203604971 0 0.00031493724364596278 -0.013937305645639048 0 0.00012832896294802829 -0.014333591297544634 0 9.3073565371985634e-07 -0.014937502847429942 0 2.7717439267666753e-06 -0.014933458242738172 0 -3.1533663710144045e-07 -0.014919358574126258 0 0.00045314160595001689 -0.012964607778835249 0 0.00054295976393775624 -0.013184475270135432 0 0.00058955673895888625 -0.012883019409635941 0 3.8806975539627338e-05 -0.01513019278538706 0 0.00012832896294802829 -0.014333591297544634 0 -3.727682600486841e-06 -0.014936914407582769 0 9.3073565371985634e-07 -0.014937502847429942 0 2.7717439267666753e-06 -0.014933458242738172 0 0.00034308114118790757 -0.013057007089740212 0 0.00054295976393775624 -0.013184475270135432 0 0.00033343390556298138 -0.013267764985491952 0 0.00031493724364596278 -0.013937305645639048 0 0.00018085793752152082 -0.014410795685069562 0 0.00054295976393775624 -0.013184475270135432 0 0.00033343390556298138 -0.013267764985491952 0 0.00045836319941484747 -0.013606196756817979 0 0.00033343390556298138 -0.013267764985491952 0 0.00045836319941484747 -0.013606196756817979 0 0.00015854953254933866 -0.013414848804249148 0 2.7717439267666753e-06 -0.014933458242738172 0 2.2338483145179617e-06 -0.014930030065598175 0 1.0654964856486147e-05 -0.014920538882650075 0 -3.727682600486841e-06 -0.014936914407582769 0 2.7717439267666753e-06 -0.014933458242738172 0 2.2338483145179617e-06 -0.014930030065598175 0 -3.4168524199135392e-06 -0.014931703613996225 0 2.2338483145179617e-06 -0.014930030065598175 0 1.0654964856486147e-05 -0.014920538882650075 0 1.1887326721321406e-05 -0.014812704419908999 0 0.00011837443234083216 -0.014785803778947592 0 4.5040403096173366e-05 -0.01471838719403748 0 -2.4145432797603735e-05 -0.014927240490242809 0 0.00018085793752152082 -0.014410795685069562 0 0.00018085793752152082 -0.014410795685069562 0 0.00025491993171856525 -0.014252721223007782 0 0.00045836319941484747 -0.013606196756817979 0 9.5601240555418502e-05 -0.013741924299830486 0 0.00036088072778378972 -0.013924595019058433 0 0.00011837443234083216 -0.014785803778947592 0 4.5040403096173366e-05 -0.01471838719403748 0 0.0001523090099129183 -0.014668073473901155 0 0.00045836319941484747 -0.013606196756817979 0 9.5601240555418502e-05 -0.013741924299830486 0 0.00015854953254933866 -0.013414848804249148 0 9.5601240555418502e-05 -0.013741924299830486 0 0.00015854953254933866 -0.013414848804249148 0 -6.3785832796788439e-05 -0.013620554575424666 0 0.00015854953254933866 -0.013414848804249148 0 -0.00013126133481373994 -0.013435388473103764 0 -6.3785832796788439e-05 -0.013620554575424666 0 0.00015682440230344651 -0.01315342971894176 0 0.00015854953254933866 -0.013414848804249148 0 -0.00010771111638729379 -0.013255352922759365 0 0.00014883849987422859 -0.013410975468665595 0 -0.00010694770499000551 -0.013344862684559875 0 9.5601240555418502e-05 -0.013741924299830486 0 -6.3785832796788439e-05 -0.013620554575424666 0 -0.00011028368680757402 -0.013860003834650966 0 -6.3785832796788439e-05 -0.013620554575424666 0 -0.00011028368680757402 -0.013860003834650966 0 -0.00024358297901759632 -0.013639058480862687 0 -0.00011028368680757402 -0.013860003834650966 0 -5.7155247349710657e-05 -0.014164472560884671 0 -0.00025267610546083572 -0.013956229673335081 0 -0.00011028368680757402 -0.013860003834650966 0 5.8178359196196263e-05 -0.014016695570989496 0 -5.7155247349710657e-05 -0.014164472560884671 0 5.8178359196196263e-05 -0.014016695570989496 0 0.00036088072778378972 -0.013924595019058433 0 0.0001476853493024543 -0.014357148035378648 0 9.5601240555418502e-05 -0.013741924299830486 0 -0.00011028368680757402 -0.013860003834650966 0 5.8178359196196263e-05 -0.014016695570989496 0 9.5601240555418502e-05 -0.013741924299830486 0 5.8178359196196263e-05 -0.014016695570989496 0 0.00036088072778378972 -0.013924595019058433 0 -5.7155247349710657e-05 -0.014164472560884671 0 0.0001476853493024543 -0.014357148035378648 0 -1.4710291686923133e-05 -0.014378132015011811 0 5.8178359196196263e-05 -0.014016695570989496 0 -5.7155247349710657e-05 -0.014164472560884671 0 0.0001476853493024543 -0.014357148035378648 0 -5.7155247349710657e-05 -0.014164472560884671 0 -0.00015996846609348081 -0.01422933804238251 0 -0.00025267610546083572 -0.013956229673335081 0 4.5040403096173366e-05 -0.01471838719403748 0 6.8042998211225535e-05 -0.014552187454039306 0 3.0676388068657276e-05 -0.014652432107028799 0 0.0001523090099129183 -0.014668073473901155 0 6.8042998211225535e-05 -0.014552187454039306 0 0.0001476853493024543 -0.014357148035378648 0 4.5040403096173366e-05 -0.01471838719403748 0 0.0001523090099129183 -0.014668073473901155 0 6.8042998211225535e-05 -0.014552187454039306 0 0.00025491993171856525 -0.014252721223007782 0 0.00017342865713682834 -0.014370823596204974 0 6.8042998211225535e-05 -0.014552187454039306 0 0.0001476853493024543 -0.014357148035378648 0 4.9451381845028217e-05 -0.014525868693705672 0 6.8042998211225535e-05 -0.014552187454039306 0 3.0676388068657276e-05 -0.014652432107028799 0 4.9451381845028217e-05 -0.014525868693705672 0 2.6176684816961867e-05 -0.014723591120279012 0 3.0676388068657276e-05 -0.014652432107028799 0 4.9451381845028217e-05 -0.014525868693705672 0 0.0001476853493024543 -0.014357148035378648 0 4.9451381845028217e-05 -0.014525868693705672 0 -1.4710291686923133e-05 -0.014378132015011811 0 -7.1086499778694114e-05 -0.014518264398677806 0 4.9451381845028217e-05 -0.014525868693705672 0 2.3143397347540896e-05 -0.01465387319323835 0 -7.1086499778694114e-05 -0.014518264398677806 0 4.9451381845028217e-05 -0.014525868693705672 0 -1.4710291686923133e-05 -0.014378132015011811 0 2.6176684816961867e-05 -0.014723591120279012 0 4.9451381845028217e-05 -0.014525868693705672 0 2.3143397347540896e-05 -0.01465387319323835 0 -0.00015996846609348081 -0.01422933804238251 0 -1.4710291686923133e-05 -0.014378132015011811 0 -0.00010827599389936018 -0.01438573253575689 0 -5.7155247349710657e-05 -0.014164472560884671 0 -0.00015996846609348081 -0.01422933804238251 0 -1.4710291686923133e-05 -0.014378132015011811 0 -7.1086499778694114e-05 -0.014518264398677806 0 -1.4710291686923133e-05 -0.014378132015011811 0 -0.00010827599389936018 -0.01438573253575689 0 -0.000213723560376171 -0.01430718096162692 0 -0.00015996846609348081 -0.01422933804238251 0 -0.00010827599389936018 -0.01438573253575689 0 -0.000213723560376171 -0.01430718096162692 0 -0.00015996846609348081 -0.01422933804238251 0 -0.00033519581028728816 -0.014071690265006629 0 -0.00015996846609348081 -0.01422933804238251 0 -0.00033519581028728816 -0.014071690265006629 0 -0.00025267610546083572 -0.013956229673335081 0 -0.000213723560376171 -0.01430718096162692 0 -0.00041472561403949808 -0.014127124058167901 0 -0.00033519581028728816 -0.014071690265006629 0 -0.00041472561403949808 -0.014127124058167901 0 -0.00052199383381931438 -0.01396798026137161 0 -0.00048554773929457436 -0.013950122540767298 0 -0.00041472561403949808 -0.014127124058167901 0 -0.00033519581028728816 -0.014071690265006629 0 -0.00048554773929457436 -0.013950122540767298 0 -0.00052199383381931438 -0.01396798026137161 0 -0.00048554773929457436 -0.013950122540767298 0 -0.0005879617727599382 -0.01385177442802896 0 -0.00048554773929457436 -0.013950122540767298 0 -0.00055850835717118086 -0.013828731255025737 0 -0.0005879617727599382 -0.01385177442802896 0 -0.00033519581028728816 -0.014071690265006629 0 -0.00048554773929457436 -0.013950122540767298 0 -0.00039252676280685428 -0.013908244644445364 0 -0.00048554773929457436 -0.013950122540767298 0 -0.00050423666578716208 -0.013800153443125197 0 -0.00039252676280685428 -0.013908244644445364 0 -0.00055850835717118086 -0.013828731255025737 0 -0.00050423666578716208 -0.013800153443125197 0 -0.00057701635473871081 -0.01376115370398843 0 -0.00048554773929457436 -0.013950122540767298 0 -0.00055850835717118086 -0.013828731255025737 0 -0.00050423666578716208 -0.013800153443125197 0 -0.00050423666578716208 -0.013800153443125197 0 -0.00059957883954520573 -0.013669452635282492 0 -0.00050121056025118039 -0.013663250359276459 0 -0.00050423666578716208 -0.013800153443125197 0 -0.00057701635473871081 -0.01376115370398843 0 -0.00059957883954520573 -0.013669452635282492 0 -0.00050423666578716208 -0.013800153443125197 0 -0.00039130322901961031 -0.013759769194878676 0 -0.00050121056025118039 -0.013663250359276459 0 -0.00050423666578716208 -0.013800153443125197 0 -0.00039130322901961031 -0.013759769194878676 0 -0.00039252676280685428 -0.013908244644445364 0 -0.00039130322901961031 -0.013759769194878676 0 -0.00025267610546083572 -0.013956229673335081 0 -0.00039252676280685428 -0.013908244644445364 0 -0.00039130322901961031 -0.013759769194878676 0 -0.00025267610546083572 -0.013956229673335081 0 -0.00024358297901759632 -0.013639058480862687 0 -0.00011028368680757402 -0.013860003834650966 0 -0.00025267610546083572 -0.013956229673335081 0 -0.00024358297901759632 -0.013639058480862687 0 -0.00033519581028728816 -0.014071690265006629 0 -0.00025267610546083572 -0.013956229673335081 0 -0.00039252676280685428 -0.013908244644445364 0 -0.00067190038526111469 -0.013684580522932541 0 -0.00065148195826479995 -0.013759794744555598 0 -0.00070164742031412933 -0.013693169418180873 0 -0.00062327814242182434 -0.013715746762756343 0 -0.00065148195826479995 -0.013759794744555598 0 -0.00070164742031412933 -0.013693169418180873 0 -0.00063910628572356695 -0.013821477449377296 0 -0.00065148195826479995 -0.013759794744555598 0 -0.00062687159122514543 -0.013764219813208772 0 -0.00067190038526111469 -0.013684580522932541 0 -0.00065148195826479995 -0.013759794744555598 0 -0.00062687159122514543 -0.013764219813208772 0 -0.00067190038526111469 -0.013684580522932541 0 -0.00062687159122514543 -0.013764219813208772 0 -0.00059707230745471461 -0.013663398563528675 0 -0.00062687159122514543 -0.013764219813208772 0 -0.0005879617727599382 -0.01385177442802896 0 -0.00060183189286880661 -0.013759557327412724 0 -0.00062687159122514543 -0.013764219813208772 0 -0.00060183189286880661 -0.013759557327412724 0 -0.00059707230745471461 -0.013663398563528675 0 -0.00063910628572356695 -0.013821477449377296 0 -0.00062687159122514543 -0.013764219813208772 0 -0.0005879617727599382 -0.01385177442802896 0 -0.0006062354131846923 -0.013881654435500088 0 -0.00063910628572356695 -0.013821477449377296 0 -0.0005879617727599382 -0.01385177442802896 0 -0.00052199383381931438 -0.01396798026137161 0 -0.0006062354131846923 -0.013881654435500088 0 -0.0005879617727599382 -0.01385177442802896 0 -0.00055850835717118086 -0.013828731255025737 0 -0.0005879617727599382 -0.01385177442802896 0 -0.00060183189286880661 -0.013759557327412724 0 -0.00057701635473871081 -0.01376115370398843 0 -0.00062764895573177765 -0.013703972359849341 0 -0.00060183189286880661 -0.013759557327412724 0 -0.00055850835717118086 -0.013828731255025737 0 -0.00057701635473871081 -0.01376115370398843 0 -0.00060183189286880661 -0.013759557327412724 0 -0.00057701635473871081 -0.01376115370398843 0 -0.00059957883954520573 -0.013669452635282492 0 -0.00062764895573177765 -0.013703972359849341 0 -0.00059957883954520573 -0.013669452635282492 0 -0.00062764895573177765 -0.013703972359849341 0 -0.0006446366083140483 -0.013643515296610956 0 -0.00062764895573177765 -0.013703972359849341 0 -0.00065292134014046277 -0.013673797784977062 0 -0.0006446366083140483 -0.013643515296610956 0 -0.00062764895573177765 -0.013703972359849341 0 -0.00059707230745471461 -0.013663398563528675 0 -0.00065292134014046277 -0.013673797784977062 0 -0.00062764895573177765 -0.013703972359849341 0 -0.00060183189286880661 -0.013759557327412724 0 -0.00059707230745471461 -0.013663398563528675 0 -0.00067190038526111469 -0.013684580522932541 0 -0.00059707230745471461 -0.013663398563528675 0 -0.00067442983896150329 -0.013477782084081987 0 -0.0004681822937237132 -0.013331174425973502 0 -0.00067442983896150329 -0.013477782084081987 0 -0.00081487006100809352 -0.013106855651901179 0 -0.00057922471346568468 -0.013488919089662339 0 -0.00058061084427233538 -0.013905803474039928 0 -0.00059707230745471461 -0.013663398563528675 0 -0.0004681822937237132 -0.013331174425973502 0 -0.00067442983896150329 -0.013477782084081987 0 -0.00078053359763772753 -0.0085057021581235025 0 -0.0013143301124019522 -0.0060786616622797553 0 -0.00067442983896150329 -0.013477782084081987 0 -0.0008145370125568547 -0.013507116880491891 0 -0.00081487006100809352 -0.013106855651901179 0 -0.00067190038526111469 -0.013684580522932541 0 -0.00067442983896150329 -0.013477782084081987 0 -0.0008145370125568547 -0.013507116880491891 0 -0.00067190038526111469 -0.013684580522932541 0 -0.0008145370125568547 -0.013507116880491891 0 -0.00070164742031412933 -0.013693169418180873 0 -0.00085193918703579561 -0.0034578050729786695 0 -0.0013143301124019522 -0.0060786616622797553 0 -0.0010329594760602251 -0.0043698747237341951 0 -0.00098803257244184373 -0.0035446708991721948 0 -0.00050322217745273708 -0.0040419224001752218 0 -0.0010329594760602251 -0.0043698747237341951 0 -0.00097460269712424709 -0.0041327585271982948 0 -0.0012369005195548277 -0.0043837007327382251 0 -0.00058061084427233538 -0.013905803474039928 0 -0.00073276524263596527 -0.011148276829665849 0 -0.0013143301124019522 -0.0060786616622797553 0 -0.00073276524263596527 -0.011148276829665849 0 -0.0004681822937237132 -0.013331174425973502 0 -0.00081487006100809352 -0.013106855651901179 0 -0.00043954022037328417 -0.012984075437384812 0 -0.00097460269712424709 -0.0041327585271982948 0 -0.0013274597886639697 -0.0042286043371712722 0 -0.0012369005195548277 -0.0043837007327382251 0 -0.00073276524263596527 -0.011148276829665849 0 -0.0018350084442982811 -0.0079215619887204238 0 -0.0013274597886639697 -0.0042286043371712722 0 -0.0012369005195548277 -0.0043837007327382251 0 -0.0014189698677116748 -0.0045981113848044004 0 -0.0010329594760602251 -0.0043698747237341951 0 -0.0012369005195548277 -0.0043837007327382251 0 -0.0011743506281337956 -0.004631818716049358 0 -0.0022166266441376605 -0.014114062322776911 0 -0.0020265384337377103 -0.01301163717040823 0 -0.0010780062848641443 -0.013444032153385599 0 -0.0020265384337377103 -0.01301163717040823 0 -0.0010780062848641443 -0.013444032153385599 0 -0.001425586669706412 -0.013034767888178063 0 -0.0022166266441376605 -0.014114062322776911 0 -0.0020265384337377103 -0.01301163717040823 0 -0.0021324058936406398 -0.012073209240931401 0 -0.00073276524263596527 -0.011148276829665849 0 -0.0011156308585363402 -0.01382579572422118 0 -0.00068084730576727082 -0.013601441260729433 0 -0.0006446366083140483 -0.013643515296610956 0 -0.00064597769970938857 -0.013555259214408016 0 -0.00065292134014046277 -0.013673797784977062 0 -0.00068084730576727082 -0.013601441260729433 0 -0.0006446366083140483 -0.013643515296610956 0 -0.00059957883954520573 -0.013669452635282492 0 -0.00064597769970938857 -0.013555259214408016 0 -0.0005840175587019644 -0.013574564742412632 0 -0.00059957883954520573 -0.013669452635282492 0 -0.0006446366083140483 -0.013643515296610956 0 -0.00064597769970938857 -0.013555259214408016 0 -0.0010780062848641443 -0.013444032153385599 0 -0.0010187914438732964 -0.012873336091983125 0 -0.001425586669706412 -0.013034767888178063 0 -0.0010187914438732964 -0.012873336091983125 0 -0.0014068847766511344 -0.01277311494443745 0 -0.001425586669706412 -0.013034767888178063 0 -0.0010187914438732964 -0.012873336091983125 0 -0.0011117617244748525 -0.012534805783819535 0 -0.00093247420109445649 -0.012702984728829863 0 -0.0010187914438732964 -0.012873336091983125 0 -0.0011117617244748525 -0.012534805783819535 0 -0.0014068847766511344 -0.01277311494443745 0 -0.00031783772693651588 -0.010054795999476356 0 -0.00098195386456727371 -0.011886418402575394 0 -0.00031783772693651588 -0.010054795999476356 0 -0.00067062215215269296 -0.008478371239372489 0 -0.00171325154300685 -0.0071504450705626539 0 -0.0018350084442982811 -0.0079215619887204238 0 -0.0010451298263551749 -0.0097101722388227216 0 -0.0020075068106068083 -0.008768483918411684 0 -0.0021324058936406398 -0.012073209240931401 0 0.0011906321437524534 -0.0083092928933358838 0 -0.0010451298263551749 -0.0097101722388227216 0 -0.00048327697352584131 -0.010916227304802044 0 0.0011906321437524534 -0.0083092928933358838 0 -0.0010451298263551749 -0.0097101722388227216 0 -0.00119235230690104 -0.0083892156325117029 0 -0.0010451298263551749 -0.0097101722388227216 0 -0.00119235230690104 -0.0083892156325117029 0 -0.0020075068106068083 -0.008768483918411684 0 -0.0010451298263551749 -0.0097101722388227216 0 -0.00048327697352584131 -0.010916227304802044 0 -0.0021324058936406398 -0.012073209240931401 0 -0.0020265384337377103 -0.01301163717040823 0 -0.00048327697352584131 -0.010916227304802044 0 -0.0021324058936406398 -0.012073209240931401 0 -0.0020265384337377103 -0.01301163717040823 0 -0.0014068847766511344 -0.01277311494443745 0 -0.001425586669706412 -0.013034767888178063 0 -0.0018949761755218328 -0.012941542898246658 0 -0.00098195386456727371 -0.011886418402575394 0 -0.0010329594760602251 -0.0043698747237341951 0 -0.0011743506281337956 -0.004631818716049358 0 -0.00095513804782960054 -0.0049668288395884348 0 -0.0012369005195548277 -0.0043837007327382251 0 -0.0014189698677116748 -0.0045981113848044004 0 -0.0011743506281337956 -0.004631818716049358 0 -0.0011743506281337956 -0.004631818716049358 0 -0.0012373164333185039 -0.0049468658715554831 0 -0.00095513804782960054 -0.0049668288395884348 0 -0.0014189698677116748 -0.0045981113848044004 0 -0.0011743506281337956 -0.004631818716049358 0 -0.0012373164333185039 -0.0049468658715554831 0 -0.0011220153700226645 -0.0053375544738609127 0 -0.00095513804782960054 -0.0049668288395884348 0 -0.00078532047397818238 -0.0056279118779319747 0 -0.0015293986513452769 -0.0052901585532821298 0 -0.0014189698677116748 -0.0045981113848044004 0 -0.0012373164333185039 -0.0049468658715554831 0 -0.0015293986513452769 -0.0052901585532821298 0 -0.0011220153700226645 -0.0053375544738609127 0 -0.0012042135771897309 -0.0059138241513340293 0 -0.0015293986513452769 -0.0052901585532821298 0 -0.0012373164333185039 -0.0049468658715554831 0 -0.0011220153700226645 -0.0053375544738609127 0 -0.0012373164333185039 -0.0049468658715554831 0 -0.0011220153700226645 -0.0053375544738609127 0 -0.00095513804782960054 -0.0049668288395884348 0 -0.00095513804782960054 -0.0049668288395884348 0 -0.00056545070813377222 -0.0054436672510205569 0 -0.00044452353479675728 -0.0048594530996507396 0 -0.00095513804782960054 -0.0049668288395884348 0 -0.00056545070813377222 -0.0054436672510205569 0 -0.00078532047397818238 -0.0056279118779319747 0 -0.0010329594760602251 -0.0043698747237341951 0 -0.00095513804782960054 -0.0049668288395884348 0 -0.00044452353479675728 -0.0048594530996507396 0 -0.00024358297901759632 -0.013639058480862687 0 -0.00039452845252162477 -0.013549356734270469 0 -0.00029744626913723435 -0.013383055877448617 0 -0.00039452845252162477 -0.013549356734270469 0 -0.00043736145913648235 -0.013418142163033475 0 -0.00029744626913723435 -0.013383055877448617 0 -0.00010694770499000551 -0.013344862684559875 0 -0.00035297905422664949 -0.013245632529227296 0 -0.00013126133481373994 -0.013435388473103764 0 -6.3785832796788439e-05 -0.013620554575424666 0 -0.00024358297901759632 -0.013639058480862687 0 -0.00013126133481373994 -0.013435388473103764 0 -0.00024358297901759632 -0.013639058480862687 0 -0.00029744626913723435 -0.013383055877448617 0 -0.00039130322901961031 -0.013759769194878676 0 -0.00024358297901759632 -0.013639058480862687 0 -0.00039452845252162477 -0.013549356734270469 0 -0.00039130322901961031 -0.013759769194878676 0 -0.00050121056025118039 -0.013663250359276459 0 -0.00039452845252162477 -0.013549356734270469 0 -0.00050121056025118039 -0.013663250359276459 0 -0.00039452845252162477 -0.013549356734270469 0 -0.00050398384815685524 -0.013537675970958531 0 -0.00059957883954520573 -0.013669452635282492 0 -0.00050121056025118039 -0.013663250359276459 0 -0.0005840175587019644 -0.013574564742412632 0 -0.00050121056025118039 -0.013663250359276459 0 -0.0005840175587019644 -0.013574564742412632 0 -0.00050398384815685524 -0.013537675970958531 0 -0.0011156308585363402 -0.01382579572422118 0 -0.00045416067771117527 -0.013314549193962901 0 -0.00064597769970938857 -0.013555259214408016 0 -0.0005840175587019644 -0.013574564742412632 0 -0.00057139954610899548 -0.013390504464756795 0 -0.0010780062848641443 -0.013444032153385599 0 -0.0010187914438732964 -0.012873336091983125 0 -0.00057139954610899548 -0.013390504464756795 0 -0.0005840175587019644 -0.013574564742412632 0 -0.00057139954610899548 -0.013390504464756795 0 -0.00050398384815685524 -0.013537675970958531 0 -0.00039452845252162477 -0.013549356734270469 0 -0.00050398384815685524 -0.013537675970958531 0 -0.00043736145913648235 -0.013418142163033475 0 -0.00057139954610899548 -0.013390504464756795 0 -0.00043736145913648235 -0.013418142163033475 0 -0.00047241447655718937 -0.013204472188056848 0 -0.00057139954610899548 -0.013390504464756795 0 -0.00050398384815685524 -0.013537675970958531 0 -0.00043736145913648235 -0.013418142163033475 0 -0.00060928076442756164 -0.013088533383517462 0 -0.00035297905422664949 -0.013245632529227296 0 -0.00070594846784146834 -0.012992075888899638 0 -0.00056946159936104382 -0.012849198813683823 0 -0.00046990215793357606 -0.012953213135412357 0 -0.00043736145913648235 -0.013418142163033475 0 -0.00047241447655718937 -0.013204472188056848 0 -0.00029744626913723435 -0.013383055877448617 0 -0.00070594846784146834 -0.012992075888899638 0 -0.00056946159936104382 -0.012849198813683823 0 -0.00073084389008967212 -0.012798085746760968 0 -0.0010187914438732964 -0.012873336091983125 0 -0.00057139954610899548 -0.013390504464756795 0 -0.00047241447655718937 -0.013204472188056848 0 -0.00099769907242341135 -0.012908754735550315 0 -0.00060928076442756164 -0.013088533383517462 0 -0.0010187914438732964 -0.012873336091983125 0 -0.00070594846784146834 -0.012992075888899638 0 -0.00073084389008967212 -0.012798085746760968 0 -0.0010187914438732964 -0.012873336091983125 0 -0.00093247420109445649 -0.012702984728829863 0 -0.00073084389008967212 -0.012798085746760968 0 -0.0011117617244748525 -0.012534805783819535 0 -0.00093247420109445649 -0.012702984728829863 0 -0.00077814584539647228 -0.012619216674473166 0 -0.00031783772693651588 -0.010054795999476356 0 -0.00055221682072414025 -0.011738841978186336 0 -0.00093247420109445649 -0.012702984728829863 0 -0.00077814584539647228 -0.012619216674473166 0 -0.00073084389008967212 -0.012798085746760968 0 -0.00077814584539647228 -0.012619216674473166 0 -0.00073084389008967212 -0.012798085746760968 0 -0.00049827131252944557 -0.012674970363260721 0 -0.00056946159936104382 -0.012849198813683823 0 -0.00073084389008967212 -0.012798085746760968 0 -0.00049827131252944557 -0.012674970363260721 0 -0.00046535099384185837 -0.012697929579088982 0 -0.00045026725865087797 -0.012807216000894687 0 -0.00049827131252944557 -0.012674970363260721 0 -0.00056946159936104382 -0.012849198813683823 0 -0.00045026725865087797 -0.012807216000894687 0 -0.00049827131252944557 -0.012674970363260721 0 -0.00046535099384185837 -0.012697929579088982 0 -0.00035370361007342762 -0.012766472314798204 0 -0.00022133159078448268 -0.012695704074796579 0 -0.00013673731193367521 -0.012112603091647465 0 -8.6575891226211554e-05 -0.012073428295425572 0 -0.00046535099384185837 -0.012697929579088982 0 -0.00035370361007342762 -0.012766472314798204 0 -0.00045026725865087797 -0.012807216000894687 0 -0.00035370361007342762 -0.012766472314798204 0 -0.00034901161079826931 -0.012902554512413783 0 -0.00045026725865087797 -0.012807216000894687 0 -0.00034901161079826931 -0.012902554512413783 0 -0.00045026725865087797 -0.012807216000894687 0 -0.00046990215793357606 -0.012953213135412357 0 -0.00056946159936104382 -0.012849198813683823 0 -0.00045026725865087797 -0.012807216000894687 0 -0.00046990215793357606 -0.012953213135412357 0 -0.00070594846784146834 -0.012992075888899638 0 -0.00046990215793357606 -0.012953213135412357 0 -0.00041225204377673413 -0.013119257152324676 0 -0.00034901161079826931 -0.012902554512413783 0 -0.00046990215793357606 -0.012953213135412357 0 -0.00041225204377673413 -0.013119257152324676 0 -0.00010771111638729379 -0.013255352922759365 0 -0.00041225204377673413 -0.013119257152324676 0 -0.00018847108948434041 -0.013004525493133603 0 -0.00034901161079826931 -0.012902554512413783 0 -0.00041225204377673413 -0.013119257152324676 0 -0.00018847108948434041 -0.013004525493133603 0 -0.00034901161079826931 -0.012902554512413783 0 -0.00018847108948434041 -0.013004525493133603 0 -0.00022133159078448268 -0.012695704074796579 0 -6.5027447251508384e-05 -0.012822963743263185 0 -0.00018847108948434041 -0.013004525493133603 0 -0.00022133159078448268 -0.012695704074796579 0 -0.00035370361007342762 -0.012766472314798204 0 -0.00034901161079826931 -0.012902554512413783 0 -0.00022133159078448268 -0.012695704074796579 0 6.6886240247215876e-05 -0.012563210646806679 0 6.2162625863571505e-05 -0.012542195552098829 0 9.5028127343934889e-05 -0.012566364425475077 0 0.00015569471722882313 -0.012477020806651548 0 3.5668358384555347e-05 -0.012404413691667822 0 0.00024305195088807492 -0.012417599784826115 0 0.00021610765921695036 -0.012412169366496702 0 0.00017426406031167933 -0.012396118539126854 0 0.00021610765921695036 -0.012412169366496702 0 0.00017426406031167933 -0.012396118539126854 0 0.00020468515726583653 -0.012379907036011198 0 0.00024305195088807492 -0.012417599784826115 0 0.00021610765921695036 -0.012412169366496702 0 0.00020169638851255997 -0.012442481956409361 0 0.00021610765921695036 -0.012412169366496702 0 0.00020468515726583653 -0.012379907036011198 0 0.00020169638851255997 -0.012442481956409361 0 0.00017426406031167933 -0.012396118539126854 0 0.000147199412489609 -0.012421215311483215 0 8.8942186200471278e-05 -0.012391785983046787 0 0.00024305195088807492 -0.012417599784826115 0 0.000147199412489609 -0.012421215311483215 0 8.3838969702206776e-05 -0.012480817245421461 0 0.00024305195088807492 -0.012417599784826115 0 0.00017426406031167933 -0.012396118539126854 0 0.000147199412489609 -0.012421215311483215 0 6.6886240247215876e-05 -0.012563210646806679 0 6.2162625863571505e-05 -0.012542195552098829 0 8.6130721726619959e-05 -0.012512971605038855 0 -9.4926587377840044e-05 -0.012664172738391377 0 -8.6575891226211554e-05 -0.012073428295425572 0 6.2162625863571505e-05 -0.012542195552098829 0 8.6130721726619959e-05 -0.012512971605038855 0 8.3838969702206776e-05 -0.012480817245421461 0 0.00015569471722882313 -0.012477020806651548 0 8.1494253827807842e-05 -0.012484899983200081 0 -0.00046535099384185837 -0.012697929579088982 0 -0.00022133159078448268 -0.012695704074796579 0 -0.00049976645330050739 -0.012679577203381935 0 -0.00055221682072414025 -0.011738841978186336 0 -8.6575891226211554e-05 -0.012073428295425572 0 -0.00010608159608608723 -0.010711552772730774 0 0.00014028574583536398 -0.010721894947842828 0 -0.0001696663187247835 -0.010557205645138299 0 -8.6575891226211554e-05 -0.012073428295425572 0 7.7335750138670463e-05 -0.01037234366034759 0 8.6130721726619959e-05 -0.012512971605038855 0 8.3838969702206776e-05 -0.012480817245421461 0 3.9679900982816868e-05 -0.012462983652251493 0 -0.00035845371561852939 -0.010709834793057963 0 -0.00010608159608608723 -0.010711552772730774 0 -0.00022387135540718805 -0.010605220168608757 0 -0.00010608159608608723 -0.010711552772730774 0 -0.00022387135540718805 -0.010605220168608757 0 -0.0001696663187247835 -0.010557205645138299 0 -0.00022387135540718805 -0.010605220168608757 0 -0.00016523600158237979 -0.010547679852370335 0 -0.00023528891479159087 -0.01051723827210535 0 -0.00012656178163793132 -0.010551545442313646 0 7.7335750138670463e-05 -0.01037234366034759 0 7.7335750138670463e-05 -0.01037234366034759 0 -0.00037464929933602814 -0.0080178253888360008 0 -0.00048333275589459458 -0.0072472383694999728 0 -0.00056359658674728528 -0.0072131650346030571 0 -0.00042396481702611976 -0.0069821610791249321 0 -0.00048333275589459458 -0.0072472383694999728 0 -0.00042396481702611976 -0.0069821610791249321 0 -0.00030337975248047804 -0.0070193258361219797 0 -0.00052569596719676166 -0.0071571510507124313 0 -0.00042396481702611976 -0.0069821610791249321 0 -0.00055413215220759824 -0.0070013629836160243 0 -0.00037464929933602814 -0.0080178253888360008 0 -0.00033254834001871994 -0.0068240949331432443 0 7.7335750138670463e-05 -0.01037234366034759 0 -0.00013766845495158869 -0.0097015263677318626 0 8.3838969702206776e-05 -0.012480817245421461 0 3.9679900982816868e-05 -0.012462983652251493 0 8.8942186200471278e-05 -0.012391785983046787 0 0.000147199412489609 -0.012421215311483215 0 8.3838969702206776e-05 -0.012480817245421461 0 8.8942186200471278e-05 -0.012391785983046787 0 -0.00013766845495158869 -0.0097015263677318626 0 4.42471251954949e-05 -0.0093605571092012924 0 -0.00030337975248047804 -0.0070193258361219797 0 -0.00033784127392432199 -0.0068515508374838077 0 -0.00019665147511464885 -0.0068874806521237149 0 -0.00042396481702611976 -0.0069821610791249321 0 -0.00030337975248047804 -0.0070193258361219797 0 -0.00033784127392432199 -0.0068515508374838077 0 -0.00033784127392432199 -0.0068515508374838077 0 -0.00028522706121680906 -0.0067780671090537257 0 -0.00019665147511464885 -0.0068874806521237149 0 -0.00042396481702611976 -0.0069821610791249321 0 -0.00055413215220759824 -0.0070013629836160243 0 -0.00049102275340197593 -0.0068526254253331005 0 -0.00042396481702611976 -0.0069821610791249321 0 -0.00033784127392432199 -0.0068515508374838077 0 -0.00049102275340197593 -0.0068526254253331005 0 -0.00033784127392432199 -0.0068515508374838077 0 -0.00049102275340197593 -0.0068526254253331005 0 -0.00045453842384160997 -0.0067440565904526989 0 -0.00049102275340197593 -0.0068526254253331005 0 -0.00045453842384160997 -0.0067440565904526989 0 -0.00057338410892137574 -0.0067392148693353289 0 -0.00045453842384160997 -0.0067440565904526989 0 -0.00052063170956612983 -0.0066673703499483122 0 -0.00042355257747388056 -0.0066450511541282266 0 -0.00045453842384160997 -0.0067440565904526989 0 -0.00036768422153571795 -0.0067230500587767885 0 -0.00042355257747388056 -0.0066450511541282266 0 -0.00045453842384160997 -0.0067440565904526989 0 -0.00057338410892137574 -0.0067392148693353289 0 -0.00052063170956612983 -0.0066673703499483122 0 -0.00033784127392432199 -0.0068515508374838077 0 -0.00045453842384160997 -0.0067440565904526989 0 -0.00036768422153571795 -0.0067230500587767885 0 -0.00033784127392432199 -0.0068515508374838077 0 -0.00028522706121680906 -0.0067780671090537257 0 -0.00036768422153571795 -0.0067230500587767885 0 -0.00028522706121680906 -0.0067780671090537257 0 -0.0002184021143918253 -0.0067587029037919936 0 -0.00028476575559940659 -0.0066866313711522012 0 -0.00028522706121680906 -0.0067780671090537257 0 -0.00036768422153571795 -0.0067230500587767885 0 -0.00028476575559940659 -0.0066866313711522012 0 -0.00015444850121087847 -0.0067854953340273551 0 -8.9265414062136649e-05 -0.006795471672354246 0 -0.00019665147511464885 -0.0068874806521237149 0 -0.0002184021143918253 -0.0067587029037919936 0 -0.00015444850121087847 -0.0067854953340273551 0 -0.00019665147511464885 -0.0068874806521237149 0 -0.00028522706121680906 -0.0067780671090537257 0 -0.0002184021143918253 -0.0067587029037919936 0 -0.00019665147511464885 -0.0068874806521237149 0 0.00048995384821531396 -0.011496693856070783 0 4.42471251954949e-05 -0.0093605571092012924 0 -0.0002184021143918253 -0.0067587029037919936 0 -0.00015444850121087847 -0.0067854953340273551 0 -0.00017110743712094064 -0.0067283041774413334 0 -0.00015444850121087847 -0.0067854953340273551 0 -0.00013725519235625481 -0.0067499346793298918 0 -0.00017110743712094064 -0.0067283041774413334 0 0.00022918520352488487 -0.01228580891497259 0 0.00022466025232062927 -0.012300422623647113 0 0.00016581840771216948 -0.012342031037675345 0 -0.00015444850121087847 -0.0067854953340273551 0 -0.00013725519235625481 -0.0067499346793298918 0 -0.00011841904665951347 -0.0067755304699264607 0 -0.00015444850121087847 -0.0067854953340273551 0 -0.00011841904665951347 -0.0067755304699264607 0 -8.9265414062136649e-05 -0.006795471672354246 0 -0.00013725519235625481 -0.0067499346793298918 0 -0.00011841904665951347 -0.0067755304699264607 0 -9.7072277750229278e-05 -0.0067595106241002513 0 -0.00011841904665951347 -0.0067755304699264607 0 -9.7072277750229278e-05 -0.0067595106241002513 0 -8.9265414062136649e-05 -0.006795471672354246 0 0.00024376509391814036 -0.009930612213971084 0 0.00048995384821531396 -0.011496693856070783 0 0.00048995384821531396 -0.011496693856070783 0 0.00038327989347605555 -0.011828516444089957 0 0.00022466025232062927 -0.012300422623647113 0 0.00020468515726583653 -0.012379907036011198 0 0.00016581840771216948 -0.012342031037675345 0 0.00023745353504748523 -0.012280575130713152 0 0.00022466025232062927 -0.012300422623647113 0 0.00020169638851255997 -0.012442481956409361 0 0.00022466025232062927 -0.012300422623647113 0 0.00020468515726583653 -0.012379907036011198 0 0.00020169638851255997 -0.012442481956409361 0 0.00048995384821531396 -0.011496693856070783 0 0.00024376589717445225 -0.012982999649897412 0 0.00054667513572571945 -0.013217443677657703 0 0.00020169638851255997 -0.012442481956409361 0 0.00024743400094453432 -0.012986186856381709 0 0.00017426406031167933 -0.012396118539126854 0 0.00020468515726583653 -0.012379907036011198 0 0.00016581840771216948 -0.012342031037675345 0 0.00017426406031167933 -0.012396118539126854 0 8.8942186200471278e-05 -0.012391785983046787 0 0.00016581840771216948 -0.012342031037675345 0 -0.00062648010231594348 -0.0057012742163995173 0 -0.00062269696724949518 -0.0057969880150996154 0 -0.00054818592155358537 -0.0058216500822778315 0 -0.00062648010231594348 -0.0057012742163995173 0 -0.00054818592155358537 -0.0058216500822778315 0 -0.00046822663752414483 -0.0057134758440444853 0 -0.00062648010231594348 -0.0057012742163995173 0 -0.00056545070813377222 -0.0054436672510205569 0 -0.00046822663752414483 -0.0057134758440444853 0 -0.00062648010231594348 -0.0057012742163995173 0 -0.00056545070813377222 -0.0054436672510205569 0 -0.00078532047397818238 -0.0056279118779319747 0 -0.00078532047397818238 -0.0056279118779319747 0 -0.0012042135771897309 -0.0059138241513340293 0 -0.0011587377208070397 -0.0067857214273530633 0 -0.0011220153700226645 -0.0053375544738609127 0 -0.00078532047397818238 -0.0056279118779319747 0 -0.0012042135771897309 -0.0059138241513340293 0 -0.0012042135771897309 -0.0059138241513340293 0 -0.0011587377208070397 -0.0067857214273530633 0 -0.0013953737752360256 -0.0065426524216138987 0 -0.00077052012276974426 -0.0056868057393273811 0 -0.00088115691877004249 -0.0062591096990200282 0 -0.00062648010231594348 -0.0057012742163995173 0 -0.00078532047397818238 -0.0056279118779319747 0 -0.00062269696724949518 -0.0057969880150996154 0 -0.0011587377208070397 -0.0067857214273530633 0 -0.0011491655450052373 -0.0067717616135856964 0 -0.0013953737752360256 -0.0065426524216138987 0 -0.0011491655450052373 -0.0067717616135856964 0 -0.00077370828536487801 -0.0070583422798750272 0 -0.00084402229052169843 -0.0068179474115065367 0 -0.0011491655450052373 -0.0067717616135856964 0 -0.0013953737752360256 -0.0065426524216138987 0 -0.00077740064778825634 -0.0064281014295970709 0 -0.0010751383061559346 -0.0067508415433727232 0 -0.00071370479611491283 -0.0067485415673945925 0 -0.0013953737752360256 -0.0065426524216138987 0 -0.00075915352101373903 -0.0072790277680038094 0 -0.00077740064778825634 -0.0064281014295970709 0 -0.00171325154300685 -0.0071504450705626539 0 -0.0014884123380345387 -0.0065517184432179734 0 -0.00119235230690104 -0.0083892156325117029 0 -0.0020075068106068083 -0.008768483918411684 0 -0.0013953737752360256 -0.0065426524216138987 0 -0.00119235230690104 -0.0083892156325117029 0 -0.0013953737752360256 -0.0065426524216138987 0 -0.00075915352101373903 -0.0072790277680038094 0 -0.0015293986513452769 -0.0052901585532821298 0 -0.0012042135771897309 -0.0059138241513340293 0 -0.0013953737752360256 -0.0065426524216138987 0 -6.1129890061904544e-06 -0.0082190816111384034 0 -0.00119235230690104 -0.0083892156325117029 0 -0.00075915352101373903 -0.0072790277680038094 0 -0.00075915352101373903 -0.0072790277680038094 0 -0.00018578402609481132 -0.0071554724815256314 0 -0.00077740064778825634 -0.0064281014295970709 0 -6.1129890061904544e-06 -0.0082190816111384034 0 -0.00075915352101373903 -0.0072790277680038094 0 -0.00018578402609481132 -0.0071554724815256314 0 -0.00035845371561852939 -0.010709834793057963 0 -0.00022387135540718805 -0.010605220168608757 0 -0.00023528891479159087 -0.01051723827210535 0 -0.00031783772693651588 -0.010054795999476356 0 -0.00037464929933602814 -0.0080178253888360008 0 -6.1129890061904544e-06 -0.0082190816111384034 0 0.00074997394263856521 -0.0069703308450543653 0 -0.00018578402609481132 -0.0071554724815256314 0 0.00074997394263856521 -0.0069703308450543653 0 -0.00018578402609481132 -0.0071554724815256314 0 -0.00077740064778825634 -0.0064281014295970709 0 -0.00052569596719676166 -0.0071571510507124313 0 -0.00055413215220759824 -0.0070013629836160243 0 -0.00077370828536487801 -0.0070583422798750272 0 -0.00037464929933602814 -0.0080178253888360008 0 -0.00071370479611491283 -0.0067485415673945925 0 -0.00077370828536487801 -0.0070583422798750272 0 -0.00069319045534923076 -0.0069334393202451876 0 -0.00084402229052169843 -0.0068179474115065367 0 -0.00055413215220759824 -0.0070013629836160243 0 -0.00077370828536487801 -0.0070583422798750272 0 -0.00069319045534923076 -0.0069334393202451876 0 -0.00055413215220759824 -0.0070013629836160243 0 -0.00049102275340197593 -0.0068526254253331005 0 -0.00063000878304262015 -0.0068459282057036584 0 -0.00055413215220759824 -0.0070013629836160243 0 -0.00069319045534923076 -0.0069334393202451876 0 -0.00063000878304262015 -0.0068459282057036584 0 -0.00069319045534923076 -0.0069334393202451876 0 -0.00063000878304262015 -0.0068459282057036584 0 -0.00084402229052169843 -0.0068179474115065367 0 -0.00063000878304262015 -0.0068459282057036584 0 -0.00071753820849267862 -0.0067479213322022774 0 -0.00084402229052169843 -0.0068179474115065367 0 -0.00063000878304262015 -0.0068459282057036584 0 -0.00071753820849267862 -0.0067479213322022774 0 -0.00057338410892137574 -0.0067392148693353289 0 -0.00049102275340197593 -0.0068526254253331005 0 -0.00063000878304262015 -0.0068459282057036584 0 -0.00057338410892137574 -0.0067392148693353289 0 -0.00057338410892137574 -0.0067392148693353289 0 -0.00052063170956612983 -0.0066673703499483122 0 -0.00065000246923789041 -0.0066194390164555569 0 -0.00052063170956612983 -0.0066673703499483122 0 -0.00065000246923789041 -0.0066194390164555569 0 -0.00049828769295816658 -0.0066270089153777183 0 -0.00071753820849267862 -0.0067479213322022774 0 -0.00057338410892137574 -0.0067392148693353289 0 -0.00065000246923789041 -0.0066194390164555569 0 -0.00049338126793587519 -0.0059201319501676654 0 -0.00031189313847385179 -0.0059019768062731973 0 -0.00043656479128746211 -0.0059082661692145726 0 -0.00065000246923789041 -0.0066194390164555569 0 -0.0009412064514874312 -0.0067129926163138386 0 -0.00058311562883749406 -0.0062478458009763843 0 -0.00071914826675740855 -0.0063145688121037137 0 -0.00043898867485251574 -0.0060696022794400287 0 -0.00071753820849267862 -0.0067479213322022774 0 -0.00065000246923789041 -0.0066194390164555569 0 -0.0009412064514874312 -0.0067129926163138386 0 -0.0011491655450052373 -0.0067717616135856964 0 -0.0009412064514874312 -0.0067129926163138386 0 -0.00084402229052169843 -0.0068179474115065367 0 -0.00071753820849267862 -0.0067479213322022774 0 -0.0009412064514874312 -0.0067129926163138386 0 -0.00084402229052169843 -0.0068179474115065367 0 -0.00062269696724949518 -0.0057969880150996154 0 -0.00049338126793587519 -0.0059201319501676654 0 -0.00053733002030076924 -0.0058771737098189591 0 -0.0011587377208070397 -0.0067857214273530633 0 -0.0011491655450052373 -0.0067717616135856964 0 -0.0009412064514874312 -0.0067129926163138386 0 -0.00088115691877004249 -0.0062591096990200282 0 -0.00071914826675740855 -0.0063145688121037137 0 -0.00062269696724949518 -0.0057969880150996154 0 -0.00053733002030076924 -0.0058771737098189591 0 -0.00054818592155358537 -0.0058216500822778315 0 -0.00049338126793587519 -0.0059201319501676654 0 -0.00053733002030076924 -0.0058771737098189591 0 -0.00049136604207673687 -0.0059077574706056036 0 -0.00049136604207673687 -0.0059077574706056036 0 -0.00046388786049601793 -0.0058975502054448674 0 -0.00043656479128746211 -0.0059082661692145726 0 -0.00049338126793587519 -0.0059201319501676654 0 -0.00049136604207673687 -0.0059077574706056036 0 -0.00043656479128746211 -0.0059082661692145726 0 -0.00053733002030076924 -0.0058771737098189591 0 -0.00049136604207673687 -0.0059077574706056036 0 -0.00050282621813813543 -0.0058956106872224872 0 -0.00050282621813813543 -0.0058956106872224872 0 -0.00046488834540839644 -0.0059159990734705689 0 -0.00040218817687566211 -0.0059176212222125657 0 -0.00049136604207673687 -0.0059077574706056036 0 -0.00046488834540839644 -0.0059159990734705689 0 -0.00046388786049601793 -0.0058975502054448674 0 -0.00049136604207673687 -0.0059077574706056036 0 -0.00050282621813813543 -0.0058956106872224872 0 -0.00046488834540839644 -0.0059159990734705689 0 -0.00050282621813813543 -0.0058956106872224872 0 -0.00054818592155358537 -0.0058216500822778315 0 -0.00040218817687566211 -0.0059176212222125657 0 -0.00054818592155358537 -0.0058216500822778315 0 -0.00040218817687566211 -0.0059176212222125657 0 -0.00046822663752414483 -0.0057134758440444853 0 -0.00053733002030076924 -0.0058771737098189591 0 -0.00050282621813813543 -0.0058956106872224872 0 -0.00054818592155358537 -0.0058216500822778315 0 -0.00049306077671719406 -0.0058634752224011009 0 -0.00046488834540839644 -0.0059159990734705689 0 -0.00046388786049601793 -0.0058975502054448674 0 -0.00049306077671719406 -0.0058634752224011009 0 -0.00046388786049601793 -0.0058975502054448674 0 -0.00041259790189043821 -0.0058479046743784751 0 -0.00046388786049601793 -0.0058975502054448674 0 -0.00041259790189043821 -0.0058479046743784751 0 -0.00043656479128746211 -0.0059082661692145726 0 -0.00049306077671719406 -0.0058634752224011009 0 -0.00041259790189043821 -0.0058479046743784751 0 -0.00041184514006570696 -0.0056736912503612342 0 -9.9406570277542125e-05 -0.0055221492368413196 0 -9.2065175417968339e-05 -0.0054762005045035488 0 -0.00041259790189043821 -0.0058479046743784751 0 -0.00024880072352714957 -0.0057713854383308763 0 -0.00031189313847385179 -0.0059019768062731973 0 -0.00041259790189043821 -0.0058479046743784751 0 -0.00024880072352714957 -0.0057713854383308763 0 -0.00041184514006570696 -0.0056736912503612342 0 -0.00041259790189043821 -0.0058479046743784751 0 -0.00031189313847385179 -0.0059019768062731973 0 -0.00043656479128746211 -0.0059082661692145726 0 -0.00065000246923789041 -0.0066194390164555569 0 -0.00049828769295816658 -0.0066270089153777183 0 -0.00049605553989298592 -0.0065908075104272462 0 -0.00065000246923789041 -0.0066194390164555569 0 -0.00058311562883749406 -0.0062478458009763843 0 -0.00013211120081348102 -0.0060021471736876877 0 -0.00060666786159311735 -0.0066067750111954886 0 -0.0003306690308191193 -0.0062923497958590627 0 -0.00013211120081348102 -0.0060021471736876877 0 -0.00011118878825049083 -0.0057341602594208341 0 0.00012730930289667899 -0.0054943802741341807 0 -0.00043898867485251574 -0.0060696022794400287 0 -0.00015843259349018215 -0.0057543614330816482 0 -0.00058311562883749406 -0.0062478458009763843 0 -0.00013211120081348102 -0.0060021471736876877 0 -0.00011118878825049083 -0.0057341602594208341 0 -0.00024880072352714957 -0.0057713854383308763 0 -0.00031189313847385179 -0.0059019768062731973 0 -0.00011118878825049083 -0.0057341602594208341 0 -0.00024880072352714957 -0.0057713854383308763 0 -0.00011118878825049083 -0.0057341602594208341 0 -0.00011908376633777084 -0.0056283980805534924 0 -0.00011118878825049083 -0.0057341602594208341 0 -0.00011908376633777084 -0.0056283980805534924 0 0.00012730930289667899 -0.0054943802741341807 0 -0.00011908376633777084 -0.0056283980805534924 0 2.1191943867489071e-05 -0.0054230987339980649 0 0.00012730930289667899 -0.0054943802741341807 0 2.1191943867489071e-05 -0.0054230987339980649 0 0.00012730930289667899 -0.0054943802741341807 0 9.3641341624886495e-05 -0.0054444132502342738 0 2.1191943867489071e-05 -0.0054230987339980649 0 9.3641341624886495e-05 -0.0054444132502342738 0 0.00012627308327879243 -0.0054554589327640854 0 2.1191943867489071e-05 -0.0054230987339980649 0 0.00017827537457918945 -0.0053948166448965053 0 0.00012627308327879243 -0.0054554589327640854 0 2.1191943867489071e-05 -0.0054230987339980649 0 0.00017827537457918945 -0.0053948166448965053 0 0.00020864425741165096 -0.0052761955358505402 0 1.1557981250884554e-05 -0.0054233826591623228 0 -9.2065175417968339e-05 -0.0054762005045035488 0 -0.00011908376633777084 -0.0056283980805534924 0 2.1191943867489071e-05 -0.0054230987339980649 0 -0.00041184514006570696 -0.0056736912503612342 0 -0.00024880072352714957 -0.0057713854383308763 0 -0.00011908376633777084 -0.0056283980805534924 0 -0.00041184514006570696 -0.0056736912503612342 0 0.00017827537457918945 -0.0053948166448965053 0 0.00020864425741165096 -0.0052761955358505402 0 0.00026623920244293263 -0.0054089662215995749 0 0.00020864425741165096 -0.0052761955358505402 0 0.00026623920244293263 -0.0054089662215995749 0 0.00029512013467140614 -0.0053003163081145072 0 0.00029512013467140614 -0.0053003163081145072 0 0.00034539837236401616 -0.0053177698307332582 0 0.0003266704870893955 -0.0053892533800159528 0 0.00026623920244293263 -0.0054089662215995749 0 0.00029512013467140614 -0.0053003163081145072 0 0.0003266704870893955 -0.0053892533800159528 0 0.00027989177781504267 -0.0051942805546595517 0 0.00020864425741165096 -0.0052761955358505402 0 0.00029512013467140614 -0.0053003163081145072 0 0.00027989177781504267 -0.0051942805546595517 0 0.00029512013467140614 -0.0053003163081145072 0 0.0003297543167529318 -0.0052183863110436433 0 -0.00015447610347394547 -0.0065902765044093493 0 -0.00019060252176313151 -0.0066240097748412859 0 -0.0001886091060469672 -0.0065936675538970724 0 -0.00015447610347394547 -0.0065902765044093493 0 -0.00019060252176313151 -0.0066240097748412859 0 -0.00017447289830500333 -0.0066749067737547872 0 -0.00019060252176313151 -0.0066240097748412859 0 -0.00023504170731374494 -0.006614047004739514 0 -0.00021300298619102742 -0.0066598935386230438 0 -0.00019060252176313151 -0.0066240097748412859 0 -0.00023504170731374494 -0.006614047004739514 0 -0.0001886091060469672 -0.0065936675538970724 0 -0.00023504170731374494 -0.006614047004739514 0 -0.0001886091060469672 -0.0065936675538970724 0 -0.00018464742835496277 -0.0065596567060342585 0 -0.00015447610347394547 -0.0065902765044093493 0 -0.0001886091060469672 -0.0065936675538970724 0 -0.00018464742835496277 -0.0065596567060342585 0 9.5191299387660229e-05 -0.0076828980634509724 0 0.00049817293205549839 -0.0076384780073856014 0 0.00021250485078038895 -0.0070642256833344311 0 0.00051720270903416897 -0.014069575951738774 0 0.00028726794846316474 -0.014358099540958381 0 0.0002238395626229252 -0.014038962485075444 0 0.00051720270903416897 -0.014069575951738774 0 0.00036951698733984093 -0.013691663417036646 0 0.0002238395626229252 -0.014038962485075444 0 0.00055327282163656385 -0.013357340893287961 0 0.00051720270903416897 -0.014069575951738774 0 0.00036951698733984093 -0.013691663417036646 0 0.00054510847872308742 -0.0092067516054097666 0 9.5191299387660229e-05 -0.0076828980634509724 0 0.00049817293205549839 -0.0076384780073856014 0 0.00024376509391814036 -0.009930612213971084 0 -8.393696312158657e-05 -0.0067113389292806904 0 -9.7072277750229278e-05 -0.0067595106241002513 0 -0.00015447610347394547 -0.0065902765044093493 0 -0.0001442811118944875 -0.0067019411380494845 0 0.00024376509391814036 -0.009930612213971084 0 0.00052949342935513144 -0.011155322849396597 0 0.00055327282163656385 -0.013357340893287961 0 0.0005119386468355919 -0.01323621992355634 0 0.00036951698733984093 -0.013691663417036646 0 0.0005119386468355919 -0.01323621992355634 0 0.00036951698733984093 -0.013691663417036646 0 3.6420578054277602e-05 -0.013748590324724485 0 -0.00013725519235625481 -0.0067499346793298918 0 -9.7072277750229278e-05 -0.0067595106241002513 0 -0.0001442811118944875 -0.0067019411380494845 0 -0.00015447610347394547 -0.0065902765044093493 0 -0.0001442811118944875 -0.0067019411380494845 0 -0.00017447289830500333 -0.0066749067737547872 0 -0.00017110743712094064 -0.0067283041774413334 0 -0.0001442811118944875 -0.0067019411380494845 0 -0.00017447289830500333 -0.0066749067737547872 0 -0.00017110743712094064 -0.0067283041774413334 0 -0.00017447289830500333 -0.0066749067737547872 0 -0.00021090289864961843 -0.0067030750587197159 0 -0.00013725519235625481 -0.0067499346793298918 0 -0.00017110743712094064 -0.0067283041774413334 0 -0.0001442811118944875 -0.0067019411380494845 0 -0.00019060252176313151 -0.0066240097748412859 0 -0.00017447289830500333 -0.0066749067737547872 0 -0.00021300298619102742 -0.0066598935386230438 0 -0.00023504170731374494 -0.006614047004739514 0 -0.00021300298619102742 -0.0066598935386230438 0 -0.00028476575559940659 -0.0066866313711522012 0 -0.00017447289830500333 -0.0066749067737547872 0 -0.00021300298619102742 -0.0066598935386230438 0 -0.00021090289864961843 -0.0067030750587197159 0 -0.0002184021143918253 -0.0067587029037919936 0 -0.00017110743712094064 -0.0067283041774413334 0 -0.00021090289864961843 -0.0067030750587197159 0 -0.00021300298619102742 -0.0066598935386230438 0 -0.00021090289864961843 -0.0067030750587197159 0 -0.00028476575559940659 -0.0066866313711522012 0 -0.0002184021143918253 -0.0067587029037919936 0 -0.00021090289864961843 -0.0067030750587197159 0 -0.00028476575559940659 -0.0066866313711522012 0 -0.00036768422153571795 -0.0067230500587767885 0 -0.00028476575559940659 -0.0066866313711522012 0 -0.00042355257747388056 -0.0066450511541282266 0 -0.00028476575559940659 -0.0066866313711522012 0 -0.00032835692433893295 -0.0066220291891887434 0 -0.00042355257747388056 -0.0066450511541282266 0 -0.00023504170731374494 -0.006614047004739514 0 -0.00028476575559940659 -0.0066866313711522012 0 -0.00032835692433893295 -0.0066220291891887434 0 -0.00052063170956612983 -0.0066673703499483122 0 -0.00049828769295816658 -0.0066270089153777183 0 -0.00042355257747388056 -0.0066450511541282266 0 -0.00032835692433893295 -0.0066220291891887434 0 -0.00042355257747388056 -0.0066450511541282266 0 -0.00040450046295937593 -0.0065971215797267935 0 -0.00049828769295816658 -0.0066270089153777183 0 -0.00049605553989298592 -0.0065908075104272462 0 -0.00040450046295937593 -0.0065971215797267935 0 -0.00049828769295816658 -0.0066270089153777183 0 -0.00042355257747388056 -0.0066450511541282266 0 -0.00040450046295937593 -0.0065971215797267935 0 -0.0003306690308191193 -0.0062923497958590627 0 -0.00015797565477049019 -0.0059776869159342922 0 -0.00049605553989298592 -0.0065908075104272462 0 -0.00040450046295937593 -0.0065971215797267935 0 -0.00038302426668723478 -0.0065464749371581437 0 -0.00049605553989298592 -0.0065908075104272462 0 -0.00038302426668723478 -0.0065464749371581437 0 -0.00042956442415679536 -0.0064592552306686774 0 -0.00040450046295937593 -0.0065971215797267935 0 -0.00038302426668723478 -0.0065464749371581437 0 -0.00029070320956041168 -0.0065687392526029538 0 -0.00023504170731374494 -0.006614047004739514 0 -0.00032835692433893295 -0.0066220291891887434 0 -0.00029070320956041168 -0.0065687392526029538 0 -0.00032835692433893295 -0.0066220291891887434 0 -0.00040450046295937593 -0.0065971215797267935 0 -0.00029070320956041168 -0.0065687392526029538 0 -0.00023504170731374494 -0.006614047004739514 0 -0.00018464742835496277 -0.0065596567060342585 0 -0.00029070320956041168 -0.0065687392526029538 0 -0.00026235172949441986 -0.0065003010784984716 0 -0.00042956442415679536 -0.0064592552306686774 0 -0.00021837617982185966 -0.0063399898205807308 0 -0.00018464742835496277 -0.0065596567060342585 0 -0.00029070320956041168 -0.0065687392526029538 0 -0.00026235172949441986 -0.0065003010784984716 0 -0.00038302426668723478 -0.0065464749371581437 0 -0.00029070320956041168 -0.0065687392526029538 0 -0.00026235172949441986 -0.0065003010784984716 0 -0.00038302426668723478 -0.0065464749371581437 0 -0.00026235172949441986 -0.0065003010784984716 0 -0.00042956442415679536 -0.0064592552306686774 0 -0.00015797565477049019 -0.0059776869159342922 0 -0.00012088988537380032 -0.0058045041884903989 0 0.00012730930289667899 -0.0054943802741341807 0 9.3641341624886495e-05 -0.0054444132502342738 0 6.9368165013089311e-05 -0.0054596946915510796 0 -0.00042956442415679536 -0.0064592552306686774 0 -0.00021837617982185966 -0.0063399898205807308 0 -0.00033299071644221211 -0.0061360742748054675 0 -0.00026235172949441986 -0.0065003010784984716 0 -0.00021837617982185966 -0.0063399898205807308 0 -0.0001014301294176787 -0.0065054680483294615 0 -0.00021837617982185966 -0.0063399898205807308 0 1.477987119434987e-05 -0.0062570957861074819 0 -4.4526215804267753e-05 -0.0060432598004086157 0 1.477987119434987e-05 -0.0062570957861074819 0 -0.0001014301294176787 -0.0065054680483294615 0 0.00034332799008812676 -0.0065005332350285003 0 -0.00021837617982185966 -0.0063399898205807308 0 1.477987119434987e-05 -0.0062570957861074819 0 -0.0001014301294176787 -0.0065054680483294615 0 9.5191299387660229e-05 -0.0076828980634509724 0 -0.0001014301294176787 -0.0065054680483294615 0 0.00021250485078038895 -0.0070642256833344311 0 -0.00018464742835496277 -0.0065596567060342585 0 -0.00026235172949441986 -0.0065003010784984716 0 -0.0001014301294176787 -0.0065054680483294615 0 -0.00015447610347394547 -0.0065902765044093493 0 -0.00018464742835496277 -0.0065596567060342585 0 -0.0001014301294176787 -0.0065054680483294615 0 -8.393696312158657e-05 -0.0067113389292806904 0 -7.3995630086690856e-05 -0.0067236944541957284 0 -0.0001014301294176787 -0.0065054680483294615 0 0.00021250485078038895 -0.0070642256833344311 0 0.00034332799008812676 -0.0065005332350285003 0 0.00051720270903416897 -0.014069575951738774 0 0.00028726794846316474 -0.014358099540958381 0 0.00031909072933846772 -0.014559492090022698 0 0.00052949342935513144 -0.011155322849396597 0 0.00032833050447385282 -0.010424523561638433 0 0.00049817293205549839 -0.0076384780073856014 0 0.00021250485078038895 -0.0070642256833344311 0 0.00034332799008812676 -0.0065005332350285003 0 0.00028726794846316474 -0.014358099540958381 0 0.00031909072933846772 -0.014559492090022698 0 0.00019135068879073047 -0.014534247735026517 0 0.00031909072933846772 -0.014559492090022698 0 0.00014569174089775307 -0.014640121630991825 0 0.00016965827682377649 -0.014650707192464583 0 1.477987119434987e-05 -0.0062570957861074819 0 0.00034332799008812676 -0.0065005332350285003 0 0.00021705571169700787 -0.0060142289660617219 0 0.00032833050447385282 -0.010424523561638433 0 0.00022191027995578695 -0.010537633851341804 0 0.00031909072933846772 -0.014559492090022698 0 0.00014569174089775307 -0.014640121630991825 0 0.00019135068879073047 -0.014534247735026517 0 0.00014569174089775307 -0.014640121630991825 0 1.1023390201099236e-05 -0.014569946511714614 0 0.00019135068879073047 -0.014534247735026517 0 0.00014569174089775307 -0.014640121630991825 0 5.619784811367724e-05 -0.014637579566024931 0 1.1023390201099236e-05 -0.014569946511714614 0 5.619784811367724e-05 -0.014637579566024931 0 5.7574766235888515e-05 -0.014701368654330667 0 9.2663851175256055e-05 -0.014679666037685227 0 5.619784811367724e-05 -0.014637579566024931 0 4.587931595065263e-05 -0.014670575129488236 0 5.7574766235888515e-05 -0.014701368654330667 0 0.00014569174089775307 -0.014640121630991825 0 5.619784811367724e-05 -0.014637579566024931 0 9.2663851175256055e-05 -0.014679666037685227 0 4.587931595065263e-05 -0.014670575129488236 0 1.1023390201099236e-05 -0.014569946511714614 0 2.8449222536622052e-05 -0.014726894206942341 0 5.619784811367724e-05 -0.014637579566024931 0 4.587931595065263e-05 -0.014670575129488236 0 1.1023390201099236e-05 -0.014569946511714614 0 1.1023390201099236e-05 -0.014569946511714614 0 0.00013954374775105099 -0.014326814907652679 0 -1.6911362482609075e-05 -0.014087407367186944 0 1.1023390201099236e-05 -0.014569946511714614 0 0.00019135068879073047 -0.014534247735026517 0 0.00013954374775105099 -0.014326814907652679 0 0.00028726794846316474 -0.014358099540958381 0 0.00019135068879073047 -0.014534247735026517 0 0.00013954374775105099 -0.014326814907652679 0 0.00013954374775105099 -0.014326814907652679 0 0.0002238395626229252 -0.014038962485075444 0 -1.6911362482609075e-05 -0.014087407367186944 0 0.00028726794846316474 -0.014358099540958381 0 0.00013954374775105099 -0.014326814907652679 0 0.0002238395626229252 -0.014038962485075444 0 0.0002238395626229252 -0.014038962485075444 0 -1.6911362482609075e-05 -0.014087407367186944 0 3.6420578054277602e-05 -0.013748590324724485 0 1.1023390201099236e-05 -0.014569946511714614 0 -1.6911362482609075e-05 -0.014087407367186944 0 -0.00034863207999861979 -0.013961110100018652 0 -1.6593163179944456e-05 -0.01454929937427866 0 -0.00014214835130682411 -0.014356979713662369 0 -1.6911362482609075e-05 -0.014087407367186944 0 -0.00034863207999861979 -0.013961110100018652 0 3.6420578054277602e-05 -0.013748590324724485 0 -0.00034863207999861979 -0.013961110100018652 0 -0.00019638137764646632 -0.013407272916947138 0 -0.00058537806700086688 -0.013345170580780323 0 -0.00034863207999861979 -0.013961110100018652 0 -0.00019638137764646632 -0.013407272916947138 0 3.6420578054277602e-05 -0.013748590324724485 0 -0.00014214835130682411 -0.014356979713662369 0 -0.00030650431983078678 -0.013957092199179927 0 0.00054667513572571945 -0.013217443677657703 0 3.6420578054277602e-05 -0.013748590324724485 0 0.00011229739895168234 -0.013277945908542086 0 -0.00019638137764646632 -0.013407272916947138 0 3.6420578054277602e-05 -0.013748590324724485 0 0.00011229739895168234 -0.013277945908542086 0 0.00048995384821531396 -0.011496693856070783 0 -0.00010071303789710582 -0.014253040942524341 0 0.00036951698733984093 -0.013691663417036646 0 0.0002238395626229252 -0.014038962485075444 0 3.6420578054277602e-05 -0.013748590324724485 0 2.2109896791149683e-05 -0.014725553105148703 0 4.5617207148511567e-05 -0.014746705798024862 0 4.5757388233557054e-05 -0.014720407297404859 0 2.8449222536622052e-05 -0.014726894206942341 0 4.5617207148511567e-05 -0.014746705798024862 0 4.5757388233557054e-05 -0.014720407297404859 0 4.587931595065263e-05 -0.014670575129488236 0 2.8449222536622052e-05 -0.014726894206942341 0 4.5617207148511567e-05 -0.014746705798024862 0 2.2109896791149683e-05 -0.014725553105148703 0 4.5617207148511567e-05 -0.014746705798024862 0 6.7523841901699652e-06 -0.014839619849855953 0 4.5617207148511567e-05 -0.014746705798024862 0 4.5014460456114175e-05 -0.014729516805530547 0 6.7523841901699652e-06 -0.014839619849855953 0 4.5014460456114175e-05 -0.014729516805530547 0 3.2717424798700758e-05 -0.014789313442185703 0 6.7523841901699652e-06 -0.014839619849855953 0 4.587931595065263e-05 -0.014670575129488236 0 4.5617207148511567e-05 -0.014746705798024862 0 4.5014460456114175e-05 -0.014729516805530547 0 4.587931595065263e-05 -0.014670575129488236 0 4.5014460456114175e-05 -0.014729516805530547 0 5.7574766235888515e-05 -0.014701368654330667 0 4.5014460456114175e-05 -0.014729516805530547 0 5.7574766235888515e-05 -0.014701368654330667 0 3.2717424798700758e-05 -0.014789313442185703 0 5.7574766235888515e-05 -0.014701368654330667 0 3.2717424798700758e-05 -0.014789313442185703 0 5.8072616653428802e-05 -0.014742500622319485 0 3.2717424798700758e-05 -0.014789313442185703 0 2.4334495791420289e-05 -0.014853427372757898 0 4.434385342625556e-05 -0.014786495126305662 0 3.2717424798700758e-05 -0.014789313442185703 0 2.4334495791420289e-05 -0.014853427372757898 0 1.7056286954011619e-05 -0.014884113238582667 0 3.2717424798700758e-05 -0.014789313442185703 0 1.7056286954011619e-05 -0.014884113238582667 0 6.7523841901699652e-06 -0.014839619849855953 0 1.7056286954011619e-05 -0.014884113238582667 0 1.5298658588541787e-05 -0.01492706069836802 0 -1.018596682386661e-09 -0.014999940138710472 0 1.5298658588541787e-05 -0.01492706069836802 0 -1.018596682386661e-09 -0.014999940138710472 0 1.0551932763748013e-07 -0.014999720009693119 0 2.4334495791420289e-05 -0.014853427372757898 0 1.7056286954011619e-05 -0.014884113238582667 0 1.5298658588541787e-05 -0.01492706069836802 0 2.4334495791420289e-05 -0.014853427372757898 0 1.5298658588541787e-05 -0.01492706069836802 0 2.0325558118501548e-05 -0.014898624282399853 0 1.7056286954011619e-05 -0.014884113238582667 0 -1.018596682386661e-09 -0.014999940138710472 0 1.6252970078329117e-05 -0.014939224039956693 0 -1.018596682386661e-09 -0.014999940138710472 0 1.6252970078329117e-05 -0.014939224039956693 0 2.4616513117409177e-08 -0.014999928741875829 0 1.6252970078329117e-05 -0.014939224039956693 0 2.4616513117409177e-08 -0.014999928741875829 0 7.4014625168540203e-06 -0.014974631036043752 0 1.7056286954011619e-05 -0.014884113238582667 0 1.6252970078329117e-05 -0.014939224039956693 0 6.7523841901699652e-06 -0.014839619849855953 0 1.6252970078329117e-05 -0.014939224039956693 0 6.7523841901699652e-06 -0.014839619849855953 0 1.064514330351236e-06 -0.014941479534690057 0 1.6252970078329117e-05 -0.014939224039956693 0 1.064514330351236e-06 -0.014941479534690057 0 7.4014625168540203e-06 -0.014974631036043752 0 -4.3744276822048791e-05 -0.014932974523924737 0 6.7523841901699652e-06 -0.014839619849855953 0 1.064514330351236e-06 -0.014941479534690057 0 -9.4380660017178682e-06 -0.014980045889568474 0 1.6376382070665101e-05 -0.014776272607442447 0 -4.3744276822048791e-05 -0.014932974523924737 0 1.064514330351236e-06 -0.014941479534690057 0 -2.2764871118309422e-05 -0.014957069155321299 0 1.064514330351236e-06 -0.014941479534690057 0 -2.2764871118309422e-05 -0.014957069155321299 0 -5.8876322400974827e-06 -0.014967151726442748 0 1.064514330351236e-06 -0.014941479534690057 0 -5.8876322400974827e-06 -0.014967151726442748 0 7.4014625168540203e-06 -0.014974631036043752 0 -5.8876322400974827e-06 -0.014967151726442748 0 7.4014625168540203e-06 -0.014974631036043752 0 -4.6126267360514472e-06 -0.014975033602871128 0 -1.0714250649095513e-05 -0.014969519118996638 0 -5.8876322400974827e-06 -0.014967151726442748 0 -4.6126267360514472e-06 -0.014975033602871128 0 -1.0714250649095513e-05 -0.014969519118996638 0 -1.5285181727577377e-05 -0.014977223086783372 0 -5.8876322400974827e-06 -0.014967151726442748 0 -1.0714250649095513e-05 -0.014969519118996638 0 -1.5285181727577377e-05 -0.014977223086783372 0 -1.0068752602754132e-05 -0.014954028804404825 0 -1.5285181727577377e-05 -0.014977223086783372 0 -1.0068752602754132e-05 -0.014954028804404825 0 5.6187949330174532e-05 -0.014930547457609291 0 -2.2764871118309422e-05 -0.014957069155321299 0 -1.5285181727577377e-05 -0.014977223086783372 0 -3.8869808093585886e-05 -0.014968059770841449 0 -2.2764871118309422e-05 -0.014957069155321299 0 -1.5285181727577377e-05 -0.014977223086783372 0 -5.8876322400974827e-06 -0.014967151726442748 0 2.4616513117409177e-08 -0.014999928741875829 0 7.4014625168540203e-06 -0.014974631036043752 0 -6.3844533037676907e-10 -0.014999982216164463 0 7.4014625168540203e-06 -0.014974631036043752 0 2.1423820390366835e-06 -0.014987529721846833 0 -4.6126267360514472e-06 -0.014975033602871128 0 7.4014625168540203e-06 -0.014974631036043752 0 -6.3844533037676907e-10 -0.014999982216164463 0 2.1423820390366835e-06 -0.014987529721846833 0 2.1423820390366835e-06 -0.014987529721846833 0 -7.9212125552075546e-07 -0.014985962294881928 0 4.4104726290502601e-09 -0.014999982031662454 0 -6.3844533037676907e-10 -0.014999982216164463 0 2.1423820390366835e-06 -0.014987529721846833 0 4.4104726290502601e-09 -0.014999982031662454 0 2.1423820390366835e-06 -0.014987529721846833 0 -7.9212125552075546e-07 -0.014985962294881928 0 -4.6126267360514472e-06 -0.014975033602871128 0 1.4412800766207587e-07 -0.014996612191270119 0 -7.9212125552075546e-07 -0.014985962294881928 0 4.4104726290502601e-09 -0.014999982031662454 0 -8.1101111087343705e-06 -0.014963334220486851 0 -1.0068752602754132e-05 -0.014954028804404825 0 3.2018519604343115e-06 -0.014955891320287542 0 -1.0714250649095513e-05 -0.014969519118996638 0 -8.1101111087343705e-06 -0.014963334220486851 0 -1.0068752602754132e-05 -0.014954028804404825 0 -7.9212125552075546e-07 -0.014985962294881928 0 -4.6126267360514472e-06 -0.014975033602871128 0 -7.5083301399141128e-06 -0.014967063931149797 0 -1.0714250649095513e-05 -0.014969519118996638 0 -8.1101111087343705e-06 -0.014963334220486851 0 -4.6126267360514472e-06 -0.014975033602871128 0 -8.1101111087343705e-06 -0.014963334220486851 0 -4.6126267360514472e-06 -0.014975033602871128 0 -7.5083301399141128e-06 -0.014967063931149797 0 -7.3652022667183676e-06 -0.01497150699866733 0 -7.3060539034978008e-06 -0.014968523206105783 0 -5.8901816513653596e-06 -0.014951793411273836 0 -1.2671258946617398e-05 -0.014947962782281738 0 -7.5083301399141128e-06 -0.014967063931149797 0 -3.9802209320513486e-06 -0.014994718434929529 0 -7.9212125552075546e-07 -0.014985962294881928 0 -7.5083301399141128e-06 -0.014967063931149797 0 -5.8901816513653596e-06 -0.014951793411273836 0 -7.5083301399141128e-06 -0.014967063931149797 0 3.2018519604343115e-06 -0.014955891320287542 0 -8.1101111087343705e-06 -0.014963334220486851 0 -7.5083301399141128e-06 -0.014967063931149797 0 3.2018519604343115e-06 -0.014955891320287542 0 -6.2049745766111614e-05 -0.015164490364496835 0 0.00012832896294802829 -0.014333591297544634 0 0.00045314160595001689 -0.012964607778835249 0 0.00058955673895888625 -0.012883019409635941 0 0.00045294368488051426 -0.012837691983710211 0 0.00058955673895888625 -0.012883019409635941 0 0.00051074861109870386 -0.012726747514426854 0 0.00045294368488051426 -0.012837691983710211 0 0.00012832896294802829 -0.014333591297544634 0 0.00025194187573434744 -0.013700383916499742 0 -1.0068752602754132e-05 -0.014954028804404825 0 3.9483366803788455e-05 -0.014719600566486224 0 9.0834114944799696e-05 -0.014846389833980147 0 0.00025194187573434744 -0.013700383916499742 0 1.5787955867479454e-05 -0.014092424274359704 0 9.0834114944799696e-05 -0.014846389833980147 0 5.6187949330174532e-05 -0.014930547457609291 0 0.00012433004463483931 -0.014956936621783393 0 -1.0068752602754132e-05 -0.014954028804404825 0 9.0834114944799696e-05 -0.014846389833980147 0 5.6187949330174532e-05 -0.014930547457609291 0 0.00035842216952167378 -0.01259865932078175 0 0.0003723017172559705 -0.012751393768771253 0 0.00020390691477269624 -0.012811900983933011 0 0.00035842216952167378 -0.01259865932078175 0 0.00042261740829451118 -0.01267296662249945 0 0.0003723017172559705 -0.012751393768771253 0 0.00051074861109870386 -0.012726747514426854 0 0.00042261740829451118 -0.01267296662249945 0 0.00044130722721282255 -0.012582103030777263 0 0.0001220362759015067 -0.012870818903414703 0 1.5787955867479454e-05 -0.014092424274359704 0 0.00035842216952167378 -0.01259865932078175 0 0.00042261740829451118 -0.01267296662249945 0 0.00044130722721282255 -0.012582103030777263 0 0.00051074861109870386 -0.012726747514426854 0 0.00042261740829451118 -0.01267296662249945 0 0.0003723017172559705 -0.012751393768771253 0 0.0003723017172559705 -0.012751393768771253 0 0.00034115335224706471 -0.012889139203604971 0 0.00020390691477269624 -0.012811900983933011 0 0.00051074861109870386 -0.012726747514426854 0 0.0003723017172559705 -0.012751393768771253 0 0.00045294368488051426 -0.012837691983710211 0 0.0003723017172559705 -0.012751393768771253 0 0.00045294368488051426 -0.012837691983710211 0 0.00034115335224706471 -0.012889139203604971 0 0.00023260513998118107 -0.012589049404602797 0 0.00011489124459204965 -0.012671833973416261 0 0.00015697161585053631 -0.012558950529643998 0 0.00023260513998118107 -0.012589049404602797 0 0.00015697161585053631 -0.012558950529643998 0 0.00020567450976457992 -0.012525146300066079 0 -9.4926587377840044e-05 -0.012664172738391377 0 0.00011669630799205934 -0.01265507884943471 0 6.6886240247215876e-05 -0.012563210646806679 0 0.00011489124459204965 -0.012671833973416261 0 9.5028127343934889e-05 -0.012566364425475077 0 0.00011489124459204965 -0.012671833973416261 0 0.00015697161585053631 -0.012558950529643998 0 9.5028127343934889e-05 -0.012566364425475077 0 6.2162625863571505e-05 -0.012542195552098829 0 9.5028127343934889e-05 -0.012566364425475077 0 0.000139369658879733 -0.0125006409974662 0 0.00024305195088807492 -0.012417599784826115 0 5.6712782201617146e-05 -0.012371919564174775 0 0.00020169638851255997 -0.012442481956409361 0 0.00015697161585053631 -0.012558950529643998 0 9.5028127343934889e-05 -0.012566364425475077 0 0.000139369658879733 -0.0125006409974662 0 5.6712782201617146e-05 -0.012371919564174775 0 -0.0001065275357939433 -0.012653034112462868 0 7.8294030283709872e-05 -0.012531788049255362 0 5.6712782201617146e-05 -0.012371919564174775 0 0.00020169638851255997 -0.012442481956409361 0 7.8294030283709872e-05 -0.012531788049255362 0 0.0001220362759015067 -0.012870818903414703 0 0.00025839372149418768 -0.012630294372980931 0 0.00028785213728882306 -0.012460199074313269 0 0.000139369658879733 -0.0125006409974662 0 0.00020567450976457992 -0.012525146300066079 0 0.00028785213728882306 -0.012460199074313269 0 0.00023260513998118107 -0.012589049404602797 0 0.00020567450976457992 -0.012525146300066079 0 -0.00064944489067961795 -0.012502318907710617 0 5.6712782201617146e-05 -0.012371919564174775 0 -0.00032921617432718741 -0.01261560104645423 0 0.0001220362759015067 -0.012870818903414703 0 3.5668358384555347e-05 -0.012404413691667822 0 0.00015697161585053631 -0.012558950529643998 0 0.000139369658879733 -0.0125006409974662 0 0.00020567450976457992 -0.012525146300066079 0 -0.00032921617432718741 -0.01261560104645423 0 -0.00040254011095056526 -0.012880307394108462 0 -0.00055327467998170373 -0.012677965106247958 0 -0.00032921617432718741 -0.01261560104645423 0 -0.0001065275357939433 -0.012653034112462868 0 -0.00040254011095056526 -0.012880307394108462 0 5.6712782201617146e-05 -0.012371919564174775 0 -0.00032921617432718741 -0.01261560104645423 0 -0.0001065275357939433 -0.012653034112462868 0 -0.0001065275357939433 -0.012653034112462868 0 -0.00040254011095056526 -0.012880307394108462 0 -5.2452444755481886e-05 -0.012982725866745167 0 0.00020169638851255997 -0.012442481956409361 0 7.9596611359539966e-05 -0.0127133091996387 0 0.00024743400094453432 -0.012986186856381709 0 0.00020169638851255997 -0.012442481956409361 0 7.8294030283709872e-05 -0.012531788049255362 0 7.9596611359539966e-05 -0.0127133091996387 0 -0.0001065275357939433 -0.012653034112462868 0 7.8294030283709872e-05 -0.012531788049255362 0 7.9596611359539966e-05 -0.0127133091996387 0 -0.0001065275357939433 -0.012653034112462868 0 7.9596611359539966e-05 -0.0127133091996387 0 -5.2452444755481886e-05 -0.012982725866745167 0 7.9596611359539966e-05 -0.0127133091996387 0 0.00024743400094453432 -0.012986186856381709 0 -5.2452444755481886e-05 -0.012982725866745167 0 0.00024743400094453432 -0.012986186856381709 0 -5.2452444755481886e-05 -0.012982725866745167 0 0.00011229739895168234 -0.013277945908542086 0 -0.00019638137764646632 -0.013407272916947138 0 -5.2452444755481886e-05 -0.012982725866745167 0 0.00011229739895168234 -0.013277945908542086 0 0.00054667513572571945 -0.013217443677657703 0 0.00024743400094453432 -0.012986186856381709 0 0.00011229739895168234 -0.013277945908542086 0 -0.00040254011095056526 -0.012880307394108462 0 -0.00030966814493465231 -0.013152767830687685 0 -0.00058537806700086688 -0.013345170580780323 0 -0.00040254011095056526 -0.012880307394108462 0 -5.2452444755481886e-05 -0.012982725866745167 0 -0.00030966814493465231 -0.013152767830687685 0 -0.00019638137764646632 -0.013407272916947138 0 -5.2452444755481886e-05 -0.012982725866745167 0 -0.00030966814493465231 -0.013152767830687685 0 -0.00019638137764646632 -0.013407272916947138 0 -0.00030966814493465231 -0.013152767830687685 0 -0.00058537806700086688 -0.013345170580780323 0 -0.00030650431983078678 -0.013957092199179927 0 -0.0001985096355721718 -0.014078714415901661 0 2.2109896791149683e-05 -0.014725553105148703 0 4.5757388233557054e-05 -0.014720407297404859 0 3.3975422216821888e-05 -0.014683705993241552 0 -0.00040254011095056526 -0.012880307394108462 0 -0.00058537806700086688 -0.013345170580780323 0 -0.00080614783972070064 -0.012763629065653056 0 -4.3744276822048791e-05 -0.014932974523924737 0 -2.2764871118309422e-05 -0.014957069155321299 0 -3.8869808093585886e-05 -0.014968059770841449 0 -9.4380660017178682e-06 -0.014980045889568474 0 -0.0001985096355721718 -0.014078714415901661 0 -4.3744276822048791e-05 -0.014932974523924737 0 -3.8869808093585886e-05 -0.014968059770841449 0 -5.7189060152825921e-05 -0.014965705521299779 0 -5.2507363706562755e-05 -0.01511761621021177 0 1.5787955867479454e-05 -0.014092424274359704 0 -1.5285181727577377e-05 -0.014977223086783372 0 5.6187949330174532e-05 -0.014930547457609291 0 0.00012433004463483931 -0.014956936621783393 0 -1.5285181727577377e-05 -0.014977223086783372 0 -3.8869808093585886e-05 -0.014968059770841449 0 -5.4295885383238338e-05 -0.014975581457977238 0 -3.8869808093585886e-05 -0.014968059770841449 0 -5.4295885383238338e-05 -0.014975581457977238 0 -5.7189060152825921e-05 -0.014965705521299779 0 0.0001248857936491083 -0.013468880103854509 0 -0.00026782386303537037 -0.013568895501638322 0 -0.00013637228852244181 -0.013890066651703566 0 0.0001220362759015067 -0.012870818903414703 0 -0.0001985096355721718 -0.014078714415901661 0 1.5787955867479454e-05 -0.014092424274359704 0 -0.0001985096355721718 -0.014078714415901661 0 -0.00064944489067961795 -0.012502318907710617 0 -0.00032921617432718741 -0.01261560104645423 0 -0.00055327467998170373 -0.012677965106247958 0 -0.00064944489067961795 -0.012502318907710617 0 -0.00055327467998170373 -0.012677965106247958 0 -0.00080614783972070064 -0.012763629065653056 0 -0.00040254011095056526 -0.012880307394108462 0 -0.00055327467998170373 -0.012677965106247958 0 -0.00080614783972070064 -0.012763629065653056 0 -0.00023728144058546941 0.00039643086298457635 0 -0.00039001851785495283 0.00052049990682381461 0 -0.00014692325026687371 0.00054089411516424261 0 -0.00020091934788663983 0.00025707204196977527 0 -0.00023728144058546941 0.00039643086298457635 0 -9.032363666499142e-05 0.00037684799989793884 0 -0.00020091934788663983 0.00025707204196977527 0 -0.00034815115983259133 0.00030056348359906179 0 -0.00023728144058546941 0.00039643086298457635 0 -0.00034815115983259133 0.00030056348359906179 0 -0.00023728144058546941 0.00039643086298457635 0 -0.00039001851785495283 0.00052049990682381461 0 -0.00023728144058546941 0.00039643086298457635 0 -9.032363666499142e-05 0.00037684799989793884 0 -0.00014692325026687371 0.00054089411516424261 0 -9.032363666499142e-05 0.00037684799989793884 0 -0.00014692325026687371 0.00054089411516424261 0 -2.6086809317264566e-06 0.00050643562827736824 0 -9.032363666499142e-05 0.00037684799989793884 0 5.9510985634226509e-05 0.00034033327819274072 0 -2.6086809317264566e-06 0.00050643562827736824 0 5.9510985634226509e-05 0.00034033327819274072 0 -2.6086809317264566e-06 0.00050643562827736824 0 0.00020043401109729329 0.00053189957026969405 0 -9.032363666499142e-05 0.00037684799989793884 0 5.9510985634226509e-05 0.00034033327819274072 0 -4.5093063826185246e-05 0.00015221179802613435 0 -0.00020091934788663983 0.00025707204196977527 0 -9.032363666499142e-05 0.00037684799989793884 0 -4.5093063826185246e-05 0.00015221179802613435 0 5.9510985634226509e-05 0.00034033327819274072 0 -4.5093063826185246e-05 0.00015221179802613435 0 0.00021608595177083614 0.00015893855884805002 0 -4.5093063826185246e-05 0.00015221179802613435 0 -0.00025741704766066536 0.00011238427553234195 0 -0.00010547641900477778 -0.00013380723367640958 0 -0.00020091934788663983 0.00025707204196977527 0 -4.5093063826185246e-05 0.00015221179802613435 0 -0.00025741704766066536 0.00011238427553234195 0 -0.00034815115983259133 0.00030056348359906179 0 -0.00025741704766066536 0.00011238427553234195 0 -0.00040386019308171102 9.1507018350175712e-05 0 -0.00020091934788663983 0.00025707204196977527 0 -0.00034815115983259133 0.00030056348359906179 0 -0.00025741704766066536 0.00011238427553234195 0 -0.00025741704766066536 0.00011238427553234195 0 -0.00040386019308171102 9.1507018350175712e-05 0 -0.00035404459604426633 -5.2045724564012407e-05 0 -0.0001277200973668112 0.00012535354537599803 0 -9.7965579568093714e-05 -0.00074965840053665424 0 -0.00048725984409981856 0.00018773239846992201 0 -0.0005742526833625338 0.00016793480235396163 0 -0.00055225930432453057 1.1607031347273223e-05 0 -0.00040386019308171102 9.1507018350175712e-05 0 -0.00048725984409981856 0.00018773239846992201 0 -0.00055225930432453057 1.1607031347273223e-05 0 -0.00034815115983259133 0.00030056348359906179 0 -0.00040386019308171102 9.1507018350175712e-05 0 -0.00048725984409981856 0.00018773239846992201 0 -0.00019568382889663963 -0.00094791274568814163 0 -0.00061620944047429001 0.00071293919779474228 0 -0.00075030650271006461 7.1838762306405661e-05 0 -0.0005742526833625338 0.00016793480235396163 0 -0.00050675391909002065 0.00039943321123116389 0 -0.0007113469487020495 3.3607759940653e-05 0 -0.00062470961304798844 0.00033461156738330767 0 -0.00081074478297525013 6.3003870564319343e-05 0 -0.00019568382889663963 -0.00094791274568814163 0 0.00020654310301368607 -0.0023915820341225808 0 0.00020754465503364887 -0.0020112662479358414 0 0.00026805801518408321 -0.0021044887490011812 0 0.00016303114531256575 -0.0020685034610804899 0 0.00020754465503364887 -0.0020112662479358414 0 0.00026805801518408321 -0.0021044887490011812 0 0.00040177159477505602 -0.0020747176941784094 0 -0.00019568382889663963 -0.00094791274568814163 0 -3.7647249188793739e-05 -0.0010285592024716628 0 -0.00075030650271006461 7.1838762306405661e-05 0 -0.0005742526833625338 0.00016793480235396163 0 -0.00055225930432453057 1.1607031347273223e-05 0 -0.00034816001599797034 0.00085249534694534462 0 0.00042995134281693454 -0.0018763706085792435 0 -0.0007113469487020495 3.3607759940653e-05 0 -0.00062470961304798844 0.00033461156738330767 0 -0.00050675391909002065 0.00039943321123116389 0 -2.0817640732917831e-05 0.0009560907144156301 0 1.6356676842962022e-05 0.00093561631156370269 0 2.3052465496514489e-05 0.00093375946573968601 0 -0.00034816001599797034 0.00085249534694534462 0 -0.00024421793952815441 0.00069252589665929048 0 -0.00048725984409981856 0.00018773239846992201 0 -0.0005742526833625338 0.00016793480235396163 0 -0.00050675391909002065 0.00039943321123116389 0 -0.00062470961304798844 0.00033461156738330767 0 -0.00050675391909002065 0.00039943321123116389 0 -0.00039001851785495283 0.00052049990682381461 0 -0.00034815115983259133 0.00030056348359906179 0 -0.00048725984409981856 0.00018773239846992201 0 -0.00050675391909002065 0.00039943321123116389 0 -0.00034815115983259133 0.00030056348359906179 0 -0.00050675391909002065 0.00039943321123116389 0 -0.00039001851785495283 0.00052049990682381461 0 -0.00011733682846125678 0.00090820731903502568 0 -0.00010199776581780321 0.00089553684822077243 0 -5.1120612255786297e-05 0.00091745743957709249 0 -2.0817640732917831e-05 0.0009560907144156301 0 -0.00011733682846125678 0.00090820731903502568 0 -5.1120612255786297e-05 0.00091745743957709249 0 -0.00011733682846125678 0.00090820731903502568 0 -0.00010199776581780321 0.00089553684822077243 0 -0.00011270148242149874 0.00085850389539936223 0 -5.1120612255786297e-05 0.00091745743957709249 0 -2.6561637051940204e-05 0.000903060041958037 0 2.3052465496514489e-05 0.00093375946573968601 0 -0.00010199776581780321 0.00089553684822077243 0 -5.1120612255786297e-05 0.00091745743957709249 0 -2.6561637051940204e-05 0.000903060041958037 0 -2.0817640732917831e-05 0.0009560907144156301 0 -5.1120612255786297e-05 0.00091745743957709249 0 2.3052465496514489e-05 0.00093375946573968601 0 -2.6561637051940204e-05 0.000903060041958037 0 -0.00013266543680481751 0.00092065860736662854 0 -7.2454363645489705e-05 0.00081587872003874068 0 -0.00010199776581780321 0.00089553684822077243 0 -2.6561637051940204e-05 0.000903060041958037 0 -0.00013266543680481751 0.00092065860736662854 0 -0.00010199776581780321 0.00089553684822077243 0 -0.00013266543680481751 0.00092065860736662854 0 -0.00011270148242149874 0.00085850389539936223 0 -0.00013266543680481751 0.00092065860736662854 0 -0.00040793220719587093 0.0011509663369771749 0 -0.00032411058921506163 0.00094042295127716457 0 -0.00013266543680481751 0.00092065860736662854 0 -0.00011270148242149874 0.00085850389539936223 0 -0.00010648146115294523 0.00082732437882181132 0 -0.00040793220719587093 0.0011509663369771749 0 -0.00042697537224688258 0.0010473060509393188 0 -0.00032411058921506163 0.00094042295127716457 0 -0.00014807833677108574 0.00093142923273815102 0 -0.00025782811122800373 0.00098009442405114526 0 -0.00024421793952815441 0.00069252589665929048 0 -7.5051299682093835e-05 0.00077888084737282731 0 -0.00039001851785495283 0.00052049990682381461 0 -0.00014692325026687371 0.00054089411516424261 0 -7.3651935397805332e-05 0.00076567283288122082 0 -0.00011733682846125678 0.00090820731903502568 0 -0.00011270148242149874 0.00085850389539936223 0 -7.3651935397805332e-05 0.00076567283288122082 0 -0.00011270148242149874 0.00085850389539936223 0 -7.3651935397805332e-05 0.00076567283288122082 0 -0.00010648146115294523 0.00082732437882181132 0 -2.6086809317264566e-06 0.00050643562827736824 0 -7.3651935397805332e-05 0.00076567283288122082 0 0.00020043401109729329 0.00053189957026969405 0 -7.3651935397805332e-05 0.00076567283288122082 0 -0.00010648146115294523 0.00082732437882181132 0 0.00020043401109729329 0.00053189957026969405 0 -0.00025782811122800373 0.00098009442405114526 0 -0.00019092286951137265 0.00086595022689556049 0 -0.00051436969592579885 0.0011122193155780986 0 -0.00040793220719587093 0.0011509663369771749 0 -0.00058412631340020533 0.0011909965117061355 0 -0.00014692325026687371 0.00054089411516424261 0 -2.6086809317264566e-06 0.00050643562827736824 0 -7.3651935397805332e-05 0.00076567283288122082 0 -0.00051436969592579885 0.0011122193155780986 0 -0.00058976848487798873 0.0010804978472792473 0 -0.0004701936742413594 0.0010059770966346629 0 -0.00051436969592579885 0.0011122193155780986 0 -0.00040793220719587093 0.0011509663369771749 0 -0.00042697537224688258 0.0010473060509393188 0 -0.00051436969592579885 0.0011122193155780986 0 -0.00042697537224688258 0.0010473060509393188 0 -0.0004701936742413594 0.0010059770966346629 0 -0.00051436969592579885 0.0011122193155780986 0 -0.00058791538004572921 0.0011346580185694036 0 -0.00058976848487798873 0.0010804978472792473 0 -0.00058791538004572921 0.0011346580185694036 0 -0.00058976848487798873 0.0010804978472792473 0 -0.00065102562641245853 0.0011463131880720091 0 -0.00065102562641245853 0.0011463131880720091 0 -0.00058412631340020533 0.0011909965117061355 0 -0.00064575158904889762 0.0011887271157321323 0 -0.00058791538004572921 0.0011346580185694036 0 -0.00065102562641245853 0.0011463131880720091 0 -0.00058412631340020533 0.0011909965117061355 0 -0.00051436969592579885 0.0011122193155780986 0 -0.00058791538004572921 0.0011346580185694036 0 -0.00058412631340020533 0.0011909965117061355 0 -0.00065102562641245853 0.0011463131880720091 0 -0.00066362979691197987 0.0011714819662538088 0 -0.00066823044860288034 0.0011581370134129965 0 -0.00065102562641245853 0.0011463131880720091 0 -0.00066362979691197987 0.0011714819662538088 0 -0.0006605132054817559 0.0011782464928242994 0 -0.00065102562641245853 0.0011463131880720091 0 -0.0006605132054817559 0.0011782464928242994 0 -0.00064575158904889762 0.0011887271157321323 0 -0.0006605132054817559 0.0011782464928242994 0 -0.00065505953232708068 0.0011884339866700582 0 -0.00065091088316499186 0.0011733177238099435 0 -0.00066362979691197987 0.0011714819662538088 0 -0.0006605132054817559 0.0011782464928242994 0 -0.00065505953232708068 0.0011884339866700582 0 -0.0006605132054817559 0.0011782464928242994 0 -0.00065551914486687785 0.0011624705223539063 0 -0.00065091088316499186 0.0011733177238099435 0 6.2930024415570757e-05 0.00063062025737345862 0 -8.8759943857598031e-05 0.00075472825266769349 0 -0.0006605132054817559 0.0011782464928242994 0 -0.00065551914486687785 0.0011624705223539063 0 -0.00064575158904889762 0.0011887271157321323 0 0.000485224134467589 0.00031397333852572861 0 0.00043017482598010595 -3.8006457733395121e-05 0 0.00059835545834137859 5.6769281584037701e-06 0 0.00071602634363407273 0.0001226475231676336 0 0.000485224134467589 0.00031397333852572861 0 0.00059835545834137859 5.6769281584037701e-06 0 5.9510985634226509e-05 0.00034033327819274072 0 0.00020043401109729329 0.00053189957026969405 0 0.00021608595177083614 0.00015893855884805002 0 0.00020043401109729329 0.00053189957026969405 0 0.000485224134467589 0.00031397333852572861 0 0.00021608595177083614 0.00015893855884805002 0 -0.00019092286951137265 0.00086595022689556049 0 -8.8759943857598031e-05 0.00075472825266769349 0 0.000485224134467589 0.00031397333852572861 0 0.00021608595177083614 0.00015893855884805002 0 0.00043017482598010595 -3.8006457733395121e-05 0 -4.5093063826185246e-05 0.00015221179802613435 0 0.00021608595177083614 0.00015893855884805002 0 0.00010179283816339027 -3.8938114997861208e-05 0 0.00021608595177083614 0.00015893855884805002 0 0.00010179283816339027 -3.8938114997861208e-05 0 0.00025621231999494181 -0.00011433150932049387 0 0.00010179283816339027 -3.8938114997861208e-05 0 0.00025621231999494181 -0.00011433150932049387 0 0.0001435320923275598 -0.00022187918229951933 0 0.00021608595177083614 0.00015893855884805002 0 0.00025621231999494181 -0.00011433150932049387 0 0.00043017482598010595 -3.8006457733395121e-05 0 0.00025621231999494181 -0.00011433150932049387 0 0.00043017482598010595 -3.8006457733395121e-05 0 0.00038078828131980546 -0.0002389886233738716 0 0.00043017482598010595 -3.8006457733395121e-05 0 0.00038078828131980546 -0.0002389886233738716 0 0.00059191625915631701 -0.00022804080864933921 0 0.00038078828131980546 -0.0002389886233738716 0 0.00059191625915631701 -0.00022804080864933921 0 0.00039218741421226996 -0.00040924990043864599 0 0.00025621231999494181 -0.00011433150932049387 0 0.00038078828131980546 -0.0002389886233738716 0 0.00024780256314570827 -0.00031279549268009799 0 0.00038078828131980546 -0.0002389886233738716 0 0.00024780256314570827 -0.00031279549268009799 0 0.00029924902874027857 -0.00048297149137814359 0 0.00038078828131980546 -0.0002389886233738716 0 0.00029924902874027857 -0.00048297149137814359 0 0.00039218741421226996 -0.00040924990043864599 0 0.00024780256314570827 -0.00031279549268009799 0 0.00029924902874027857 -0.00048297149137814359 0 5.5647210263706671e-05 -0.00044341690526078715 0 0.00024780256314570827 -0.00031279549268009799 0 0.0001435320923275598 -0.00022187918229951933 0 5.5647210263706671e-05 -0.00044341690526078715 0 0.00025621231999494181 -0.00011433150932049387 0 0.00024780256314570827 -0.00031279549268009799 0 0.0001435320923275598 -0.00022187918229951933 0 0.00071602634363407273 0.0001226475231676336 0 0.00074107571955396546 -9.5605507026710659e-05 0 0.00059835545834137859 5.6769281584037701e-06 0 0.00074107571955396546 -9.5605507026710659e-05 0 0.00059835545834137859 5.6769281584037701e-06 0 0.00059191625915631701 -0.00022804080864933921 0 0.00043017482598010595 -3.8006457733395121e-05 0 0.00059835545834137859 5.6769281584037701e-06 0 0.00059191625915631701 -0.00022804080864933921 0 0.00063148748215739324 -0.00021536585648649728 0 0.00028970177314975603 -0.00046834357192959014 0 0.00074107571955396546 -9.5605507026710659e-05 0 0.00059191625915631701 -0.00022804080864933921 0 0.0008000579346836565 -0.00026682572910823271 0 0.00059191625915631701 -0.00022804080864933921 0 0.00065788277395323162 -0.00037017604949335766 0 0.0008000579346836565 -0.00026682572910823271 0 0.00016980053741600984 -0.00093383176899803722 0 3.9735644782236912e-05 -0.00090841149947771713 0 5.1344935738676772e-05 -0.0009718583633763 0 0.00016980053741600984 -0.00093383176899803722 0 3.0196941001835826e-05 -0.00083383993443371049 0 3.9735644782236912e-05 -0.00090841149947771713 0 0.00039194002261515841 -0.00065136288665920488 0 0.00028970177314975603 -0.00046834357192959014 0 0.00059191625915631701 -0.00022804080864933921 0 0.00065788277395323162 -0.00037017604949335766 0 0.00046842707665197518 -0.00029259720699827574 0 0.00016980053741600984 -0.00093383176899803722 0 0.00011141972214459649 -0.0010190309751844735 0 5.1344935738676772e-05 -0.0009718583633763 0 0.00016980053741600984 -0.00093383176899803722 0 0.00011141972214459649 -0.0010190309751844735 0 0.00017347086023872062 -0.001044484909462588 0 0.00016980053741600984 -0.00093383176899803722 0 0.00026414058687315419 -0.0010131575896938302 0 0.00017347086023872062 -0.001044484909462588 0 0.00039194002261515841 -0.00065136288665920488 0 0.00061380282538144536 -0.00080503912584364867 0 -1.4997445936162272e-05 -0.00085139099167019924 0 -5.6471205129573946e-05 -0.00095072714897558377 0 -0.00019189166264877336 -0.00090251278040230697 0 0.00029924902874027857 -0.00048297149137814359 0 -4.7797604485028998e-05 -0.00072582241514304688 0 5.5647210263706671e-05 -0.00044341690526078715 0 0.00012897325123709764 -0.00064403285168146797 0 -0.00012749704835357154 -0.00081960556392952921 0 -1.4997445936162272e-05 -0.00085139099167019924 0 3.0196941001835826e-05 -0.00083383993443371049 0 3.9735644782236912e-05 -0.00090841149947771713 0 -1.4997445936162272e-05 -0.00085139099167019924 0 3.9735644782236912e-05 -0.00090841149947771713 0 -5.6471205129573946e-05 -0.00095072714897558377 0 0.00012897325123709764 -0.00064403285168146797 0 0.00028970177314975603 -0.00046834357192959014 0 3.9735644782236912e-05 -0.00090841149947771713 0 5.1344935738676772e-05 -0.0009718583633763 0 -5.6471205129573946e-05 -0.00095072714897558377 0 5.1344935738676772e-05 -0.0009718583633763 0 -2.0578885633555039e-06 -0.0010039165093053632 0 -5.6471205129573946e-05 -0.00095072714897558377 0 0.00011141972214459649 -0.0010190309751844735 0 5.1344935738676772e-05 -0.0009718583633763 0 4.5124201802427156e-05 -0.0010542961121880914 0 5.1344935738676772e-05 -0.0009718583633763 0 -2.0578885633555039e-06 -0.0010039165093053632 0 4.5124201802427156e-05 -0.0010542961121880914 0 -2.0578885633555039e-06 -0.0010039165093053632 0 -5.6471205129573946e-05 -0.00095072714897558377 0 -6.0306795409552278e-05 -0.0010732272626696217 0 -5.6471205129573946e-05 -0.00095072714897558377 0 -0.00019412872391900963 -0.0010242215603188339 0 -6.0306795409552278e-05 -0.0010732272626696217 0 -5.6471205129573946e-05 -0.00095072714897558377 0 -0.00019189166264877336 -0.00090251278040230697 0 -0.00019412872391900963 -0.0010242215603188339 0 -4.7797604485028998e-05 -0.00072582241514304688 0 -0.00040032001384178976 -0.00065747948286436827 0 -0.00041617123343999678 -0.00095437631028550871 0 -0.00012749704835357154 -0.00081960556392952921 0 -0.00040324537547956475 -0.00094958926457853717 0 -0.00019189166264877336 -0.00090251278040230697 0 -0.00041617123343999678 -0.00095437631028550871 0 -0.00019412872391900963 -0.0010242215603188339 0 -4.7797604485028998e-05 -0.00072582241514304688 0 -0.00024605729424013924 -0.00042896796455699758 0 -0.00040032001384178976 -0.00065747948286436827 0 -4.7797604485028998e-05 -0.00072582241514304688 0 5.5647210263706671e-05 -0.00044341690526078715 0 -0.00024605729424013924 -0.00042896796455699758 0 5.5647210263706671e-05 -0.00044341690526078715 0 -0.00024605729424013924 -0.00042896796455699758 0 -0.00011886265518357156 -0.00017146969703131425 0 0.0001435320923275598 -0.00022187918229951933 0 5.5647210263706671e-05 -0.00044341690526078715 0 -0.00011886265518357156 -0.00017146969703131425 0 -0.00024605729424013924 -0.00042896796455699758 0 -0.00038192470935220329 -0.0001015759748123932 0 -0.00011886265518357156 -0.00017146969703131425 0 -9.7965579568093714e-05 -0.00074965840053665424 0 -0.00018516703864898871 -0.00011265340478450371 0 -0.00025741704766066536 0.00011238427553234195 0 -0.000358202932434711 -5.4743921496491052e-05 0 -0.00010547641900477778 -0.00013380723367640958 0 -4.5093063826185246e-05 0.00015221179802613435 0 0.00010179283816339027 -3.8938114997861208e-05 0 -0.00010547641900477778 -0.00013380723367640958 0 0.00010179283816339027 -3.8938114997861208e-05 0 0.0001435320923275598 -0.00022187918229951933 0 -0.00010547641900477778 -0.00013380723367640958 0 0.0001493809056455108 -0.00022817041916952684 0 -0.00018516703864898871 -0.00011265340478450371 0 0.00026240190992111328 -0.0022160342835654103 0 0.00040177159477505602 -0.0020747176941784094 0 0.00041136020122012091 -0.0024368249292628656 0 0.00018439299034333608 -0.0021571277948584642 0 0.00020654310301368607 -0.0023915820341225808 0 0.00026240190992111328 -0.0022160342835654103 0 0.00026805801518408321 -0.0021044887490011812 0 0.00016303114531256575 -0.0020685034610804899 0 0.00026240190992111328 -0.0022160342835654103 0 0.00026805801518408321 -0.0021044887490011812 0 0.00040177159477505602 -0.0020747176941784094 0 0.00058808302427596881 -0.0021279115022927015 0 0.00040177159477505602 -0.0020747176941784094 0 0.00041136020122012091 -0.0024368249292628656 0 -0.00040386019308171102 9.1507018350175712e-05 0 -0.00035404459604426633 -5.2045724564012407e-05 0 -0.00055225930432453057 1.1607031347273223e-05 0 -9.7965579568093714e-05 -0.00074965840053665424 0 -3.7647249188793739e-05 -0.0010285592024716628 0 -0.00024605729424013924 -0.00042896796455699758 0 -0.00038192470935220329 -0.0001015759748123932 0 -0.00058682917256042762 -0.00045668383983198314 0 -9.7965579568093714e-05 -0.00074965840053665424 0 -7.9960552721075818e-05 -0.0015486254785028772 0 0.00026240190992111328 -0.0022160342835654103 0 0.00041136020122012091 -0.0024368249292628656 0 0.00018182965154520084 -0.0024710480953276047 0 0.00041136020122012091 -0.0024368249292628656 0 0.00023713291151439145 -0.0027379802331674282 0 0.00018182965154520084 -0.0024710480953276047 0 -7.9960552721075818e-05 -0.0015486254785028772 0 -0.00027332930487040697 -0.0015476283303591267 0 -0.00024605729424013924 -0.00042896796455699758 0 -0.00058682917256042762 -0.00045668383983198314 0 -0.00040032001384178976 -0.00065747948286436827 0 -0.00058682917256042762 -0.00045668383983198314 0 -0.00040032001384178976 -0.00065747948286436827 0 -0.00076000766422466099 -0.00081950449692068416 0 -0.00040032001384178976 -0.00065747948286436827 0 -0.00041617123343999678 -0.00095437631028550871 0 -0.00076000766422466099 -0.00081950449692068416 0 -0.00041617123343999678 -0.00095437631028550871 0 -0.00076000766422466099 -0.00081950449692068416 0 -0.00060009293003039697 -0.0011232318946172595 0 0.00023713291151439145 -0.0027379802331674282 0 2.0346441550935814e-05 -0.0026063822278600286 0 -7.7926090435636585e-05 -0.0028325175882458154 0 -0.00027332930487040697 -0.0015476283303591267 0 4.9296410033780519e-05 -0.0033083892776185932 0 0.00023713291151439145 -0.0027379802331674282 0 -7.7926090435636585e-05 -0.0028325175882458154 0 6.06948708179264e-05 -0.003039340434321392 0 0.00023713291151439145 -0.0027379802331674282 0 2.0346441550935814e-05 -0.0026063822278600286 0 0.00018182965154520084 -0.0024710480953276047 0 2.0346441550935814e-05 -0.0026063822278600286 0 -7.7926090435636585e-05 -0.0028325175882458154 0 -0.00021489547855183845 -0.0026297062882545503 0 2.0346441550935814e-05 -0.0026063822278600286 0 -0.00021489547855183845 -0.0026297062882545503 0 -1.8400272650424709e-05 -0.0023557717900269276 0 0.0007061243608335896 -0.0051958760886350258 0 0.00066488230287214066 -0.0052088877533059651 0 0.00066736313001303574 -0.0051264772071778321 0 0.00035627503746578051 -0.0041029203634353776 0 0.00059705753879867182 -0.0040558010436443498 0 0.00066488230287214066 -0.0052088877533059651 0 0.00062854936418877132 -0.0051907550979220993 0 0.00066736313001303574 -0.0051264772071778321 0 0.00066488230287214066 -0.0052088877533059651 0 0.00062854936418877132 -0.0051907550979220993 0 0.00063810923035553541 -0.0052416719852626942 0 0.00062854936418877132 -0.0051907550979220993 0 0.00063810923035553541 -0.0052416719852626942 0 0.00060582124435151286 -0.0052531802075682036 0 0.00064024303928280301 -0.0051815909514363054 0 0.00059705753879867182 -0.0040558010436443498 0 0.000562015555535912 -0.0051022720241083244 0 0.00051545156911218229 -0.0052943070071539023 0 0.00058900457724867298 -0.0051376597707578015 0 0.00051523889648031143 -0.0049266124159794292 0 0.00051404225953994426 -0.0053224611137469889 0 0.00059700376474657415 -0.0052789534219951769 0 0.00053908653491619861 -0.005302955224195857 0 0.00051404225953994426 -0.0053224611137469889 0 0.00078098968414864892 -0.0050324236054199748 0 0.00058900457724867298 -0.0051376597707578015 0 0.00060582124435151286 -0.0052531802075682036 0 0.00064024303928280301 -0.0051815909514363054 0 0.00063594531913015032 -0.0052091649148170256 0 0.00078098968414864892 -0.0050324236054199748 0 0.00051523889648031143 -0.0049266124159794292 0 0.00078107052580168672 -0.0047891616909824086 0 0.00078098968414864892 -0.0050324236054199748 0 0.00058900457724867298 -0.0051376597707578015 0 0.00051523889648031143 -0.0049266124159794292 0 0.000562015555535912 -0.0051022720241083244 0 0.00067276282429862549 -0.0047493825323877492 0 0.00059700376474657415 -0.0052789534219951769 0 0.00070102188433354879 -0.0051396417058805609 0 0.00058060375696974769 -0.005199689103869449 0 0.00051523889648031143 -0.0049266124159794292 0 0.0007355708255888094 -0.0046413778326823349 0 0.00064176810131714036 -0.004426637081954737 0 0.00051523889648031143 -0.0049266124159794292 0 0.00078107052580168672 -0.0047891616909824086 0 0.0007355708255888094 -0.0046413778326823349 0 0.00097953066933241951 -0.0047384430269691719 0 0.00090579865116844477 -0.004628486121413462 0 0.00099421716723884271 -0.004406353268107518 0 0.00098841186428895379 -0.0047511091732954794 0 0.00078107052580168672 -0.0047891616909824086 0 0.00090579865116844477 -0.004628486121413462 0 0.00078098968414864892 -0.0050324236054199748 0 0.00098841186428895379 -0.0047511091732954794 0 0.00078107052580168672 -0.0047891616909824086 0 0.00078107052580168672 -0.0047891616909824086 0 0.0007355708255888094 -0.0046413778326823349 0 0.00090579865116844477 -0.004628486121413462 0 0.0007355708255888094 -0.0046413778326823349 0 0.00090579865116844477 -0.004628486121413462 0 0.00084219833061287264 -0.0044346716843023781 0 0.00059705753879867182 -0.0040558010436443498 0 0.00089508967369261543 -0.004536938404654761 0 0.00090579865116844477 -0.004628486121413462 0 0.00084219833061287264 -0.0044346716843023781 0 0.00099421716723884271 -0.004406353268107518 0 0.0007355708255888094 -0.0046413778326823349 0 0.00084219833061287264 -0.0044346716843023781 0 0.00064176810131714036 -0.004426637081954737 0 0.00084219833061287264 -0.0044346716843023781 0 0.0008818758454682094 -0.0042463870887876082 0 0.00064176810131714036 -0.004426637081954737 0 0.00084219833061287264 -0.0044346716843023781 0 0.00099421716723884271 -0.004406353268107518 0 0.0008818758454682094 -0.0042463870887876082 0 0.00099421716723884271 -0.004406353268107518 0 0.0008818758454682094 -0.0042463870887876082 0 0.0010663180218284031 -0.0040853596094575046 0 0.00070102188433354879 -0.0051396417058805609 0 0.00058060375696974769 -0.005199689103869449 0 0.0005866794416207429 -0.0051267825781001674 0 0.00070102188433354879 -0.0051396417058805609 0 0.000624222801875005 -0.0050262293232201148 0 0.0005866794416207429 -0.0051267825781001674 0 0.000624222801875005 -0.0050262293232201148 0 0.00059823174344370423 -0.0048672820989409662 0 0.00073366917917401498 -0.0048563032348102522 0 0.00070102188433354879 -0.0051396417058805609 0 0.000624222801875005 -0.0050262293232201148 0 0.00077042179620168117 -0.0049379795392590639 0 0.000624222801875005 -0.0050262293232201148 0 0.00077042179620168117 -0.0049379795392590639 0 0.00073366917917401498 -0.0048563032348102522 0 0.00067276282429862549 -0.0047493825323877492 0 0.00086494370819144263 -0.0045958569631457061 0 0.0008818758454682094 -0.0042463870887876082 0 0.00064176810131714036 -0.004426637081954737 0 0.00079909487874334174 -0.0039530277956443044 0 0.00070102188433354879 -0.0051396417058805609 0 0.00077042179620168117 -0.0049379795392590639 0 0.00081080662712289958 -0.0049187908059319533 0 0.0008818758454682094 -0.0042463870887876082 0 0.00079909487874334174 -0.0039530277956443044 0 0.0010663180218284031 -0.0040853596094575046 0 0.00078845624714660417 -0.0046811636144516045 0 0.00086494370819144263 -0.0045958569631457061 0 0.00079909487874334174 -0.0039530277956443044 0 0.0010663180218284031 -0.0040853596094575046 0 0.0011106697483621146 -0.0037788000598287575 0 0.0010663180218284031 -0.0040853596094575046 0 0.0013210750973953001 -0.0039866078209558793 0 0.0012876197279392614 -0.0043028172901106174 0 0.0010663180218284031 -0.0040853596094575046 0 0.0013210750973953001 -0.0039866078209558793 0 0.0011106697483621146 -0.0037788000598287575 0 0.00020654310301368607 -0.0023915820341225808 0 0.00069292309780669115 -0.003345628465729568 0 0.0013210750973953001 -0.0039866078209558793 0 0.001591261348217242 -0.003870349589680187 0 0.0012876197279392614 -0.0043028172901106174 0 0.00026240190992111328 -0.0022160342835654103 0 0.00017831854636842884 -0.0020883407902949724 0 -1.8400272650424709e-05 -0.0023557717900269276 0 0.0013210750973953001 -0.0039866078209558793 0 0.001591261348217242 -0.003870349589680187 0 0.0014371969044972843 -0.0038123122949072445 0 2.0346441550935814e-05 -0.0026063822278600286 0 0.00018182965154520084 -0.0024710480953276047 0 -1.8400272650424709e-05 -0.0023557717900269276 0 0.00026240190992111328 -0.0022160342835654103 0 0.00018182965154520084 -0.0024710480953276047 0 -1.8400272650424709e-05 -0.0023557717900269276 0 0.00059705753879867182 -0.0040558010436443498 0 0.00069292309780669115 -0.003345628465729568 0 0.00097953066933241951 -0.0047384430269691719 0 0.00099421716723884271 -0.004406353268107518 0 0.0012876197279392614 -0.0043028172901106174 0 0.00099421716723884271 -0.004406353268107518 0 0.0010663180218284031 -0.0040853596094575046 0 0.0012876197279392614 -0.0043028172901106174 0 0.00029512013467140614 -0.0053003163081145072 0 0.0003297543167529318 -0.0052183863110436433 0 0.00034539837236401616 -0.0053177698307332582 0 0.0003297543167529318 -0.0052183863110436433 0 0.00034539837236401616 -0.0053177698307332582 0 0.00037358052084400869 -0.0052599424472507192 0 0.00034539837236401616 -0.0053177698307332582 0 0.0003266704870893955 -0.0053892533800159528 0 0.00037280645625625516 -0.0053671480132165316 0 0.00034539837236401616 -0.0053177698307332582 0 0.00038607710176164411 -0.0053091736634195376 0 0.00037280645625625516 -0.0053671480132165316 0 0.00034539837236401616 -0.0053177698307332582 0 0.00038607710176164411 -0.0053091736634195376 0 0.00037358052084400869 -0.0052599424472507192 0 0.00038607710176164411 -0.0053091736634195376 0 0.00042127230030093455 -0.0053387188921605643 0 0.00041839651954522213 -0.0052619391453873846 0 0.00038607710176164411 -0.0053091736634195376 0 0.00042127230030093455 -0.0053387188921605643 0 0.00037280645625625516 -0.0053671480132165316 0 0.00041839651954522213 -0.0052619391453873846 0 0.00037358052084400869 -0.0052599424472507192 0 0.00038217237572434857 -0.0052035406762831428 0 0.00038607710176164411 -0.0053091736634195376 0 0.00041839651954522213 -0.0052619391453873846 0 0.00037358052084400869 -0.0052599424472507192 0 0.0003297543167529318 -0.0052183863110436433 0 0.00037358052084400869 -0.0052599424472507192 0 0.00038217237572434857 -0.0052035406762831428 0 0.00041839651954522213 -0.0052619391453873846 0 0.00038217237572434857 -0.0052035406762831428 0 0.00042684147880707679 -0.0051920437568835371 0 0.00041839651954522213 -0.0052619391453873846 0 0.00046963151745995843 -0.0052277246403266567 0 0.00042684147880707679 -0.0051920437568835371 0 0.00046963151745995843 -0.0052277246403266567 0 0.00047357211941873349 -0.0051613927882895759 0 0.00042684147880707679 -0.0051920437568835371 0 0.00046963151745995843 -0.0052277246403266567 0 0.00052598110715158645 -0.0051785645747474884 0 0.00047357211941873349 -0.0051613927882895759 0 0.00046963151745995843 -0.0052277246403266567 0 0.0004651371272854952 -0.0052908057700171811 0 0.00051993316567558445 -0.0052553189778573404 0 0.00041839651954522213 -0.0052619391453873846 0 0.00046963151745995843 -0.0052277246403266567 0 0.0004651371272854952 -0.0052908057700171811 0 0.00042127230030093455 -0.0053387188921605643 0 0.00041839651954522213 -0.0052619391453873846 0 0.0004651371272854952 -0.0052908057700171811 0 0.00042127230030093455 -0.0053387188921605643 0 0.0004651371272854952 -0.0052908057700171811 0 0.00045641633347419245 -0.0053415269949997112 0 0.0004651371272854952 -0.0052908057700171811 0 0.00050565869739270096 -0.0052977068278069455 0 0.00048987770123165239 -0.0053282682495402953 0 0.0004651371272854952 -0.0052908057700171811 0 0.00048987770123165239 -0.0053282682495402953 0 0.00045641633347419245 -0.0053415269949997112 0 0.00050565869739270096 -0.0052977068278069455 0 0.00053908653491619861 -0.005302955224195857 0 0.00051993316567558445 -0.0052553189778573404 0 0.00059700376474657415 -0.0052789534219951769 0 0.00053908653491619861 -0.005302955224195857 0 0.00051993316567558445 -0.0052553189778573404 0 0.0004651371272854952 -0.0052908057700171811 0 0.00050565869739270096 -0.0052977068278069455 0 0.00051993316567558445 -0.0052553189778573404 0 0.00050565869739270096 -0.0052977068278069455 0 0.0005134558573993296 -0.0053215724313521841 0 0.00048987770123165239 -0.0053282682495402953 0 0.00050565869739270096 -0.0052977068278069455 0 0.00053908653491619861 -0.005302955224195857 0 0.0005134558573993296 -0.0053215724313521841 0 0.00059700376474657415 -0.0052789534219951769 0 0.00051993316567558445 -0.0052553189778573404 0 0.00058060375696974769 -0.005199689103869449 0 0.00046963151745995843 -0.0052277246403266567 0 0.00051993316567558445 -0.0052553189778573404 0 0.00052598110715158645 -0.0051785645747474884 0 0.00051993316567558445 -0.0052553189778573404 0 0.00058060375696974769 -0.005199689103869449 0 0.00052598110715158645 -0.0051785645747474884 0 0.00058060375696974769 -0.005199689103869449 0 0.0005866794416207429 -0.0051267825781001674 0 0.00052598110715158645 -0.0051785645747474884 0 0.0005866794416207429 -0.0051267825781001674 0 0.00052598110715158645 -0.0051785645747474884 0 0.00052167523711085947 -0.0050787856971110379 0 0.00052598110715158645 -0.0051785645747474884 0 0.00052167523711085947 -0.0050787856971110379 0 0.00047357211941873349 -0.0051613927882895759 0 0.000624222801875005 -0.0050262293232201148 0 0.0005866794416207429 -0.0051267825781001674 0 0.00052167523711085947 -0.0050787856971110379 0 0.00052167523711085947 -0.0050787856971110379 0 0.0004568804574312635 -0.0050207808800292342 0 0.00059823174344370423 -0.0048672820989409662 0 0.000624222801875005 -0.0050262293232201148 0 0.00052167523711085947 -0.0050787856971110379 0 0.00059823174344370423 -0.0048672820989409662 0 0.00044903171334666599 -0.0050410754811759158 0 0.00063076579134093 -0.0048624472164349539 0 0.00052167523711085947 -0.0050787856971110379 0 0.0004568804574312635 -0.0050207808800292342 0 0.00043122891481774301 -0.0051188498583479014 0 0.00044674415086605468 -0.0050494968232954376 0 0.00033848929443556488 -0.0050897447234110353 0 0.00042329297927184739 -0.0049455349185087566 0 0.0004568804574312635 -0.0050207808800292342 0 0.00043122891481774301 -0.0051188498583479014 0 0.00036389013753987593 -0.0051388136160542891 0 0.00044903171334666599 -0.0050410754811759158 0 0.00036863581286716347 -0.0051236371965287684 0 0.00052167523711085947 -0.0050787856971110379 0 0.00043122891481774301 -0.0051188498583479014 0 0.00047357211941873349 -0.0051613927882895759 0 0.00043122891481774301 -0.0051188498583479014 0 0.00047357211941873349 -0.0051613927882895759 0 0.00042684147880707679 -0.0051920437568835371 0 0.00043122891481774301 -0.0051188498583479014 0 0.00042684147880707679 -0.0051920437568835371 0 0.0004001092218447354 -0.0051637287473920305 0 0.0003297543167529318 -0.0052183863110436433 0 0.00036389013753987593 -0.0051388136160542891 0 0.00033848929443556488 -0.0050897447234110353 0 0.00038217237572434857 -0.0052035406762831428 0 0.00042684147880707679 -0.0051920437568835371 0 0.0004001092218447354 -0.0051637287473920305 0 0.00038217237572434857 -0.0052035406762831428 0 0.0004001092218447354 -0.0051637287473920305 0 0.00036389013753987593 -0.0051388136160542891 0 0.0003297543167529318 -0.0052183863110436433 0 0.00038217237572434857 -0.0052035406762831428 0 0.00036389013753987593 -0.0051388136160542891 0 0.00043122891481774301 -0.0051188498583479014 0 0.0004001092218447354 -0.0051637287473920305 0 0.00036389013753987593 -0.0051388136160542891 0 -3.0797052165133429e-05 -0.0055137599496775493 0 0.00010250365314601762 -0.0054164739425133605 0 0.00044674415086605468 -0.0050494968232954376 0 0.00036389013753987593 -0.0051388136160542891 0 0.00033848929443556488 -0.0050897447234110353 0 -9.9406570277542125e-05 -0.0055221492368413196 0 -3.0797052165133429e-05 -0.0055137599496775493 0 -0.00049306077671719406 -0.0058634752224011009 0 -0.00046488834540839644 -0.0059159990734705689 0 -0.00041146308647851 -0.0059463786607488987 0 -0.00046488834540839644 -0.0059159990734705689 0 -0.00041146308647851 -0.0059463786607488987 0 -0.00041480719747785606 -0.0059155301629860279 0 0.00027989177781504267 -0.0051942805546595517 0 0.0003297543167529318 -0.0052183863110436433 0 0.00033848929443556488 -0.0050897447234110353 0 -0.00046488834540839644 -0.0059159990734705689 0 -0.00040218817687566211 -0.0059176212222125657 0 -0.00041480719747785606 -0.0059155301629860279 0 -0.00040218817687566211 -0.0059176212222125657 0 -0.00041480719747785606 -0.0059155301629860279 0 -0.00036943800821366064 -0.0058972785156594541 0 -0.00041146308647851 -0.0059463786607488987 0 -0.00036943800821366064 -0.0058972785156594541 0 -0.00023330311047170711 -0.0059240461333175563 0 -0.00041146308647851 -0.0059463786607488987 0 -0.00041480719747785606 -0.0059155301629860279 0 -0.00036943800821366064 -0.0058972785156594541 0 -0.00040218817687566211 -0.0059176212222125657 0 -0.00036943800821366064 -0.0058972785156594541 0 -0.00030865219374575606 -0.0057796884857107614 0 -0.00040218817687566211 -0.0059176212222125657 0 6.2842925276756302e-05 -0.0059485927188438151 0 -0.000140490373275572 -0.0056927426849306805 0 -0.00038230019691425256 -0.0058962352539505313 0 -8.2235155100588204e-05 -0.0059434437158684362 0 6.2842925276756302e-05 -0.0059485927188438151 0 0.00055880923558811126 -0.0058629231054079045 0 0.00026150689058595416 -0.0056765669487517855 0 -0.00030865219374575606 -0.0057796884857107614 0 -0.00023330311047170711 -0.0059240461333175563 0 -9.5979555409182659e-05 -0.0057494823531473588 0 -8.2235155100588204e-05 -0.0059434437158684362 0 3.7874899926438921e-05 -0.0049532031922697737 0 -0.00036943800821366064 -0.0058972785156594541 0 -0.00030865219374575606 -0.0057796884857107614 0 -0.00023330311047170711 -0.0059240461333175563 0 0.00044674415086605468 -0.0050494968232954376 0 0.00042329297927184739 -0.0049455349185087566 0 0.00061904760981998949 -0.0049356652861179294 0 0.00042329297927184739 -0.0049455349185087566 0 0.00061904760981998949 -0.0049356652861179294 0 0.0006095684036826523 -0.0047359721144841424 0 0.00010250365314601762 -0.0054164739425133605 0 0.00038143723291550404 -0.0053268795890940059 0 -9.5979555409182659e-05 -0.0057494823531473588 0 -1.0568897962258193e-05 -0.0056357188115858147 0 0.00010820070501180961 -0.0057580031920907238 0 -0.00030865219374575606 -0.0057796884857107614 0 -9.5979555409182659e-05 -0.0057494823531473588 0 -1.0568897962258193e-05 -0.0056357188115858147 0 -0.00023330311047170711 -0.0059240461333175563 0 -9.5979555409182659e-05 -0.0057494823531473588 0 0.00010820070501180961 -0.0057580031920907238 0 0.00013552768607605142 -0.0034502625248395901 0 7.0716284497390915e-05 -0.0030873817585535539 0 0.00025471729092087746 -0.0032261861788321763 0 3.7874899926438921e-05 -0.0049532031922697737 0 0.0003217538706738326 -0.0043574894883727207 0 0.00055880923558811126 -0.0058629231054079045 0 0.00050270211674071882 -0.0054023975020728266 0 0.00026150689058595416 -0.0056765669487517855 0 0.00050270211674071882 -0.0054023975020728266 0 0.00015754545049478827 -0.0053485534511690091 0 0.00048520036284365603 -0.0048603633136888747 0 0.00050270211674071882 -0.0054023975020728266 0 0.00015754545049478827 -0.0053485534511690091 0 0.00026150689058595416 -0.0056765669487517855 0 6.2842925276756302e-05 -0.0059485927188438151 0 0.00026150689058595416 -0.0056765669487517855 0 -0.000140490373275572 -0.0056927426849306805 0 0.00015754545049478827 -0.0053485534511690091 0 0.00026150689058595416 -0.0056765669487517855 0 -0.000140490373275572 -0.0056927426849306805 0 0.00015754545049478827 -0.0053485534511690091 0 -0.00018007646154367824 -0.0053636338495871962 0 3.927169476503541e-05 -0.004963991581957275 0 0.00015754545049478827 -0.0053485534511690091 0 -0.000140490373275572 -0.0056927426849306805 0 -0.00018007646154367824 -0.0053636338495871962 0 -0.00056545070813377222 -0.0054436672510205569 0 -0.00018007646154367824 -0.0053636338495871962 0 -0.00046822663752414483 -0.0057134758440444853 0 -0.00040218817687566211 -0.0059176212222125657 0 -0.000140490373275572 -0.0056927426849306805 0 -0.00046822663752414483 -0.0057134758440444853 0 -0.000140490373275572 -0.0056927426849306805 0 -0.00018007646154367824 -0.0053636338495871962 0 -0.00046822663752414483 -0.0057134758440444853 0 0.00061988106058429233 -0.0019798606202630934 0 0.00084193777993997476 -0.0050083283697133713 0 0.0010040128058920702 -0.0046292240249604421 0 0.0011913026979164648 -0.0045916367341136801 0 0.00087932572848519505 -0.0047833641952107391 0 0.0009834494516475778 -0.0046149211851910839 0 0.0011258883870795087 -0.0044534005389966873 0 0.00083262679584010057 -0.0046606246722304817 0 0.0009834494516475778 -0.0046149211851910839 0 0.0011258883870795087 -0.0044534005389966873 0 0.0010917407681464394 -0.0046180103041433699 0 0.0010040128058920702 -0.0046292240249604421 0 0.0010685791547042319 -0.004538538530495264 0 0.0011913026979164648 -0.0045916367341136801 0 0.0010040128058920702 -0.0046292240249604421 0 0.00099678656305430039 -0.0045187663843795946 0 0.0010685791547042319 -0.004538538530495264 0 3.4206444863177658e-05 0.00091521186075025219 0 2.7948782146113282e-05 0.0009261957946281223 0 2.3052465496514489e-05 0.00093375946573968601 0 0.00061988106058429233 -0.0019798606202630934 0 0.00023853465917627684 0.0011827532727036675 0 -2.0817640732917831e-05 0.0009560907144156301 0 1.6356676842962022e-05 0.00093561631156370269 0 3.3049328874627612e-05 0.00092907617657671422 0 1.6356676842962022e-05 0.00093561631156370269 0 2.7948782146113282e-05 0.0009261957946281223 0 2.3052465496514489e-05 0.00093375946573968601 0 1.6356676842962022e-05 0.00093561631156370269 0 2.7948782146113282e-05 0.0009261957946281223 0 3.3049328874627612e-05 0.00092907617657671422 0 3.4206444863177658e-05 0.00091521186075025219 0 2.7948782146113282e-05 0.0009261957946281223 0 3.3049328874627612e-05 0.00092907617657671422 0 0.0011258883870795087 -0.0044534005389966873 0 0.0012422703246220733 -0.0046306915181521914 0 0.0010917407681464394 -0.0046180103041433699 0 0.00061988106058429233 -0.0019798606202630934 0 0.00042995134281693454 -0.0018763706085792435 0 0.0014167437952066187 -0.0035993487206553579 0 0.001309757416235317 -0.0037719002343794593 0 0.001414100217751768 -0.0037304799576282047 0 -0.00062470961304798844 0.00033461156738330767 0 -0.00087079303174524036 0.00015775579591066269 0 -0.00081074478297525013 6.3003870564319343e-05 0 0.00042995134281693454 -0.0018763706085792435 0 8.9025104866170742e-05 -0.001737412250011858 0 0.0014167437952066187 -0.0035993487206553579 0 0.0015089521742415336 -0.0037430118896698249 0 0.001414100217751768 -0.0037304799576282047 0 -0.00019568382889663963 -0.00094791274568814163 0 8.9025104866170742e-05 -0.001737412250011858 0 0.0015089521742415336 -0.0037430118896698249 0 0.001414100217751768 -0.0037304799576282047 0 0.0014371969044972843 -0.0038123122949072445 0 0.001591261348217242 -0.003870349589680187 0 0.0015089521742415336 -0.0037430118896698249 0 0.0014371969044972843 -0.0038123122949072445 0 -3.3161961844231788e-05 -0.0015320779937076276 0 3.7189612800195895e-05 -0.0014438312018526759 0 0.00012852526934449467 -0.0015836967394847251 0 0.00020654310301368607 -0.0023915820341225808 0 8.9025104866170742e-05 -0.001737412250011858 0 0.0013210750973953001 -0.0039866078209558793 0 0.001309757416235317 -0.0037719002343794593 0 0.0014371969044972843 -0.0038123122949072445 0 0.001309757416235317 -0.0037719002343794593 0 0.001414100217751768 -0.0037304799576282047 0 0.0014371969044972843 -0.0038123122949072445 0 0.0012422703246220733 -0.0046306915181521914 0 0.0010917407681464394 -0.0046180103041433699 0 0.0010176785431045617 -0.0047704767900329011 0 0.00042995134281693454 -0.0018763706085792435 0 0.0010394414085390549 -0.0042996987969484181 0 0.0013210750973953001 -0.0039866078209558793 0 0.001309757416235317 -0.0037719002343794593 0 0.0011106697483621146 -0.0037788000598287575 0 0.0014167437952066187 -0.0035993487206553579 0 0.001309757416235317 -0.0037719002343794593 0 0.0011106697483621146 -0.0037788000598287575 0 0.0009834494516475778 -0.0046149211851910839 0 0.00093947427369855572 -0.0047361272161644255 0 0.0010176785431045617 -0.0047704767900329011 0 0.0009834494516475778 -0.0046149211851910839 0 0.00093947427369855572 -0.0047361272161644255 0 0.00090827788236147271 -0.0046863328188011723 0 0.0009834494516475778 -0.0046149211851910839 0 0.0010917407681464394 -0.0046180103041433699 0 0.0010176785431045617 -0.0047704767900329011 0 0.00086494370819144263 -0.0045958569631457061 0 0.00082757439674672366 -0.0048219285394644805 0 0.00086494370819144263 -0.0045958569631457061 0 0.0010394414085390549 -0.0042996987969484181 0 0.00081591036993624189 -0.0048778018311715753 0 0.00093947427369855572 -0.0047361272161644255 0 0.00087016063920103794 -0.0047338443058369409 0 0.00081591036993624189 -0.0048778018311715753 0 0.00093947427369855572 -0.0047361272161644255 0 0.0010176785431045617 -0.0047704767900329011 0 0.00077042179620168117 -0.0049379795392590639 0 0.00081996043285847498 -0.0049088083695071347 0 0.00087016063920103794 -0.0047338443058369409 0 0.00077042179620168117 -0.0049379795392590639 0 0.00087016063920103794 -0.0047338443058369409 0 0.00073366917917401498 -0.0048563032348102522 0 0.00083262679584010057 -0.0046606246722304817 0 0.00087016063920103794 -0.0047338443058369409 0 0.00073366917917401498 -0.0048563032348102522 0 0.00083262679584010057 -0.0046606246722304817 0 0.00090827788236147271 -0.0046863328188011723 0 0.00087016063920103794 -0.0047338443058369409 0 0.0009834494516475778 -0.0046149211851910839 0 0.00083262679584010057 -0.0046606246722304817 0 0.00090827788236147271 -0.0046863328188011723 0 0.00093947427369855572 -0.0047361272161644255 0 0.00090827788236147271 -0.0046863328188011723 0 0.00087016063920103794 -0.0047338443058369409 0 0.00087932572848519505 -0.0047833641952107391 0 0.00061904760981998949 -0.0049356652861179294 0 0.0007422431107323885 -0.0047567539865086056 0 0.00083262679584010057 -0.0046606246722304817 0 0.00059823174344370423 -0.0048672820989409662 0 0.00073366917917401498 -0.0048563032348102522 0 0.00061904760981998949 -0.0049356652861179294 0 0.0006095684036826523 -0.0047359721144841424 0 0.0007422431107323885 -0.0047567539865086056 0 0.00084193777993997476 -0.0050083283697133713 0 0.00063076579134093 -0.0048624472164349539 0 0.00010820070501180961 -0.0057580031920907238 0 0.0005865136836172548 -0.0054484464492684879 0 0.00027315991370766929 -0.0055314143748880426 0 0.00038143723291550404 -0.0053268795890940059 0 0.00052569861361450156 -0.0043508664665008225 0 0.0006095684036826523 -0.0047359721144841424 0 0.0007422431107323885 -0.0047567539865086056 0 0.00084257404744762776 -0.0046534613000996927 0 -1.0568897962258193e-05 -0.0056357188115858147 0 0.00010820070501180961 -0.0057580031920907238 0 0.00027315991370766929 -0.0055314143748880426 0 3.7874899926438921e-05 -0.0049532031922697737 0 0.00034729938157667864 -0.0044669441181789723 0 0.0006095684036826523 -0.0047359721144841424 0 0.00084257404744762776 -0.0046534613000996927 0 0.00089926731936405835 -0.0044700487217160471 0 0.0010040128058920702 -0.0046292240249604421 0 0.00087932572848519505 -0.0047833641952107391 0 0.00084257404744762776 -0.0046534613000996927 0 0.00087932572848519505 -0.0047833641952107391 0 0.0007422431107323885 -0.0047567539865086056 0 0.00084257404744762776 -0.0046534613000996927 0 0.00084257404744762776 -0.0046534613000996927 0 0.00093554457971100149 -0.0045683841606801645 0 0.00089926731936405835 -0.0044700487217160471 0 0.0010040128058920702 -0.0046292240249604421 0 0.00084257404744762776 -0.0046534613000996927 0 0.00093554457971100149 -0.0045683841606801645 0 0.0010040128058920702 -0.0046292240249604421 0 0.00099678656305430039 -0.0045187663843795946 0 0.00093554457971100149 -0.0045683841606801645 0 0.00099678656305430039 -0.0045187663843795946 0 0.00089926731936405835 -0.0044700487217160471 0 0.0010449365936396687 -0.0043591591296065282 0 0.00058555918137252738 -0.0033242899893117465 0 0.00044115121195629673 -0.0032197017296085369 0 0.00069888141792396957 -0.0031841394911881035 0 0.00099678656305430039 -0.0045187663843795946 0 0.00093554457971100149 -0.0045683841606801645 0 0.00089926731936405835 -0.0044700487217160471 0 0.00052569861361450156 -0.0043508664665008225 0 0.00061569361858449293 -0.00083161488853092781 0 0.00052569861361450156 -0.0043508664665008225 0 0.00034729938157667864 -0.0044669441181789723 0 0.00058555918137252738 -0.0033242899893117465 0 0.00044115121195629673 -0.0032197017296085369 0 0.00036239557083254112 -0.0033888328152143752 0 0.00013552768607605142 -0.0034502625248395901 0 0.00036239557083254112 -0.0033888328152143752 0 0.00025471729092087746 -0.0032261861788321763 0 0.00044115121195629673 -0.0032197017296085369 0 0.00036239557083254112 -0.0033888328152143752 0 0.00025471729092087746 -0.0032261861788321763 0 0.00044115121195629673 -0.0032197017296085369 0 0.00025471729092087746 -0.0032261861788321763 0 0.00034729801444416961 -0.0029634979182486597 0 7.0716284497390915e-05 -0.0030873817585535539 0 0.00025471729092087746 -0.0032261861788321763 0 0.00034729801444416961 -0.0029634979182486597 0 0.00064073569475117664 -0.001289355236781679 0 0.0008259388148132025 -0.00058688194809788691 0 0.00034643728824929689 0.001031704947750131 0 0.00033136213704537876 0.00082751066239358426 0 0.00057871443743573068 0.00077494199153520227 0 0.0008259388148132025 -0.00058688194809788691 0 0.00071403679626473051 0.00073844004178014785 0 0.00044115121195629673 -0.0032197017296085369 0 0.00034729801444416961 -0.0029634979182486597 0 0.00069888141792396957 -0.0031841394911881035 0 0.00092157173265423962 0.00016435950717801973 0 0.0010995307033898722 1.7765226321474372e-05 0 0.00098138703212354104 0.00022847857538794549 0 0.0002476560403159889 0.00093122594603355969 0 0.00034643728824929689 0.001031704947750131 0 0.00033136213704537876 0.00082751066239358426 0 0.0002476560403159889 0.00093122594603355969 0 0.00032374556901856915 0.00106857470235381 0 9.7840244307605557e-05 0.00091511742837595419 0 0.0002476560403159889 0.00093122594603355969 0 0.00016846100921526341 0.00080470552171274566 0 0.00033136213704537876 0.00082751066239358426 0 0.00061569361858449293 -0.00083161488853092781 0 0.00021472260849260953 0.0011882169453724511 0 0.00058555918137252738 -0.0033242899893117465 0 0.00069888141792396957 -0.0031841394911881035 0 0.00072639159886864549 -0.0032254521743395751 0 0.0002476560403159889 0.00093122594603355969 0 0.00034643728824929689 0.001031704947750131 0 0.00032374556901856915 0.00106857470235381 0 0.00011250804677594086 0.00090506279617731883 0 9.5056463822529015e-05 0.00091928039851940343 0 7.4878771941140509e-05 0.00092014410627348374 0 0.0008259388148132025 -0.00058688194809788691 0 0.00061569361858449293 -0.00083161488853092781 0 0.00010972078927172891 0.00096567033832856239 0 0.00019201066992608525 0.00085579156656426659 0 9.5056463822529015e-05 0.00091928039851940343 0 0.00061988106058429233 -0.0019798606202630934 0 0.00061569361858449293 -0.00083161488853092781 0 0.0010685791547042319 -0.004538538530495264 0 0.0011913026979164648 -0.0045916367341136801 0 0.0010449365936396687 -0.0043591591296065282 0 0.00061569361858449293 -0.00083161488853092781 0 -0.00026586071849453452 0.0008824786701707929 0 0.00099678656305430039 -0.0045187663843795946 0 0.0010685791547042319 -0.004538538530495264 0 0.0010449365936396687 -0.0043591591296065282 0 0.00010972078927172891 0.00096567033832856239 0 2.3052465496514489e-05 0.00093375946573968601 0 9.5056463822529015e-05 0.00091928039851940343 0 0.00011250804677594086 0.00090506279617731883 0 7.4878771941140509e-05 0.00092014410627348374 0 9.7840244307605557e-05 0.00091511742837595419 0 -2.6561637051940204e-05 0.000903060041958037 0 2.3052465496514489e-05 0.00093375946573968601 0 7.4878771941140509e-05 0.00092014410627348374 0 2.3052465496514489e-05 0.00093375946573968601 0 9.5056463822529015e-05 0.00091928039851940343 0 7.4878771941140509e-05 0.00092014410627348374 0 9.7840244307605557e-05 0.00091511742837595419 0 3.9519806598911969e-05 0.00078466328940842974 0 0.00016846100921526341 0.00080470552171274566 0 -2.6561637051940204e-05 0.000903060041958037 0 9.7840244307605557e-05 0.00091511742837595419 0 3.9519806598911969e-05 0.00078466328940842974 0 -2.6561637051940204e-05 0.000903060041958037 0 7.4878771941140509e-05 0.00092014410627348374 0 9.7840244307605557e-05 0.00091511742837595419 0 0.0002476560403159889 0.00093122594603355969 0 9.7840244307605557e-05 0.00091511742837595419 0 0.00016846100921526341 0.00080470552171274566 0 3.9519806598911969e-05 0.00078466328940842974 0 0.00016846100921526341 0.00080470552171274566 0 0.00023597931374339792 0.00067257299939536862 0 3.9519806598911969e-05 0.00078466328940842974 0 0.00011226777692918417 0.00057231940563597116 0 0.00023597931374339792 0.00067257299939536862 0 0.00011226777692918417 0.00057231940563597116 0 0.00023597931374339792 0.00067257299939536862 0 0.00029120837592159495 0.00045960340208165676 0 0.00023597931374339792 0.00067257299939536862 0 0.00044095939915542604 0.00059734288059322101 0 0.00029120837592159495 0.00045960340208165676 0 0.00023597931374339792 0.00067257299939536862 0 0.00033136213704537876 0.00082751066239358426 0 0.00039350010475125636 0.00071737404172754872 0 0.00023597931374339792 0.00067257299939536862 0 0.00039350010475125636 0.00071737404172754872 0 0.00044095939915542604 0.00059734288059322101 0 0.00016846100921526341 0.00080470552171274566 0 0.00023597931374339792 0.00067257299939536862 0 0.00033136213704537876 0.00082751066239358426 0 0.00033136213704537876 0.00082751066239358426 0 0.00057871443743573068 0.00077494199153520227 0 0.00039350010475125636 0.00071737404172754872 0 0.00057871443743573068 0.00077494199153520227 0 0.00039350010475125636 0.00071737404172754872 0 0.00044095939915542604 0.00059734288059322101 0 0.00092157173265423962 0.00016435950717801973 0 0.00098138703212354104 0.00022847857538794549 0 0.00089213532470603198 0.00026331066650586829 0 0.00057871443743573068 0.00077494199153520227 0 0.00063233884254230521 0.00046100768454333482 0 0.00085749475328668594 0.00036521095246210705 0 0.00098138703212354104 0.00022847857538794549 0 0.00089213532470603198 0.00026331066650586829 0 0.00085749475328668594 0.00036521095246210705 0 0.00071403679626473051 0.00073844004178014785 0 0.00089505247732880964 0.00027119319592931339 0 0.00057871443743573068 0.00077494199153520227 0 0.00063233884254230521 0.00046100768454333482 0 0.00044095939915542604 0.00059734288059322101 0 0.00063233884254230521 0.00046100768454333482 0 0.00044095939915542604 0.00059734288059322101 0 0.00052022484199514842 0.00035642405929743799 0 0.00044095939915542604 0.00059734288059322101 0 0.00052022484199514842 0.00035642405929743799 0 0.00029120837592159495 0.00045960340208165676 0 0.00063233884254230521 0.00046100768454333482 0 0.00052022484199514842 0.00035642405929743799 0 0.00076834932514913698 0.00025851770831654094 0 0.00052022484199514842 0.00035642405929743799 0 0.00076834932514913698 0.00025851770831654094 0 0.00067170670138084619 0.00011373004536148292 0 0.00085749475328668594 0.00036521095246210705 0 0.00076834932514913698 0.00025851770831654094 0 0.00089362490973154518 0.00025752157795416757 0 0.00063233884254230521 0.00046100768454333482 0 0.00085749475328668594 0.00036521095246210705 0 0.00076834932514913698 0.00025851770831654094 0 0.00076834932514913698 0.00025851770831654094 0 0.00067170670138084619 0.00011373004536148292 0 0.00093026997006253969 0.00010679603511346639 0 0.00052022484199514842 0.00035642405929743799 0 0.00067170670138084619 0.00011373004536148292 0 0.00036664157805135566 0.00017876159397246303 0 0.00067170670138084619 0.00011373004536148292 0 0.00036664157805135566 0.00017876159397246303 0 0.00052327398212781743 -6.0518591868953356e-05 0 0.00036664157805135566 0.00017876159397246303 0 0.00015595169814201825 0.00032186973782127089 0 0.00014196268549830215 5.9120462842133485e-05 0 0.00036664157805135566 0.00017876159397246303 0 0.00014196268549830215 5.9120462842133485e-05 0 0.00031920655894381034 -5.6847653232621877e-05 0 0.00015595169814201825 0.00032186973782127089 0 0.00014196268549830215 5.9120462842133485e-05 0 -4.3206527290676365e-05 0.00022942792797387695 0 0.00015595169814201825 0.00032186973782127089 0 -4.3206527290676365e-05 0.00022942792797387695 0 7.6972029875233212e-06 0.00042599865733860008 0 0.00011226777692918417 0.00057231940563597116 0 0.00015595169814201825 0.00032186973782127089 0 0.00029120837592159495 0.00045960340208165676 0 0.00011226777692918417 0.00057231940563597116 0 0.00015595169814201825 0.00032186973782127089 0 7.6972029875233212e-06 0.00042599865733860008 0 0.00052022484199514842 0.00035642405929743799 0 0.00036664157805135566 0.00017876159397246303 0 0.00029120837592159495 0.00045960340208165676 0 0.00036664157805135566 0.00017876159397246303 0 0.00015595169814201825 0.00032186973782127089 0 0.00029120837592159495 0.00045960340208165676 0 -0.0010329594760602251 -0.0043698747237341951 0 -0.00044452353479675728 -0.0048594530996507396 0 -0.00050322217745273708 -0.0040419224001752218 0 -0.00044452353479675728 -0.0048594530996507396 0 4.5809932746357353e-06 -0.0043878779813307884 0 -0.00050322217745273708 -0.0040419224001752218 0 -0.00056545070813377222 -0.0054436672510205569 0 -0.00018007646154367824 -0.0053636338495871962 0 -0.00044452353479675728 -0.0048594530996507396 0 -0.00018007646154367824 -0.0053636338495871962 0 -0.00044452353479675728 -0.0048594530996507396 0 3.927169476503541e-05 -0.004963991581957275 0 -0.00044452353479675728 -0.0048594530996507396 0 3.927169476503541e-05 -0.004963991581957275 0 4.5809932746357353e-06 -0.0043878779813307884 0 4.5809932746357353e-06 -0.0043878779813307884 0 0.00034117459623149757 -0.0042686355444410615 0 0.00074429980477947898 -0.0048159999365588006 0 3.927169476503541e-05 -0.004963991581957275 0 4.5809932746357353e-06 -0.0043878779813307884 0 0.00048520036284365603 -0.0048603633136888747 0 0.00028790772701790845 -0.0049817295048890852 0 0.00034873940407239413 -0.0029434628066219728 0 0.00034117459623149757 -0.0042686355444410615 0 0.00074429980477947898 -0.0048159999365588006 0 0.00060829810580324644 -0.0040592339568840102 0 0.00034873940407239413 -0.0029434628066219728 0 0.00079961714623066806 -0.0020586467276255964 0 0.00015754545049478827 -0.0053485534511690091 0 3.927169476503541e-05 -0.004963991581957275 0 0.00048520036284365603 -0.0048603633136888747 0 0.00092157173265423962 0.00016435950717801973 0 0.00089213532470603198 0.00026331066650586829 0 0.00084235996795990514 0.00027945532367022052 0 0.00064073569475117664 -0.001289355236781679 0 0.00034873940407239413 -0.0029434628066219728 0 7.0716284497390915e-05 -0.0030873817585535539 0 0.00034729801444416961 -0.0029634979182486597 0 6.8294904069094243e-06 -0.0027417785903133826 0 0.0003217538706738326 -0.0043574894883727207 0 0.00034873940407239413 -0.0029434628066219728 0 0.00089213532470603198 0.00026331066650586829 0 0.00085749475328668594 0.00036521095246210705 0 0.00087168321965020172 0.00031575478475727285 0 0.00084235996795990514 0.00027945532367022052 0 0.00087168321965020172 0.00031575478475727285 0 0.00092737002414872833 0.00030355871146521009 0 0.00089213532470603198 0.00026331066650586829 0 0.00084235996795990514 0.00027945532367022052 0 0.00087168321965020172 0.00031575478475727285 0 0.00085749475328668594 0.00036521095246210705 0 0.00087168321965020172 0.00031575478475727285 0 0.00089194746987789552 0.00030914368650630027 0 0.00083623817810089471 -0.0014534903422743562 0 0.00079961714623066806 -0.0020586467276255964 0 0.00089362490973154518 0.00025752157795416757 0 0.00093026997006253969 0.00010679603511346639 0 0.00092737002414872833 0.00030355871146521009 0 0.00085749475328668594 0.00036521095246210705 0 0.00089194746987789552 0.00030914368650630027 0 0.00089362490973154518 0.00025752157795416757 0 0.00087168321965020172 0.00031575478475727285 0 0.00089194746987789552 0.00030914368650630027 0 0.00092737002414872833 0.00030355871146521009 0 0.00089194746987789552 0.00030914368650630027 0 0.00089362490973154518 0.00025752157795416757 0 0.00092737002414872833 0.00030355871146521009 0 0.00076482429273384757 -0.0031092793173517113 0 0.00040359925868965258 -0.0034123125932851175 0 0.00040591591154048222 -0.0028897165809495472 0 0.00076834932514913698 0.00025851770831654094 0 0.00089362490973154518 0.00025752157795416757 0 0.00093026997006253969 0.00010679603511346639 0 0.00076482429273384757 -0.0031092793173517113 0 0.00040359925868965258 -0.0034123125932851175 0 0.00047749488138782998 -0.0037392435051469509 0 0.00040359925868965258 -0.0034123125932851175 0 -5.6330355220184482e-05 -0.0036682331519069891 0 8.2994761592607527e-05 -0.0030556359451908038 0 0.00040359925868965258 -0.0034123125932851175 0 8.2994761592607527e-05 -0.0030556359451908038 0 0.00040591591154048222 -0.0028897165809495472 0 0.00040359925868965258 -0.0034123125932851175 0 0.00026833922884058128 -0.0039650227561004682 0 -5.6330355220184482e-05 -0.0036682331519069891 0 0.00040359925868965258 -0.0034123125932851175 0 0.00060829810580324644 -0.0040592339568840102 0 0.00026833922884058128 -0.0039650227561004682 0 0.00061653795828235452 -0.0039281767385891076 0 0.00079961714623066806 -0.0020586467276255964 0 0.00034117459623149757 -0.0042686355444410615 0 0.00060829810580324644 -0.0040592339568840102 0 0.00026833922884058128 -0.0039650227561004682 0 4.5809932746357353e-06 -0.0043878779813307884 0 0.00034117459623149757 -0.0042686355444410615 0 0.00026833922884058128 -0.0039650227561004682 0 4.5809932746357353e-06 -0.0043878779813307884 0 0.00026833922884058128 -0.0039650227561004682 0 -5.6330355220184482e-05 -0.0036682331519069891 0 4.5809932746357353e-06 -0.0043878779813307884 0 -5.6330355220184482e-05 -0.0036682331519069891 0 -0.00050322217745273708 -0.0040419224001752218 0 -5.6330355220184482e-05 -0.0036682331519069891 0 -0.00033119768714776694 -0.0031820763387823497 0 -0.00050322217745273708 -0.0040419224001752218 0 -5.6330355220184482e-05 -0.0036682331519069891 0 8.2994761592607527e-05 -0.0030556359451908038 0 -0.00033119768714776694 -0.0031820763387823497 0 -0.00098803257244184373 -0.0035446708991721948 0 -0.00033119768714776694 -0.0031820763387823497 0 -0.00050322217745273708 -0.0040419224001752218 0 -0.0013143301124019522 -0.0060786616622797553 0 -7.1047880353147124e-05 -0.0027394524182747012 0 -0.00078053359763772753 -0.0085057021581235025 0 -0.0005737927875846629 -0.0078002623839359972 0 -0.00075133277277351842 -0.0026219889278214338 0 -0.00015002691480574132 -0.0026986854296408625 0 -0.00011084764834912613 -0.002246441346316463 0 -0.00075133277277351842 -0.0026219889278214338 0 -0.00011084764834912613 -0.002246441346316463 0 -0.00045870975466572874 -0.0019979540759721358 0 -0.00075133277277351842 -0.0026219889278214338 0 -0.00033119768714776694 -0.0031820763387823497 0 -0.00015002691480574132 -0.0026986854296408625 0 -0.00075133277277351842 -0.0026219889278214338 0 -0.0009876007371851759 -0.0034176664507686682 0 -0.00033119768714776694 -0.0031820763387823497 0 8.2994761592607527e-05 -0.0030556359451908038 0 -0.00015002691480574132 -0.0026986854296408625 0 0.00021994228904500477 -0.0025100865148927356 0 8.2994761592607527e-05 -0.0030556359451908038 0 -0.00033119768714776694 -0.0031820763387823497 0 -0.00015002691480574132 -0.0026986854296408625 0 -0.00015002691480574132 -0.0026986854296408625 0 -0.00011084764834912613 -0.002246441346316463 0 0.00021994228904500477 -0.0025100865148927356 0 0.00021994228904500477 -0.0025100865148927356 0 0.00056639791749644444 -0.0023888416887383598 0 0.00036446604764153983 -0.0019875122185702703 0 -0.00011084764834912613 -0.002246441346316463 0 0.00021994228904500477 -0.0025100865148927356 0 0.00036446604764153983 -0.0019875122185702703 0 0.00021994228904500477 -0.0025100865148927356 0 0.00040591591154048222 -0.0028897165809495472 0 0.00056639791749644444 -0.0023888416887383598 0 8.2994761592607527e-05 -0.0030556359451908038 0 0.00021994228904500477 -0.0025100865148927356 0 0.00040591591154048222 -0.0028897165809495472 0 0.00076482429273384757 -0.0031092793173517113 0 0.00056639791749644444 -0.0023888416887383598 0 0.00092014008035342287 -0.0022469852989875304 0 0.00076482429273384757 -0.0031092793173517113 0 0.00040591591154048222 -0.0028897165809495472 0 0.00056639791749644444 -0.0023888416887383598 0 0.00056639791749644444 -0.0023888416887383598 0 0.00036446604764153983 -0.0019875122185702703 0 0.00072270389384223904 -0.001762001792257131 0 0.00058790680052258357 -0.0017135866893587624 0 0.00027831083623501264 -0.0017047341159120253 0 0.00036446604764153983 -0.0019875122185702703 0 0.00058790680052258357 -0.0017135866893587624 0 0.00036446604764153983 -0.0019875122185702703 0 0.00072270389384223904 -0.001762001792257131 0 0.00058790680052258357 -0.0017135866893587624 0 0.00027831083623501264 -0.0017047341159120253 0 0.00052644159711615957 -0.0015224071824601157 0 0.00027831083623501264 -0.0017047341159120253 0 -1.6725802709878654e-06 -0.001615860156861645 0 0.00017592192123438039 -0.0015351471845894329 0 0.00027831083623501264 -0.0017047341159120253 0 -1.7102246763846685e-05 -0.0018089308518790528 0 -1.6725802709878654e-06 -0.001615860156861645 0 -0.00011084764834912613 -0.002246441346316463 0 0.00036446604764153983 -0.0019875122185702703 0 -1.7102246763846685e-05 -0.0018089308518790528 0 0.00027831083623501264 -0.0017047341159120253 0 0.00036446604764153983 -0.0019875122185702703 0 -1.7102246763846685e-05 -0.0018089308518790528 0 -0.00011084764834912613 -0.002246441346316463 0 -1.7102246763846685e-05 -0.0018089308518790528 0 -0.00045870975466572874 -0.0019979540759721358 0 -1.7102246763846685e-05 -0.0018089308518790528 0 -0.00019970211608956052 -0.0015949556713300162 0 -1.6725802709878654e-06 -0.001615860156861645 0 -0.0005737927875846629 -0.0078002623839359972 0 -0.00037260936024922703 -0.0074280003347325539 0 -0.00062327814242182434 -0.013715746762756343 0 -0.00070164742031412933 -0.013693169418180873 0 -0.00054236545639753571 -0.0137015798587636 0 -1.7102246763846685e-05 -0.0018089308518790528 0 -0.00045870975466572874 -0.0019979540759721358 0 -0.00019970211608956052 -0.0015949556713300162 0 0.00013614876372905274 -0.00028972032425081108 0 5.1575637495281844e-05 -0.00036068778593709166 0 0.00015248749353102167 -0.00074460970782950922 0 0.00013614876372905274 -0.00028972032425081108 0 0.00044248927078536306 -0.00039131347214472231 0 0.00015248749353102167 -0.00074460970782950922 0 0.00013614876372905274 -0.00028972032425081108 0 5.1575637495281844e-05 -0.00036068778593709166 0 1.1253748989459904e-05 -8.36429707240034e-05 0 1.1253748989459904e-05 -8.36429707240034e-05 0 0.00014196268549830215 5.9120462842133485e-05 0 -4.3206527290676365e-05 0.00022942792797387695 0 0.00013614876372905274 -0.00028972032425081108 0 1.1253748989459904e-05 -8.36429707240034e-05 0 0.00014196268549830215 5.9120462842133485e-05 0 0.00013614876372905274 -0.00028972032425081108 0 0.00031920655894381034 -5.6847653232621877e-05 0 0.00044248927078536306 -0.00039131347214472231 0 0.00013614876372905274 -0.00028972032425081108 0 0.00014196268549830215 5.9120462842133485e-05 0 0.00031920655894381034 -5.6847653232621877e-05 0 0.00067170670138084619 0.00011373004536148292 0 0.00052327398212781743 -6.0518591868953356e-05 0 0.00085737367496484414 -0.00024592785852603261 0 0.00036664157805135566 0.00017876159397246303 0 0.00031920655894381034 -5.6847653232621877e-05 0 0.00052327398212781743 -6.0518591868953356e-05 0 0.00052327398212781743 -6.0518591868953356e-05 0 0.00085737367496484414 -0.00024592785852603261 0 0.00044248927078536306 -0.00039131347214472231 0 0.00031920655894381034 -5.6847653232621877e-05 0 0.00052327398212781743 -6.0518591868953356e-05 0 0.00044248927078536306 -0.00039131347214472231 0 0.00083623817810089471 -0.0014534903422743562 0 0.00083110380931022412 -0.0012861086302755553 0 0.00067170670138084619 0.00011373004536148292 0 0.00093026997006253969 0.00010679603511346639 0 0.00085737367496484414 -0.00024592785852603261 0 0.00056639791749644444 -0.0023888416887383598 0 0.00092014008035342287 -0.0022469852989875304 0 0.00072270389384223904 -0.001762001792257131 0 0.00092014008035342287 -0.0022469852989875304 0 0.00056462367512787189 -0.001133252451312197 0 0.00072270389384223904 -0.001762001792257131 0 0.00083110380931022412 -0.0012861086302755553 0 0.00059116994321131917 -0.0012157096749321294 0 0.00085737367496484414 -0.00024592785852603261 0 0.00044248927078536306 -0.00039131347214472231 0 0.00056462367512787189 -0.001133252451312197 0 0.00044248927078536306 -0.00039131347214472231 0 0.00056462367512787189 -0.001133252451312197 0 0.00015248749353102167 -0.00074460970782950922 0 0.00056462367512787189 -0.001133252451312197 0 0.00075071703509326502 -0.001761841723340551 0 0.00015248749353102167 -0.00074460970782950922 0 -4.9534623670554447e-05 -0.00048275204516368749 0 -0.00042767310619204506 -0.00035505832592308307 0 0.00015248749353102167 -0.00074460970782950922 0 0.00017130342162844227 -0.0010364830498900198 0 0.00014752602028800062 -0.00080189349436557043 0 0.00056462367512787189 -0.001133252451312197 0 0.00071418161001911404 -0.00157992269035553 0 0.00075071703509326502 -0.001761841723340551 0 0.00056462367512787189 -0.001133252451312197 0 0.00072270389384223904 -0.001762001792257131 0 0.00071418161001911404 -0.00157992269035553 0 0.00058790680052258357 -0.0017135866893587624 0 0.00072270389384223904 -0.001762001792257131 0 0.00071350156409519011 -0.0016828077443311739 0 0.00072270389384223904 -0.001762001792257131 0 0.00071418161001911404 -0.00157992269035553 0 0.00071350156409519011 -0.0016828077443311739 0 0.00071418161001911404 -0.00157992269035553 0 0.00071350156409519011 -0.0016828077443311739 0 0.00075071703509326502 -0.001761841723340551 0 0.00058790680052258357 -0.0017135866893587624 0 0.00071350156409519011 -0.0016828077443311739 0 0.00075071703509326502 -0.001761841723340551 0 0.00058790680052258357 -0.0017135866893587624 0 0.00075071703509326502 -0.001761841723340551 0 0.00052644159711615957 -0.0015224071824601157 0 -0.00042767310619204506 -0.00035505832592308307 0 -0.00039181273361394044 -0.00038955126453143731 0 -0.00022024599833439591 -0.00049630256695933365 0 0.00017130342162844227 -0.0010364830498900198 0 0.0001971035222739962 -0.00098113348301108027 0 -0.00039181273361394044 -0.00038955126453143731 0 -0.00028576202922195402 -0.00029821861270030054 0 -0.00036151291667266852 -0.00022447554730957301 0 -0.00042767310619204506 -0.00035505832592308307 0 -0.00039181273361394044 -0.00038955126453143731 0 -0.00028576202922195402 -0.00029821861270030054 0 -4.9534623670554447e-05 -0.00048275204516368749 0 -0.00042767310619204506 -0.00035505832592308307 0 -0.00020123856223019541 -0.00037643571038616005 0 -0.00020123856223019541 -0.00037643571038616005 0 -0.00028576202922195402 -0.00029821861270030054 0 -8.2872696609409075e-05 -0.00037414701569394719 0 -4.9534623670554447e-05 -0.00048275204516368749 0 -0.00020123856223019541 -0.00037643571038616005 0 -8.2872696609409075e-05 -0.00037414701569394719 0 -0.00042767310619204506 -0.00035505832592308307 0 -0.00020123856223019541 -0.00037643571038616005 0 -0.00028576202922195402 -0.00029821861270030054 0 -0.00028576202922195402 -0.00029821861270030054 0 -8.2872696609409075e-05 -0.00037414701569394719 0 -0.00016617904361601414 -0.0002461609038172927 0 -8.2872696609409075e-05 -0.00037414701569394719 0 -1.2500359331990304e-05 -0.00029797887578926675 0 -0.00016617904361601414 -0.0002461609038172927 0 -8.2872696609409075e-05 -0.00037414701569394719 0 6.6969965806906268e-05 -0.00045404875851114335 0 -1.2500359331990304e-05 -0.00029797887578926675 0 5.1575637495281844e-05 -0.00036068778593709166 0 6.6969965806906268e-05 -0.00045404875851114335 0 0.00015248749353102167 -0.00074460970782950922 0 -4.9534623670554447e-05 -0.00048275204516368749 0 6.6969965806906268e-05 -0.00045404875851114335 0 0.00015248749353102167 -0.00074460970782950922 0 -4.9534623670554447e-05 -0.00048275204516368749 0 -8.2872696609409075e-05 -0.00037414701569394719 0 6.6969965806906268e-05 -0.00045404875851114335 0 5.1575637495281844e-05 -0.00036068778593709166 0 6.6969965806906268e-05 -0.00045404875851114335 0 1.7173560777163552e-05 -0.00029918922374691211 0 -1.2500359331990304e-05 -0.00029797887578926675 0 1.7173560777163552e-05 -0.00029918922374691211 0 5.7018110365810832e-06 -0.00022855439127828119 0 6.6969965806906268e-05 -0.00045404875851114335 0 -1.2500359331990304e-05 -0.00029797887578926675 0 1.7173560777163552e-05 -0.00029918922374691211 0 -1.1107261302262956e-05 -0.00023846198625673183 0 1.7173560777163552e-05 -0.00029918922374691211 0 5.7018110365810832e-06 -0.00022855439127828119 0 -1.1107261302262956e-05 -0.00023846198625673183 0 -7.62906035506072e-05 -0.0001870282271900561 0 1.7173560777163552e-05 -0.00029918922374691211 0 -1.1107261302262956e-05 -0.00023846198625673183 0 -7.62906035506072e-05 -0.0001870282271900561 0 -1.9470080272398979e-05 -0.00024140461153416672 0 -7.62906035506072e-05 -0.0001870282271900561 0 -0.00017715358644330875 -0.00018492135285157868 0 -1.9470080272398979e-05 -0.00024140461153416672 0 -7.62906035506072e-05 -0.0001870282271900561 0 -0.00019818252098366472 -6.4928403795839578e-05 0 -0.00017160394783761522 -4.9733660412979396e-05 0 -7.62906035506072e-05 -0.0001870282271900561 0 -4.0550903661008777e-05 -0.00018532318738144141 0 -0.00017160394783761522 -4.9733660412979396e-05 0 5.1575637495281844e-05 -0.00036068778593709166 0 1.7173560777163552e-05 -0.00029918922374691211 0 -4.0550903661008777e-05 -0.00018532318738144141 0 -7.62906035506072e-05 -0.0001870282271900561 0 1.7173560777163552e-05 -0.00029918922374691211 0 -4.0550903661008777e-05 -0.00018532318738144141 0 -0.00026629512306019853 4.3605077757844753e-06 0 -0.00026577844561706559 3.0177575515455913e-06 0 -0.00037656654555139692 0.00019062692439418048 0 -0.00027167600026122799 1.2114635088970137e-05 0 -0.00028419528779370662 0.00020976414269086106 0 -7.62906035506072e-05 -0.0001870282271900561 0 -0.00017715358644330875 -0.00018492135285157868 0 -0.00019818252098366472 -6.4928403795839578e-05 0 -0.00017715358644330875 -0.00018492135285157868 0 -0.00019818252098366472 -6.4928403795839578e-05 0 -0.00027167600026122799 1.2114635088970137e-05 0 -0.00019818252098366472 -6.4928403795839578e-05 0 -0.00027167600026122799 1.2114635088970137e-05 0 -0.00023895489860353941 -1.0565903121491313e-05 0 -0.00019818252098366472 -6.4928403795839578e-05 0 -0.00023895489860353941 -1.0565903121491313e-05 0 -0.00017160394783761522 -4.9733660412979396e-05 0 -0.00033377005479359614 9.8200626707112694e-05 0 -0.00016920681213094353 -3.3890186881422381e-05 0 -0.00043239461300709084 0.00020203490314052281 0 -0.00024171777617111177 0.0002791132268341187 0 -0.00045797884687709118 0.00054206196626243566 0 -0.00043239461300709084 0.00020203490314052281 0 -0.00024171777617111177 0.0002791132268341187 0 -0.00017160394783761522 -4.9733660412979396e-05 0 -0.00033377005479359614 9.8200626707112694e-05 0 -0.00037543549628555369 0.00016485763538490121 0 -0.00043239461300709084 0.00020203490314052281 0 -0.00045797884687709118 0.00054206196626243566 0 -0.00062786503512737965 0.00046864000359186616 0 5.1575637495281844e-05 -0.00036068778593709166 0 1.1253748989459904e-05 -8.36429707240034e-05 0 -4.0550903661008777e-05 -0.00018532318738144141 0 1.1253748989459904e-05 -8.36429707240034e-05 0 -4.0550903661008777e-05 -0.00018532318738144141 0 -9.4420728522941837e-05 3.9584474091912252e-05 0 -4.0550903661008777e-05 -0.00018532318738144141 0 -0.00017160394783761522 -4.9733660412979396e-05 0 -9.4420728522941837e-05 3.9584474091912252e-05 0 -0.00024171777617111177 0.0002791132268341187 0 -9.4420728522941837e-05 3.9584474091912252e-05 0 -4.3206527290676365e-05 0.00022942792797387695 0 -0.00024171777617111177 0.0002791132268341187 0 -0.00017160394783761522 -4.9733660412979396e-05 0 -9.4420728522941837e-05 3.9584474091912252e-05 0 1.1253748989459904e-05 -8.36429707240034e-05 0 -9.4420728522941837e-05 3.9584474091912252e-05 0 -4.3206527290676365e-05 0.00022942792797387695 0 -4.3206527290676365e-05 0.00022942792797387695 0 7.6972029875233212e-06 0.00042599865733860008 0 -0.00020582724841899472 0.00052207645895612572 0 0.00011226777692918417 0.00057231940563597116 0 7.6972029875233212e-06 0.00042599865733860008 0 -3.95999711635355e-05 0.00062690353309493381 0 7.6972029875233212e-06 0.00042599865733860008 0 -0.00020582724841899472 0.00052207645895612572 0 -3.95999711635355e-05 0.00062690353309493381 0 -0.00024171777617111177 0.0002791132268341187 0 -4.3206527290676365e-05 0.00022942792797387695 0 -0.00020582724841899472 0.00052207645895612572 0 -0.00024171777617111177 0.0002791132268341187 0 -0.00020582724841899472 0.00052207645895612572 0 -0.00045797884687709118 0.00054206196626243566 0 -0.00045797884687709118 0.00054206196626243566 0 -0.00041476201833578715 0.00074458547526837671 0 -0.00059622450481066941 0.00086197119964765692 0 -0.00020582724841899472 0.00052207645895612572 0 -0.00041476201833578715 0.00074458547526837671 0 -0.00021051615432344026 0.00076857971334686706 0 -0.00020582724841899472 0.00052207645895612572 0 -0.00045797884687709118 0.00054206196626243566 0 -0.00041476201833578715 0.00074458547526837671 0 -0.00041476201833578715 0.00074458547526837671 0 -0.0003845158770061103 0.00088045703088386368 0 -0.00021051615432344026 0.00076857971334686706 0 -0.00041476201833578715 0.00074458547526837671 0 -0.0003845158770061103 0.00088045703088386368 0 -0.00054110411734769822 0.00095496476589777412 0 -0.00041476201833578715 0.00074458547526837671 0 -0.00054110411734769822 0.00095496476589777412 0 -0.00059622450481066941 0.00086197119964765692 0 -0.0004701936742413594 0.0010059770966346629 0 -0.0003845158770061103 0.00088045703088386368 0 -0.00054110411734769822 0.00095496476589777412 0 -0.00042697537224688258 0.0010473060509393188 0 -0.0004701936742413594 0.0010059770966346629 0 -0.00032411058921506163 0.00094042295127716457 0 -0.0004701936742413594 0.0010059770966346629 0 -0.0003845158770061103 0.00088045703088386368 0 -0.00032411058921506163 0.00094042295127716457 0 -0.0003845158770061103 0.00088045703088386368 0 -0.00032411058921506163 0.00094042295127716457 0 -0.00021051615432344026 0.00076857971334686706 0 -0.00013266543680481751 0.00092065860736662854 0 -0.00032411058921506163 0.00094042295127716457 0 -0.00021051615432344026 0.00076857971334686706 0 -0.00013266543680481751 0.00092065860736662854 0 -7.2454363645489705e-05 0.00081587872003874068 0 -0.00021051615432344026 0.00076857971334686706 0 -2.6561637051940204e-05 0.000903060041958037 0 3.9519806598911969e-05 0.00078466328940842974 0 -7.2454363645489705e-05 0.00081587872003874068 0 3.9519806598911969e-05 0.00078466328940842974 0 -7.2454363645489705e-05 0.00081587872003874068 0 -3.95999711635355e-05 0.00062690353309493381 0 3.9519806598911969e-05 0.00078466328940842974 0 0.00011226777692918417 0.00057231940563597116 0 -3.95999711635355e-05 0.00062690353309493381 0 -0.00020582724841899472 0.00052207645895612572 0 -3.95999711635355e-05 0.00062690353309493381 0 -0.00021051615432344026 0.00076857971334686706 0 -7.2454363645489705e-05 0.00081587872003874068 0 -3.95999711635355e-05 0.00062690353309493381 0 -0.00021051615432344026 0.00076857971334686706 0 -0.00077975276244060011 0.0012783165375944883 0 -0.00075922953363839643 0.0010978945537835929 0 -0.00076769422218914997 0.001232693245708735 0 -0.00077975276244060011 0.0012783165375944883 0 -0.00067198395987968476 0.0010821261142989734 0 -0.00075922953363839643 0.0010978945537835929 0 -0.00077975276244060011 0.0012783165375944883 0 -0.00076769422218914997 0.001232693245708735 0 -0.00077315652789748863 0.0013548369936066977 0 -0.00066362979691197987 0.0011714819662538088 0 -0.00066823044860288034 0.0011581370134129965 0 -0.00065237997117673075 0.0012313439481037439 0 -0.00065102562641245853 0.0011463131880720091 0 -0.00066823044860288034 0.0011581370134129965 0 -0.00067198395987968476 0.0010821261142989734 0 -0.00072647185417748375 0.0012134145570712009 0 -0.00067613204164932751 0.0011028084618446565 0 -0.00058976848487798873 0.0010804978472792473 0 -0.00065102562641245853 0.0011463131880720091 0 -0.00067198395987968476 0.0010821261142989734 0 -0.00058976848487798873 0.0010804978472792473 0 -0.0004701936742413594 0.0010059770966346629 0 -0.00054110411734769822 0.00095496476589777412 0 -0.00058976848487798873 0.0010804978472792473 0 -0.00054110411734769822 0.00095496476589777412 0 -0.00067198395987968476 0.0010821261142989734 0 -0.00054110411734769822 0.00095496476589777412 0 -0.00067198395987968476 0.0010821261142989734 0 -0.00059622450481066941 0.00086197119964765692 0 -0.00067198395987968476 0.0010821261142989734 0 -0.00071957802624712352 0.00096889118525779461 0 -0.00075922953363839643 0.0010978945537835929 0 -0.00067198395987968476 0.0010821261142989734 0 -0.00071957802624712352 0.00096889118525779461 0 -0.00059622450481066941 0.00086197119964765692 0 -0.00071957802624712352 0.00096889118525779461 0 -0.00084732657783080016 0.0010342657823895548 0 -0.00075922953363839643 0.0010978945537835929 0 -0.00071957802624712352 0.00096889118525779461 0 -0.00059622450481066941 0.00086197119964765692 0 -0.00068267678831927792 0.00075500362411535995 0 -0.00045797884687709118 0.00054206196626243566 0 -0.00068267678831927792 0.00075500362411535995 0 -0.00062786503512737965 0.00046864000359186616 0 -0.00045797884687709118 0.00054206196626243566 0 -0.00059622450481066941 0.00086197119964765692 0 -0.00068267678831927792 0.00075500362411535995 0 -0.00068267678831927792 0.00075500362411535995 0 -0.00087905280824561503 0.0007354790355823959 0 -0.00084732657783080016 0.0010342657823895548 0 -0.00068267678831927792 0.00075500362411535995 0 -0.00087905280824561503 0.0007354790355823959 0 -0.00062786503512737965 0.00046864000359186616 0 -0.00071957802624712352 0.00096889118525779461 0 -0.00068267678831927792 0.00075500362411535995 0 -0.00084732657783080016 0.0010342657823895548 0 -0.00064863285586415787 0.00081009055036649583 0 -0.00079801344404115593 0.0010682645046397334 0 -0.00089842128466239928 0.0013101367644056921 0 -0.00074480473298573337 0.0013020769271922523 0 -0.00084732657783080016 0.0010342657823895548 0 -0.00064863285586415787 0.00081009055036649583 0 -0.00085660437219859319 0.0012019710515398889 0 -0.00074480473298573337 0.0013020769271922523 0 -0.00084732657783080016 0.0010342657823895548 0 -0.00077584889952362018 0.0011726306085380331 0 -0.00075922953363839643 0.0010978945537835929 0 -0.00077584889952362018 0.0011726306085380331 0 -0.00076769422218914997 0.001232693245708735 0 -0.00084732657783080016 0.0010342657823895548 0 -0.00075922953363839643 0.0010978945537835929 0 -0.00077584889952362018 0.0011726306085380331 0 -0.00076769422218914997 0.001232693245708735 0 -0.00072958354895434564 0.0013219231387186369 0 -0.00073789374485919916 0.0014116577793116137 0 -0.00077584889952362018 0.0011726306085380331 0 -0.00076769422218914997 0.001232693245708735 0 -0.00072958354895434564 0.0013219231387186369 0 -0.00074480473298573337 0.0013020769271922523 0 -0.00077584889952362018 0.0011726306085380331 0 -0.00072958354895434564 0.0013219231387186369 0 -0.00074480473298573337 0.0013020769271922523 0 -0.00072958354895434564 0.0013219231387186369 0 -0.00070930381887676424 0.0014105262764521707 0 -0.00072958354895434564 0.0013219231387186369 0 -0.00070930381887676424 0.0014105262764521707 0 -0.00070785916570747565 0.0014508624443587395 0 -0.00074480473298573337 0.0013020769271922523 0 -0.00070930381887676424 0.0014105262764521707 0 -0.00070663956324799524 0.0014448251436396972 0 -0.00070930381887676424 0.0014105262764521707 0 -0.00070663956324799524 0.0014448251436396972 0 -0.0007026092641329014 0.001482797961623033 0 -0.00070930381887676424 0.0014105262764521707 0 -0.0007026092641329014 0.001482797961623033 0 -0.00070785916570747565 0.0014508624443587395 0 -0.00078176240703619693 0.0013631319550660853 0 -0.00070663956324799524 0.0014448251436396972 0 -0.00063572014872405487 0.001484626560237747 0 -0.00064863285586415787 0.00081009055036649583 0 -0.00036973094896992442 0.00070630227360550632 0 -0.00078176240703619693 0.0013631319550660853 0 -0.00074480473298573337 0.0013020769271922523 0 -0.00070663956324799524 0.0014448251436396972 0 -0.00070663956324799524 0.0014448251436396972 0 -0.00063572014872405487 0.001484626560237747 0 -0.00068786980592264646 0.0014701278559730391 0 -0.00070663956324799524 0.0014448251436396972 0 -0.00068786980592264646 0.0014701278559730391 0 -0.0007026092641329014 0.001482797961623033 0 -0.00068786980592264646 0.0014701278559730391 0 -0.0007026092641329014 0.001482797961623033 0 -0.00075066470500846541 0.0014595687757281578 0 -0.00018032289868885265 -2.8953108513522727e-05 0 -0.00016304415045855528 1.2317214986845816e-05 0 -0.00022299442357649063 -2.2259058903611092e-05 0 -0.00064863285586415787 0.00081009055036649583 0 -0.00037543549628555369 0.00016485763538490121 0 -0.00016304415045855528 1.2317214986845816e-05 0 -0.00022299442357649063 -2.2259058903611092e-05 0 -0.00022439180396250215 4.3345163629368968e-06 0 -0.00027167600026122799 1.2114635088970137e-05 0 -0.00023895489860353941 -1.0565903121491313e-05 0 -0.00022439180396250215 4.3345163629368968e-06 0 -0.00023895489860353941 -1.0565903121491313e-05 0 -0.00022299442357649063 -2.2259058903611092e-05 0 -0.00022439180396250215 4.3345163629368968e-06 0 -0.00027167600026122799 1.2114635088970137e-05 0 -0.00022439180396250215 4.3345163629368968e-06 0 -0.00020936199921042586 8.2905792268528512e-05 0 -0.00016304415045855528 1.2317214986845816e-05 0 -0.00020936199921042586 8.2905792268528512e-05 0 -0.00011898869922146571 0.00016235599727430848 0 -0.00016304415045855528 1.2317214986845816e-05 0 -0.00022439180396250215 4.3345163629368968e-06 0 -0.00020936199921042586 8.2905792268528512e-05 0 -0.00020936199921042586 8.2905792268528512e-05 0 -0.00011898869922146571 0.00016235599727430848 0 -0.00022091998313043129 0.00021770472810659432 0 -0.00027167600026122799 1.2114635088970137e-05 0 -0.00020936199921042586 8.2905792268528512e-05 0 -0.00028419528779370662 0.00020976414269086106 0 -0.00020936199921042586 8.2905792268528512e-05 0 -0.00022091998313043129 0.00021770472810659432 0 -0.00028419528779370662 0.00020976414269086106 0 -0.00068786980592264646 0.0014701278559730391 0 -0.00062920226452924783 0.0013677416674303662 0 -0.00075066470500846541 0.0014595687757281578 0 -0.00063572014872405487 0.001484626560237747 0 -0.00040335869522989404 0.001227490435091628 0 -0.00062920226452924783 0.0013677416674303662 0 -0.00036973094896992442 0.00070630227360550632 0 -0.00027508110414535618 0.00068713244135203382 0 -0.00063572014872405487 0.001484626560237747 0 -0.00068786980592264646 0.0014701278559730391 0 -0.00062920226452924783 0.0013677416674303662 0 -0.00040335869522989404 0.001227490435091628 0 -0.00062920226452924783 0.0013677416674303662 0 -0.00067286838571433967 0.0009780755530051958 0 -0.00073787935857185622 0.0015100885851962425 0 -0.00072089052763611326 0.0015078976102912121 0 -0.00075066470500846541 0.0014595687757281578 0 -0.00067604318363769834 0.0012303247182070458 0 -0.00075348579809205666 0.0014372087679242454 0 -0.00062920226452924783 0.0013677416674303662 0 -0.00067286838571433967 0.0009780755530051958 0 -0.00075066470500846541 0.0014595687757281578 0 -0.00073787935857185622 0.0015100885851962425 0 -0.00072089052763611326 0.0015078976102912121 0 -0.0007152497281750019 0.001486711767658273 0 -0.00040335869522989404 0.001227490435091628 0 -0.00067286838571433967 0.0009780755530051958 0 -0.00024778496361854246 0.00044534698391305802 0 -0.00072089052763611326 0.0015078976102912121 0 -0.00068564705735722114 0.0014639534967463442 0 -0.00063648330461935499 0.001457068618313057 0 -0.00067604318363769834 0.0012303247182070458 0 -0.00044292999058682367 0.00092229986883711327 0 -0.00067286838571433967 0.0009780755530051958 0 -0.00024778496361854246 0.00044534698391305802 0 -0.00019567752852929135 0.00030802043223373881 0 -0.00072089052763611326 0.0015078976102912121 0 -0.00068564705735722114 0.0014639534967463442 0 -0.0007152497281750019 0.001486711767658273 0 -0.00068564705735722114 0.0014639534967463442 0 -0.00066046055703674288 0.0014388446412617185 0 -0.00063648330461935499 0.001457068618313057 0 -0.00073787935857185622 0.0015100885851962425 0 -0.0007152497281750019 0.001486711767658273 0 -0.0007149425621625924 0.0014589566365380163 0 -0.00073787935857185622 0.0015100885851962425 0 -0.0007149425621625924 0.0014589566365380163 0 -0.00074452036964918651 0.0014737197114626326 0 -0.00068564705735722114 0.0014639534967463442 0 -0.0007152497281750019 0.001486711767658273 0 -0.0007149425621625924 0.0014589566365380163 0 -0.0007149425621625924 0.0014589566365380163 0 -0.00073629642104644153 0.0014178340533653098 0 -0.00067906613888296023 0.0014200864477607843 0 -0.0007149425621625924 0.0014589566365380163 0 -0.00073629642104644153 0.0014178340533653098 0 -0.00074452036964918651 0.0014737197114626326 0 -0.00068564705735722114 0.0014639534967463442 0 -0.00066046055703674288 0.0014388446412617185 0 -0.00067906613888296023 0.0014200864477607843 0 -0.00068564705735722114 0.0014639534967463442 0 -0.0007149425621625924 0.0014589566365380163 0 -0.00067906613888296023 0.0014200864477607843 0 -0.00067906613888296023 0.0014200864477607843 0 -0.00064860871248013225 0.0013687145473900966 0 -0.00063936511219639066 0.0014113811839253844 0 -0.00066046055703674288 0.0014388446412617185 0 -0.00067906613888296023 0.0014200864477607843 0 -0.00063936511219639066 0.0014113811839253844 0 -0.00050353809929881168 0.0010216252813883689 0 -0.00047839315118280382 0.00100285056706484 0 -0.00067906613888296023 0.0014200864477607843 0 -0.00064860871248013225 0.0013687145473900966 0 -0.00071270404018428644 0.0013709569857403171 0 -0.00031570254544246887 0.00064142329988747142 0 -0.00026510995185024844 0.00066730580662107287 0 -0.00029648117814826824 0.0006901369741205796 0 -0.00073629642104644153 0.0014178340533653098 0 -0.00067906613888296023 0.0014200864477607843 0 -0.00071270404018428644 0.0013709569857403171 0 -0.00020835342085768409 0.00043148758384844408 0 -0.00028838246402483673 0.00042026881625948189 0 -0.00032838476900508398 0.00056116841593466975 0 -0.0003289770892344783 0.00076454531913889494 0 -0.00027945472598826635 0.00048440903043226851 0 -0.00024406011360391354 0.00043185731395574883 0 -0.00028838246402483673 0.00042026881625948189 0 -0.00026251440662111573 0.00038858561784589673 0 -0.0003289770892344783 0.00076454531913889494 0 -0.00027996481442170022 0.00054752913159930496 0 -0.00050353809929881168 0.0010216252813883689 0 -0.0003289770892344783 0.00076454531913889494 0 -0.00064860871248013225 0.0013687145473900966 0 -0.00056654652622055825 0.0013696614342118471 0 -0.00063936511219639066 0.0014113811839253844 0 -0.00031570254544246887 0.00064142329988747142 0 -0.00033309726050280593 0.00062397333995985291 0 -0.00033270796646045421 0.00063749547048102238 0 -0.0003289770892344783 0.00076454531913889494 0 -0.00044292999058682367 0.00092229986883711327 0 -0.00056654652622055825 0.0013696614342118471 0 -0.00063936511219639066 0.0014113811839253844 0 -0.00063648330461935499 0.001457068618313057 0 -0.00024406011360391354 0.00043185731395574883 0 -0.00023617291778088337 0.00036277876547878996 0 -0.00019567752852929135 0.00030802043223373881 0 -0.00066046055703674288 0.0014388446412617185 0 -0.00063936511219639066 0.0014113811839253844 0 -0.00063648330461935499 0.001457068618313057 0 -0.00023617291778088337 0.00036277876547878996 0 -0.00019567752852929135 0.00030802043223373881 0 -0.00022379187766829813 0.00034387678317082399 0 -0.00023617291778088337 0.00036277876547878996 0 -0.00025474888056700382 0.00035657397614503584 0 -0.00022379187766829813 0.00034387678317082399 0 -0.00023617291778088337 0.00036277876547878996 0 -0.00025474888056700382 0.00035657397614503584 0 -0.00026251440662111573 0.00038858561784589673 0 -0.00024406011360391354 0.00043185731395574883 0 -0.00023617291778088337 0.00036277876547878996 0 -0.00026251440662111573 0.00038858561784589673 0 -0.00028838246402483673 0.00042026881625948189 0 -0.00026251440662111573 0.00038858561784589673 0 -0.00029098051663342943 0.00037488239997698116 0 -0.00025474888056700382 0.00035657397614503584 0 -0.00026251440662111573 0.00038858561784589673 0 -0.00029098051663342943 0.00037488239997698116 0 -0.00025474888056700382 0.00035657397614503584 0 -0.00029416712066835944 0.00033669044588410015 0 -0.00029098051663342943 0.00037488239997698116 0 -0.00025474888056700382 0.00035657397614503584 0 -0.0002527892195362419 0.00033056291899492493 0 -0.00029416712066835944 0.00033669044588410015 0 -0.0002527892195362419 0.00033056291899492493 0 -0.00022379187766829813 0.00034387678317082399 0 -0.00022647478878413992 0.00034483481294624876 0 -0.00025474888056700382 0.00035657397614503584 0 -0.0002527892195362419 0.00033056291899492493 0 -0.00022379187766829813 0.00034387678317082399 0 -0.0002527892195362419 0.00033056291899492493 0 -0.00022647478878413992 0.00034483481294624876 0 -0.00024562925069224618 0.00028943453730775453 0 -0.0002527892195362419 0.00033056291899492493 0 -0.00028600114005131151 0.0002958412508277051 0 -0.00024562925069224618 0.00028943453730775453 0 -0.0002527892195362419 0.00033056291899492493 0 -0.00028600114005131151 0.0002958412508277051 0 -0.00029416712066835944 0.00033669044588410015 0 -0.00024778496361854246 0.00044534698391305802 0 -0.00019567752852929135 0.00030802043223373881 0 -0.0002076706319855154 0.00036055426117343587 0 -0.00019567752852929135 0.00030802043223373881 0 -0.0002076706319855154 0.00036055426117343587 0 -0.00022379187766829813 0.00034387678317082399 0 -0.0002076706319855154 0.00036055426117343587 0 -0.00022379187766829813 0.00034387678317082399 0 -0.00022647478878413992 0.00034483481294624876 0 -0.00022647478878413992 0.00034483481294624876 0 -0.00022001609016114102 0.00037179402684134739 0 -0.00020878992734760238 0.0003178157120900248 0 -0.0002076706319855154 0.00036055426117343587 0 -0.00022647478878413992 0.00034483481294624876 0 -0.00022001609016114102 0.00037179402684134739 0 -0.00024778496361854246 0.00044534698391305802 0 -0.00022001609016114102 0.00037179402684134739 0 -0.00020878992734760238 0.0003178157120900248 0 -0.00024778496361854246 0.00044534698391305802 0 -0.0002076706319855154 0.00036055426117343587 0 -0.00022001609016114102 0.00037179402684134739 0 -0.00027508110414535618 0.00068713244135203382 0 -0.00024459111050928396 0.00044390252394796182 0 -0.00011898869922146571 0.00016235599727430848 0 -0.00020878992734760238 0.0003178157120900248 0 -0.00022091998313043129 0.00021770472810659432 0 -0.00011898869922146571 0.00016235599727430848 0 -0.00024778496361854246 0.00044534698391305802 0 -0.00020878992734760238 0.0003178157120900248 0 -0.00020878992734760238 0.0003178157120900248 0 -0.00022091998313043129 0.00021770472810659432 0 -0.00024562925069224618 0.00028943453730775453 0 -0.00022647478878413992 0.00034483481294624876 0 -0.00020878992734760238 0.0003178157120900248 0 -0.00024562925069224618 0.00028943453730775453 0 -0.00022091998313043129 0.00021770472810659432 0 -0.00028419528779370662 0.00020976414269086106 0 -0.00024562925069224618 0.00028943453730775453 0 -0.00028600114005131151 0.0002958412508277051 0 -0.00028419528779370662 0.00020976414269086106 0 -0.00024562925069224618 0.00028943453730775453 0 -0.00028600114005131151 0.0002958412508277051 0 -0.00028419528779370662 0.00020976414269086106 0 -0.00034696986791951613 0.000299997268349079 0 -0.00037656654555139692 0.00019062692439418048 0 -0.00028419528779370662 0.00020976414269086106 0 -0.00034696986791951613 0.000299997268349079 0 -0.00037656654555139692 0.00019062692439418048 0 -0.00034696986791951613 0.000299997268349079 0 -0.00038914564665489736 0.00029279085099725679 0 -0.00026629512306019853 4.3605077757844753e-06 0 -0.00020438738522863585 3.2080448953069868e-05 0 -0.00034696986791951613 0.000299997268349079 0 -0.00038914564665489736 0.00029279085099725679 0 -0.00037405481085878785 0.00032538938453640059 0 -0.00034696986791951613 0.000299997268349079 0 -0.00035576963049729638 0.00033781697755690061 0 -0.00033048881406196067 0.00035562261574267277 0 -0.00034696986791951613 0.000299997268349079 0 -0.00035576963049729638 0.00033781697755690061 0 -0.00037405481085878785 0.00032538938453640059 0 -0.00034696986791951613 0.000299997268349079 0 -0.00029416712066835944 0.00033669044588410015 0 -0.00033048881406196067 0.00035562261574267277 0 -0.00028600114005131151 0.0002958412508277051 0 -0.00034696986791951613 0.000299997268349079 0 -0.00029416712066835944 0.00033669044588410015 0 -0.00020438738522863585 3.2080448953069868e-05 0 -0.00016527178293595528 0.00012466347992570146 0 5.7018110365810832e-06 -0.00022855439127828119 0 3.742212059605759e-05 -9.4655340626589131e-05 0 -4.7920441175155804e-05 -0.00018257865671246688 0 -1.1107261302262956e-05 -0.00023846198625673183 0 5.7018110365810832e-06 -0.00022855439127828119 0 -1.9470080272398979e-05 -0.00024140461153416672 0 5.7018110365810832e-06 -0.00022855439127828119 0 -1.9470080272398979e-05 -0.00024140461153416672 0 3.742212059605759e-05 -9.4655340626589131e-05 0 -0.00038914564665489736 0.00029279085099725679 0 -0.00037405481085878785 0.00032538938453640059 0 -0.00034451832603379603 0.00034454093336697237 0 -0.00037405481085878785 0.00032538938453640059 0 -0.00034451832603379603 0.00034454093336697237 0 -0.00035962012769304711 0.00032918097177150283 0 -0.00031497759544649775 0.00029235537925929747 0 -0.00035962012769304711 0.00032918097177150283 0 -0.00035494713484158114 0.00035233176944355677 0 -0.00034451832603379603 0.00034454093336697237 0 -0.00031497759544649775 0.00029235537925929747 0 -0.00035962012769304711 0.00032918097177150283 0 -0.00035962012769304711 0.00032918097177150283 0 -0.00035494713484158114 0.00035233176944355677 0 -0.00036707975548007615 0.00036708134900094002 0 -0.00037405481085878785 0.00032538938453640059 0 -0.00035962012769304711 0.00032918097177150283 0 -0.00036707975548007615 0.00036708134900094002 0 -0.00037138209112889449 0.00039841089937071779 0 -0.00035494713484158114 0.00035233176944355677 0 -0.00036707975548007615 0.00036708134900094002 0 -0.00035494713484158114 0.00035233176944355677 0 -0.00036357212427729109 0.00038757791423889244 0 -0.00037207028061257691 0.00039845680896553095 0 -0.00037138209112889449 0.00039841089937071779 0 -0.00035494713484158114 0.00035233176944355677 0 -0.00037207028061257691 0.00039845680896553095 0 -0.00035494713484158114 0.00035233176944355677 0 -0.00033735903511027712 0.00035179750654655291 0 -0.0003046627787517259 0.00031028144017473562 0 -0.00031497759544649775 0.00029235537925929747 0 -0.00035494713484158114 0.00035233176944355677 0 -0.0003046627787517259 0.00031028144017473562 0 -0.00035494713484158114 0.00035233176944355677 0 -0.00033735903511027712 0.00035179750654655291 0 -0.00036357212427729109 0.00038757791423889244 0 -0.00033735903511027712 0.00035179750654655291 0 -0.0003046627787517259 0.00031028144017473562 0 -0.00032798171070829774 0.00035472700061927692 0 -0.00033432986603907717 0.00039581403282243257 0 -0.00029098051663342943 0.00037488239997698116 0 -0.00033048881406196067 0.00035562261574267277 0 -0.00028838246402483673 0.00042026881625948189 0 -0.00033432986603907717 0.00039581403282243257 0 -0.00029098051663342943 0.00037488239997698116 0 -0.00029416712066835944 0.00033669044588410015 0 -0.00029098051663342943 0.00037488239997698116 0 -0.00033048881406196067 0.00035562261574267277 0 -0.00033432986603907717 0.00039581403282243257 0 -0.00033048881406196067 0.00035562261574267277 0 -0.00036707975548007615 0.00036708134900094002 0 -0.00035576963049729638 0.00033781697755690061 0 -0.00037405481085878785 0.00032538938453640059 0 -0.00036707975548007615 0.00036708134900094002 0 -0.00035576963049729638 0.00033781697755690061 0 -0.00033048881406196067 0.00035562261574267277 0 -0.00036707975548007615 0.00036708134900094002 0 -0.00033432986603907717 0.00039581403282243257 0 -0.00036707975548007615 0.00036708134900094002 0 -0.00036056110367232861 0.00041805564908503439 0 -0.00037138209112889449 0.00039841089937071779 0 -0.00036707975548007615 0.00036708134900094002 0 -0.00036056110367232861 0.00041805564908503439 0 -0.00037138209112889449 0.00039841089937071779 0 -0.00036056110367232861 0.00041805564908503439 0 -0.0003759344319789071 0.00047510823287936804 0 -0.00036056110367232861 0.00041805564908503439 0 -0.00034088513086889171 0.00045296210081393777 0 -0.0003759344319789071 0.00047510823287936804 0 -0.00028838246402483673 0.00042026881625948189 0 -0.00034088513086889171 0.00045296210081393777 0 -0.00032838476900508398 0.00056116841593466975 0 -0.00033432986603907717 0.00039581403282243257 0 -0.00036056110367232861 0.00041805564908503439 0 -0.00034088513086889171 0.00045296210081393777 0 -0.00028838246402483673 0.00042026881625948189 0 -0.00033432986603907717 0.00039581403282243257 0 -0.00034088513086889171 0.00045296210081393777 0 -0.00032838476900508398 0.00056116841593466975 0 -0.0003759344319789071 0.00047510823287936804 0 -0.00037997829093195062 0.00053761067626175829 0 -0.00034088513086889171 0.00045296210081393777 0 -0.00032838476900508398 0.00056116841593466975 0 -0.0003759344319789071 0.00047510823287936804 0 -0.00037138209112889449 0.00039841089937071779 0 -0.0003759344319789071 0.00047510823287936804 0 -0.00038349684583167178 0.0004356437343564405 0 -0.0003759344319789071 0.00047510823287936804 0 -0.00038349684583167178 0.0004356437343564405 0 -0.00040178033356147046 0.00046354769325518793 0 -0.0003759344319789071 0.00047510823287936804 0 -0.00037997829093195062 0.00053761067626175829 0 -0.00040178033356147046 0.00046354769325518793 0 -0.00037997829093195062 0.00053761067626175829 0 -0.00040014488039423864 0.00054506131525535872 0 -0.00040178033356147046 0.00046354769325518793 0 -0.00037997829093195062 0.00053761067626175829 0 -0.00040014488039423864 0.00054506131525535872 0 -0.00037556899544961272 0.00063441713586963799 0 -0.00032838476900508398 0.00056116841593466975 0 -0.00037997829093195062 0.00053761067626175829 0 -0.00035618104823671802 0.00059330419023632757 0 -0.00037997829093195062 0.00053761067626175829 0 -0.00035618104823671802 0.00059330419023632757 0 -0.00037556899544961272 0.00063441713586963799 0 -0.00032838476900508398 0.00056116841593466975 0 -0.00035618104823671802 0.00059330419023632757 0 -0.00034748197735640578 0.0006448314025353203 0 -0.00035618104823671802 0.00059330419023632757 0 -0.00037556899544961272 0.00063441713586963799 0 -0.00034748197735640578 0.0006448314025353203 0 -0.00035038036428831947 0.00037789362872996471 0 -0.00037330636974022792 0.00040076755972386248 0 -0.00036811807946415543 0.00039471785310036671 0 -0.00035038036428831947 0.00037789362872996471 0 -0.00034212738791741982 0.00037583682916128894 0 -0.00032798171070829774 0.00035472700061927692 0 -0.00035038036428831947 0.00037789362872996471 0 -0.00036811807946415543 0.00039471785310036671 0 -0.00034212738791741982 0.00037583682916128894 0 -0.00033735903511027712 0.00035179750654655291 0 -0.00035038036428831947 0.00037789362872996471 0 -0.00036357212427729109 0.00038757791423889244 0 -0.00033735903511027712 0.00035179750654655291 0 -0.00035038036428831947 0.00037789362872996471 0 -0.00032798171070829774 0.00035472700061927692 0 -0.00036357212427729109 0.00038757791423889244 0 -0.00037330636974022792 0.00040076755972386248 0 -0.00038442113283578287 0.00041989650579939809 0 -0.00037330636974022792 0.00040076755972386248 0 -0.00038442113283578287 0.00041989650579939809 0 -0.00039341472038053081 0.00041680526062441166 0 -0.00035038036428831947 0.00037789362872996471 0 -0.00036357212427729109 0.00038757791423889244 0 -0.00037330636974022792 0.00040076755972386248 0 -0.00038442113283578287 0.00041989650579939809 0 -0.00037207028061257691 0.00039845680896553095 0 -0.00038349684583167178 0.0004356437343564405 0 -0.00036357212427729109 0.00038757791423889244 0 -0.00038442113283578287 0.00041989650579939809 0 -0.00037207028061257691 0.00039845680896553095 0 -0.00037138209112889449 0.00039841089937071779 0 -0.00037207028061257691 0.00039845680896553095 0 -0.00038349684583167178 0.0004356437343564405 0 -0.00038442113283578287 0.00041989650579939809 0 -0.00038349684583167178 0.0004356437343564405 0 -0.00040178033356147046 0.00046354769325518793 0 -0.00040014488039423864 0.00054506131525535872 0 -0.00040178033356147046 0.00046354769325518793 0 -0.00041685450687274666 0.00049740826897777058 0 -0.00040178033356147046 0.00046354769325518793 0 -0.00041283494005465082 0.00043289563475563812 0 -0.00041685450687274666 0.00049740826897777058 0 -0.00038442113283578287 0.00041989650579939809 0 -0.00040178033356147046 0.00046354769325518793 0 -0.00039341472038053081 0.00041680526062441166 0 -0.00040178033356147046 0.00046354769325518793 0 -0.00041283494005465082 0.00043289563475563812 0 -0.00039341472038053081 0.00041680526062441166 0 -0.00039341472038053081 0.00041680526062441166 0 -0.00039561501667218624 0.0004006513075020842 0 -0.00036811807946415543 0.00039471785310036671 0 -0.00037330636974022792 0.00040076755972386248 0 -0.00039341472038053081 0.00041680526062441166 0 -0.00036811807946415543 0.00039471785310036671 0 -0.00041283494005465082 0.00043289563475563812 0 -0.00039341472038053081 0.00041680526062441166 0 -0.00039561501667218624 0.0004006513075020842 0 -0.00041283494005465082 0.00043289563475563812 0 -0.00041321508962861945 0.00039121065320005618 0 -0.00039561501667218624 0.0004006513075020842 0 -0.00041321508962861945 0.00039121065320005618 0 -0.00039561501667218624 0.0004006513075020842 0 -0.00039227347853199192 0.00037964098661743292 0 -0.00035713804967333479 0.00037019621246706552 0 -0.00037035427897430561 0.00038822169015472494 0 -0.00035114075499730632 0.00038193276098704983 0 -0.00039561501667218624 0.0004006513075020842 0 -0.00039227347853199192 0.00037964098661743292 0 -0.00037035427897430561 0.00038822169015472494 0 -0.00039227347853199192 0.00037964098661743292 0 -0.00035713804967333479 0.00037019621246706552 0 -0.0004081040306022562 0.00032466568051002672 0 -0.00041321508962861945 0.00039121065320005618 0 -0.00039227347853199192 0.00037964098661743292 0 -0.0004081040306022562 0.00032466568051002672 0 -0.00039227347853199192 0.00037964098661743292 0 -0.00035713804967333479 0.00037019621246706552 0 -0.00037035427897430561 0.00038822169015472494 0 -0.00036811807946415543 0.00039471785310036671 0 -0.00034212738791741982 0.00037583682916128894 0 -0.00035114075499730632 0.00038193276098704983 0 -0.00037035427897430561 0.00038822169015472494 0 -0.00036811807946415543 0.00039471785310036671 0 -0.00035114075499730632 0.00038193276098704983 0 -0.00039561501667218624 0.0004006513075020842 0 -0.00037035427897430561 0.00038822169015472494 0 -0.00036811807946415543 0.00039471785310036671 0 -0.0004081040306022562 0.00032466568051002672 0 -0.00042735715221948594 0.00044147856929670958 0 -0.00046659417215599088 0.00052383353954714646 0 -0.0003783763153130061 -0.00032919182215924937 0 -0.00086144433646704243 -0.0005882765889490204 0 -0.00029358223339828954 0.00023836678044049595 0 -0.00060624826583930455 9.9543871951339999e-07 0 -0.00032754603092490132 0.00023934234282295159 0 -0.0004081040306022562 0.00032466568051002672 0 -0.00046659417215599088 0.00052383353954714646 0 -0.00029358223339828954 0.00023836678044049595 0 -0.00041321508962861945 0.00039121065320005618 0 -0.0004081040306022562 0.00032466568051002672 0 -0.00042735715221948594 0.00044147856929670958 0 -0.00041283494005465082 0.00043289563475563812 0 -0.00041321508962861945 0.00039121065320005618 0 -0.00042735715221948594 0.00044147856929670958 0 -0.00042735715221948594 0.00044147856929670958 0 -0.00043463328330577313 0.00053411330100096072 0 -0.00046659417215599088 0.00052383353954714646 0 -0.00041283494005465082 0.00043289563475563812 0 -0.00042735715221948594 0.00044147856929670958 0 -0.00041685450687274666 0.00049740826897777058 0 -0.00042735715221948594 0.00044147856929670958 0 -0.00041685450687274666 0.00049740826897777058 0 -0.00043463328330577313 0.00053411330100096072 0 -0.00041685450687274666 0.00049740826897777058 0 -0.00043463328330577313 0.00053411330100096072 0 -0.0004136099558618929 0.00060604978851853833 0 -0.00043463328330577313 0.00053411330100096072 0 -0.00046659417215599088 0.00052383353954714646 0 -0.00044615016369668558 0.00062122476070279055 0 -0.00060624826583930455 9.9543871951339999e-07 0 -0.00088886176231105967 -0.00040620280738318113 0 -0.00046659417215599088 0.00052383353954714646 0 -0.00044615016369668558 0.00062122476070279055 0 -0.00044891759402570304 0.00060066059870576816 0 -0.00086144433646704243 -0.0005882765889490204 0 -0.0010425875757767821 -0.0011266460617062801 0 -0.0011638256584883147 -0.0011925283925833894 0 -0.00086144433646704243 -0.0005882765889490204 0 -0.00074837177013859109 -0.00096333273947263862 0 -0.0010425875757767821 -0.0011266460617062801 0 -0.00086144433646704243 -0.0005882765889490204 0 -0.00074837177013859109 -0.00096333273947263862 0 -0.00036521585666553485 -0.00072341274876827708 0 -0.00074837177013859109 -0.00096333273947263862 0 -0.00036521585666553485 -0.00072341274876827708 0 -0.0003183385207785044 -0.0011031735201104029 0 -0.0003783763153130061 -0.00032919182215924937 0 -0.00086144433646704243 -0.0005882765889490204 0 -0.00036521585666553485 -0.00072341274876827708 0 -0.00037556899544961272 0.00063441713586963799 0 -0.00037702100108453476 0.00073936729884394113 0 -0.00035920050729813363 0.00081205911321048099 0 -0.00037556899544961272 0.00063441713586963799 0 -0.0004136099558618929 0.00060604978851853833 0 -0.00037702100108453476 0.00073936729884394113 0 -0.00040014488039423864 0.00054506131525535872 0 -0.00037556899544961272 0.00063441713586963799 0 -0.0004136099558618929 0.00060604978851853833 0 -0.00040014488039423864 0.00054506131525535872 0 -0.00041685450687274666 0.00049740826897777058 0 -0.0004136099558618929 0.00060604978851853833 0 -0.0004136099558618929 0.00060604978851853833 0 -0.00041054068653103806 0.00071769249262372504 0 -0.00037702100108453476 0.00073936729884394113 0 -0.00043463328330577313 0.00053411330100096072 0 -0.0004136099558618929 0.00060604978851853833 0 -0.00044615016369668558 0.00062122476070279055 0 -0.0004136099558618929 0.00060604978851853833 0 -0.00044615016369668558 0.00062122476070279055 0 -0.00041054068653103806 0.00071769249262372504 0 -0.00044615016369668558 0.00062122476070279055 0 -0.00041054068653103806 0.00071769249262372504 0 -0.00045436727622833286 0.00081124294849445507 0 -0.00046381158557855468 0.00061735245972977448 0 -0.00042559167340675908 0.00077342846662503955 0 -0.00041054068653103806 0.00071769249262372504 0 -0.00037702100108453476 0.00073936729884394113 0 -0.0003750128651930134 0.00084322115748914597 0 -0.00037702100108453476 0.00073936729884394113 0 -0.00035890177507207359 0.00084720250986679844 0 -0.0003750128651930134 0.00084322115748914597 0 -0.00037702100108453476 0.00073936729884394113 0 -0.00035920050729813363 0.00081205911321048099 0 -0.00035890177507207359 0.00084720250986679844 0 -0.00035920050729813363 0.00081205911321048099 0 -0.00036990307851124111 0.00098992908985814595 0 -0.00035890177507207359 0.00084720250986679844 0 -0.00037556899544961272 0.00063441713586963799 0 -0.00035920050729813363 0.00081205911321048099 0 -0.00034748197735640578 0.0006448314025353203 0 -0.00035920050729813363 0.00081205911321048099 0 -0.00030570543070260729 0.00081795884780277962 0 -0.00032217063972553154 0.00071439973425152384 0 -0.00035920050729813363 0.00081205911321048099 0 -0.00034748197735640578 0.0006448314025353203 0 -0.00032217063972553154 0.00071439973425152384 0 -0.00035920050729813363 0.00081205911321048099 0 -0.00036295459957736922 0.00098841008657330441 0 -0.00030570543070260729 0.00081795884780277962 0 -0.00035920050729813363 0.00081205911321048099 0 -0.00036295459957736922 0.00098841008657330441 0 -0.00036990307851124111 0.00098992908985814595 0 -0.00037431829403650478 0.0010054096615715166 0 -0.00041479737157394241 0.00105758533626319 0 -0.00036295459957736922 0.00098841008657330441 0 -0.00021681555871143663 0.00085722961198835467 0 -0.00030570543070260729 0.00081795884780277962 0 -0.00036295459957736922 0.00098841008657330441 0 -0.00059533291232792454 0.0012738545330864214 0 -0.00059930112530117005 0.0011946754298349919 0 -0.00021681555871143663 0.00085722961198835467 0 -0.00027304897790079064 0.00077009872348878081 0 -0.00024398559438393148 0.00080982694726679997 0 -0.00021681555871143663 0.00085722961198835467 0 -0.00030570543070260729 0.00081795884780277962 0 -0.00027304897790079064 0.00077009872348878081 0 -0.00030570543070260729 0.00081795884780277962 0 -0.00027304897790079064 0.00077009872348878081 0 -0.00032217063972553154 0.00071439973425152384 0 -0.00027304897790079064 0.00077009872348878081 0 -0.00029648117814826824 0.0006901369741205796 0 -0.00032217063972553154 0.00071439973425152384 0 -0.00027304897790079064 0.00077009872348878081 0 -0.00024956433286057306 0.00072927900189076694 0 -0.00029648117814826824 0.0006901369741205796 0 -0.00027304897790079064 0.00077009872348878081 0 -0.00024956433286057306 0.00072927900189076694 0 -0.00024398559438393148 0.00080982694726679997 0 -0.00026510995185024844 0.00066730580662107287 0 -0.00024956433286057306 0.00072927900189076694 0 -0.00029648117814826824 0.0006901369741205796 0 -0.00031570254544246887 0.00064142329988747142 0 -0.00029648117814826824 0.0006901369741205796 0 -0.00033270796646045421 0.00063749547048102238 0 -0.00029648117814826824 0.0006901369741205796 0 -0.00033270796646045421 0.00063749547048102238 0 -0.00032217063972553154 0.00071439973425152384 0 -0.00033309726050280593 0.00062397333995985291 0 -0.00032838476900508398 0.00056116841593466975 0 -0.00033270796646045421 0.00063749547048102238 0 -0.00032838476900508398 0.00056116841593466975 0 -0.00033270796646045421 0.00063749547048102238 0 -0.00034748197735640578 0.0006448314025353203 0 -0.00033270796646045421 0.00063749547048102238 0 -0.00034748197735640578 0.0006448314025353203 0 -0.00032217063972553154 0.00071439973425152384 0 -6.6583779588913589e-05 -0.011745861884922522 0 0.00010933797729759889 -0.011019615396567121 0 0.00032245348350328466 -0.0098121801863838877 0 0.00067041084726975021 -0.0098568534336994241 0 0.00067362856093445807 -0.010121315177179978 0 0.00032245348350328466 -0.0098121801863838877 0 0.00067041084726975021 -0.0098568534336994241 0 0.00052869177840215986 -0.0096751198623032612 0 0.00067041084726975021 -0.0098568534336994241 0 0.00079111313260364711 -0.0098113924376841653 0 0.00052869177840215986 -0.0096751198623032612 0 0.00068888154663765291 -0.0083330435017438514 0 0.00064550815191910624 -0.0056106460933484847 0 0.00031857136067244809 -0.0068826052132759229 0 0.00071477605032206691 -0.0071183024591154219 0 0.00098088958390896066 -0.0066517728851292627 0 0.00031857136067244809 -0.0068826052132759229 0 0.00071477605032206691 -0.0071183024591154219 0 0.00049178791714862293 -0.0074500426867617139 0 0.00067041084726975021 -0.0098568534336994241 0 0.00079132207252947777 -0.0098120530742401048 0 0.00067362856093445807 -0.010121315177179978 0 0.00031857136067244809 -0.0068826052132759229 0 0.00049178791714862293 -0.0074500426867617139 0 1.8843550570416087e-05 -0.0076597897073688 0 0.00068888154663765291 -0.0083330435017438514 0 0.00010933797729759889 -0.011019615396567121 0 0.00049390274825483152 -0.0088711609053386438 0 0.00068888154663765291 -0.0083330435017438514 0 0.00049178791714862293 -0.0074500426867617139 0 0.00036767368216975737 -0.0079662857785258827 0 1.8843550570416087e-05 -0.0076597897073688 0 0.00061181595259720894 -0.0075807549850654349 0 0.00053806797854455283 -0.008667395930839969 0 0.00071477605032206691 -0.0071183024591154219 0 0.00049178791714862293 -0.0074500426867617139 0 0.0010606413307291214 -0.0074856240601004027 0 0.00049178791714862293 -0.0074500426867617139 0 0.00049956628104050175 -0.008005022294781677 0 0.0010606413307291214 -0.0074856240601004027 0 0.00013754120238672481 -0.006202853745240787 0 0.00028574402692209091 -0.0042014796471096733 0 0.00049178791714862293 -0.0074500426867617139 0 0.00037566173706436089 -0.0078987374446092568 0 0.00049956628104050175 -0.008005022294781677 0 -0.00015258641794117111 -0.012978053029667438 0 -0.00038768026767141466 -0.012798877585189614 0 -0.00020170917444955347 -0.013188446301199105 0 0.00053806797854455283 -0.008667395930839969 0 0.00010933797729759889 -0.011019615396567121 0 0.00018489480898994858 -0.0069443987910346259 0 0.00060250683200403755 -0.0073043302817553503 0 -7.2380398592591098e-05 -0.0079315884788822601 0 0.00053806797854455283 -0.008667395930839969 0 6.6197013060840336e-05 -0.0084915341409933804 0 0.00053806797854455283 -0.008667395930839969 0 0.00013754120238672481 -0.006202853745240787 0 -0.00054378141252095318 -0.013450014012577826 0 -0.0004995670900305566 -0.01356606383346454 0 -0.00055121935924448955 -0.013599050442745918 0 -0.00038768026767141466 -0.012798877585189614 0 -0.00042304384503415681 -0.013419964243078956 0 -0.00058815475773502221 -0.013604280201225586 0 -0.00042304384503415681 -0.013419964243078956 0 -0.00054236545639753571 -0.0137015798587636 0 -0.00026191979689371247 -0.013297154366858953 0 -0.0004995670900305566 -0.01356606383346454 0 -0.00055121935924448955 -0.013599050442745918 0 -0.00058815475773502221 -0.013604280201225586 0 -0.00058424074763648872 -0.013631905865282051 0 -0.00055121935924448955 -0.013599050442745918 0 -0.00058815475773502221 -0.013604280201225586 0 0.00010933797729759889 -0.011019615396567121 0 -0.00085555058200763442 -0.014454594810567316 0 -0.00038768026767141466 -0.012798877585189614 0 -0.00042304384503415681 -0.013419964243078956 0 -0.00020170917444955347 -0.013188446301199105 0 -0.00062327814242182434 -0.013715746762756343 0 -0.00058815475773502221 -0.013604280201225586 0 -0.00054236545639753571 -0.0137015798587636 0 -0.00042304384503415681 -0.013419964243078956 0 -0.00058815475773502221 -0.013604280201225586 0 -0.00054236545639753571 -0.0137015798587636 0 -0.00019970211608956052 -0.0015949556713300162 0 -2.3940566892545084e-06 -0.0015112787678952732 0 -5.4686932568873637e-05 -0.0014279199829924773 0 -1.6725802709878654e-06 -0.001615860156861645 0 -2.3940566892545084e-06 -0.0015112787678952732 0 0.00017592192123438039 -0.0015351471845894329 0 -0.00019970211608956052 -0.0015949556713300162 0 -1.6725802709878654e-06 -0.001615860156861645 0 -2.3940566892545084e-06 -0.0015112787678952732 0 -0.00037260936024922703 -0.0074280003347325539 0 6.6197013060840336e-05 -0.0084915341409933804 0 -2.3940566892545084e-06 -0.0015112787678952732 0 -5.4686932568873637e-05 -0.0014279199829924773 0 8.4344944730757739e-05 -0.0014470528685332721 0 -2.4620676263873562e-05 -0.0014084079985215634 0 -5.4686932568873637e-05 -0.0014279199829924773 0 8.4344944730757739e-05 -0.0014470528685332721 0 -0.0014958997987671043 -0.012472109841325043 0 6.6197013060840336e-05 -0.0084915341409933804 0 0.00013754120238672481 -0.006202853745240787 0 6.6197013060840336e-05 -0.0084915341409933804 0 0.00013754120238672481 -0.006202853745240787 0 -0.00017771812007165563 -0.0013656718900509233 0 0.00020548542503549678 -0.00083644876915852468 0 -0.00013288061765331843 -0.0010048725577074058 0 6.7315851017241813e-05 -0.0011090286321570947 0 -2.3940566892545084e-06 -0.0015112787678952732 0 8.4344944730757739e-05 -0.0014470528685332721 0 0.00017592192123438039 -0.0015351471845894329 0 0.00027831083623501264 -0.0017047341159120253 0 0.00017592192123438039 -0.0015351471845894329 0 0.00052644159711615957 -0.0015224071824601157 0 0.00014031322561879037 -0.001228970664165065 0 0.00017592192123438039 -0.0015351471845894329 0 0.00052644159711615957 -0.0015224071824601157 0 -0.00017771812007165563 -0.0013656718900509233 0 0.0001462334779245077 -0.0015217177483697777 0 0.00020548542503549678 -0.00083644876915852468 0 -0.00022024599833439591 -0.00049630256695933365 0 -0.00014753151512282049 -0.00077538913578048747 0 -0.00017771812007165563 -0.0013656718900509233 0 0.0001971035222739962 -0.00098113348301108027 0 -0.00022024599833439591 -0.00049630256695933365 0 -0.00014753151512282049 -0.00077538913578048747 0 -0.00042468905797892078 -0.00076629512318891107 0 -0.00014753151512282049 -0.00077538913578048747 0 -0.00013288061765331843 -0.0010048725577074058 0 -0.00042468905797892078 -0.00076629512318891107 0 0.00020548542503549678 -0.00083644876915852468 0 -0.00014753151512282049 -0.00077538913578048747 0 -0.00013288061765331843 -0.0010048725577074058 0 -0.00013288061765331843 -0.0010048725577074058 0 -6.3607253222698685e-05 -0.0012779937717321875 0 -0.00037617343143191351 -0.0013038087146310135 0 -0.00013288061765331843 -0.0010048725577074058 0 -6.3607253222698685e-05 -0.0012779937717321875 0 6.7315851017241813e-05 -0.0011090286321570947 0 0.00080618979420400748 -0.0038853809513906931 0 -0.00035662698490577068 -0.0028678321833880095 0 -0.00015429387096556826 -0.0047758618285709204 0 -0.00017771812007165563 -0.0013656718900509233 0 0.00028574402692209091 -0.0042014796471096733 0 0.00020548542503549678 -0.00083644876915852468 0 6.7315851017241813e-05 -0.0011090286321570947 0 0.00026090178849142256 -0.0013177963566357467 0 -6.3607253222698685e-05 -0.0012779937717321875 0 6.7315851017241813e-05 -0.0011090286321570947 0 0.00026090178849142256 -0.0013177963566357467 0 0.00028574402692209091 -0.0042014796471096733 0 0.00064550815191910624 -0.0056106460933484847 0 0.00028574402692209091 -0.0042014796471096733 0 0.00029288253587799547 -0.002593610996107663 0 -6.3607253222698685e-05 -0.0012779937717321875 0 0.00026090178849142256 -0.0013177963566357467 0 -1.851522430432543e-05 -0.0015701366196800941 0 6.7564142795639237e-05 -0.0041428956261227185 0 1.097422665819457e-05 -0.0036079561565260099 0 0.00050261926027056621 -0.0037307638335437742 0 1.097422665819457e-05 -0.0036079561565260099 0 0.00050261926027056621 -0.0037307638335437742 0 0.0005194732724884513 -0.0033971214562130148 0 0.00071477605032206691 -0.0071183024591154219 0 0.0010606413307291214 -0.0074856240601004027 0 0.00098088958390896066 -0.0066517728851292627 0 -6.3607253222698685e-05 -0.0012779937717321875 0 -1.851522430432543e-05 -0.0015701366196800941 0 -0.00037617343143191351 -0.0013038087146310135 0 -1.851522430432543e-05 -0.0015701366196800941 0 -0.00037617343143191351 -0.0013038087146310135 0 -0.00029809176171072033 -0.0018291392138516721 0 0.00029288253587799547 -0.002593610996107663 0 0.00011602380841757173 -0.0016476751779602838 0 -0.00046974521928639149 -0.00047451176298312508 0 0.00011602380841757173 -0.0016476751779602838 0 -0.00043371019996707048 -3.3116402403011018e-05 0 -0.00044115640946089737 4.7292765807427496e-05 0 -0.0003940090650554503 -7.1904043116808946e-05 0 -0.00046871160762911431 1.3865859050432257e-05 0 -0.00043371019996707048 -3.3116402403011018e-05 0 -0.00044115640946089737 4.7292765807427496e-05 0 -0.00046871160762911431 1.3865859050432257e-05 0 -0.00043371019996707048 -3.3116402403011018e-05 0 -0.00044821693896449191 -5.9623494860006408e-05 0 -0.00043287102561966674 0.00026873837994371308 0 -0.00035463131478305867 0.00026870453466285791 0 -0.00036485790540194261 0.00032386381700911609 0 -0.00035463131478305867 0.00026870453466285791 0 -0.00033502207400417267 0.00031036525064518153 0 -0.00036485790540194261 0.00032386381700911609 0 -0.00043287102561966674 0.00026873837994371308 0 -0.00035463131478305867 0.00026870453466285791 0 -0.00037632123483032488 0.00017829207022436591 0 -0.00035463131478305867 0.00026870453466285791 0 -0.00037632123483032488 0.00017829207022436591 0 -0.00031332810223291471 0.00019157625194546953 0 -0.00037632123483032488 0.00017829207022436591 0 -0.00035554208152860112 9.6437637675851154e-05 0 -0.00031332810223291471 0.00019157625194546953 0 -0.00035554208152860112 9.6437637675851154e-05 0 -0.00027920891921894762 5.7541491715867551e-05 0 -0.00031332810223291471 0.00019157625194546953 0 -0.00037632123483032488 0.00017829207022436591 0 -0.00035554208152860112 9.6437637675851154e-05 0 -0.00044860233630122649 4.5200739699875998e-05 0 -0.00046974521928639149 -0.00047451176298312508 0 -0.00043479339712288514 -0.00043722685559905697 0 -0.00046871160762911431 1.3865859050432257e-05 0 -0.00044115640946089737 4.7292765807427496e-05 0 -0.00044860233630122649 4.5200739699875998e-05 0 -0.00049600081467184433 0.00014128537757438075 0 -0.00044337380612781115 5.2224445460674444e-05 0 -0.00043287102561966674 0.00026873837994371308 0 -0.00037632123483032488 0.00017829207022436591 0 -0.00044860233630122649 4.5200739699875998e-05 0 -0.00013288061765331843 -0.0010048725577074058 0 -0.00037617343143191351 -0.0013038087146310135 0 -0.00042468905797892078 -0.00076629512318891107 0 -0.00044115640946089737 4.7292765807427496e-05 0 -0.00044860233630122649 4.5200739699875998e-05 0 -0.00048379091487530686 -1.5781975123752771e-05 0 -0.00044860233630122649 4.5200739699875998e-05 0 -0.00048379091487530686 -1.5781975123752771e-05 0 -0.00035597201078145914 -4.0659049181073002e-06 0 -0.00039181273361394044 -0.00038955126453143731 0 -0.00048379091487530686 -1.5781975123752771e-05 0 -0.00036151291667266852 -0.00022447554730957301 0 -0.00039181273361394044 -0.00038955126453143731 0 -0.00022024599833439591 -0.00049630256695933365 0 -0.00042468905797892078 -0.00076629512318891107 0 -0.00040873246683099717 -0.0003746202023524526 0 -0.00043479339712288514 -0.00043722685559905697 0 -0.00048379091487530686 -1.5781975123752771e-05 0 -0.00036151291667266852 -0.00022447554730957301 0 -0.00031057761236669823 -0.00016577525019099122 0 -0.00028576202922195402 -0.00029821861270030054 0 -0.00031057761236669823 -0.00016577525019099122 0 -0.00016617904361601414 -0.0002461609038172927 0 -0.00028576202922195402 -0.00029821861270030054 0 -0.00036151291667266852 -0.00022447554730957301 0 -0.00031057761236669823 -0.00016577525019099122 0 -0.00031057761236669823 -0.00016577525019099122 0 -0.00024352338522832051 -9.31439111389154e-05 0 -0.00035597201078145914 -4.0659049181073002e-06 0 -0.00031057761236669823 -0.00016577525019099122 0 -0.00024352338522832051 -9.31439111389154e-05 0 -0.00016617904361601414 -0.0002461609038172927 0 -0.00024352338522832051 -9.31439111389154e-05 0 -0.00035597201078145914 -4.0659049181073002e-06 0 -0.00027920891921894762 5.7541491715867551e-05 0 -0.00048379091487530686 -1.5781975123752771e-05 0 -0.00031057761236669823 -0.00016577525019099122 0 -0.00035597201078145914 -4.0659049181073002e-06 0 -0.00035554208152860112 9.6437637675851154e-05 0 -0.00044860233630122649 4.5200739699875998e-05 0 -0.00035597201078145914 -4.0659049181073002e-06 0 -0.00035554208152860112 9.6437637675851154e-05 0 -0.00035597201078145914 -4.0659049181073002e-06 0 -0.00027920891921894762 5.7541491715867551e-05 0 -0.00024352338522832051 -9.31439111389154e-05 0 -0.00027920891921894762 5.7541491715867551e-05 0 -0.00015008738046822133 -3.7826057204420718e-05 0 -0.00027920891921894762 5.7541491715867551e-05 0 -0.00015008738046822133 -3.7826057204420718e-05 0 -0.00020407560766863418 0.00021279789113653848 0 -1.2500359331990304e-05 -0.00029797887578926675 0 -0.00012445439229816533 -0.00018382704006317987 0 -0.00016617904361601414 -0.0002461609038172927 0 -0.00024352338522832051 -9.31439111389154e-05 0 -0.00012445439229816533 -0.00018382704006317987 0 -0.00015008738046822133 -3.7826057204420718e-05 0 -0.00024352338522832051 -9.31439111389154e-05 0 -0.00012445439229816533 -0.00018382704006317987 0 -0.00016617904361601414 -0.0002461609038172927 0 -1.2500359331990304e-05 -0.00029797887578926675 0 5.7018110365810832e-06 -0.00022855439127828119 0 -4.7920441175155804e-05 -0.00018257865671246688 0 -1.2500359331990304e-05 -0.00029797887578926675 0 -0.00012445439229816533 -0.00018382704006317987 0 -4.7920441175155804e-05 -0.00018257865671246688 0 -0.00012445439229816533 -0.00018382704006317987 0 -4.7920441175155804e-05 -0.00018257865671246688 0 -0.00015008738046822133 -3.7826057204420718e-05 0 3.742212059605759e-05 -9.4655340626589131e-05 0 -4.7920441175155804e-05 -0.00018257865671246688 0 -0.00015008738046822133 -3.7826057204420718e-05 0 -0.00016527178293595528 0.00012466347992570146 0 -0.00020749664422295777 0.00020666329911092662 0 3.742212059605759e-05 -9.4655340626589131e-05 0 -0.00015008738046822133 -3.7826057204420718e-05 0 -0.00020407560766863418 0.00021279789113653848 0 -0.00031497759544649775 0.00029235537925929747 0 -0.00020407560766863418 0.00021279789113653848 0 -0.0003046627787517259 0.00031028144017473562 0 -0.00034451832603379603 0.00034454093336697237 0 -0.00031497759544649775 0.00029235537925929747 0 -0.00020407560766863418 0.00021279789113653848 0 -0.00020407560766863418 0.00021279789113653848 0 -0.00031332810223291471 0.00019157625194546953 0 -0.00030369287497506272 0.0002734392469058863 0 -0.00027920891921894762 5.7541491715867551e-05 0 -0.00020407560766863418 0.00021279789113653848 0 -0.00031332810223291471 0.00019157625194546953 0 -0.00020407560766863418 0.00021279789113653848 0 -0.00030369287497506272 0.0002734392469058863 0 -0.00028350798116264723 0.00029515750773367937 0 -0.00035463131478305867 0.00026870453466285791 0 -0.00031332810223291471 0.00019157625194546953 0 -0.00030369287497506272 0.0002734392469058863 0 -0.00030369287497506272 0.0002734392469058863 0 -0.00033502207400417267 0.00031036525064518153 0 -0.00031159430486980052 0.00031983719813877335 0 -0.00035463131478305867 0.00026870453466285791 0 -0.00030369287497506272 0.0002734392469058863 0 -0.00033502207400417267 0.00031036525064518153 0 -0.00030369287497506272 0.0002734392469058863 0 -0.00031159430486980052 0.00031983719813877335 0 -0.00028350798116264723 0.00029515750773367937 0 -0.0003046627787517259 0.00031028144017473562 0 -0.00028350798116264723 0.00029515750773367937 0 -0.00030941025849820817 0.00033376928204562436 0 -0.00020407560766863418 0.00021279789113653848 0 -0.0003046627787517259 0.00031028144017473562 0 -0.00028350798116264723 0.00029515750773367937 0 -0.00031159430486980052 0.00031983719813877335 0 -0.00028350798116264723 0.00029515750773367937 0 -0.00030941025849820817 0.00033376928204562436 0 -0.0003046627787517259 0.00031028144017473562 0 -0.00032798171070829774 0.00035472700061927692 0 -0.00030941025849820817 0.00033376928204562436 0 -0.00032537583707748305 0.00036119606932365585 0 -0.00032178837062308359 0.00035282559211453061 0 -0.00032703288908338205 0.00036688748489325563 0 -0.00032537583707748305 0.00036119606932365585 0 -0.00033540006361803762 0.00037249779866338814 0 -0.00032703288908338205 0.00036688748489325563 0 -0.00032537583707748305 0.00036119606932365585 0 -0.00034212738791741982 0.00037583682916128894 0 -0.00033540006361803762 0.00037249779866338814 0 -0.00032537583707748305 0.00036119606932365585 0 -0.00034212738791741982 0.00037583682916128894 0 -0.00032798171070829774 0.00035472700061927692 0 -0.00032537583707748305 0.00036119606932365585 0 -0.00032798171070829774 0.00035472700061927692 0 -0.00030941025849820817 0.00033376928204562436 0 -0.00032537583707748305 0.00036119606932365585 0 -0.00030941025849820817 0.00033376928204562436 0 -0.00032178837062308359 0.00035282559211453061 0 -0.00031159430486980052 0.00031983719813877335 0 -0.00033288855922215837 0.00033753041646760216 0 -0.00032178837062308359 0.00035282559211453061 0 -0.00031159430486980052 0.00031983719813877335 0 -0.00030941025849820817 0.00033376928204562436 0 -0.00032178837062308359 0.00035282559211453061 0 -0.00033502207400417267 0.00031036525064518153 0 -0.00031159430486980052 0.00031983719813877335 0 -0.00033288855922215837 0.00033753041646760216 0 -0.00033245461940406595 0.00035613453322651999 0 -0.00034281655112353984 0.00036090439350363869 0 -0.00032484998226238259 0.00036507150760132335 0 -0.00033288855922215837 0.00033753041646760216 0 -0.00033245461940406595 0.00035613453322651999 0 -0.00032178837062308359 0.00035282559211453061 0 -0.00033288855922215837 0.00033753041646760216 0 -0.00033245461940406595 0.00035613453322651999 0 -0.00035198710220148372 0.00035272742290799405 0 -0.00033245461940406595 0.00035613453322651999 0 -0.00034281655112353984 0.00036090439350363869 0 -0.00035198710220148372 0.00035272742290799405 0 -0.00033245461940406595 0.00035613453322651999 0 -0.00032178837062308359 0.00035282559211453061 0 -0.00032484998226238259 0.00036507150760132335 0 -0.00032178837062308359 0.00035282559211453061 0 -0.00032484998226238259 0.00036507150760132335 0 -0.00032703288908338205 0.00036688748489325563 0 -0.00032642071721301625 0.00036911469483886985 0 -0.00032153660866501008 0.00037075611363178283 0 -0.00033112010351485951 0.00037088245651415249 0 -4.4897172306020032e-05 0.00044587034015303932 0 -7.0946234306735819e-05 0.00041281755549900547 0 0.00025735153497244797 0.00050220958836300848 0 -0.00032642071721301625 0.00036911469483886985 0 -0.00032484998226238259 0.00036507150760132335 0 -0.00032703288908338205 0.00036688748489325563 0 -0.00032642071721301625 0.00036911469483886985 0 -0.00033112010351485951 0.00037088245651415249 0 -0.00032703288908338205 0.00036688748489325563 0 -0.00032642071721301625 0.00036911469483886985 0 -0.00032484998226238259 0.00036507150760132335 0 -0.00032153660866501008 0.00037075611363178283 0 -0.00034281655112353984 0.00036090439350363869 0 -0.00032484998226238259 0.00036507150760132335 0 -0.00032153660866501008 0.00037075611363178283 0 0.00056798816035790844 0.00021378187410663516 0 0.00038499052604124234 0.00038387926825067753 0 0.00084244219939242748 0.00035700648831804566 0 0.00056798816035790844 0.00021378187410663516 0 0.0007360311515717166 -3.5886410624583091e-05 0 0.00084244219939242748 0.00035700648831804566 0 0.00038499052604124234 0.00038387926825067753 0 0.00027139018170387329 0.0002797411568688434 0 5.3554819909415233e-05 0.00028835204829490781 0 0.00056798816035790844 0.00021378187410663516 0 0.00038499052604124234 0.00038387926825067753 0 0.00039176227428664833 0.0002366232667614858 0 0.00056798816035790844 0.00021378187410663516 0 0.00039176227428664833 0.0002366232667614858 0 0.00049215174841908357 8.8564195548959445e-05 0 0.00038499052604124234 0.00038387926825067753 0 0.00039176227428664833 0.0002366232667614858 0 0.00027139018170387329 0.0002797411568688434 0 0.00039176227428664833 0.0002366232667614858 0 0.00025371837148279212 0.00021119969228522377 0 0.00027139018170387329 0.0002797411568688434 0 -0.00035713804967333479 0.00037019621246706552 0 -4.4897172306020032e-05 0.00044587034015303932 0 -7.0946234306735819e-05 0.00041281755549900547 0 -0.00033405112193657415 0.0003624380657778069 0 -0.00022431972420555707 0.00044776606406517043 0 -0.00041489728133917169 0.00028247351002249645 0 0.00021098755041453778 0.00048896846038204195 0 0.00025371837148279212 0.00021119969228522377 0 0.00027139018170387329 0.0002797411568688434 0 5.3554819909415233e-05 0.00028835204829490781 0 -0.0004081040306022562 0.00032466568051002672 0 0.00038499052604124234 0.00038387926825067753 0 5.3554819909415233e-05 0.00028835204829490781 0 -0.00035713804967333479 0.00037019621246706552 0 -0.0004081040306022562 0.00032466568051002672 0 -7.0946234306735819e-05 0.00041281755549900547 0 -0.00035713804967333479 0.00037019621246706552 0 -0.00032153660866501008 0.00037075611363178283 0 -0.00033933561758696276 0.00037251630901887021 0 -0.00032153660866501008 0.00037075611363178283 0 -0.00033112010351485951 0.00037088245651415249 0 -0.00033933561758696276 0.00037251630901887021 0 -0.00033112010351485951 0.00037088245651415249 0 -0.00033933561758696276 0.00037251630901887021 0 -0.00033540006361803762 0.00037249779866338814 0 -0.00033112010351485951 0.00037088245651415249 0 -0.00033540006361803762 0.00037249779866338814 0 -0.00032703288908338205 0.00036688748489325563 0 -0.00034212738791741982 0.00037583682916128894 0 -0.00033540006361803762 0.00037249779866338814 0 -0.00035114075499730632 0.00038193276098704983 0 -0.00033933561758696276 0.00037251630901887021 0 -0.00033540006361803762 0.00037249779866338814 0 -0.00035114075499730632 0.00038193276098704983 0 -0.00035713804967333479 0.00037019621246706552 0 -0.00033933561758696276 0.00037251630901887021 0 -0.00035114075499730632 0.00038193276098704983 0 5.3554819909415233e-05 0.00028835204829490781 0 -0.00029358223339828954 0.00023836678044049595 0 -4.435919109312065e-05 9.3207278626956526e-05 0 -0.0004081040306022562 0.00032466568051002672 0 5.3554819909415233e-05 0.00028835204829490781 0 -0.00029358223339828954 0.00023836678044049595 0 -0.00029358223339828954 0.00023836678044049595 0 -4.435919109312065e-05 9.3207278626956526e-05 0 -0.00019060832891052145 -4.0847329724969242e-05 0 0.00025371837148279212 0.00021119969228522377 0 5.3554819909415233e-05 0.00028835204829490781 0 0.00018207046400224618 5.1781854957102562e-05 0 5.3554819909415233e-05 0.00028835204829490781 0 -4.435919109312065e-05 9.3207278626956526e-05 0 0.00018207046400224618 5.1781854957102562e-05 0 -4.435919109312065e-05 9.3207278626956526e-05 0 0.00018207046400224618 5.1781854957102562e-05 0 6.5828453817846075e-05 -4.7281697529507539e-05 0 0.00018207046400224618 5.1781854957102562e-05 0 0.00016916447024760666 -0.0001848593182804348 0 6.5828453817846075e-05 -4.7281697529507539e-05 0 -4.435919109312065e-05 9.3207278626956526e-05 0 6.5828453817846075e-05 -4.7281697529507539e-05 0 -6.7609931034191782e-05 -0.00017903739365479778 0 0.00016916447024760666 -0.0001848593182804348 0 6.5828453817846075e-05 -4.7281697529507539e-05 0 -6.7609931034191782e-05 -0.00017903739365479778 0 0.00016916447024760666 -0.0001848593182804348 0 -6.7609931034191782e-05 -0.00017903739365479778 0 -5.6512619492833629e-05 -0.00047141158177208643 0 -0.0003783763153130061 -0.00032919182215924937 0 -6.7609931034191782e-05 -0.00017903739365479778 0 -5.6512619492833629e-05 -0.00047141158177208643 0 -0.0003783763153130061 -0.00032919182215924937 0 -0.00029358223339828954 0.00023836678044049595 0 -0.00019060832891052145 -4.0847329724969242e-05 0 -0.0003783763153130061 -0.00032919182215924937 0 -0.00019060832891052145 -4.0847329724969242e-05 0 -6.7609931034191782e-05 -0.00017903739365479778 0 -4.435919109312065e-05 9.3207278626956526e-05 0 -0.00019060832891052145 -4.0847329724969242e-05 0 -6.7609931034191782e-05 -0.00017903739365479778 0 -0.00036521585666553485 -0.00072341274876827708 0 -5.6512619492833629e-05 -0.00047141158177208643 0 3.1756594282080291e-05 -0.00076962052231885347 0 -0.0003783763153130061 -0.00032919182215924937 0 -0.00036521585666553485 -0.00072341274876827708 0 -5.6512619492833629e-05 -0.00047141158177208643 0 0.00016916447024760666 -0.0001848593182804348 0 -5.6512619492833629e-05 -0.00047141158177208643 0 0.00020828895711869774 -0.00044397211797637964 0 0.00020828895711869774 -0.00044397211797637964 0 3.1756594282080291e-05 -0.00076962052231885347 0 0.00043973725747615069 -0.00061096622293686917 0 -5.6512619492833629e-05 -0.00047141158177208643 0 0.00020828895711869774 -0.00044397211797637964 0 3.1756594282080291e-05 -0.00076962052231885347 0 3.1756594282080291e-05 -0.00076962052231885347 0 0.0003014100077559337 -0.00087889286834651637 0 -3.7047154731806794e-05 -0.0012567486619964891 0 -0.00036521585666553485 -0.00072341274876827708 0 3.1756594282080291e-05 -0.00076962052231885347 0 -0.0003183385207785044 -0.0011031735201104029 0 0.00043973725747615069 -0.00061096622293686917 0 0.00073451847411478018 -0.00046569751008634783 0 0.00074717620055411087 -0.0009220357363432768 0 3.1756594282080291e-05 -0.00076962052231885347 0 0.0003014100077559337 -0.00087889286834651637 0 0.00043973725747615069 -0.00061096622293686917 0 0.0003014100077559337 -0.00087889286834651637 0 0.00043973725747615069 -0.00061096622293686917 0 0.00074717620055411087 -0.0009220357363432768 0 0.00020828895711869774 -0.00044397211797637964 0 0.00043973725747615069 -0.00061096622293686917 0 0.00041023077205937431 -0.00017955043263613942 0 0.00043973725747615069 -0.00061096622293686917 0 0.00073451847411478018 -0.00046569751008634783 0 0.00041023077205937431 -0.00017955043263613942 0 0.00073451847411478018 -0.00046569751008634783 0 0.00041023077205937431 -0.00017955043263613942 0 0.0007360311515717166 -3.5886410624583091e-05 0 0.00016916447024760666 -0.0001848593182804348 0 0.00020828895711869774 -0.00044397211797637964 0 0.00041023077205937431 -0.00017955043263613942 0 0.00018207046400224618 5.1781854957102562e-05 0 0.00016916447024760666 -0.0001848593182804348 0 0.00041023077205937431 -0.00017955043263613942 0 0.00041023077205937431 -0.00017955043263613942 0 0.00049215174841908357 8.8564195548959445e-05 0 0.00032984913469140994 9.6566594649710925e-05 0 0.00018207046400224618 5.1781854957102562e-05 0 0.00041023077205937431 -0.00017955043263613942 0 0.00032984913469140994 9.6566594649710925e-05 0 0.00039176227428664833 0.0002366232667614858 0 0.00049215174841908357 8.8564195548959445e-05 0 0.00032984913469140994 9.6566594649710925e-05 0 0.00025371837148279212 0.00021119969228522377 0 0.00018207046400224618 5.1781854957102562e-05 0 0.00032984913469140994 9.6566594649710925e-05 0 0.00039176227428664833 0.0002366232667614858 0 0.00025371837148279212 0.00021119969228522377 0 0.00032984913469140994 9.6566594649710925e-05 0 0.00041023077205937431 -0.00017955043263613942 0 0.00049215174841908357 8.8564195548959445e-05 0 0.0007360311515717166 -3.5886410624583091e-05 0 0.00056798816035790844 0.00021378187410663516 0 0.00049215174841908357 8.8564195548959445e-05 0 0.0007360311515717166 -3.5886410624583091e-05 0 0.0007360311515717166 -3.5886410624583091e-05 0 0.0011759913916442831 -0.00037296569283115183 0 0.0012699822668664315 0.00044888727771902765 0 0.0012061690683522525 -0.00036019015520087416 0 0.001130970005205079 0.00014040652068839313 0 0.00073451847411478018 -0.00046569751008634783 0 0.0007360311515717166 -3.5886410624583091e-05 0 0.0011759913916442831 -0.00037296569283115183 0 0.00073451847411478018 -0.00046569751008634783 0 0.0011759913916442831 -0.00037296569283115183 0 0.00099223188184937206 -0.00059684900224966887 0 0.00099223188184937206 -0.00059684900224966887 0 0.0012690505930705055 -0.00063454449765747004 0 0.00074717620055411087 -0.0009220357363432768 0 0.0011329753375152447 -0.00079751156234888088 0 0.00052502192398025339 -0.0011068470451584453 0 0.0008199984933040898 -0.0012114628407582384 0 0.00074816599372849832 -0.001335146312781424 0 0.00041071979042174876 -0.0012603167905834119 0 0.0011759913916442831 -0.00037296569283115183 0 0.00099223188184937206 -0.00059684900224966887 0 0.0012690505930705055 -0.00063454449765747004 0 0.00073451847411478018 -0.00046569751008634783 0 0.00099223188184937206 -0.00059684900224966887 0 0.00074717620055411087 -0.0009220357363432768 0 0.0012690505930705055 -0.00063454449765747004 0 0.0013360253680096109 -0.00043819814241429758 0 0.0014708497293171837 -0.00051626331628740619 0 0.0011968100611021006 -0.0029930544490527461 0 0.00082926850694194012 -0.0011231507751516304 0 0.0008199984933040898 -0.0012114628407582384 0 0.0011995174433876534 -0.0012954082599495127 0 0.00074816599372849832 -0.001335146312781424 0 0.0011329753375152447 -0.00079751156234888088 0 0.0011274040420571386 -0.0025600145560049411 0 0.0011759913916442831 -0.00037296569283115183 0 0.0012690505930705055 -0.00063454449765747004 0 0.0013360253680096109 -0.00043819814241429758 0 0.0011759913916442831 -0.00037296569283115183 0 0.0012953383173164358 -0.00032444764831359899 0 0.0012507574110901237 -0.00026388154910867481 0 0.0011759913916442831 -0.00037296569283115183 0 0.0013360253680096109 -0.00043819814241429758 0 0.0012953383173164358 -0.00032444764831359899 0 0.0013360253680096109 -0.00043819814241429758 0 0.0012953383173164358 -0.00032444764831359899 0 0.0013962130650100419 -0.00031621751121976843 0 0.0012953383173164358 -0.00032444764831359899 0 0.0013230069569484851 -0.00026180878049797255 0 0.0013962130650100419 -0.00031621751121976843 0 0.0010972058028181643 -6.7182244532854138e-05 0 0.0010639822269176643 -0.00040067298525446376 0 0.00053084757261646041 -0.00059886609032351677 0 0.001130970005205079 0.00014040652068839313 0 0.00074492450109048746 -0.0010279939647525951 0 0.0013230069569484851 -0.00026180878049797255 0 0.0012507574110901237 -0.00026388154910867481 0 0.0013243408806060441 -0.00021182817264003766 0 0.0012953383173164358 -0.00032444764831359899 0 0.0013230069569484851 -0.00026180878049797255 0 0.0012507574110901237 -0.00026388154910867481 0 -0.00034281655112353984 0.00036090439350363869 0 -0.00032153660866501008 0.00037075611363178283 0 -0.00039555682582291003 0.00036663940210039078 0 -0.00022431972420555707 0.00044776606406517043 0 0.00015597396481121357 5.9981029048806933e-05 0 0.00021098755041453778 0.00048896846038204195 0 0.00054899568940440437 7.9401429934585513e-05 0 0.00038499052604124234 0.00038387926825067753 0 0.00084244219939242748 0.00035700648831804566 0 0.0012582023961454456 0.00070046368807165024 0 -4.4897172306020032e-05 0.00044587034015303932 0 0.00025735153497244797 0.00050220958836300848 0 0.00025952000145058505 0.00052218931391668263 0 0.0007360311515717166 -3.5886410624583091e-05 0 0.00084244219939242748 0.00035700648831804566 0 0.0012334752896579044 0.00045028745769320854 0 0.00084763262703110354 9.1192740851369689e-05 0 0.001130970005205079 0.00014040652068839313 0 0.00084244219939242748 0.00035700648831804566 0 0.0012334752896579044 0.00045028745769320854 0 0.0012582023961454456 0.00070046368807165024 0 0.001130970005205079 0.00014040652068839313 0 0.00054899568940440437 7.9401429934585513e-05 0 -0.00039555682582291003 0.00036663940210039078 0 -0.00035198710220148372 0.00035272742290799405 0 -0.00036485790540194261 0.00032386381700911609 0 -0.00043287102561966674 0.00026873837994371308 0 -0.00039555682582291003 0.00036663940210039078 0 -0.00036485790540194261 0.00032386381700911609 0 -0.00034281655112353984 0.00036090439350363869 0 -0.00039555682582291003 0.00036663940210039078 0 -0.00035198710220148372 0.00035272742290799405 0 0.00054899568940440437 7.9401429934585513e-05 0 0.00015597396481121357 5.9981029048806933e-05 0 -0.00033288855922215837 0.00033753041646760216 0 -0.00035198710220148372 0.00035272742290799405 0 -0.00036485790540194261 0.00032386381700911609 0 -0.00033502207400417267 0.00031036525064518153 0 -0.00033288855922215837 0.00033753041646760216 0 -0.00036485790540194261 0.00032386381700911609 0 -0.00046871160762911431 1.3865859050432257e-05 0 -0.00047977904683730601 -0.00010787316382227191 0 -0.00044821693896449191 -5.9623494860006408e-05 0 -0.00049600081467184433 0.00014128537757438075 0 0.00015597396481121357 5.9981029048806933e-05 0 -0.00043371019996707048 -3.3116402403011018e-05 0 -0.00040630655586072658 -8.3870607943628214e-05 0 -0.0003940090650554503 -7.1904043116808946e-05 0 -0.00043371019996707048 -3.3116402403011018e-05 0 -0.00044821693896449191 -5.9623494860006408e-05 0 -0.00040630655586072658 -8.3870607943628214e-05 0 0.00027374312761901557 -0.0014638323497486937 0 0.00011602380841757173 -0.0016476751779602838 0 0.0006246151384141737 -0.00060279915761372838 0 0.00030965873353170595 -0.00068614238376326925 0 0.00024844204325403488 -0.00074633613218330749 0 0.0013230069569484851 -0.00026180878049797255 0 0.0013243408806060441 -0.00021182817264003766 0 0.001347341906075222 -0.00020419299224714481 0 0.00074492450109048746 -0.0010279939647525951 0 0.00043583454694400876 -0.0021415522656321809 0 0.00067745967735700929 -0.001564565740314953 0 0.0005010571461712104 -0.0017302653968764741 0 0.00029466202767707093 -0.0017075430555083329 0 0.00027374312761901557 -0.0014638323497486937 0 0.00043583454694400876 -0.0021415522656321809 0 0.00074492450109048746 -0.0010279939647525951 0 0.00027374312761901557 -0.0014638323497486937 0 -0.00047977904683730601 -0.00010787316382227191 0 -0.00044821693896449191 -5.9623494860006408e-05 0 -0.00040630655586072658 -8.3870607943628214e-05 0 0.00015597396481121357 5.9981029048806933e-05 0 0.00027374312761901557 -0.0014638323497486937 0 0.00054899568940440437 7.9401429934585513e-05 0 0.00074492450109048746 -0.0010279939647525951 0 0.00062902873500282435 -0.00055705581643367315 0 0.0006246151384141737 -0.00060279915761372838 0 0.00030965873353170595 -0.00068614238376326925 0 0.00083792980383733345 -0.0047851047292071167 0 0.00067876085353147037 -0.0048603085064783816 0 0.00067415510919248119 -0.0046669468159733028 0 0.00043583454694400876 -0.0021415522656321809 0 0.0005349612779084387 -0.0039894040544017403 0 0.00050261926027056621 -0.0037307638335437742 0 0.00092804595990572962 -0.0032266590108719186 0 0.00093999978989323021 -0.003308687741644572 0 0.00043583454694400876 -0.0021415522656321809 0 0.00011602380841757173 -0.0016476751779602838 0 0.00024268999405789078 -0.0015188231624074576 0 -0.00010327831419240302 -0.0014785076657526464 0 -5.7826359523065044e-05 -0.0017978678146579206 0 0.00050261926027056621 -0.0037307638335437742 0 0.00092804595990572962 -0.0032266590108719186 0 0.0005194732724884513 -0.0033971214562130148 0 0.0004789259701583857 -0.0049499468154897055 0 0.00067876085353147037 -0.0048603085064783816 0 0.00044628708643277767 -0.0046552888402260325 0 0.00067876085353147037 -0.0048603085064783816 0 0.00067415510919248119 -0.0046669468159733028 0 0.00044628708643277767 -0.0046552888402260325 0 0.00064550815191910624 -0.0056106460933484847 0 0.0005349612779084387 -0.0039894040544017403 0 0.00064550815191910624 -0.0056106460933484847 0 0.00079310683539709527 -0.0075099130114626069 0 0.00067415510919248119 -0.0046669468159733028 0 0.00065156493229091817 -0.0044822994704885877 0 0.00044628708643277767 -0.0046552888402260325 0 0.0013230069569484851 -0.00026180878049797255 0 0.001347341906075222 -0.00020419299224714481 0 0.0013962130650100419 -0.00031621751121976843 0 0.00067415510919248119 -0.0046669468159733028 0 0.0008026851582518137 -0.004520768697325683 0 0.00065156493229091817 -0.0044822994704885877 0 0.00083792980383733345 -0.0047851047292071167 0 0.00067415510919248119 -0.0046669468159733028 0 0.0008026851582518137 -0.004520768697325683 0 0.00043583454694400876 -0.0021415522656321809 0 0.0011483664432402408 -0.0024676914432140151 0 0.00076772549464038098 -0.0042466993262772626 0 0.00056915899841384493 -0.0043173084427572152 0 0.00065156493229091817 -0.0044822994704885877 0 0.0008026851582518137 -0.004520768697325683 0 0.00076772549464038098 -0.0042466993262772626 0 0.00065156493229091817 -0.0044822994704885877 0 0.0011483664432402408 -0.0024676914432140151 0 0.0011274040420571386 -0.0025600145560049411 0 0.0013360253680096109 -0.00043819814241429758 0 0.0013962130650100419 -0.00031621751121976843 0 0.0014708497293171837 -0.00051626331628740619 0 0.0008199984933040898 -0.0012114628407582384 0 0.0011758614704868863 -0.0011362591402946176 0 0.0011995174433876534 -0.0012954082599495127 0 0.0011274040420571386 -0.0025600145560049411 0 0.00073132648764294092 -0.0061589707487019283 0 0.0011274040420571386 -0.0025600145560049411 0 0.0011968100611021006 -0.0029930544490527461 0 0.0011968100611021006 -0.0029930544490527461 0 0.00067976965722405219 -0.0068240479559933086 0 0.0011204524977215969 -0.0048129595292700804 0 0.0010587447014304531 -0.0043846277813889886 0 0.00062661917141730692 -0.0044575310362470269 0 0.00067976965722405219 -0.0068240479559933086 0 0.00043168479526307577 -0.0086902155465387911 0 0.001251273551511646 -0.0084730296126310639 0 0.0011226622039245794 -0.008728404463595513 0 0.00075681293728672885 -0.008572493381272403 0 0.0011204524977215969 -0.0048129595292700804 0 0.00062661917141730692 -0.0044575310362470269 0 0.00041072653148709667 -0.0050299183805145456 0 0.001251273551511646 -0.0084730296126310639 0 0.0011226622039245794 -0.008728404463595513 0 0.0011655038488980998 -0.0087138032173733043 0 0.00067976965722405219 -0.0068240479559933086 0 0.00073132648764294092 -0.0061589707487019283 0 0.0011226622039245794 -0.008728404463595513 0 0.0011600561004760119 -0.008716042717688265 0 0.00098241278347959522 -0.0091350280186567549 0 0.00073132648764294092 -0.0061589707487019283 0 0.00079310683539709527 -0.0075099130114626069 0 0.00056915899841384493 -0.0043173084427572152 0 0.00065156493229091817 -0.0044822994704885877 0 0.00044628708643277767 -0.0046552888402260325 0 0.0011226622039245794 -0.008728404463595513 0 0.00096217647352400378 -0.008871191243752935 0 0.00098241278347959522 -0.0091350280186567549 0 0.00070999320361562123 -0.0063041549137163302 0 0.00073132648764294092 -0.0061589707487019283 0 0.00096217647352400378 -0.008871191243752935 0 0.00063142804370855193 -0.0088455930566511028 0 0.0007530189691278724 -0.0090703565702985618 0 0.00096217647352400378 -0.008871191243752935 0 0.00075681293728672885 -0.008572493381272403 0 0.00063142804370855193 -0.0088455930566511028 0 0.0011226622039245794 -0.008728404463595513 0 0.00096217647352400378 -0.008871191243752935 0 0.00075681293728672885 -0.008572493381272403 0 0.00014170933297484586 -0.008471441305539144 0 0.00043168479526307577 -0.0086902155465387911 0 -3.6709434545027811e-06 -0.0084271140830453131 0 0.00012721462519813548 -0.0084043608697761153 0 8.8367103319673756e-05 -0.0083119661568839091 0 0.00024065999709889984 -0.0086852668542988266 0 0.00075681293728672885 -0.008572493381272403 0 0.00063142804370855193 -0.0088455930566511028 0 0.00024065999709889984 -0.0086852668542988266 0 0.00063142804370855193 -0.0088455930566511028 0 0.00044691726943196569 -0.0090316143030212143 0 0.00063142804370855193 -0.0088455930566511028 0 0.00044691726943196569 -0.0090316143030212143 0 0.0007530189691278724 -0.0090703565702985618 0 0.0002235523579783446 -0.0092620314073102103 0 0.00044691726943196569 -0.0090316143030212143 0 0.00059372758940386366 -0.0093649742302168715 0 0.00044691726943196569 -0.0090316143030212143 0 0.0007530189691278724 -0.0090703565702985618 0 0.00059372758940386366 -0.0093649742302168715 0 0.00096217647352400378 -0.008871191243752935 0 0.0007530189691278724 -0.0090703565702985618 0 0.0010069822195959818 -0.0092368206300937165 0 0.0010239969880461461 -0.009464275027370574 0 0.00079310683539709527 -0.0075099130114626069 0 0.0007530189691278724 -0.0090703565702985618 0 0.0010069822195959818 -0.0092368206300937165 0 0.00059372758940386366 -0.0093649742302168715 0 0.00079111313260364711 -0.0098113924376841653 0 0.0010069822195959818 -0.0092368206300937165 0 0.00059372758940386366 -0.0093649742302168715 0 0.00076758865400265686 -0.0072274593904612392 0 0.00076119180572148046 -0.0072250928294094185 0 0.00076533541896464826 -0.00724220720382292 0 0.00068888154663765291 -0.0083330435017438514 0 0.00079310683539709527 -0.0075099130114626069 0 0.00079111313260364711 -0.0098113924376841653 0 0.00052869177840215986 -0.0096751198623032612 0 0.00059372758940386366 -0.0093649742302168715 0 0.00032866374917233851 -0.0095257769513248935 0 0.00032245348350328466 -0.0098121801863838877 0 0.00052869177840215986 -0.0096751198623032612 0 0.00032866374917233851 -0.0095257769513248935 0 0.00052869177840215986 -0.0096751198623032612 0 0.00059372758940386366 -0.0093649742302168715 0 -3.7393862668184851e-05 -0.0081142628046978488 0 7.3923584715305569e-05 -0.008143286663906615 0 0.00013211053070920649 -0.0079933362176715563 0 7.3923584715305569e-05 -0.008143286663906615 0 0.0001498717584378397 -0.0081488428520832719 0 0.00013211053070920649 -0.0079933362176715563 0 8.4603661101182251e-06 -0.0081908233142994179 0 -3.7393862668184851e-05 -0.0081142628046978488 0 7.3923584715305569e-05 -0.008143286663906615 0 0.00020355801872310079 -0.00809100671417653 0 0.0001498717584378397 -0.0081488428520832719 0 0.00013211053070920649 -0.0079933362176715563 0 2.4642356733096614e-05 -0.0076623119977997358 0 -1.001199304902714e-05 -0.0076273919942380884 0 0.0001498717584378397 -0.0081488428520832719 0 0.00016566132100596855 -0.0082277289272833405 0 0.0002092727551249855 -0.0081676524807129374 0 0.0001498717584378397 -0.0081488428520832719 0 8.2387992257680517e-05 -0.0082152327602448769 0 0.00016566132100596855 -0.0082277289272833405 0 0.00020355801872310079 -0.00809100671417653 0 0.0001498717584378397 -0.0081488428520832719 0 0.0002092727551249855 -0.0081676524807129374 0 7.3923584715305569e-05 -0.008143286663906615 0 0.0001498717584378397 -0.0081488428520832719 0 8.2387992257680517e-05 -0.0082152327602448769 0 8.4603661101182251e-06 -0.0081908233142994179 0 7.3923584715305569e-05 -0.008143286663906615 0 8.2387992257680517e-05 -0.0082152327602448769 0 -3.4458546147879857e-06 -0.0082559824515364751 0 8.4603661101182251e-06 -0.0081908233142994179 0 8.2387992257680517e-05 -0.0082152327602448769 0 -3.4458546147879857e-06 -0.0082559824515364751 0 8.2387992257680517e-05 -0.0082152327602448769 0 8.8367103319673756e-05 -0.0083119661568839091 0 0.00012721462519813548 -0.0084043608697761153 0 8.8367103319673756e-05 -0.0083119661568839091 0 0.00020015086605036457 -0.0082978449069023748 0 8.8367103319673756e-05 -0.0083119661568839091 0 0.00016566132100596855 -0.0082277289272833405 0 0.00020015086605036457 -0.0082978449069023748 0 8.2387992257680517e-05 -0.0082152327602448769 0 8.8367103319673756e-05 -0.0083119661568839091 0 0.00016566132100596855 -0.0082277289272833405 0 0.00023241076199854039 -0.0082200441381116811 0 0.00020015086605036457 -0.0082978449069023748 0 0.00030062101198747568 -0.0082653726778405979 0 0.00016566132100596855 -0.0082277289272833405 0 0.00023241076199854039 -0.0082200441381116811 0 0.00020015086605036457 -0.0082978449069023748 0 0.00023241076199854039 -0.0082200441381116811 0 0.00030062101198747568 -0.0082653726778405979 0 0.00027933870536500828 -0.0081486528471842457 0 0.00026813382339965059 -0.0083634473033739522 0 0.00020015086605036457 -0.0082978449069023748 0 0.00030062101198747568 -0.0082653726778405979 0 0.00026813382339965059 -0.0083634473033739522 0 0.00012721462519813548 -0.0084043608697761153 0 0.00020015086605036457 -0.0082978449069023748 0 0.0011185922104772967 -0.0050568062092033461 0 0.0010152260017495887 -0.0050776711074246176 0 0.0010941167814963455 -0.0048757975454586594 0 0.00067976965722405219 -0.0068240479559933086 0 0.00090302093965470738 -0.005056605021964854 0 0.0011968100611021006 -0.0029930544490527461 0 0.00090302093965470738 -0.005056605021964854 0 0.0014032561791245813 -0.0012771638941339173 0 0.0014620593442963797 -0.0016593110036480306 0 0.0011525943292039775 -0.0015036089311146596 0 0.0014620593442963797 -0.0016593110036480306 0 0.0011802002070362488 -0.0017773889348633432 0 0.0011525943292039775 -0.0015036089311146596 0 0.0014620593442963797 -0.0016593110036480306 0 0.0012935935779225976 -0.0021133386003132221 0 0.0011802002070362488 -0.0017773889348633432 0 0.00090302093965470738 -0.005056605021964854 0 0.00044636535204662373 -0.007331330958308015 0 0.00068315200092671511 -0.0048081757969929192 0 0.00036471299086216109 -0.0056484964940178486 0 0.00085545130895248796 -0.0060181667883771797 0 0.00090302093965470738 -0.005056605021964854 0 0.0007310064735010143 -0.003904938419639961 0 7.2070368889789733e-05 -0.0070534065939473409 0 4.0046812449367821e-05 -0.0070438499808115011 0 6.0964066830122397e-05 -0.0070191718567545226 0 0.0007310064735010143 -0.003904938419639961 0 0.00044636535204662373 -0.007331330958308015 0 0.00020355801872310079 -0.00809100671417653 0 0.00027933870536500828 -0.0081486528471842457 0 0.0002092727551249855 -0.0081676524807129374 0 0.00023241076199854039 -0.0082200441381116811 0 0.00027933870536500828 -0.0081486528471842457 0 0.0002092727551249855 -0.0081676524807129374 0 0.00016566132100596855 -0.0082277289272833405 0 0.00023241076199854039 -0.0082200441381116811 0 0.0002092727551249855 -0.0081676524807129374 0 -0.0001107181002384177 -0.007191941133936698 0 -3.4740902970963859e-05 -0.007168894855172526 0 -0.0001292655573345452 -0.0071496881727244072 0 2.4642356733096614e-05 -0.0076623119977997358 0 0.00044636535204662373 -0.007331330958308015 0 -0.0001107181002384177 -0.007191941133936698 0 -1.8292349297721007e-05 -0.0072570711373324895 0 -3.4740902970963859e-05 -0.007168894855172526 0 0.00044636535204662373 -0.007331330958308015 0 -8.6744882790617793e-06 -0.0070363020537571788 0 6.0964066830122397e-05 -0.0070191718567545226 0 0.00013037479263668231 -0.0070085895051435537 0 4.3306377744920388e-05 -0.0069473909067665597 0 7.2070368889789733e-05 -0.0070534065939473409 0 6.0964066830122397e-05 -0.0070191718567545226 0 0.00013037479263668231 -0.0070085895051435537 0 9.6610010289134092e-06 -0.0069962621289850991 0 6.0964066830122397e-05 -0.0070191718567545226 0 4.3306377744920388e-05 -0.0069473909067665597 0 4.0046812449367821e-05 -0.0070438499808115011 0 9.6610010289134092e-06 -0.0069962621289850991 0 6.0964066830122397e-05 -0.0070191718567545226 0 0.0011081465684045656 -0.002701663994006241 0 0.00078615408883785109 -0.0022878465473564337 0 0.00070643760800284509 -0.0028816671284178355 0 0.00078615408883785109 -0.0022878465473564337 0 0.00033767774756704726 -0.0023728310308111832 0 0.00070643760800284509 -0.0028816671284178355 0 0.00078615408883785109 -0.0022878465473564337 0 0.00038194275926784182 -0.0019339066057826424 0 0.00033767774756704726 -0.0023728310308111832 0 0.0007310064735010143 -0.003904938419639961 0 0.00059257904836256784 -0.0049876619140685492 0 0.0013329424099447153 -0.0021159891377901959 0 0.0011081465684045656 -0.002701663994006241 0 0.00078615408883785109 -0.0022878465473564337 0 0.0012935935779225976 -0.0021133386003132221 0 0.0011802002070362488 -0.0017773889348633432 0 0.00084916805529304583 -0.0017333799365815217 0 0.0007310064735010143 -0.003904938419639961 0 0.00088454034870748884 -0.0013388213651686464 0 0.0013329424099447153 -0.0021159891377901959 0 0.00078615408883785109 -0.0022878465473564337 0 0.00084916805529304583 -0.0017333799365815217 0 0.0011802002070362488 -0.0017773889348633432 0 0.00093317126268506034 -0.0015350381903616365 0 0.00084916805529304583 -0.0017333799365815217 0 0.0011802002070362488 -0.0017773889348633432 0 0.0011525943292039775 -0.0015036089311146596 0 0.00093317126268506034 -0.0015350381903616365 0 0.0014032561791245813 -0.0012771638941339173 0 0.0011525943292039775 -0.0015036089311146596 0 0.00082342351509683855 -0.0013237569508725861 0 0.00093317126268506034 -0.0015350381903616365 0 0.0007891222592463315 -0.001523638037373131 0 0.00084916805529304583 -0.0017333799365815217 0 0.0011525943292039775 -0.0015036089311146596 0 0.00093317126268506034 -0.0015350381903616365 0 0.00082342351509683855 -0.0013237569508725861 0 0.00082926850694194012 -0.0011231507751516304 0 0.00022764000219751583 -0.0013817096932839249 0 0.00082342351509683855 -0.0013237569508725861 0 0.00055012537841892884 -0.0015088786186757959 0 0.00021934620769991942 -0.0013212328117748946 0 0.00074816599372849832 -0.001335146312781424 0 0.00021934620769991942 -0.0013212328117748946 0 0.00041071979042174876 -0.0012603167905834119 0 0.00093317126268506034 -0.0015350381903616365 0 0.00082342351509683855 -0.0013237569508725861 0 0.0007891222592463315 -0.001523638037373131 0 0.00082342351509683855 -0.0013237569508725861 0 0.0007891222592463315 -0.001523638037373131 0 0.00055012537841892884 -0.0015088786186757959 0 0.0007891222592463315 -0.001523638037373131 0 0.00055012537841892884 -0.0015088786186757959 0 0.00084916805529304583 -0.0017333799365815217 0 0.00078615408883785109 -0.0022878465473564337 0 0.00084916805529304583 -0.0017333799365815217 0 0.00038194275926784182 -0.0019339066057826424 0 0.00055012537841892884 -0.0015088786186757959 0 0.00084916805529304583 -0.0017333799365815217 0 0.00038194275926784182 -0.0019339066057826424 0 0.00055012537841892884 -0.0015088786186757959 0 0.00038194275926784182 -0.0019339066057826424 0 0.00028964360655850987 -0.0016084220370674667 0 0.00038194275926784182 -0.0019339066057826424 0 0.00028964360655850987 -0.0016084220370674667 0 -3.5361550814526784e-05 -0.0017728935177463057 0 0.00038194275926784182 -0.0019339066057826424 0 -3.5361550814526784e-05 -0.0017728935177463057 0 -0.00011207412353717821 -0.002309225753040788 0 0.00028964360655850987 -0.0016084220370674667 0 6.8935699192253848e-05 -0.0014930938820729754 0 -3.5361550814526784e-05 -0.0017728935177463057 0 0.00052502192398025339 -0.0011068470451584453 0 1.3858635639924683e-05 -0.0012451640832788057 0 0.0003014100077559337 -0.00087889286834651637 0 0.00074717620055411087 -0.0009220357363432768 0 -3.7047154731806794e-05 -0.0012567486619964891 0 0.00055012537841892884 -0.0015088786186757959 0 0.00028964360655850987 -0.0016084220370674667 0 0.00021934620769991942 -0.0013212328117748946 0 0.00021934620769991942 -0.0013212328117748946 0 0.00041071979042174876 -0.0012603167905834119 0 -3.7047154731806794e-05 -0.0012567486619964891 0 0.00028964360655850987 -0.0016084220370674667 0 0.00021934620769991942 -0.0013212328117748946 0 6.8935699192253848e-05 -0.0014930938820729754 0 3.1756594282080291e-05 -0.00076962052231885347 0 -0.0003183385207785044 -0.0011031735201104029 0 -3.7047154731806794e-05 -0.0012567486619964891 0 -0.0003183385207785044 -0.0011031735201104029 0 -3.7047154731806794e-05 -0.0012567486619964891 0 -0.00028326864232653342 -0.0014933998695377255 0 0.00021934620769991942 -0.0013212328117748946 0 -3.7047154731806794e-05 -0.0012567486619964891 0 6.8935699192253848e-05 -0.0014930938820729754 0 -3.7047154731806794e-05 -0.0012567486619964891 0 6.8935699192253848e-05 -0.0014930938820729754 0 -0.00028326864232653342 -0.0014933998695377255 0 -3.5361550814526784e-05 -0.0017728935177463057 0 -0.00011207412353717821 -0.002309225753040788 0 -0.00056801692764810695 -0.0017595082643207451 0 -0.00028326864232653342 -0.0014933998695377255 0 -3.5361550814526784e-05 -0.0017728935177463057 0 -0.00056801692764810695 -0.0017595082643207451 0 6.8935699192253848e-05 -0.0014930938820729754 0 -0.00028326864232653342 -0.0014933998695377255 0 -3.5361550814526784e-05 -0.0017728935177463057 0 -0.00010582652513098241 -0.0022786053181297608 0 -0.00055912884931262077 -0.0016933409293356286 0 0.00038194275926784182 -0.0019339066057826424 0 -0.00011207412353717821 -0.002309225753040788 0 0.00033767774756704726 -0.0023728310308111832 0 0.00033767774756704726 -0.0023728310308111832 0 0.00027609745158521551 -0.0028131564136010278 0 0.00070643760800284509 -0.0028816671284178355 0 -0.00011207412353717821 -0.002309225753040788 0 0.00033767774756704726 -0.0023728310308111832 0 0.00027609745158521551 -0.0028131564136010278 0 -0.00010582652513098241 -0.0022786053181297608 0 0.00027849985369622729 -0.0028164419411877569 0 -8.9906662737115894e-05 -0.0022552832325306326 0 0.0002740142219840209 -0.0028081050825282277 0 -0.0001675799689888163 -0.0030442191074743275 0 -8.9906662737115894e-05 -0.0022552832325306326 0 -0.0001675799689888163 -0.0030442191074743275 0 -0.0006428278980054441 -0.0024908808595854618 0 0.0002740142219840209 -0.0028081050825282277 0 0.00018580150475033675 -0.0032726294014211732 0 0.00063469835822660197 -0.0033221259377096634 0 0.0002740142219840209 -0.0028081050825282277 0 -0.0001675799689888163 -0.0030442191074743275 0 0.00018580150475033675 -0.0032726294014211732 0 0.00018580150475033675 -0.0032726294014211732 0 0.00028034641815644459 -0.003590964259151046 0 0.00063469835822660197 -0.0033221259377096634 0 0.00018580150475033675 -0.0032726294014211732 0 0.00028034641815644459 -0.003590964259151046 0 -6.8850166298631285e-05 -0.0035799018986665651 0 -0.0001675799689888163 -0.0030442191074743275 0 0.00018580150475033675 -0.0032726294014211732 0 -6.8850166298631285e-05 -0.0035799018986665651 0 -0.0001675799689888163 -0.0030442191074743275 0 -6.8850166298631285e-05 -0.0035799018986665651 0 -0.00047905095649562664 -0.003528303569247123 0 -6.8850166298631285e-05 -0.0035799018986665651 0 -0.00018892944079253591 -0.0038797680097323087 0 -0.00047905095649562664 -0.003528303569247123 0 -6.8850166298631285e-05 -0.0035799018986665651 0 -0.00018892944079253591 -0.0038797680097323087 0 -3.4221491951568983e-05 -0.0040606304241583057 0 -0.00018892944079253591 -0.0038797680097323087 0 -1.4207337708148373e-06 -0.0038894146489279707 0 -3.4221491951568983e-05 -0.0040606304241583057 0 -3.4221491951568983e-05 -0.0040606304241583057 0 0.00056509254869517936 -0.0038946795968212871 0 1.4177191037293362e-06 -0.0046915843996289874 0 -1.4207337708148373e-06 -0.0038894146489279707 0 -3.4221491951568983e-05 -0.0040606304241583057 0 1.4177191037293362e-06 -0.0046915843996289874 0 0.00028034641815644459 -0.003590964259151046 0 -6.8850166298631285e-05 -0.0035799018986665651 0 -3.4221491951568983e-05 -0.0040606304241583057 0 0.00028034641815644459 -0.003590964259151046 0 -3.4221491951568983e-05 -0.0040606304241583057 0 0.00056509254869517936 -0.0038946795968212871 0 0.00032238080519792888 -0.0059888967388778006 0 1.4110266828308175e-06 -0.0046954983014475971 0 -3.984624148148024e-07 -0.0055765170482991872 0 0.00040099892375873 -0.0049577130991367924 0 1.715252673939359e-07 -0.0046939364121416308 0 0.00032238080519792888 -0.0059888967388778006 0 -3.984624148148024e-07 -0.0055765170482991872 0 2.8702329513158035e-05 -0.006422013736305722 0 0.00027413978302936196 -0.0067432612106012599 0 1.633464087461151e-05 -0.0067913166622022006 0 2.8702329513158035e-05 -0.006422013736305722 0 0.00032238080519792888 -0.0059888967388778006 0 0.00027413978302936196 -0.0067432612106012599 0 2.8702329513158035e-05 -0.006422013736305722 0 0.00028034641815644459 -0.003590964259151046 0 0.00056509254869517936 -0.0038946795968212871 0 0.00063469835822660197 -0.0033221259377096634 0 0.00040099892375873 -0.0049577130991367924 0 0.00056754916333753597 -0.0049797778146290148 0 0.00056509254869517936 -0.0038946795968212871 0 0.00086181221049260555 -0.0032936058857486817 0 0.00063469835822660197 -0.0033221259377096634 0 0.00027609745158521551 -0.0028131564136010278 0 0.00063469835822660197 -0.0033221259377096634 0 0.00070643760800284509 -0.0028816671284178355 0 0.00027849985369622729 -0.0028164419411877569 0 0.00061777929960339911 -0.0032864393385388141 0 0.00086181221049260555 -0.0032936058857486817 0 0.00063469835822660197 -0.0033221259377096634 0 0.00070643760800284509 -0.0028816671284178355 0 0.0011081465684045656 -0.002701663994006241 0 0.00086181221049260555 -0.0032936058857486817 0 0.00070643760800284509 -0.0028816671284178355 0 0.00013037479263668231 -0.0070085895051435537 0 0.00027413978302936196 -0.0067432612106012599 0 4.3306377744920388e-05 -0.0069473909067665597 0 0.00027413978302936196 -0.0067432612106012599 0 4.3306377744920388e-05 -0.0069473909067665597 0 1.633464087461151e-05 -0.0067913166622022006 0 0.00059257904836256784 -0.0049876619140685492 0 0.00056754916333753597 -0.0049797778146290148 0 9.6610010289134092e-06 -0.0069962621289850991 0 4.3306377744920388e-05 -0.0069473909067665597 0 -3.9297959738146188e-05 -0.007002419627650136 0 4.3306377744920388e-05 -0.0069473909067665597 0 -3.9297959738146188e-05 -0.007002419627650136 0 1.633464087461151e-05 -0.0067913166622022006 0 -8.6744882790617793e-06 -0.0070363020537571788 0 -3.0762205103766607e-05 -0.0070189686476962625 0 -3.4740902970963859e-05 -0.007168894855172526 0 -3.9297959738146188e-05 -0.007002419627650136 0 -0.0001292655573345452 -0.0071496881727244072 0 -3.9297959738146188e-05 -0.007002419627650136 0 -7.6011616036327637e-05 -0.0068537902090570809 0 -0.0001292655573345452 -0.0071496881727244072 0 -7.6011616036327637e-05 -0.0068537902090570809 0 -0.00010240236437235411 -0.0070974112688492507 0 -0.0001292655573345452 -0.0071496881727244072 0 -7.6011616036327637e-05 -0.0068537902090570809 0 1.633464087461151e-05 -0.0067913166622022006 0 2.8702329513158035e-05 -0.006422013736305722 0 -3.9297959738146188e-05 -0.007002419627650136 0 -7.6011616036327637e-05 -0.0068537902090570809 0 1.633464087461151e-05 -0.0067913166622022006 0 -7.6011616036327637e-05 -0.0068537902090570809 0 2.8702329513158035e-05 -0.006422013736305722 0 -5.8073037991734017e-05 -0.0065108978904771546 0 -3.984624148148024e-07 -0.0055765170482991872 0 -7.2926008041738862e-08 -0.0064596703144260128 0 -5.8073037991734017e-05 -0.0065108978904771546 0 -3.984624148148024e-07 -0.0055765170482991872 0 2.8702329513158035e-05 -0.006422013736305722 0 -5.8073037991734017e-05 -0.0065108978904771546 0 -7.2926008041738862e-08 -0.0064596703144260128 0 -5.8073037991734017e-05 -0.0065108978904771546 0 -0.00010240236437235411 -0.0070974112688492507 0 -7.6011616036327637e-05 -0.0068537902090570809 0 -5.8073037991734017e-05 -0.0065108978904771546 0 -0.00010240236437235411 -0.0070974112688492507 0 -7.2926008041738862e-08 -0.0064596703144260128 0 -0.00010240236437235411 -0.0070974112688492507 0 -1.8496648163902555e-07 -0.0073420981715081627 0 -0.00010240236437235411 -0.0070974112688492507 0 -1.8496648163902555e-07 -0.0073420981715081627 0 -6.659263658101635e-05 -0.00754673382212086 0 -0.00010240236437235411 -0.0070974112688492507 0 -6.659263658101635e-05 -0.00754673382212086 0 -0.00010863639705628613 -0.0073802672620880633 0 -5.8664669356453727e-05 -0.007768413192694547 0 -6.659263658101635e-05 -0.00754673382212086 0 -0.00010863639705628613 -0.0073802672620880633 0 -0.00010240236437235411 -0.0070974112688492507 0 -0.00010863639705628613 -0.0073802672620880633 0 -0.0001292655573345452 -0.0071496881727244072 0 -0.00010863639705628613 -0.0073802672620880633 0 -0.0001292655573345452 -0.0071496881727244072 0 -0.00010951182607996529 -0.0072407131443535363 0 -0.0001107181002384177 -0.007191941133936698 0 -0.0001292655573345452 -0.0071496881727244072 0 -0.00010951182607996529 -0.0072407131443535363 0 -6.1809410512692677e-05 -0.0077123013933513016 0 -1.001199304902714e-05 -0.0076273919942380884 0 -5.8664669356453727e-05 -0.007768413192694547 0 -0.00010863639705628613 -0.0073802672620880633 0 -0.00010951182607996529 -0.0072407131443535363 0 -5.8664669356453727e-05 -0.007768413192694547 0 -3.7393862668184851e-05 -0.0081142628046978488 0 0.00013211053070920649 -0.0079933362176715563 0 -0.00033326654641852629 0.00089538561491983462 0 -0.00043136818947814033 0.00098707543195219495 0 -0.000336471954616134 0.00094662126641258755 0 -0.00033326654641852629 0.00089538561491983462 0 -0.00046358366160795326 0.00087188377969449294 0 -0.00043136818947814033 0.00098707543195219495 0 -0.00033326654641852629 0.00089538561491983462 0 -0.000336471954616134 0.00094662126641258755 0 -0.00029516584745612091 0.0009285871048713961 0 -1.6814784670414069e-05 0.000724315893601074 0 9.1584040170807052e-05 0.00088392759421450514 0 6.9348858620051361e-05 0.00073500086775356429 0 -0.00033326654641852629 0.00089538561491983462 0 -0.0002530499692057502 0.00070411972549742929 0 -0.00029516584745612091 0.0009285871048713961 0 -1.6814784670414069e-05 0.000724315893601074 0 -0.0002530499692057502 0.00070411972549742929 0 9.1584040170807052e-05 0.00088392759421450514 0 -0.0003032180214789999 0.0006437029577387491 0 -1.3163096955384767e-05 0.0010471413278482205 0 -1.6814784670414069e-05 0.000724315893601074 0 5.2307730121611552e-05 0.00064399718637136235 0 -4.3641322133688781e-05 0.00059871769745202107 0 -1.6814784670414069e-05 0.000724315893601074 0 5.2307730121611552e-05 0.00064399718637136235 0 6.9348858620051361e-05 0.00073500086775356429 0 -1.6814784670414069e-05 0.000724315893601074 0 -0.0002530499692057502 0.00070411972549742929 0 -4.3641322133688781e-05 0.00059871769745202107 0 -0.00033326654641852629 0.00089538561491983462 0 -0.0002530499692057502 0.00070411972549742929 0 -0.00046358366160795326 0.00087188377969449294 0 -0.0002530499692057502 0.00070411972549742929 0 -0.00046358366160795326 0.00087188377969449294 0 -0.00049746542804118322 0.00055323602104194545 0 -0.00046358366160795326 0.00087188377969449294 0 -0.00063461237297118465 0.00085436815545867847 0 -0.00049746542804118322 0.00055323602104194545 0 -0.00046358366160795326 0.00087188377969449294 0 -0.00063461237297118465 0.00085436815545867847 0 -0.00056606537284276635 0.0010343144149360288 0 -0.00063461237297118465 0.00085436815545867847 0 -0.00075277219435694739 0.00095268324525390601 0 -0.00067092196397202264 0.0011279825978911227 0 -0.00063461237297118465 0.00085436815545867847 0 -0.00056606537284276635 0.0010343144149360288 0 -0.00067092196397202264 0.0011279825978911227 0 -0.00046358366160795326 0.00087188377969449294 0 -0.00056606537284276635 0.0010343144149360288 0 -0.00043136818947814033 0.00098707543195219495 0 -0.00056606537284276635 0.0010343144149360288 0 -0.00043136818947814033 0.00098707543195219495 0 -0.00055242546129137559 0.0011138657230503055 0 -0.00043136818947814033 0.00098707543195219495 0 -0.00055242546129137559 0.0011138657230503055 0 -0.00036990307851124111 0.00098992908985814595 0 -0.00056606537284276635 0.0010343144149360288 0 -0.00055242546129137559 0.0011138657230503055 0 -0.00067092196397202264 0.0011279825978911227 0 -0.00036295459957736922 0.00098841008657330441 0 -0.00055242546129137559 0.0011138657230503055 0 -0.00059930112530117005 0.0011946754298349919 0 -0.00036295459957736922 0.00098841008657330441 0 -0.00055242546129137559 0.0011138657230503055 0 -0.00036990307851124111 0.00098992908985814595 0 -0.00043136818947814033 0.00098707543195219495 0 -0.00036990307851124111 0.00098992908985814595 0 -0.000336471954616134 0.00094662126641258755 0 -0.000336471954616134 0.00094662126641258755 0 -0.00034458642670494441 0.00091770796157135577 0 -0.00029516584745612091 0.0009285871048713961 0 -0.000336471954616134 0.00094662126641258755 0 -0.00034651225887744882 0.00091458917560675434 0 -0.00034458642670494441 0.00091770796157135577 0 -0.00036990307851124111 0.00098992908985814595 0 -0.000336471954616134 0.00094662126641258755 0 -0.00034651225887744882 0.00091458917560675434 0 -0.00036990307851124111 0.00098992908985814595 0 -0.00034651225887744882 0.00091458917560675434 0 -0.00035890177507207359 0.00084720250986679844 0 -0.00034651225887744882 0.00091458917560675434 0 -0.00035890177507207359 0.00084720250986679844 0 -0.0003750128651930134 0.00084322115748914597 0 -0.0012263071423949264 -0.0014981382863760923 0 -0.0011638256584883147 -0.0011925283925833894 0 -0.0010701116904028591 -0.0013550892079634443 0 -0.00048999998705070383 0.00017699422926247525 0 -0.00088886176231105967 -0.00040620280738318113 0 -0.00041054068653103806 0.00071769249262372504 0 -0.0003750128651930134 0.00084322115748914597 0 -0.00045436727622833286 0.00081124294849445507 0 -0.00047447851154235027 0.00059320053112971291 0 -0.00048852465121586037 0.00053282208428795906 0 -0.00044891759402570304 0.00060066059870576816 0 -0.00044615016369668558 0.00062122476070279055 0 -0.00047447851154235027 0.00059320053112971291 0 -0.00044891759402570304 0.00060066059870576816 0 -0.0003750128651930134 0.00084322115748914597 0 -0.00045436727622833286 0.00081124294849445507 0 -0.00041201930709189934 0.00090739508595130854 0 -0.00042559167340675908 0.00077342846662503955 0 -0.00048999998705070383 0.00017699422926247525 0 -0.0012263071423949264 -0.0014981382863760923 0 -0.0010727616967854069 -0.0015041804800675017 0 -0.0011543480830801386 -0.0015758592591273166 0 -0.00041201930709189934 0.00090739508595130854 0 -0.00034458642670494441 0.00091770796157135577 0 -0.00029516584745612091 0.0009285871048713961 0 -0.0003750128651930134 0.00084322115748914597 0 -0.00041201930709189934 0.00090739508595130854 0 -0.00034458642670494441 0.00091770796157135577 0 -0.00048999998705070383 0.00017699422926247525 0 -1.3163096955384767e-05 0.0010471413278482205 0 -0.00034651225887744882 0.00091458917560675434 0 -0.0003750128651930134 0.00084322115748914597 0 -0.00034458642670494441 0.00091770796157135577 0 -0.0010051625339684567 -0.0011656666759470946 0 -0.00055912884931262077 -0.0016933409293356286 0 -0.00059214534320329714 -0.0012551901479587199 0 -0.0010425875757767821 -0.0011266460617062801 0 -0.00056801692764810695 -0.0017595082643207451 0 -0.0003183385207785044 -0.0011031735201104029 0 -0.00028326864232653342 -0.0014933998695377255 0 -0.00059214534320329714 -0.0012551901479587199 0 -0.00028326864232653342 -0.0014933998695377255 0 -0.00059214534320329714 -0.0012551901479587199 0 -0.00056801692764810695 -0.0017595082643207451 0 -0.00074837177013859109 -0.00096333273947263862 0 -0.0003183385207785044 -0.0011031735201104029 0 -0.00059214534320329714 -0.0012551901479587199 0 -0.00074837177013859109 -0.00096333273947263862 0 -0.00059214534320329714 -0.0012551901479587199 0 -0.0010425875757767821 -0.0011266460617062801 0 -0.0010425875757767821 -0.0011266460617062801 0 -0.0010701116904028591 -0.0013550892079634443 0 -0.00053251901795646364 -0.0016348316463548342 0 -0.0010425875757767821 -0.0011266460617062801 0 -0.0011638256584883147 -0.0011925283925833894 0 -0.0010701116904028591 -0.0013550892079634443 0 -0.0010701116904028591 -0.0013550892079634443 0 -0.0010727616967854069 -0.0015041804800675017 0 -0.00053251901795646364 -0.0016348316463548342 0 -0.00108395671597528 -0.0015406616687081316 0 -0.0011631865858666049 -0.0018378163053815622 0 -0.0012263071423949264 -0.0014981382863760923 0 -0.0010701116904028591 -0.0013550892079634443 0 -0.0010727616967854069 -0.0015041804800675017 0 -0.0010727616967854069 -0.0015041804800675017 0 -0.00053251901795646364 -0.0016348316463548342 0 -0.00070328424145734369 -0.002021253239989564 0 -8.9906662737115894e-05 -0.0022552832325306326 0 -0.00070328424145734369 -0.002021253239989564 0 -0.0006428278980054441 -0.0024908808595854618 0 -8.9906662737115894e-05 -0.0022552832325306326 0 -0.00053251901795646364 -0.0016348316463548342 0 -0.00070328424145734369 -0.002021253239989564 0 -0.0010727616967854069 -0.0015041804800675017 0 -0.00070328424145734369 -0.002021253239989564 0 -0.0012125863531424199 -0.0021908735800795294 0 -0.00070328424145734369 -0.002021253239989564 0 -0.0006428278980054441 -0.0024908808595854618 0 -0.0012125863531424199 -0.0021908735800795294 0 -0.00091685028139137914 -0.0027826589649671027 0 -0.0006428278980054441 -0.0024908808595854618 0 -0.0012125863531424199 -0.0021908735800795294 0 -0.00091685028139137914 -0.0027826589649671027 0 -0.0012125863531424199 -0.0021908735800795294 0 -0.0013150007157743081 -0.0027765745442305569 0 -0.00091685028139137914 -0.0027826589649671027 0 -0.0006428278980054441 -0.0024908808595854618 0 -0.00060641963578725365 -0.0030952584822357149 0 0.00014751196916575697 0.00092055334255808493 0 0.00014388812302952239 0.00084918689914068686 0 9.1584040170807052e-05 0.00088392759421450514 0 -0.00048999998705070383 0.00017699422926247525 0 -0.00059353827879581262 -0.00053107178003143803 0 -0.0012263071423949264 -0.0014981382863760923 0 -0.0011808349623938256 -0.0015683729756145602 0 -0.0011543480830801386 -0.0015758592591273166 0 -0.0011808349623938256 -0.0015683729756145602 0 -0.0011675206066658476 -0.0015737434474788756 0 -0.0011643512841242115 -0.0015671423054558985 0 -0.0011631865858666049 -0.0018378163053815622 0 -0.0013289909521154743 -0.0023103165538277187 0 -0.0011808349623938256 -0.0015683729756145602 0 -0.0011543480830801386 -0.0015758592591273166 0 -0.0011675206066658476 -0.0015737434474788756 0 -0.00059353827879581262 -0.00053107178003143803 0 -0.00014300540472006579 -0.00018985643883978305 0 0.00014388812302952239 0.00084918689914068686 0 6.9348858620051361e-05 0.00073500086775356429 0 0.00012065248347062276 0.00054562523286941851 0 -0.0011808349623938256 -0.0015683729756145602 0 -0.0011643512841242115 -0.0015671423054558985 0 -0.0011531808879215312 -0.0015598946213534945 0 0.00014388812302952239 0.00084918689914068686 0 9.1584040170807052e-05 0.00088392759421450514 0 6.9348858620051361e-05 0.00073500086775356429 0 5.2307730121611552e-05 0.00064399718637136235 0 6.9348858620051361e-05 0.00073500086775356429 0 0.00012065248347062276 0.00054562523286941851 0 5.2307730121611552e-05 0.00064399718637136235 0 0.00012065248347062276 0.00054562523286941851 0 8.3521004365120152e-05 0.00058187120590673315 0 -0.0011643512841242115 -0.0015671423054558985 0 -0.0011531808879215312 -0.0015598946213534945 0 -0.0011607514426578021 -0.0015587301367059492 0 0.00027419597342756926 0.00056593506835338691 0 0.00021117977534580501 0.00037755583383012741 0 0.00089033954399661997 8.5684372581570835e-05 0 0.00021856666582846962 0.00050480073324580264 0 8.3521004365120152e-05 0.00058187120590673315 0 0.0001287974930843547 0.00047776131002498983 0 -0.00014300540472006579 -0.00018985643883978305 0 -0.00017197037952849478 2.2990747576475362e-05 0 -0.00014300540472006579 -0.00018985643883978305 0 3.1031567241604967e-05 0.00021702259270503643 0 0.00021856666582846962 0.00050480073324580264 0 0.00021117977534580501 0.00037755583383012741 0 0.0001287974930843547 0.00047776131002498983 0 -0.00014300540472006579 -0.00018985643883978305 0 -0.00050601271680904367 -0.0018770812463475232 0 -0.0013289909521154743 -0.0023103165538277187 0 -0.00050601271680904367 -0.0018770812463475232 0 -0.0013150007157743081 -0.0027765745442305569 0 -0.0014384522035173627 -0.0033213412827093644 0 -0.0010362808128208465 -0.0031560392378771327 0 -0.0011675206066658476 -0.0015737434474788756 0 -0.0011643512841242115 -0.0015671423054558985 0 -0.0011607514426578021 -0.0015587301367059492 0 -0.0014384522035173627 -0.0033213412827093644 0 -0.0010362808128208465 -0.0031560392378771327 0 -0.00097557865311899026 -0.0036791703481538897 0 -0.00050601271680904367 -0.0018770812463475232 0 -0.00046353518505212434 -0.0033645350921534304 0 0.00089033954399661997 8.5684372581570835e-05 0 0.00035157342119214902 -9.292096007656542e-05 0 0.00069576354153113305 -0.0007598679562180699 0 -0.00050601271680904367 -0.0018770812463475232 0 0.00041538201937599544 -0.0015888980255580711 0 0.00021117977534580501 0.00037755583383012741 0 0.00089033954399661997 8.5684372581570835e-05 0 0.00035157342119214902 -9.292096007656542e-05 0 -0.0001675799689888163 -0.0030442191074743275 0 -0.00060641963578725365 -0.0030952584822357149 0 -0.00047905095649562664 -0.003528303569247123 0 -0.0001675799689888163 -0.0030442191074743275 0 -0.0006428278980054441 -0.0024908808595854618 0 -0.00060641963578725365 -0.0030952584822357149 0 -0.00091685028139137914 -0.0027826589649671027 0 -0.00060641963578725365 -0.0030952584822357149 0 -0.0010362808128208465 -0.0031560392378771327 0 -0.00091685028139137914 -0.0027826589649671027 0 -0.0013150007157743081 -0.0027765745442305569 0 -0.0010362808128208465 -0.0031560392378771327 0 -0.00060641963578725365 -0.0030952584822357149 0 -0.0010362808128208465 -0.0031560392378771327 0 -0.00047905095649562664 -0.003528303569247123 0 -0.0010362808128208465 -0.0031560392378771327 0 -0.00047905095649562664 -0.003528303569247123 0 -0.00097557865311899026 -0.0036791703481538897 0 -0.00018892944079253591 -0.0038797680097323087 0 -0.00047905095649562664 -0.003528303569247123 0 -0.00046276515851929672 -0.0039621966163541035 0 -0.00047905095649562664 -0.003528303569247123 0 -0.00097557865311899026 -0.0036791703481538897 0 -0.00046276515851929672 -0.0039621966163541035 0 -4.6602814055713692e-05 -0.0027846995712604117 0 -5.4560094441665222e-05 -0.0028630470621673551 0 4.3625156432675336e-05 -0.0030528855447438156 0 -0.00046353518505212434 -0.0033645350921534304 0 -0.00027493404862126186 -0.0034679918968821182 0 -5.4560094441665222e-05 -0.0028630470621673551 0 -6.8243184974521825e-08 -0.0032714496478451565 0 -3.6060641494534273e-07 -0.0026550863323410541 0 -5.4560094441665222e-05 -0.0028630470621673551 0 -6.8243184974521825e-08 -0.0032714496478451565 0 4.3625156432675336e-05 -0.0030528855447438156 0 3.1079098835078655e-07 -0.0038866005204294968 0 -6.8243184974521825e-08 -0.0032714496478451565 0 4.3625156432675336e-05 -0.0030528855447438156 0 -1.4931410654615996e-07 -0.003887108145077776 0 -0.00027493404862126186 -0.0034679918968821182 0 -0.00018892944079253591 -0.0038797680097323087 0 -1.4207337708148373e-06 -0.0038894146489279707 0 -0.00046276515851929672 -0.0039621966163541035 0 0.00035157342119214902 -9.292096007656542e-05 0 0.00069576354153113305 -0.0007598679562180699 0 1.4474406120212803e-05 -0.00041745207951617583 0 0.00069576354153113305 -0.0007598679562180699 0 8.5778316000839663e-05 -0.0012444516177366808 0 1.4474406120212803e-05 -0.00041745207951617583 0 -1.1866505569005681e-05 -0.0027807420071385312 0 -4.6602814055713692e-05 -0.0027846995712604117 0 4.1400839088039182e-06 -0.0027001895332115769 0 -4.6602814055713692e-05 -0.0027846995712604117 0 -5.4560094441665222e-05 -0.0028630470621673551 0 4.1400839088039182e-06 -0.0027001895332115769 0 -5.4560094441665222e-05 -0.0028630470621673551 0 4.1400839088039182e-06 -0.0027001895332115769 0 -3.6060641494534273e-07 -0.0026550863323410541 0 0.00041538201937599544 -0.0015888980255580711 0 8.2282820446920859e-08 -0.0020396330835878982 0 0.00069576354153113305 -0.0007598679562180699 0 8.5778316000839663e-05 -0.0012444516177366808 0 1.7280642861095869e-06 -0.0020382191000155444 0 4.1400839088039182e-06 -0.0027001895332115769 0 -3.6060641494534273e-07 -0.0026550863323410541 0 5.390384046456674e-07 -0.0020408996124182915 0 8.5778316000839663e-05 -0.0012444516177366808 0 1.7280642861095869e-06 -0.0020382191000155444 0 -1.3186996793587205e-06 -0.0017752833664769767 0 8.5778316000839663e-05 -0.0012444516177366808 0 -1.3186996793587205e-06 -0.0017752833664769767 0 -0.00014347935010443878 -0.00095109541149284425 0 -4.5918702379893304e-08 -0.0017742348916905662 0 -0.0002468217363334901 -0.00064512671580019634 0 -1.3186996793587205e-06 -0.0017752833664769767 0 -0.00060497853659472909 -0.0007407153953668601 0 -0.00014347935010443878 -0.00095109541149284425 0 3.6803806666692413e-07 -0.0017740366761763407 0 0.00015636329898477974 -0.00056370316025746087 0 2.1815929897311704e-07 -0.00096442175652477449 0 -0.00060497853659472909 -0.0007407153953668601 0 -0.00037841026378579467 -0.000326199658160988 0 -0.00014347935010443878 -0.00095109541149284425 0 -0.00060497853659472909 -0.0007407153953668601 0 -0.00037841026378579467 -0.000326199658160988 0 -0.00058974016661790508 8.7288397091392532e-05 0 8.5778316000839663e-05 -0.0012444516177366808 0 -0.00014347935010443878 -0.00095109541149284425 0 1.4474406120212803e-05 -0.00041745207951617583 0 -0.00037841026378579467 -0.000326199658160988 0 -0.00014347935010443878 -0.00095109541149284425 0 1.4474406120212803e-05 -0.00041745207951617583 0 0.00035157342119214902 -9.292096007656542e-05 0 1.4474406120212803e-05 -0.00041745207951617583 0 2.4329058984952399e-06 0.00016798288518934791 0 1.4474406120212803e-05 -0.00041745207951617583 0 2.4329058984952399e-06 0.00016798288518934791 0 -0.00035091788330599949 0.00011901527118030736 0 0.00021117977534580501 0.00037755583383012741 0 0.00035157342119214902 -9.292096007656542e-05 0 2.4329058984952399e-06 0.00016798288518934791 0 2.4329058984952399e-06 0.00016798288518934791 0 -0.00035091788330599949 0.00011901527118030736 0 -0.0001766535449523237 0.00041444275258334352 0 -0.00037841026378579467 -0.000326199658160988 0 1.4474406120212803e-05 -0.00041745207951617583 0 -0.00035091788330599949 0.00011901527118030736 0 -0.00035091788330599949 0.00011901527118030736 0 -0.00049746542804118322 0.00055323602104194545 0 -0.00058974016661790508 8.7288397091392532e-05 0 -0.00037841026378579467 -0.000326199658160988 0 -0.00035091788330599949 0.00011901527118030736 0 -0.00058974016661790508 8.7288397091392532e-05 0 -0.0002530499692057502 0.00070411972549742929 0 -0.0001766535449523237 0.00041444275258334352 0 -0.00049746542804118322 0.00055323602104194545 0 -0.00035091788330599949 0.00011901527118030736 0 -0.0001766535449523237 0.00041444275258334352 0 -0.00049746542804118322 0.00055323602104194545 0 -4.3641322133688781e-05 0.00059871769745202107 0 4.9900986372484101e-06 0.00044760458292077187 0 -0.0001766535449523237 0.00041444275258334352 0 -0.0002530499692057502 0.00070411972549742929 0 -4.3641322133688781e-05 0.00059871769745202107 0 -0.0001766535449523237 0.00041444275258334352 0 5.2307730121611552e-05 0.00064399718637136235 0 -4.3641322133688781e-05 0.00059871769745202107 0 8.3521004365120152e-05 0.00058187120590673315 0 8.3521004365120152e-05 0.00058187120590673315 0 4.9900986372484101e-06 0.00044760458292077187 0 0.0001287974930843547 0.00047776131002498983 0 -4.3641322133688781e-05 0.00059871769745202107 0 8.3521004365120152e-05 0.00058187120590673315 0 4.9900986372484101e-06 0.00044760458292077187 0 0.00021117977534580501 0.00037755583383012741 0 2.4329058984952399e-06 0.00016798288518934791 0 4.9900986372484101e-06 0.00044760458292077187 0 0.00021117977534580501 0.00037755583383012741 0 4.9900986372484101e-06 0.00044760458292077187 0 0.0001287974930843547 0.00047776131002498983 0 2.4329058984952399e-06 0.00016798288518934791 0 4.9900986372484101e-06 0.00044760458292077187 0 -0.0001766535449523237 0.00041444275258334352 0 -0.00063461237297118465 0.00085436815545867847 0 -0.00072958978218959141 0.00055441421106038763 0 -0.00075277219435694739 0.00095268324525390601 0 -0.00072958978218959141 0.00055441421106038763 0 -0.00049746542804118322 0.00055323602104194545 0 -0.00058974016661790508 8.7288397091392532e-05 0 -0.00063461237297118465 0.00085436815545867847 0 -0.00072958978218959141 0.00055441421106038763 0 -0.00049746542804118322 0.00055323602104194545 0 -0.00072958978218959141 0.00055441421106038763 0 -0.00058974016661790508 8.7288397091392532e-05 0 -0.0008179618120175003 6.8126238190751673e-05 0 -0.00033350632189680393 0.00026564753775094912 0 -0.00038664587042821922 0.00097213805517437646 0 -0.00072958978218959141 0.00055441421106038763 0 -0.0008179618120175003 6.8126238190751673e-05 0 -0.00084888167085960876 0.00064033006116962117 0 0.00017632251385456962 0.0004742728757311255 0 1.5409515860058386e-05 0.00055716258860604123 0 9.3096455894717137e-05 0.001313855693106433 0 0.00017632251385456962 0.0004742728757311255 0 6.6085477547784399e-05 -0.00019840086908705292 0 1.5409515860058386e-05 0.00055716258860604123 0 0.00015636329898477974 -0.00056370316025746087 0 0.00017632251385456962 0.0004742728757311255 0 6.6085477547784399e-05 -0.00019840086908705292 0 -0.00060497853659472909 -0.0007407153953668601 0 -0.00058974016661790508 8.7288397091392532e-05 0 -0.0008179618120175003 6.8126238190751673e-05 0 -0.0002468217363334901 -0.00064512671580019634 0 -0.00033350632189680393 0.00026564753775094912 0 0.00015636329898477974 -0.00056370316025746087 0 2.1815929897311704e-07 -0.00096442175652477449 0 6.6085477547784399e-05 -0.00019840086908705292 0 2.1815929897311704e-07 -0.00096442175652477449 0 6.6085477547784399e-05 -0.00019840086908705292 0 3.4527119569989385e-08 -0.00015471191322524825 0 6.6085477547784399e-05 -0.00019840086908705292 0 3.4527119569989385e-08 -0.00015471191322524825 0 1.5409515860058386e-05 0.00055716258860604123 0 3.4527119569989385e-08 -0.00015471191322524825 0 -5.8546897179443372e-08 0.00065500314866762533 0 1.5409515860058386e-05 0.00055716258860604123 0 -5.8546897179443372e-08 0.00065500314866762533 0 -6.240910929947025e-05 0.0011866827579977482 0 1.5409515860058386e-05 0.00055716258860604123 0 -6.240910929947025e-05 0.0011866827579977482 0 1.5409515860058386e-05 0.00055716258860604123 0 9.3096455894717137e-05 0.001313855693106433 0 -2.2837085313872734e-07 0.0014646224713245519 0 -0.00013559294631217546 0.0018134519593081004 0 -0.00012328919995984684 0.0021989933013007849 0 -6.240910929947025e-05 0.0011866827579977482 0 -2.2837085313872734e-07 0.0014646224713245519 0 -0.00013559294631217546 0.0018134519593081004 0 -5.8546897179443372e-08 0.00065500314866762533 0 -6.240910929947025e-05 0.0011866827579977482 0 -2.2837085313872734e-07 0.0014646224713245519 0 -6.240910929947025e-05 0.0011866827579977482 0 -0.00013559294631217546 0.0018134519593081004 0 -6.7630791840482454e-05 0.0019425862349528923 0 -0.00013559294631217546 0.0018134519593081004 0 -0.00019880497669063843 0.0022284684893831286 0 -0.00012328919995984684 0.0021989933013007849 0 -0.00013559294631217546 0.0018134519593081004 0 -0.00019880497669063843 0.0022284684893831286 0 -6.7630791840482454e-05 0.0019425862349528923 0 -6.240910929947025e-05 0.0011866827579977482 0 9.3096455894717137e-05 0.001313855693106433 0 -6.7630791840482454e-05 0.0019425862349528923 0 -0.00038664587042821922 0.00097213805517437646 0 -0.00043389141590507887 0.0015164760145502526 0 -0.00084888167085960876 0.00064033006116962117 0 -0.00080255385403890168 0.0011081995052194303 0 -0.00075277219435694739 0.00095268324525390601 0 -0.00072958978218959141 0.00055441421106038763 0 -0.00084888167085960876 0.00064033006116962117 0 -0.00075277219435694739 0.00095268324525390601 0 -0.00075277219435694739 0.00095268324525390601 0 -0.00067092196397202264 0.0011279825978911227 0 -0.0007235508518173185 0.0013248520873980437 0 -0.00080255385403890168 0.0011081995052194303 0 -0.00075277219435694739 0.00095268324525390601 0 -0.0007235508518173185 0.0013248520873980437 0 -0.00043389141590507887 0.0015164760145502526 0 -0.00041612510214441369 0.0019288795803403716 0 -0.00080255385403890168 0.0011081995052194303 0 -0.0007235508518173185 0.0013248520873980437 0 -0.00065774816813256721 0.0015983487313494095 0 -0.00019880497669063843 0.0022284684893831286 0 -6.7630791840482454e-05 0.0019425862349528923 0 -0.0002347634554733991 0.0022866008102353824 0 -0.00065774816813256721 0.0015983487313494095 0 -0.00061927053136167525 0.0016191446513641424 0 -0.00027489187760457498 0.0022085646235132238 0 -0.0007235508518173185 0.0013248520873980437 0 -0.00065774816813256721 0.0015983487313494095 0 -0.00061927053136167525 0.0016191446513641424 0 -0.0007235508518173185 0.0013248520873980437 0 -0.00061927053136167525 0.0016191446513641424 0 -0.00069256786782874522 0.0013339591199049725 0 -0.00061927053136167525 0.0016191446513641424 0 -0.00036098995385324892 0.0016506141408519962 0 -0.00056208466866070994 0.0014063434393746788 0 -0.00069256786782874522 0.0013339591199049725 0 -0.00064836938857318067 0.0013165289208223469 0 -0.00056208466866070994 0.0014063434393746788 0 -0.00061927053136167525 0.0016191446513641424 0 -0.00069256786782874522 0.0013339591199049725 0 -0.00056208466866070994 0.0014063434393746788 0 -0.00055242546129137559 0.0011138657230503055 0 -0.00059930112530117005 0.0011946754298349919 0 -0.00069256786782874522 0.0013339591199049725 0 -0.00055242546129137559 0.0011138657230503055 0 -0.00067092196397202264 0.0011279825978911227 0 -0.00069256786782874522 0.0013339591199049725 0 -0.00059930112530117005 0.0011946754298349919 0 -0.00069256786782874522 0.0013339591199049725 0 -0.00066208949061020799 0.0012758319332510401 0 -0.00067092196397202264 0.0011279825978911227 0 -0.0007235508518173185 0.0013248520873980437 0 -0.00069256786782874522 0.0013339591199049725 0 0.00028984961414139563 0.0027007586707731902 0 0.00022178366032902009 0.0027308462034253333 0 0.00012154307378345554 0.0015924963624396366 0 -0.00012270760500366476 0.0020613458851801705 0 0.00019855239567078542 0.0027395917026302773 0 -5.5923252919709529e-05 0.0033189653252996723 0 2.9627618269883166e-05 0.0036145102114299426 0 0.00019855239567078542 0.0027395917026302773 0 -5.5923252919709529e-05 0.0033189653252996723 0 2.9627618269883166e-05 0.0036145102114299426 0 -0.00019635778996232825 0.0037360064386424982 0 2.9627618269883166e-05 0.0036145102114299426 0 0.00049943626693428633 0.0037641484753703058 0 0.00015534789184034551 0.0040452092816025444 0 2.9627618269883166e-05 0.0036145102114299426 0 0.00049943626693428633 0.0037641484753703058 0 0.00019855239567078542 0.0027395917026302773 0 0.00012154307378345554 0.0015924963624396366 0 -0.00036098995385324892 0.0016506141408519962 0 -0.00012270760500366476 0.0020613458851801705 0 -0.00061927053136167525 0.0016191446513641424 0 -0.00036098995385324892 0.0016506141408519962 0 -0.00027489187760457498 0.0022085646235132238 0 -0.00036098995385324892 0.0016506141408519962 0 -0.00012270760500366476 0.0020613458851801705 0 -0.00027489187760457498 0.0022085646235132238 0 -0.00012270760500366476 0.0020613458851801705 0 -0.00027489187760457498 0.0022085646235132238 0 0.00019855239567078542 0.0027395917026302773 0 -0.00027489187760457498 0.0022085646235132238 0 -0.00012978014532823531 0.0025649272133365063 0 0.00019855239567078542 0.0027395917026302773 0 -0.00041612510214441369 0.0019288795803403716 0 -0.0002729223938986434 0.0021400149770974932 0 -0.00019880497669063843 0.0022284684893831286 0 -0.0002347634554733991 0.0022866008102353824 0 -0.00012978014532823531 0.0025649272133365063 0 -0.0002347634554733991 0.0022866008102353824 0 -0.00027489187760457498 0.0022085646235132238 0 -0.00012978014532823531 0.0025649272133365063 0 -0.00012978014532823531 0.0025649272133365063 0 1.8088152903073788e-05 0.0028658771791195219 0 0.00019855239567078542 0.0027395917026302773 0 1.8088152903073788e-05 0.0028658771791195219 0 0.00019855239567078542 0.0027395917026302773 0 -3.2135217625731217e-06 0.0031131553488093489 0 -5.5923252919709529e-05 0.0033189653252996723 0 0.00019855239567078542 0.0027395917026302773 0 -3.2135217625731217e-06 0.0031131553488093489 0 1.8088152903073788e-05 0.0028658771791195219 0 -3.2135217625731217e-06 0.0031131553488093489 0 -2.5592325119391327e-05 0.0031078304008598534 0 -6.2691420252531695e-05 0.0028437427277609698 0 -2.5592325119391327e-05 0.0031078304008598534 0 -6.6302262491737415e-05 0.0031037792775224201 0 1.8088152903073788e-05 0.0028658771791195219 0 -6.2691420252531695e-05 0.0028437427277609698 0 -2.5592325119391327e-05 0.0031078304008598534 0 -0.00012978014532823531 0.0025649272133365063 0 1.8088152903073788e-05 0.0028658771791195219 0 -6.2691420252531695e-05 0.0028437427277609698 0 -6.2691420252531695e-05 0.0028437427277609698 0 -0.00013986604100984162 0.002515547587448653 0 -9.2055966366914264e-05 0.0028641191213824597 0 -6.2691420252531695e-05 0.0028437427277609698 0 -9.2055966366914264e-05 0.0028641191213824597 0 -6.6302262491737415e-05 0.0031037792775224201 0 -0.00019880497669063843 0.0022284684893831286 0 -0.00012978014532823531 0.0025649272133365063 0 -0.00013986604100984162 0.002515547587448653 0 -0.00012978014532823531 0.0025649272133365063 0 -6.2691420252531695e-05 0.0028437427277609698 0 -0.00013986604100984162 0.002515547587448653 0 -0.00019880497669063843 0.0022284684893831286 0 -0.00013986604100984162 0.002515547587448653 0 -0.00012328919995984684 0.0021989933013007849 0 -0.00013986604100984162 0.002515547587448653 0 -8.7642807490895166e-05 0.0025847287076532122 0 -9.2055966366914264e-05 0.0028641191213824597 0 -0.00013986604100984162 0.002515547587448653 0 -0.00012328919995984684 0.0021989933013007849 0 -8.7642807490895166e-05 0.0025847287076532122 0 -8.7642807490895166e-05 0.0025847287076532122 0 -1.7700563855391982e-07 0.0022743287789963292 0 -1.2253599519067094e-07 0.0030839563000612273 0 -2.2837085313872734e-07 0.0014646224713245519 0 -0.00012328919995984684 0.0021989933013007849 0 -1.7700563855391982e-07 0.0022743287789963292 0 -0.00012328919995984684 0.0021989933013007849 0 -8.7642807490895166e-05 0.0025847287076532122 0 -1.7700563855391982e-07 0.0022743287789963292 0 -7.9948383602249819e-05 0.0032902474289432937 0 -9.2055966366914264e-05 0.0028641191213824597 0 -6.6302262491737415e-05 0.0031037792775224201 0 -8.7642807490895166e-05 0.0025847287076532122 0 -9.2055966366914264e-05 0.0028641191213824597 0 -1.2253599519067094e-07 0.0030839563000612273 0 -7.9948383602249819e-05 0.0032902474289432937 0 -9.2055966366914264e-05 0.0028641191213824597 0 -1.2253599519067094e-07 0.0030839563000612273 0 -7.9948383602249819e-05 0.0032902474289432937 0 -1.2253599519067094e-07 0.0030839563000612273 0 -4.8362840289028618e-07 0.0038937644965917049 0 -4.8362840289028618e-07 0.0038937644965917049 0 -3.5368452427767211e-05 0.0035762057339918775 0 1.3383428460599335e-06 0.0038916798797503692 0 -7.9948383602249819e-05 0.0032902474289432937 0 -4.8362840289028618e-07 0.0038937644965917049 0 -3.5368452427767211e-05 0.0035762057339918775 0 -7.9948383602249819e-05 0.0032902474289432937 0 -5.3078558853875946e-05 0.0033473875975106437 0 -6.6302262491737415e-05 0.0031037792775224201 0 -7.9948383602249819e-05 0.0032902474289432937 0 -3.5368452427767211e-05 0.0035762057339918775 0 -5.3078558853875946e-05 0.0033473875975106437 0 -3.5368452427767211e-05 0.0035762057339918775 0 -5.3078558853875946e-05 0.0033473875975106437 0 -2.5404907758679667e-06 0.0035014364423652648 0 6.0143386407927326e-05 0.0034430914674271258 0 -1.9918986416790505e-05 0.0032843428998295412 0 8.1352694183159282e-05 0.0033552459543896586 0 6.0143386407927326e-05 0.0034430914674271258 0 0.00026649433855821492 0.0035454262323912776 0 8.1352694183159282e-05 0.0033552459543896586 0 6.0143386407927326e-05 0.0034430914674271258 0 -2.5404907758679667e-06 0.0035014364423652648 0 8.884133316857446e-05 0.0035821311844061831 0 -5.3078558853875946e-05 0.0033473875975106437 0 -2.5404907758679667e-06 0.0035014364423652648 0 -1.9918986416790505e-05 0.0032843428998295412 0 6.0143386407927326e-05 0.0034430914674271258 0 -2.5404907758679667e-06 0.0035014364423652648 0 -1.9918986416790505e-05 0.0032843428998295412 0 -3.5368452427767211e-05 0.0035762057339918775 0 -2.5404907758679667e-06 0.0035014364423652648 0 1.3383428460599335e-06 0.0038916798797503692 0 8.884133316857446e-05 0.0035821311844061831 0 1.3383428460599335e-06 0.0038916798797503692 0 0.00026649433855821492 0.0035454262323912776 0 -2.5404907758679667e-06 0.0035014364423652648 0 8.884133316857446e-05 0.0035821311844061831 0 1.3383428460599335e-06 0.0038916798797503692 0 6.0143386407927326e-05 0.0034430914674271258 0 8.884133316857446e-05 0.0035821311844061831 0 0.00026649433855821492 0.0035454262323912776 0 1.3383428460599335e-06 0.0038916798797503692 0 1.0220052196679476e-06 0.0047022028243535897 0 0.00036358671378611485 0.0035979754270291237 0 -4.8362840289028618e-07 0.0038937644965917049 0 1.3383428460599335e-06 0.0038916798797503692 0 1.0220052196679476e-06 0.0047022028243535897 0 -6.6416020899349589e-05 0.0057441328820090733 0 0.00013791713235526945 0.0048663134474577607 0 1.7418148835679652e-07 0.0047030488927146822 0 0.00013791713235526945 0.0048663134474577607 0 2.7157518675147774e-07 0.0047045959915633399 0 -2.5602510129987619e-05 0.0050148998706132956 0 -2.7013547119919779e-07 0.005284946862277675 0 -2.5602510129987619e-05 0.0050148998706132956 0 -2.2338460585855603e-05 0.0051481767366089995 0 3.8136626621253179e-05 0.0051621294330466902 0 2.7157518675147774e-07 0.0047045959915633399 0 -2.5602510129987619e-05 0.0050148998706132956 0 3.8136626621253179e-05 0.0051621294330466902 0 -6.6416020899349589e-05 0.0057441328820090733 0 -1.8715436510783472e-07 0.0058665788367943022 0 -2.7013547119919779e-07 0.005284946862277675 0 -2.2338460585855603e-05 0.0051481767366089995 0 2.703269024222923e-07 0.005866444466111718 0 -2.5602510129987619e-05 0.0050148998706132956 0 -2.7013547119919779e-07 0.005284946862277675 0 -2.2338460585855603e-05 0.0051481767366089995 0 -4.2145766504854994e-05 0.0062194161543112081 0 -0.00018098002071126451 0.0062583179891571921 0 -6.1047824016707434e-05 0.0063391527836724818 0 0.00030133495336060991 0.0035589901890287681 0 -1.1620382977490977e-06 0.0032151390269508505 0 8.1352694183159282e-05 0.0033552459543896586 0 -4.2145766504854994e-05 0.0062194161543112081 0 -0.00021603998378557179 0.0062602840039168743 0 -0.00018098002071126451 0.0062583179891571921 0 0.00013791713235526945 0.0048663134474577607 0 -0.00020036820761979739 0.004728831639893012 0 -0.00021603998378557179 0.0062602840039168743 0 -0.00034501240610915749 0.0061846556113761232 0 -0.00018098002071126451 0.0062583179891571921 0 1.3383428460599335e-06 0.0038916798797503692 0 0.00036358671378611485 0.0035979754270291237 0 0.00026649433855821492 0.0035454262323912776 0 0.00013791713235526945 0.0048663134474577607 0 9.2946673656916194e-05 0.0047819561300319422 0 0.00030133495336060991 0.0035589901890287681 0 0.00026649433855821492 0.0035454262323912776 0 8.1352694183159282e-05 0.0033552459543896586 0 -1.1620382977490977e-06 0.0032151390269508505 0 8.1352694183159282e-05 0.0033552459543896586 0 -3.1991209415558251e-05 0.0032206614250954468 0 -1.1620382977490977e-06 0.0032151390269508505 0 -0.00015077071175614848 0.0032741338077008492 0 -3.1991209415558251e-05 0.0032206614250954468 0 -0.00018098002071126451 0.0062583179891571921 0 -0.00032850381162618673 0.0060966850397815619 0 -5.8626704232363475e-05 0.0061402319044899832 0 -0.00034501240610915749 0.0061846556113761232 0 -0.00018098002071126451 0.0062583179891571921 0 -0.00032850381162618673 0.0060966850397815619 0 -1.1235368346319319e-05 0.0064469427728996919 0 -0.00046494468043255764 0.0057850847624025285 0 -0.00032850381162618673 0.0060966850397815619 0 -5.8626704232363475e-05 0.0061402319044899832 0 -0.00048175388722987374 0.0056992266018066262 0 -0.00034501240610915749 0.0061846556113761232 0 -0.00032850381162618673 0.0060966850397815619 0 -0.00060792218655770331 0.0059113062064214432 0 -1.1620382977490977e-06 0.0032151390269508505 0 -0.00015077071175614848 0.0032741338077008492 0 -0.00043674384886323758 0.0033639009230989701 0 -0.00032850381162618673 0.0060966850397815619 0 -0.00060792218655770331 0.0059113062064214432 0 -0.00048175388722987374 0.0056992266018066262 0 -0.00020036820761979739 0.004728831639893012 0 -0.00046984702975079776 0.0046329360343034419 0 -0.00043674384886323758 0.0033639009230989701 0 -0.00022897268985407071 0.0033644009761564643 0 -0.00026049992657838441 0.0034667755487987131 0 -0.00015077071175614848 0.0032741338077008492 0 -0.00043674384886323758 0.0033639009230989701 0 -0.00022897268985407071 0.0033644009761564643 0 -0.00015077071175614848 0.0032741338077008492 0 -0.00022897268985407071 0.0033644009761564643 0 -0.00016001832553603999 0.0034251673144393927 0 -0.00015077071175614848 0.0032741338077008492 0 -6.2682676621408771e-05 0.0032539958627910933 0 -0.00016001832553603999 0.0034251673144393927 0 -0.00015077071175614848 0.0032741338077008492 0 -6.2682676621408771e-05 0.0032539958627910933 0 -3.1991209415558251e-05 0.0032206614250954468 0 -6.2682676621408771e-05 0.0032539958627910933 0 -4.2007886387747353e-05 0.0031713423757618962 0 -3.1991209415558251e-05 0.0032206614250954468 0 -6.2682676621408771e-05 0.0032539958627910933 0 -7.6620168619373667e-05 0.003364533176488829 0 -0.00016001832553603999 0.0034251673144393927 0 -2.5592325119391327e-05 0.0031078304008598534 0 -6.6302262491737415e-05 0.0031037792775224201 0 -4.2007886387747353e-05 0.0031713423757618962 0 -6.2682676621408771e-05 0.0032539958627910933 0 -2.5592325119391327e-05 0.0031078304008598534 0 -4.2007886387747353e-05 0.0031713423757618962 0 -6.2682676621408771e-05 0.0032539958627910933 0 -2.5592325119391327e-05 0.0031078304008598534 0 -7.6620168619373667e-05 0.003364533176488829 0 -5.3078558853875946e-05 0.0033473875975106437 0 -6.6302262491737415e-05 0.0031037792775224201 0 -1.9918986416790505e-05 0.0032843428998295412 0 -6.6302262491737415e-05 0.0031037792775224201 0 -4.2007886387747353e-05 0.0031713423757618962 0 -1.9918986416790505e-05 0.0032843428998295412 0 -1.9918986416790505e-05 0.0032843428998295412 0 8.1352694183159282e-05 0.0033552459543896586 0 -3.1991209415558251e-05 0.0032206614250954468 0 -4.2007886387747353e-05 0.0031713423757618962 0 -1.9918986416790505e-05 0.0032843428998295412 0 -3.1991209415558251e-05 0.0032206614250954468 0 0.00038179212699804331 0.0077032273784095693 0 0.00022882098764893 0.0071685193887389949 0 8.8014458566411258e-05 0.0078469638067863185 0 0.00038179212699804331 0.0077032273784095693 0 0.00018738505469143956 0.0080728748819612721 0 8.8014458566411258e-05 0.0078469638067863185 0 3.7285343758295553e-07 0.0067420246868447227 0 0.00022882098764893 0.0071685193887389949 0 1.3296983508383568e-07 0.007617719136369612 0 0.00022882098764893 0.0071685193887389949 0 1.3296983508383568e-07 0.007617719136369612 0 8.8014458566411258e-05 0.0078469638067863185 0 3.7285343758295553e-07 0.0067420246868447227 0 0.00022882098764893 0.0071685193887389949 0 -2.2347516465347409e-05 0.0065405891894057084 0 0.00023485592632305812 0.0071188618583193685 0 0.00034461062055601691 0.0069833449747498172 0 0.00038179212699804331 0.0077032273784095693 0 0.00022882098764893 0.0071685193887389949 0 0.00062217996527359689 0.0076249384431248844 0 0.00022882098764893 0.0071685193887389949 0 0.00072843117241121744 0.0076519567758830485 0 0.00062217996527359689 0.0076249384431248844 0 0.00022882098764893 0.0071685193887389949 0 -2.2347516465347409e-05 0.0065405891894057084 0 1.886683764568739e-05 0.0063253566239555806 0 -2.2347516465347409e-05 0.0065405891894057084 0 -6.1047824016707434e-05 0.0063391527836724818 0 1.886683764568739e-05 0.0063253566239555806 0 3.7285343758295553e-07 0.0067420246868447227 0 -2.2347516465347409e-05 0.0065405891894057084 0 -2.7384063816193677e-07 0.0058686145702336219 0 -2.2347516465347409e-05 0.0065405891894057084 0 -2.7384063816193677e-07 0.0058686145702336219 0 -6.1047824016707434e-05 0.0063391527836724818 0 -4.2145766504854994e-05 0.0062194161543112081 0 -2.7384063816193677e-07 0.0058686145702336219 0 -6.1047824016707434e-05 0.0063391527836724818 0 -1.1235368346319319e-05 0.0064469427728996919 0 0.00034461062055601691 0.0069833449747498172 0 -6.1047824016707434e-05 0.0063391527836724818 0 -5.8626704232363475e-05 0.0061402319044899832 0 1.886683764568739e-05 0.0063253566239555806 0 -0.00018098002071126451 0.0062583179891571921 0 -6.1047824016707434e-05 0.0063391527836724818 0 -5.8626704232363475e-05 0.0061402319044899832 0 9.2334406629741634e-07 0.0067792308211466834 0 0.00057361950981439733 0.0069663263431442631 0 0.00040668871848304286 0.0061041819469197121 0 0.00057361950981439733 0.0069663263431442631 0 0.00081308085973922414 0.0072407771194970237 0 0.00080775911900983076 0.0063028507353435174 0 0.00057361950981439733 0.0069663263431442631 0 0.00080775911900983076 0.0063028507353435174 0 0.00040668871848304286 0.0061041819469197121 0 0.00057361950981439733 0.0069663263431442631 0 0.0007646635888458608 0.0075023216002673213 0 0.00081308085973922414 0.0072407771194970237 0 9.2334406629741634e-07 0.0067792308211466834 0 0.00057361950981439733 0.0069663263431442631 0 0.00072843117241121744 0.0076519567758830485 0 0.00057361950981439733 0.0069663263431442631 0 0.00072843117241121744 0.0076519567758830485 0 0.0007646635888458608 0.0075023216002673213 0 0.00072843117241121744 0.0076519567758830485 0 0.00062217996527359689 0.0076249384431248844 0 0.0007646635888458608 0.0075023216002673213 0 0.00062217996527359689 0.0076249384431248844 0 0.00087664998128786289 0.0076819739041450244 0 0.0007646635888458608 0.0075023216002673213 0 0.00038179212699804331 0.0077032273784095693 0 0.00062217996527359689 0.0076249384431248844 0 0.00087664998128786289 0.0076819739041450244 0 0.00087664998128786289 0.0076819739041450244 0 0.0007646635888458608 0.0075023216002673213 0 0.00081308085973922414 0.0072407771194970237 0 0.0010660290869558015 0.0068098610331368504 0 0.00099105979971279455 0.0071210670653409141 0 0.00081308085973922414 0.0072407771194970237 0 0.0014631023276527723 0.0060969085948166081 0 0.00080775911900983076 0.0063028507353435174 0 0.00087664998128786289 0.0076819739041450244 0 0.00081308085973922414 0.0072407771194970237 0 0.0015010743520301561 0.0062625192418528418 0 0.00089577178346476915 0.0078704554817281558 0 0.00099105979971279455 0.0071210670653409141 0 0.00087664998128786289 0.0076819739041450244 0 0.00029954608255580294 0.0083696285176235816 0 0.00059508024036500969 0.0089371625538785925 0 0.00029954608255580294 0.0083696285176235816 0 0.00042419281323122774 0.0079333705721088763 0 0.00018738505469143956 0.0080728748819612721 0 0.00087664998128786289 0.0076819739041450244 0 0.00029954608255580294 0.0083696285176235816 0 0.00042419281323122774 0.0079333705721088763 0 0.00038179212699804331 0.0077032273784095693 0 0.00042419281323122774 0.0079333705721088763 0 0.00018738505469143956 0.0080728748819612721 0 0.00038179212699804331 0.0077032273784095693 0 0.00087664998128786289 0.0076819739041450244 0 0.00042419281323122774 0.0079333705721088763 0 0.00054124304771398636 0.0071528383270919654 0 0.00046339120177185878 0.0071542026752229836 0 0.0004751098602976688 0.007359966769262833 0 0.0014689854203835215 0.0055974516733974236 0 0.0012757507821131984 0.0053905675033773543 0 0.0015496976347774631 0.0051465431533270281 0 0.0010270851989599144 0.0062926445054230819 0 0.00047424323401662238 0.0061172153703213435 0 0.00054124304771398636 0.0071528383270919654 0 0.00046339120177185878 0.0071542026752229836 0 0.00061294724176843359 0.0069509218321358738 0 0.00027328977970137694 0.0092136590348183747 0 0.00059508024036500969 0.0089371625538785925 0 0.00012601276390463516 0.0089432955076151829 0 0.00029954608255580294 0.0083696285176235816 0 0.00059508024036500969 0.0089371625538785925 0 0.00012601276390463516 0.0089432955076151829 0 0.0010270851989599144 0.0062926445054230819 0 0.00099105979971279455 0.0071210670653409141 0 0.00028854934632581658 0.0083465143594095761 0 0.00099105979971279455 0.0071210670653409141 0 0.0014631023276527723 0.0060969085948166081 0 0.0010116301765590262 0.0058411766683437102 0 0.00080775911900983076 0.0063028507353435174 0 0.0014689854203835215 0.0055974516733974236 0 0.0014631023276527723 0.0060969085948166081 0 0.0010116301765590262 0.0058411766683437102 0 0.0014689854203835215 0.0055974516733974236 0 0.0010116301765590262 0.0058411766683437102 0 0.0010718485049979677 0.0054928777257147047 0 0.0010116301765590262 0.0058411766683437102 0 0.0010718485049979677 0.0054928777257147047 0 0.00084582031522582608 0.0055589901302027173 0 0.0014689854203835215 0.0055974516733974236 0 0.0010718485049979677 0.0054928777257147047 0 0.0012757507821131984 0.0053905675033773543 0 0.0010718485049979677 0.0054928777257147047 0 0.0012757507821131984 0.0053905675033773543 0 0.0010911404350450898 0.0053377670035929256 0 0.0010718485049979677 0.0054928777257147047 0 0.00087766559030770996 0.0053884692188078112 0 0.0010911404350450898 0.0053377670035929256 0 0.0010718485049979677 0.0054928777257147047 0 0.00087766559030770996 0.0053884692188078112 0 0.00084582031522582608 0.0055589901302027173 0 0.00087766559030770996 0.0053884692188078112 0 0.00065625622685032707 0.0053520514373923671 0 0.00084582031522582608 0.0055589901302027173 0 0.00065625622685032707 0.0053520514373923671 0 0.0003654175089689934 0.0054433647027682872 0 0.00035068122995583837 0.0051191372230113613 0 0.00065625622685032707 0.0053520514373923671 0 0.00065819464038804204 0.0057359687156706253 0 0.0003654175089689934 0.0054433647027682872 0 0.00065625622685032707 0.0053520514373923671 0 0.00084582031522582608 0.0055589901302027173 0 0.00065819464038804204 0.0057359687156706253 0 0.0010116301765590262 0.0058411766683437102 0 0.00084582031522582608 0.0055589901302027173 0 0.00065819464038804204 0.0057359687156706253 0 0.0010116301765590262 0.0058411766683437102 0 0.00065819464038804204 0.0057359687156706253 0 0.00080775911900983076 0.0063028507353435174 0 0.00065819464038804204 0.0057359687156706253 0 0.00080775911900983076 0.0063028507353435174 0 0.00040668871848304286 0.0061041819469197121 0 0.00065819464038804204 0.0057359687156706253 0 0.00040668871848304286 0.0061041819469197121 0 0.0003654175089689934 0.0054433647027682872 0 0.00040668871848304286 0.0061041819469197121 0 0.0003654175089689934 0.0054433647027682872 0 3.4833136477780862e-05 0.005576314799810864 0 9.2334406629741634e-07 0.0067792308211466834 0 0.00040668871848304286 0.0061041819469197121 0 3.4833136477780862e-05 0.005576314799810864 0 0.0003654175089689934 0.0054433647027682872 0 0.00012898125293522766 0.0050810858808435439 0 3.4833136477780862e-05 0.005576314799810864 0 0.0003654175089689934 0.0054433647027682872 0 0.00012898125293522766 0.0050810858808435439 0 0.00035068122995583837 0.0051191372230113613 0 0.00012898125293522766 0.0050810858808435439 0 0.00014442535721925342 0.0049038823728407019 0 0.00035068122995583837 0.0051191372230113613 0 0.00014442535721925342 0.0049038823728407019 0 0.00035068122995583837 0.0051191372230113613 0 0.00029642056597569918 0.004960005558518962 0 0.00035068122995583837 0.0051191372230113613 0 0.00029642056597569918 0.004960005558518962 0 0.00059092815665637418 0.0051502046882036159 0 0.00014442535721925342 0.0049038823728407019 0 0.00029642056597569918 0.004960005558518962 0 0.00012487197668516106 0.0048353541262125006 0 0.00029642056597569918 0.004960005558518962 0 0.00037554377417239063 0.0047521372342692334 0 0.00059092815665637418 0.0051502046882036159 0 0.00029642056597569918 0.004960005558518962 0 0.00037554377417239063 0.0047521372342692334 0 0.00012487197668516106 0.0048353541262125006 0 0.00037554377417239063 0.0047521372342692334 0 0.00012487197668516106 0.0048353541262125006 0 0.0001485352100209491 0.0047075035475954213 0 0.00037554377417239063 0.0047521372342692334 0 0.00059092815665637418 0.0051502046882036159 0 0.00079079809513740089 0.0055158598916079096 0 0.00093017370342529529 0.0055797555129265914 0 0.00077682290569343619 0.0054950561786771797 0 0.0015703296729647422 0.0064294647569287751 0 0.00079079809513740089 0.0055158598916079096 0 0.0010489082001167913 0.0065447102642550541 0 0.00059092815665637418 0.0051502046882036159 0 0.00082958834012144525 0.0052686654224315364 0 0.00079079809513740089 0.0055158598916079096 0 0.00065625622685032707 0.0053520514373923671 0 0.00035068122995583837 0.0051191372230113613 0 0.00059092815665637418 0.0051502046882036159 0 0.00065625622685032707 0.0053520514373923671 0 0.00059092815665637418 0.0051502046882036159 0 0.00082958834012144525 0.0052686654224315364 0 0.00087766559030770996 0.0053884692188078112 0 0.00065625622685032707 0.0053520514373923671 0 0.00082958834012144525 0.0052686654224315364 0 0.00082958834012144525 0.0052686654224315364 0 0.00079079809513740089 0.0055158598916079096 0 0.00010598266005047061 0.0054920939282719653 0 0.00082958834012144525 0.0052686654224315364 0 0.0010911404350450898 0.0053377670035929256 0 0.0015496976347774631 0.0051465431533270281 0 0.0010003651415963382 0.0051180205033086483 0 0.00047424323401662238 0.0061172153703213435 0 0.00087766559030770996 0.0053884692188078112 0 0.00082958834012144525 0.0052686654224315364 0 0.0010911404350450898 0.0053377670035929256 0 0.00079079809513740089 0.0055158598916079096 0 0.00064546036908825078 0.0063452543411132304 0 0.0010489082001167913 0.0065447102642550541 0 0.00079079809513740089 0.0055158598916079096 0 0.00064546036908825078 0.0063452543411132304 0 0.00036577751057535355 0.0060433935258459573 0 0.00036577751057535355 0.0060433935258459573 0 -3.8737547634738513e-05 0.0063723468930411741 0 0.00010598266005047061 0.0054920939282719653 0 0.00036577751057535355 0.0060433935258459573 0 -3.8737547634738513e-05 0.0063723468930411741 0 0.00028193504544696268 0.0066575466255786604 0 0.00064546036908825078 0.0063452543411132304 0 0.00036577751057535355 0.0060433935258459573 0 0.00028193504544696268 0.0066575466255786604 0 -3.8737547634738513e-05 0.0063723468930411741 0 0.00028193504544696268 0.0066575466255786604 0 -0.00015561403538818106 0.0070636869997854519 0 0.00079079809513740089 0.0055158598916079096 0 0.00036577751057535355 0.0060433935258459573 0 0.00010598266005047061 0.0054920939282719653 0 -3.8737547634738513e-05 0.0063723468930411741 0 4.5221976573204871e-05 0.006030362706969928 0 -0.00020612308285178566 0.0060329268995545741 0 -7.1736625377487995e-06 0.0062187407792067551 0 0.00047424323401662238 0.0061172153703213435 0 0.0012757507821131984 0.0053905675033773543 0 0.0010911404350450898 0.0053377670035929256 0 0.0015496976347774631 0.0051465431533270281 0 0.00046339120177185878 0.0071542026752229836 0 0.0004751098602976688 0.007359966769262833 0 0.00031789120529205055 0.0073639116403515156 0 0.00047424323401662238 0.0061172153703213435 0 -0.00031265745033053196 0.0078165625258125506 0 -0.0002096530349588263 0.003710932571276233 0 -8.6995366968596301e-05 0.0033773375014577119 0 -0.00018391416445715159 0.0037180297062164329 0 -0.0002096530349588263 0.003710932571276233 0 -0.00018391416445715159 0.0037180297062164329 0 -0.0003153278005704905 0.0040849765395276315 0 -0.0002096530349588263 0.003710932571276233 0 -0.0003153278005704905 0.0040849765395276315 0 -0.00033850306389367923 0.0039369624706656389 0 -5.5923252919709529e-05 0.0033189653252996723 0 -3.2135217625731217e-06 0.0031131553488093489 0 -0.00012875419895053201 0.0034663828670201259 0 -0.0002096530349588263 0.003710932571276233 0 -0.00012875419895053201 0.0034663828670201259 0 -0.0002371631852350122 0.003684347060229777 0 -3.2135217625731217e-06 0.0031131553488093489 0 -0.00012875419895053201 0.0034663828670201259 0 -8.6995366968596301e-05 0.0033773375014577119 0 -0.0002096530349588263 0.003710932571276233 0 -0.00012875419895053201 0.0034663828670201259 0 -8.6995366968596301e-05 0.0033773375014577119 0 -2.5592325119391327e-05 0.0031078304008598534 0 -8.6995366968596301e-05 0.0033773375014577119 0 -7.6620168619373667e-05 0.003364533176488829 0 -3.2135217625731217e-06 0.0031131553488093489 0 -2.5592325119391327e-05 0.0031078304008598534 0 -8.6995366968596301e-05 0.0033773375014577119 0 -8.6995366968596301e-05 0.0033773375014577119 0 -7.6620168619373667e-05 0.003364533176488829 0 -0.00018391416445715159 0.0037180297062164329 0 -7.6620168619373667e-05 0.003364533176488829 0 -0.00018391416445715159 0.0037180297062164329 0 -0.00016001832553603999 0.0034251673144393927 0 -0.00022897268985407071 0.0033644009761564643 0 -0.00016001832553603999 0.0034251673144393927 0 -0.00026049992657838441 0.0034667755487987131 0 -0.00043674384886323758 0.0033639009230989701 0 -0.00027230352195686027 0.0037434653412150216 0 -0.00047349746713538606 0.004570830586070317 0 -0.00043674384886323758 0.0033639009230989701 0 -0.00026049992657838441 0.0034667755487987131 0 -0.00027230352195686027 0.0037434653412150216 0 -0.00016001832553603999 0.0034251673144393927 0 -0.00026049992657838441 0.0034667755487987131 0 -0.00027230352195686027 0.0037434653412150216 0 -0.00046984702975079776 0.0046329360343034419 0 -0.0004874704321077259 0.0045588126812991375 0 -0.00060792218655770331 0.0059113062064214432 0 -0.00048175388722987374 0.0056992266018066262 0 -0.00047349746713538606 0.004570830586070317 0 -0.00018391416445715159 0.0037180297062164329 0 -0.00016001832553603999 0.0034251673144393927 0 -0.00027230352195686027 0.0037434653412150216 0 -0.00027230352195686027 0.0037434653412150216 0 -0.00029307221554397814 0.0040337339021901328 0 -0.00047349746713538606 0.004570830586070317 0 -0.00018391416445715159 0.0037180297062164329 0 -0.00027230352195686027 0.0037434653412150216 0 -0.00029307221554397814 0.0040337339021901328 0 -0.00048175388722987374 0.0056992266018066262 0 -0.00022230877556959525 0.0052191664187692171 0 3.4833136477780862e-05 0.005576314799810864 0 -0.00048175388722987374 0.0056992266018066262 0 -0.00022230877556959525 0.0052191664187692171 0 -0.00047349746713538606 0.004570830586070317 0 9.2334406629741634e-07 0.0067792308211466834 0 -0.00048175388722987374 0.0056992266018066262 0 3.4833136477780862e-05 0.005576314799810864 0 -0.00022230877556959525 0.0052191664187692171 0 3.4833136477780862e-05 0.005576314799810864 0 -7.2958524208222635e-05 0.0050160676418616445 0 0.00012898125293522766 0.0050810858808435439 0 3.4833136477780862e-05 0.005576314799810864 0 -7.2958524208222635e-05 0.0050160676418616445 0 -7.2958524208222635e-05 0.0050160676418616445 0 -9.5704816017093392e-05 0.0046518501680601057 0 -0.00047349746713538606 0.004570830586070317 0 -0.00022230877556959525 0.0052191664187692171 0 -7.2958524208222635e-05 0.0050160676418616445 0 -0.00047349746713538606 0.004570830586070317 0 0.00012898125293522766 0.0050810858808435439 0 -7.2958524208222635e-05 0.0050160676418616445 0 -9.5704816017093392e-05 0.0046518501680601057 0 0.00012898125293522766 0.0050810858808435439 0 0.00014442535721925342 0.0049038823728407019 0 -9.5704816017093392e-05 0.0046518501680601057 0 -0.00029307221554397814 0.0040337339021901328 0 -0.00047349746713538606 0.004570830586070317 0 -0.0003153278005704905 0.0040849765395276315 0 -0.00018391416445715159 0.0037180297062164329 0 -0.00029307221554397814 0.0040337339021901328 0 -0.0003153278005704905 0.0040849765395276315 0 -0.00047349746713538606 0.004570830586070317 0 -0.0003153278005704905 0.0040849765395276315 0 -0.00036299215589313095 0.0042685468312634901 0 -9.5704816017093392e-05 0.0046518501680601057 0 -0.00047349746713538606 0.004570830586070317 0 -0.00036299215589313095 0.0042685468312634901 0 -0.0003153278005704905 0.0040849765395276315 0 -0.00036299215589313095 0.0042685468312634901 0 -0.00033850306389367923 0.0039369624706656389 0 -0.00036299215589313095 0.0042685468312634901 0 -0.00038255963988768069 0.0039803930013821865 0 -0.00033850306389367923 0.0039369624706656389 0 -9.5704816017093392e-05 0.0046518501680601057 0 -0.00036299215589313095 0.0042685468312634901 0 -0.00034579437035807241 0.0038369342133069578 0 -0.00036299215589313095 0.0042685468312634901 0 -0.00038255963988768069 0.0039803930013821865 0 -0.00034579437035807241 0.0038369342133069578 0 -9.5704816017093392e-05 0.0046518501680601057 0 0.00012487197668516106 0.0048353541262125006 0 0.0001085585406568416 0.0048049633513247807 0 -7.828020237026573e-05 0.004626439422921398 0 -0.00014890783954502282 0.0043552747287849865 0 0.00014442535721925342 0.0049038823728407019 0 -9.5704816017093392e-05 0.0046518501680601057 0 0.00012487197668516106 0.0048353541262125006 0 0.00012487197668516106 0.0048353541262125006 0 0.0001085585406568416 0.0048049633513247807 0 0.0001485352100209491 0.0047075035475954213 0 -0.00038255963988768069 0.0039803930013821865 0 -0.00034579437035807241 0.0038369342133069578 0 -0.00036596909115007323 0.0038697575597716307 0 -0.00034579437035807241 0.0038369342133069578 0 -0.00036596909115007323 0.0038697575597716307 0 -0.00038094893616947678 0.0039517191156090087 0 -0.00036596909115007323 0.0038697575597716307 0 -0.0002801726300947821 0.0039390188921932896 0 -0.00038094893616947678 0.0039517191156090087 0 -0.00036596909115007323 0.0038697575597716307 0 -0.00019635778996232825 0.0037360064386424982 0 -0.0002801726300947821 0.0039390188921932896 0 -0.00038255963988768069 0.0039803930013821865 0 -0.00036596909115007323 0.0038697575597716307 0 -0.00033850306389367923 0.0039369624706656389 0 -0.00036596909115007323 0.0038697575597716307 0 -0.0002371631852350122 0.003684347060229777 0 -0.00019635778996232825 0.0037360064386424982 0 -0.00036596909115007323 0.0038697575597716307 0 -0.00033850306389367923 0.0039369624706656389 0 -0.0002371631852350122 0.003684347060229777 0 -0.0002096530349588263 0.003710932571276233 0 -0.00033850306389367923 0.0039369624706656389 0 -0.0002371631852350122 0.003684347060229777 0 -5.5923252919709529e-05 0.0033189653252996723 0 -0.0002371631852350122 0.003684347060229777 0 -0.00019635778996232825 0.0037360064386424982 0 -5.5923252919709529e-05 0.0033189653252996723 0 -0.00012875419895053201 0.0034663828670201259 0 -0.0002371631852350122 0.003684347060229777 0 2.9627618269883166e-05 0.0036145102114299426 0 -0.00019635778996232825 0.0037360064386424982 0 -9.4628110795068855e-05 0.0039060703477234019 0 -0.00019635778996232825 0.0037360064386424982 0 -9.4628110795068855e-05 0.0039060703477234019 0 -0.0002801726300947821 0.0039390188921932896 0 -9.4628110795068855e-05 0.0039060703477234019 0 -0.00014012394637643371 0.0041879701784171951 0 -0.0002801726300947821 0.0039390188921932896 0 -0.00014012394637643371 0.0041879701784171951 0 -0.0001272869083745506 0.0045236507007803952 0 0.00013951333893988402 0.0043829526187559023 0 -0.00014012394637643371 0.0041879701784171951 0 -0.00032912688428126481 0.0043017678184828498 0 -0.0001272869083745506 0.0045236507007803952 0 -0.00014012394637643371 0.0041879701784171951 0 -0.00032912688428126481 0.0043017678184828498 0 -0.00034637638590087882 0.0041017596520775941 0 -0.00032912688428126481 0.0043017678184828498 0 -0.00034637638590087882 0.0041017596520775941 0 -0.00049935322596634233 0.0041138525437313346 0 -0.00032912688428126481 0.0043017678184828498 0 -0.00049935322596634233 0.0041138525437313346 0 -0.00049874182190461677 0.0042838238800220717 0 -0.00014012394637643371 0.0041879701784171951 0 -0.00034637638590087882 0.0041017596520775941 0 -0.0002801726300947821 0.0039390188921932896 0 -0.00034637638590087882 0.0041017596520775941 0 -0.00038094893616947678 0.0039517191156090087 0 -0.00049935322596634233 0.0041138525437313346 0 -0.00034637638590087882 0.0041017596520775941 0 -0.0002801726300947821 0.0039390188921932896 0 -0.00038094893616947678 0.0039517191156090087 0 -0.00014890783954502282 0.0043552747287849865 0 -5.0189255546095058e-05 0.0043618085801485637 0 -0.00034579437035807241 0.0038369342133069578 0 -0.00038094893616947678 0.0039517191156090087 0 -0.00049935322596634233 0.0041138525437313346 0 0.0001085585406568416 0.0048049633513247807 0 0.0001485352100209491 0.0047075035475954213 0 8.4904364841698911e-05 0.0046971778430274233 0 0.0020663731898076928 0.0069159715699728804 0 0.0021212155987775398 0.0073932281277653868 0 0.0017167913392341924 0.0073659740900069715 0 0.0011888078549843217 0.0058662822967256827 0 0.00096371749770492263 0.0056866871046288596 0 0.0020663731898076928 0.0069159715699728804 0 0.0021212155987775398 0.0073932281277653868 0 0.0025188740874704453 0.0072960691269579828 0 0.0001485352100209491 0.0047075035475954213 0 8.4904364841698911e-05 0.0046971778430274233 0 7.8044596788263583e-05 0.0046809015067937861 0 -5.0189255546095058e-05 0.0043618085801485637 0 0.00096371749770492263 0.0056866871046288596 0 0.0021212155987775398 0.0073932281277653868 0 0.0025188740874704453 0.0072960691269579828 0 0.0023082638251110572 0.0076213846909517101 0 0.0025188740874704453 0.0072960691269579828 0 0.0023082638251110572 0.0076213846909517101 0 0.0026211669947074048 0.007694600653106589 0 0.0023082638251110572 0.0076213846909517101 0 0.0023993548502645821 0.0078717315489494986 0 0.0026211669947074048 0.007694600653106589 0 0.0023082638251110572 0.0076213846909517101 0 0.001966756164439028 0.0077509007012010233 0 0.0021912694331422556 0.0078939095797374865 0 0.0021212155987775398 0.0073932281277653868 0 0.0023082638251110572 0.0076213846909517101 0 0.001966756164439028 0.0077509007012010233 0 0.0021212155987775398 0.0073932281277653868 0 0.001966756164439028 0.0077509007012010233 0 0.0017167913392341924 0.0073659740900069715 0 0.001966756164439028 0.0077509007012010233 0 0.0020238663125120354 0.0080709054026949188 0 0.0017425228213467654 0.0081260437266328159 0 0.001966756164439028 0.0077509007012010233 0 0.0020238663125120354 0.0080709054026949188 0 0.0021912694331422556 0.0078939095797374865 0 0.0020238663125120354 0.0080709054026949188 0 0.0021912694331422556 0.0078939095797374865 0 0.0022958592314951546 0.0081062253717610853 0 0.0023993548502645821 0.0078717315489494986 0 0.0025059324871918175 0.0080417273098281929 0 0.0026211669947074048 0.007694600653106589 0 0.0023082638251110572 0.0076213846909517101 0 0.0023993548502645821 0.0078717315489494986 0 0.0021912694331422556 0.0078939095797374865 0 0.0023993548502645821 0.0078717315489494986 0 0.0021912694331422556 0.0078939095797374865 0 0.0022958592314951546 0.0081062253717610853 0 0.0023993548502645821 0.0078717315489494986 0 0.0022958592314951546 0.0081062253717610853 0 0.0025059324871918175 0.0080417273098281929 0 -0.00022701557856794763 0.0047888617352429509 0 -0.00044450816640231503 0.0046503206370624335 0 -0.00026117868947226963 0.0051577223744022618 0 0.0025059324871918175 0.0080417273098281929 0 0.0026211669947074048 0.007694600653106589 0 0.0027421023813402443 0.0082225694647188614 0 0.0011064622414838317 0.0062098677811541023 0 0.0012059982466113243 0.0065873172758103005 0 -0.00027587779357269784 0.0047488199927098775 0 0.0002380947202411789 0.0050840940630917861 0 -0.00022701557856794763 0.0047888617352429509 0 -6.9221995986460739e-05 0.0050622879460868854 0 -0.00026117868947226963 0.0051577223744022618 0 -0.00022701557856794763 0.0047888617352429509 0 -6.9221995986460739e-05 0.0050622879460868854 0 6.7585587641734749e-05 0.004998303219068953 0 -0.00022701557856794763 0.0047888617352429509 0 -0.0001272869083745506 0.0045236507007803952 0 0.00019185181682624495 0.0047598976986578554 0 -0.00032912688428126481 0.0043017678184828498 0 -0.0001272869083745506 0.0045236507007803952 0 -0.00044450816640231503 0.0046503206370624335 0 -0.00032912688428126481 0.0043017678184828498 0 -0.00049874182190461677 0.0042838238800220717 0 -0.00044450816640231503 0.0046503206370624335 0 0.00096371749770492263 0.0056866871046288596 0 0.0011064622414838317 0.0062098677811541023 0 -0.00022701557856794763 0.0047888617352429509 0 -0.0001272869083745506 0.0045236507007803952 0 -0.00044450816640231503 0.0046503206370624335 0 5.2346696850251205e-05 0.0075190767790395512 0 0.00027946857442077527 0.007118967900476684 0 -0.00015561403538818106 0.0070636869997854519 0 5.2346696850251205e-05 0.0075190767790395512 0 0.00027946857442077527 0.007118967900476684 0 0.00068665624174314797 0.0073620193761049363 0 0.00028193504544696268 0.0066575466255786604 0 0.00027946857442077527 0.007118967900476684 0 -0.00015561403538818106 0.0070636869997854519 0 0.00028193504544696268 0.0066575466255786604 0 0.00027946857442077527 0.007118967900476684 0 0.00068557840706806074 0.0068581433719394052 0 0.00064546036908825078 0.0063452543411132304 0 0.00028193504544696268 0.0066575466255786604 0 0.00068557840706806074 0.0068581433719394052 0 0.00064546036908825078 0.0063452543411132304 0 0.00068557840706806074 0.0068581433719394052 0 0.0010489082001167913 0.0065447102642550541 0 0.00068557840706806074 0.0068581433719394052 0 0.00068665624174314797 0.0073620193761049363 0 0.0013004913860257194 0.0070463407086678803 0 0.00027946857442077527 0.007118967900476684 0 0.00068557840706806074 0.0068581433719394052 0 0.00068665624174314797 0.0073620193761049363 0 0.00068665624174314797 0.0073620193761049363 0 0.0013004913860257194 0.0070463407086678803 0 0.0011848702889468467 0.0075786166991327749 0 0.0013004913860257194 0.0070463407086678803 0 0.0017167913392341924 0.0073659740900069715 0 0.0011848702889468467 0.0075786166991327749 0 0.00068557840706806074 0.0068581433719394052 0 0.0013004913860257194 0.0070463407086678803 0 0.0010489082001167913 0.0065447102642550541 0 0.0015703296729647422 0.0064294647569287751 0 0.0013004913860257194 0.0070463407086678803 0 0.0010489082001167913 0.0065447102642550541 0 0.00093017370342529529 0.0055797555129265914 0 0.0011888078549843217 0.0058662822967256827 0 0.0015703296729647422 0.0064294647569287751 0 0.0020663731898076928 0.0069159715699728804 0 0.0013004913860257194 0.0070463407086678803 0 0.0020663731898076928 0.0069159715699728804 0 0.0013004913860257194 0.0070463407086678803 0 0.0017167913392341924 0.0073659740900069715 0 0.0017167913392341924 0.0073659740900069715 0 0.0015212423411999449 0.0078627661971031656 0 0.0011848702889468467 0.0075786166991327749 0 0.001966756164439028 0.0077509007012010233 0 0.0017167913392341924 0.0073659740900069715 0 0.0015212423411999449 0.0078627661971031656 0 0.0015212423411999449 0.0078627661971031656 0 0.0017425228213467654 0.0081260437266328159 0 0.0013959569326399859 0.0083361031100429323 0 0.001966756164439028 0.0077509007012010233 0 0.0015212423411999449 0.0078627661971031656 0 0.0017425228213467654 0.0081260437266328159 0 0.0011099373244793996 0.007977818507300706 0 0.00082129155856909368 0.008253927347912025 0 0.0013959569326399859 0.0083361031100429323 0 0.0015212423411999449 0.0078627661971031656 0 0.0011099373244793996 0.007977818507300706 0 0.0013959569326399859 0.0083361031100429323 0 0.0015212423411999449 0.0078627661971031656 0 0.0011099373244793996 0.007977818507300706 0 0.0011848702889468467 0.0075786166991327749 0 0.0011099373244793996 0.007977818507300706 0 0.0011848702889468467 0.0075786166991327749 0 0.0006166991931445242 0.0078569374692610723 0 0.00068665624174314797 0.0073620193761049363 0 0.0011848702889468467 0.0075786166991327749 0 0.0006166991931445242 0.0078569374692610723 0 0.0006166991931445242 0.0078569374692610723 0 0.00040038698315368002 0.0083457872855842302 0 0.00082129155856909368 0.008253927347912025 0 0.0011099373244793996 0.007977818507300706 0 0.0006166991931445242 0.0078569374692610723 0 0.00082129155856909368 0.008253927347912025 0 0.0006166991931445242 0.0078569374692610723 0 0.00040038698315368002 0.0083457872855842302 0 4.7504547069013054e-05 0.0078732351758272652 0 5.2346696850251205e-05 0.0075190767790395512 0 0.0006166991931445242 0.0078569374692610723 0 4.7504547069013054e-05 0.0078732351758272652 0 5.2346696850251205e-05 0.0075190767790395512 0 0.00068665624174314797 0.0073620193761049363 0 0.0006166991931445242 0.0078569374692610723 0 0.0027893993935605016 0.0093789824059188776 0 0.0029247168351303962 0.0092988193859484588 0 0.0026142301171419905 0.0091614532084576365 0 0.0017870434193793775 0.0090512997886221247 0 0.0014296548906803526 0.0088223455026113715 0 0.0027893993935605016 0.0093789824059188776 0 0.0029247168351303962 0.0092988193859484588 0 0.0028904653371819981 0.0094917155143627221 0 0.00040038698315368002 0.0083457872855842302 0 0.00061736152793604978 0.0088116789912824501 0 0.00023514809658800308 0.0084704721092667169 0 0.00040038698315368002 0.0083457872855842302 0 0.00082129155856909368 0.008253927347912025 0 0.00061736152793604978 0.0088116789912824501 0 0.00082129155856909368 0.008253927347912025 0 0.00061736152793604978 0.0088116789912824501 0 0.0013959569326399859 0.0083361031100429323 0 0.0029247168351303962 0.0092988193859484588 0 0.0030336493778690206 0.0093215374923135419 0 0.0029968504253495608 0.0094136897482264333 0 0.0017870434193793775 0.0090512997886221247 0 0.0023378125548345324 0.009222855254492927 0 0.00061736152793604978 0.0088116789912824501 0 0.0016125999314243612 0.0091575104289919364 0 0.0013959569326399859 0.0083361031100429323 0 0.0016125999314243612 0.0091575104289919364 0 0.0013959569326399859 0.0083361031100429323 0 0.0027781343190827553 0.0087959758043695078 0 0.0017425228213467654 0.0081260437266328159 0 0.0013959569326399859 0.0083361031100429323 0 0.001938165038197696 0.0084252733419010496 0 0.0014864407716683725 0.0083563031837814803 0 0.0022514993421292422 0.0085767340914160318 0 0.0023378125548345324 0.009222855254492927 0 0.002888032045281424 0.009254538184180568 0 0.0030336493778690206 0.0093215374923135419 0 0.0030070491291382053 0.0092722391382778907 0 0.0029274101293277136 0.009242302236561974 0 0.0016125999314243612 0.0091575104289919364 0 0.0027781343190827553 0.0087959758043695078 0 0.0029274101293277136 0.009242302236561974 0 0.0030070491291382053 0.0092722391382778907 0 0.0030185774881574734 0.0093380977663471577 0 0.0030306625938513391 0.0092178160371327363 0 0.0030336493778690206 0.0093215374923135419 0 0.0030070491291382053 0.0092722391382778907 0 0.0030185774881574734 0.0093380977663471577 0 0.0030232461378331605 0.0093208878425062938 0 0.0030306625938513391 0.0092178160371327363 0 0.0030296035604584427 0.0092156254284232655 0 0.0030185774881574734 0.0093380977663471577 0 0.0030232461378331605 0.0093208878425062938 0 0.0030306625938513391 0.0092178160371327363 0 0.0030232461378331605 0.0093208878425062938 0 0.0030296035604584427 0.0092156254284232655 0 0.0030137172901014411 0.009339698929058728 0 0.0030232461378331605 0.0093208878425062938 0 0.0030021092778428514 0.0094521979423771215 0 0.0030137172901014411 0.009339698929058728 0 0.0030185774881574734 0.0093380977663471577 0 0.0030232461378331605 0.0093208878425062938 0 0.0030046258357621747 0.0094483464531739895 0 0.0030232461378331605 0.0093208878425062938 0 0.0030046258357621747 0.0094483464531739895 0 0.0030021092778428514 0.0094521979423771215 0 0.0030046258357621747 0.0094483464531739895 0 0.0029745628727986051 0.0095976641772353623 0 0.0030021092778428514 0.0094521979423771215 0 0.0030046258357621747 0.0094483464531739895 0 0.0029739480437970009 0.0095370477169815452 0 0.0029745628727986051 0.0095976641772353623 0 0.0030046258357621747 0.0094483464531739895 0 0.0029968504253495608 0.0094136897482264333 0 0.0029739480437970009 0.0095370477169815452 0 0.0030336493778690206 0.0093215374923135419 0 0.0030185774881574734 0.0093380977663471577 0 0.0029968504253495608 0.0094136897482264333 0 0.0030185774881574734 0.0093380977663471577 0 0.0030046258357621747 0.0094483464531739895 0 0.0029968504253495608 0.0094136897482264333 0 0.0029247168351303962 0.0092988193859484588 0 0.0029968504253495608 0.0094136897482264333 0 0.0028904653371819981 0.0094917155143627221 0 0.0029968504253495608 0.0094136897482264333 0 0.0029739480437970009 0.0095370477169815452 0 0.0028904653371819981 0.0094917155143627221 0 0.0029739480437970009 0.0095370477169815452 0 0.0029270756230373712 0.0097624737099637916 0 0.0029745628727986051 0.0095976641772353623 0 0.0029739480437970009 0.0095370477169815452 0 0.0029003604541361075 0.0096555291220443897 0 0.0029270756230373712 0.0097624737099637916 0 0.0029739480437970009 0.0095370477169815452 0 0.0029003604541361075 0.0096555291220443897 0 0.0028904653371819981 0.0094917155143627221 0 0.0029003604541361075 0.0096555291220443897 0 0.0027872790130630039 0.0097153964100823598 0 0.0028904653371819981 0.0094917155143627221 0 0.0029003604541361075 0.0096555291220443897 0 0.0027872790130630039 0.0097153964100823598 0 0.0028445644788385274 0.009898449841942247 0 0.0029003604541361075 0.0096555291220443897 0 0.0028445644788385274 0.009898449841942247 0 0.0029270756230373712 0.0097624737099637916 0 0.0027872790130630039 0.0097153964100823598 0 0.0026986968760302921 0.0099851929674751577 0 0.0028445644788385274 0.009898449841942247 0 0.0027872790130630039 0.0097153964100823598 0 0.0028904653371819981 0.0094917155143627221 0 0.0026778479172566375 0.0095433675650981164 0 0.0027893993935605016 0.0093789824059188776 0 0.0028904653371819981 0.0094917155143627221 0 0.0026778479172566375 0.0095433675650981164 0 0.0028694519015466076 0.0086529108992687703 0 0.0027421023813402443 0.0082225694647188614 0 0.0024503849752918745 0.008534138448860874 0 0.0015587924987759008 0.0074349368691276991 0 0.0029864831706653697 0.0091846361783200405 0 0.0021910649013568476 0.0095366733399705941 0 0.0030829353184984227 0.009355377612380306 0 0.0026453701019982924 0.0092682846291065029 0 -7.4849240008315523e-05 0.0054345907742436497 0 -5.588868968856369e-05 0.0053313526910173398 0 -0.00026117868947226963 0.0051577223744022618 0 0.0015587924987759008 0.0074349368691276991 0 0.0012059982466113243 0.0065873172758103005 0 -7.4849240008315523e-05 0.0054345907742436497 0 -2.132070349598236e-05 0.0053964333049746063 0 -5.588868968856369e-05 0.0053313526910173398 0 -2.132070349598236e-05 0.0053964333049746063 0 2.0488438938668095e-06 0.0054342163349864452 0 2.2937336774098254e-05 0.0053864327049737322 0 -7.4849240008315523e-05 0.0054345907742436497 0 -2.132070349598236e-05 0.0053964333049746063 0 2.0488438938668095e-06 0.0054342163349864452 0 -2.132070349598236e-05 0.0053964333049746063 0 -5.588868968856369e-05 0.0053313526910173398 0 2.2937336774098254e-05 0.0053864327049737322 0 -6.9221995986460739e-05 0.0050622879460868854 0 -0.00026117868947226963 0.0051577223744022618 0 -3.1342941602582627e-06 0.0052442019264379589 0 -5.588868968856369e-05 0.0053313526910173398 0 -0.00026117868947226963 0.0051577223744022618 0 -3.1342941602582627e-06 0.0052442019264379589 0 0.0025059324871918175 0.0080417273098281929 0 0.0027421023813402443 0.0082225694647188614 0 0.0024482429834159136 0.0082869529381616996 0 0.0027421023813402443 0.0082225694647188614 0 0.0024482429834159136 0.0082869529381616996 0 0.0024503849752918745 0.008534138448860874 0 0.0022958592314951546 0.0081062253717610853 0 0.0024482429834159136 0.0082869529381616996 0 0.001938165038197696 0.0084252733419010496 0 0.0022958592314951546 0.0081062253717610853 0 0.0025059324871918175 0.0080417273098281929 0 0.0024482429834159136 0.0082869529381616996 0 0.0024482429834159136 0.0082869529381616996 0 0.001938165038197696 0.0084252733419010496 0 0.0024503849752918745 0.008534138448860874 0 0.0020238663125120354 0.0080709054026949188 0 0.0022958592314951546 0.0081062253717610853 0 0.001938165038197696 0.0084252733419010496 0 0.0020238663125120354 0.0080709054026949188 0 0.0017425228213467654 0.0081260437266328159 0 0.001938165038197696 0.0084252733419010496 0 0.0027781343190827553 0.0087959758043695078 0 0.0029274101293277136 0.009242302236561974 0 0.0030829353184984227 0.009355377612380306 0 0.0022514993421292422 0.0085767340914160318 0 0.0029864831706653697 0.0091846361783200405 0 0.0029274101293277136 0.009242302236561974 0 0.0030829353184984227 0.009355377612380306 0 0.0030226396588860101 0.0092117406217249783 0 0.0030829353184984227 0.009355377612380306 0 0.0030659596519867806 0.0091363964555828143 0 0.0030226396588860101 0.0092117406217249783 0 0.0030829353184984227 0.009355377612380306 0 0.0030659596519867806 0.0091363964555828143 0 0.0028934131392367311 0.0090983855937151158 0 0.0030659596519867806 0.0091363964555828143 0 0.0030724678005615434 0.0089506550545775613 0 0.0028934131392367311 0.0090983855937151158 0 0.0030070491291382053 0.0092722391382778907 0 0.0029274101293277136 0.009242302236561974 0 0.0030306625938513391 0.0092178160371327363 0 0.0030659596519867806 0.0091363964555828143 0 0.0030226396588860101 0.0092117406217249783 0 0.0030306625938513391 0.0092178160371327363 0 0.0030659596519867806 0.0091363964555828143 0 0.0030306625938513391 0.0092178160371327363 0 0.0030806725162732182 0.0090201185501179882 0 0.0029274101293277136 0.009242302236561974 0 0.0030226396588860101 0.0092117406217249783 0 0.0030306625938513391 0.0092178160371327363 0 0.0030296035604584427 0.0092156254284232655 0 0.0030806725162732182 0.0090201185501179882 0 0.0030565176974535362 0.0090795188696326037 0 0.0030306625938513391 0.0092178160371327363 0 0.0030296035604584427 0.0092156254284232655 0 0.0030806725162732182 0.0090201185501179882 0 0.0030806725162732182 0.0090201185501179882 0 0.0031709496366063902 0.0085937106935617853 0 0.0030565176974535362 0.0090795188696326037 0 0.0030724678005615434 0.0089506550545775613 0 0.0030806725162732182 0.0090201185501179882 0 0.0031709496366063902 0.0085937106935617853 0 0.0030659596519867806 0.0091363964555828143 0 0.0030724678005615434 0.0089506550545775613 0 0.0030806725162732182 0.0090201185501179882 0 0.0030724678005615434 0.0089506550545775613 0 0.0031709496366063902 0.0085937106935617853 0 0.0028934131392367311 0.0090983855937151158 0 0.0031709496366063902 0.0085937106935617853 0 0.0028934131392367311 0.0090983855937151158 0 0.0022696102258283214 0.0088332413131527263 0 0.0031709496366063902 0.0085937106935617853 0 0.0022696102258283214 0.0088332413131527263 0 0.0022653600714434342 0.0079449461755618078 0 0.0030829353184984227 0.009355377612380306 0 0.0028934131392367311 0.0090983855937151158 0 0.0026453701019982924 0.0092682846291065029 0 0.0028934131392367311 0.0090983855937151158 0 0.0026453701019982924 0.0092682846291065029 0 0.0022696102258283214 0.0088332413131527263 0 0.0015587924987759008 0.0074349368691276991 0 0.0006388345848664655 0.0067897581796284891 0 0.0021910649013568476 0.0095366733399705941 0 0.0022696102258283214 0.0088332413131527263 0 0.0012231309455138846 0.0082768654877044753 0 -1.6817979418773597e-05 0.0054368059692806855 0 2.0488438938668095e-06 0.0054342163349864452 0 0.00013788318013948861 0.005459517133821843 0 0.0015587924987759008 0.0074349368691276991 0 0.00043482272487094145 0.006729819614944209 0 0.0021910649013568476 0.0095366733399705941 0 0.0026453701019982924 0.0092682846291065029 0 0.0022696102258283214 0.0088332413131527263 0 0.0022696102258283214 0.0088332413131527263 0 0.0022653600714434342 0.0079449461755618078 0 0.0012231309455138846 0.0082768654877044753 0 0.00013788318013948861 0.005459517133821843 0 0.00013677460715409492 0.0054509112880549984 0 0.0002422322685968607 0.005387948396539834 0 0.00013788318013948861 0.005459517133821843 0 0.00013677460715409492 0.0054509112880549984 0 7.4044527586544478e-05 0.0054416967102033928 0 0.00013677460715409492 0.0054509112880549984 0 5.7866093862899662e-05 0.0054614938999888712 0 -1.4222229735933874e-06 0.0053748541962693437 0 0.00013677460715409492 0.0054509112880549984 0 5.7866093862899662e-05 0.0054614938999888712 0 8.8505409463844782e-05 0.0054437869378489321 0 5.7866093862899662e-05 0.0054614938999888712 0 8.8505409463844782e-05 0.0054437869378489321 0 0.00010140021833612129 0.0054144197011143516 0 8.8505409463844782e-05 0.0054437869378489321 0 0.00010140021833612129 0.0054144197011143516 0 6.6323457970870288e-05 0.0053630272873533601 0 2.0488438938668095e-06 0.0054342163349864452 0 0.00013788318013948861 0.005459517133821843 0 7.4044527586544478e-05 0.0054416967102033928 0 0.00013677460715409492 0.0054509112880549984 0 8.8505409463844782e-05 0.0054437869378489321 0 7.4044527586544478e-05 0.0054416967102033928 0 8.8505409463844782e-05 0.0054437869378489321 0 7.4044527586544478e-05 0.0054416967102033928 0 6.6323457970870288e-05 0.0053630272873533601 0 2.0488438938668095e-06 0.0054342163349864452 0 7.4044527586544478e-05 0.0054416967102033928 0 2.2937336774098254e-05 0.0053864327049737322 0 6.6323457970870288e-05 0.0053630272873533601 0 0.00010530087906667561 0.0052106716230702109 0 -3.1342941602582627e-06 0.0052442019264379589 0 2.2937336774098254e-05 0.0053864327049737322 0 6.6323457970870288e-05 0.0053630272873533601 0 -3.1342941602582627e-06 0.0052442019264379589 0 -5.588868968856369e-05 0.0053313526910173398 0 2.2937336774098254e-05 0.0053864327049737322 0 -3.1342941602582627e-06 0.0052442019264379589 0 7.4044527586544478e-05 0.0054416967102033928 0 2.2937336774098254e-05 0.0053864327049737322 0 6.6323457970870288e-05 0.0053630272873533601 0 0.00010140021833612129 0.0054144197011143516 0 6.6323457970870288e-05 0.0053630272873533601 0 0.00010530087906667561 0.0052106716230702109 0 0.00010140021833612129 0.0054144197011143516 0 0.00010530087906667561 0.0052106716230702109 0 0.00018750831802172825 0.0053317344183985618 0 0.00010530087906667561 0.0052106716230702109 0 2.995947455619714e-05 0.0051292567094389013 0 -3.1342941602582627e-06 0.0052442019264379589 0 0.00010530087906667561 0.0052106716230702109 0 2.995947455619714e-05 0.0051292567094389013 0 6.7585587641734749e-05 0.004998303219068953 0 -6.9221995986460739e-05 0.0050622879460868854 0 2.995947455619714e-05 0.0051292567094389013 0 -3.1342941602582627e-06 0.0052442019264379589 0 -0.00064293300423777272 0.0016455207459650282 0 -0.00070587896363581584 0.0016400113291417545 0 -0.00068502545095556642 0.001693539164456033 0 -0.00025866330285634597 0.0035368511609259797 0 -9.1724524626326324e-06 0.0031491218214305533 0 -0.00064293300423777272 0.0016455207459650282 0 -0.00061980441800358688 0.001722758120532755 0 -0.00068502545095556642 0.001693539164456033 0 0.00010530087906667561 0.0052106716230702109 0 0.00018750831802172825 0.0053317344183985618 0 0.00023299075296082106 0.0050638538984280638 0 -0.00064293300423777272 0.0016455207459650282 0 -0.00069106214033868305 0.0016025268468964229 0 -0.00070587896363581584 0.0016400113291417545 0 -0.00064293300423777272 0.0016455207459650282 0 -0.00069106214033868305 0.0016025268468964229 0 -0.00068628637415295518 0.0015840079900474474 0 -0.00025866330285634597 0.0035368511609259797 0 -0.00038044498384734497 0.0035094177308233844 0 0.00010140021833612129 0.0054144197011143516 0 0.00018750831802172825 0.0053317344183985618 0 -6.0663212292777106e-05 0.0054946254188506247 0 5.7866093862899662e-05 0.0054614938999888712 0 0.00010140021833612129 0.0054144197011143516 0 -6.0663212292777106e-05 0.0054946254188506247 0 5.7866093862899662e-05 0.0054614938999888712 0 -6.0663212292777106e-05 0.0054946254188506247 0 -1.4222229735933874e-06 0.0053748541962693437 0 -0.00069106214033868305 0.0016025268468964229 0 -0.00068628637415295518 0.0015840079900474474 0 -0.00071921373552335231 0.0015553210193446187 0 -0.00071921373552335231 0.0015553210193446187 0 -0.00072969256825699776 0.0015413245905965801 0 -0.00071707586610286116 0.0015892559703473805 0 -0.00072969256825699776 0.0015413245905965801 0 -0.00071707586610286116 0.0015892559703473805 0 -0.00074284917453208742 0.0015749224900373842 0 -0.00069106214033868305 0.0016025268468964229 0 -0.00071921373552335231 0.0015553210193446187 0 -0.00071707586610286116 0.0015892559703473805 0 -0.00073787935857185622 0.0015100885851962425 0 -0.00075714745083538596 0.001525381516500845 0 -0.00073453810398258607 0.0015119084202423055 0 -0.00072969256825699776 0.0015413245905965801 0 -0.00075714745083538596 0.001525381516500845 0 -0.00074284917453208742 0.0015749224900373842 0 -0.00072969256825699776 0.0015413245905965801 0 -0.00075714745083538596 0.001525381516500845 0 -0.00073453810398258607 0.0015119084202423055 0 -0.00075714745083538596 0.001525381516500845 0 -0.00074284917453208742 0.0015749224900373842 0 -0.00077991793941031113 0.0016045040416069912 0 -0.00075714745083538596 0.001525381516500845 0 -0.00074452036964918651 0.0014737197114626326 0 -0.00077934820032643103 0.0014414862030899867 0 -0.00073787935857185622 0.0015100885851962425 0 -0.00075714745083538596 0.001525381516500845 0 -0.00074452036964918651 0.0014737197114626326 0 -0.00075697357084446293 0.0014985002260106417 0 -0.00080172058644348233 0.0015862069696060102 0 -0.00073629642104644153 0.0014178340533653098 0 -0.00077934820032643103 0.0014414862030899867 0 -0.00077598279074639061 0.0013648614120315328 0 -0.00073629642104644153 0.0014178340533653098 0 -0.00074452036964918651 0.0014737197114626326 0 -0.00077934820032643103 0.0014414862030899867 0 -0.00074284917453208742 0.0015749224900373842 0 -0.00077991793941031113 0.0016045040416069912 0 -0.00074690410871920384 0.0016290366871865934 0 -0.00077991793941031113 0.0016045040416069912 0 -0.00074690410871920384 0.0016290366871865934 0 -0.00078126529813953515 0.0016561306481443746 0 -0.00074690410871920384 0.0016290366871865934 0 -0.00078126529813953515 0.0016561306481443746 0 -0.00073303841989449839 0.0016685063652883952 0 -0.00053464248665365845 0.0012301346864131018 0 -0.000547034861525132 0.001403543927484596 0 -0.00080172058644348233 0.0015862069696060102 0 -0.00053464248665365845 0.0012301346864131018 0 -0.00073629642104644153 0.0014178340533653098 0 -0.00071270404018428644 0.0013709569857403171 0 -0.00077598279074639061 0.0013648614120315328 0 -0.00047839315118280382 0.00100285056706484 0 -0.00053464248665365845 0.0012301346864131018 0 -0.00069106214033868305 0.0016025268468964229 0 -0.00071707586610286116 0.0015892559703473805 0 -0.00070587896363581584 0.0016400113291417545 0 -0.00071707586610286116 0.0015892559703473805 0 -0.00074690410871920384 0.0016290366871865934 0 -0.00070587896363581584 0.0016400113291417545 0 -0.00071707586610286116 0.0015892559703473805 0 -0.00074284917453208742 0.0015749224900373842 0 -0.00074690410871920384 0.0016290366871865934 0 -0.00074690410871920384 0.0016290366871865934 0 -0.00070587896363581584 0.0016400113291417545 0 -0.00073303841989449839 0.0016685063652883952 0 -0.00070587896363581584 0.0016400113291417545 0 -0.00073303841989449839 0.0016685063652883952 0 -0.00068502545095556642 0.001693539164456033 0 -0.00042083545528135151 0.001060037155066222 0 -0.00047679957847740468 0.0010911389706620058 0 -0.00036124461634383609 0.00099873106511380529 0 -0.000547034861525132 0.001403543927484596 0 -0.00062265488596752508 0.0011478086711727224 0 -0.00042083545528135151 0.001060037155066222 0 -0.00047679957847740468 0.0010911389706620058 0 -0.00037393405338197351 0.0010530293002715527 0 -0.00047679957847740468 0.0010911389706620058 0 -0.00037393405338197351 0.0010530293002715527 0 -0.00033456600505785155 0.00098164613446998276 0 -0.00047679957847740468 0.0010911389706620058 0 -0.00036124461634383609 0.00099873106511380529 0 -0.00027763578619190686 0.001101779416418843 0 -0.00053464248665365845 0.0012301346864131018 0 -0.00023500497894152886 0.00082814169526890106 0 -0.00024956433286057306 0.00072927900189076694 0 -0.00019156308408343074 0.0006853591251553638 0 -0.00019415057083801933 0.00075588107879710851 0 -0.00026510995185024844 0.00066730580662107287 0 -0.00024956433286057306 0.00072927900189076694 0 -0.00019156308408343074 0.0006853591251553638 0 -0.00031007872173261468 0.0011168099442231114 0 -0.00028111859998319492 0.0010344646050855237 0 -0.00037393405338197351 0.0010530293002715527 0 -0.00031007872173261468 0.0011168099442231114 0 -0.00042083545528135151 0.001060037155066222 0 -0.00037393405338197351 0.0010530293002715527 0 -0.00047679957847740468 0.0010911389706620058 0 -0.00033456600505785155 0.00098164613446998276 0 -0.00030279596202287452 0.00086386079020441605 0 -0.00028111859998319492 0.0010344646050855237 0 -0.00033456600505785155 0.00098164613446998276 0 -0.00024194178755503724 0.00087027478853659321 0 -0.00028111859998319492 0.0010344646050855237 0 -0.00037393405338197351 0.0010530293002715527 0 -0.00033456600505785155 0.00098164613446998276 0 -0.00023500497894152886 0.00082814169526890106 0 -0.00024112472424303228 0.00088901251311169691 0 -0.00019415057083801933 0.00075588107879710851 0 -0.00024398559438393148 0.00080982694726679997 0 -0.00024194178755503724 0.00087027478853659321 0 -0.00024956433286057306 0.00072927900189076694 0 -0.00019415057083801933 0.00075588107879710851 0 -0.00024398559438393148 0.00080982694726679997 0 -0.00021681555871143663 0.00085722961198835467 0 -0.00024398559438393148 0.00080982694726679997 0 -0.00024194178755503724 0.00087027478853659321 0 -0.00041479737157394241 0.00105758533626319 0 -0.00047947484703403587 0.0010583735889339717 0 -0.00021681555871143663 0.00085722961198835467 0 -0.00024194178755503724 0.00087027478853659321 0 -0.00030279596202287452 0.00086386079020441605 0 -0.00033456600505785155 0.00098164613446998276 0 -0.00024194178755503724 0.00087027478853659321 0 -0.00030279596202287452 0.00086386079020441605 0 -0.00067882313915205376 0.0012420639252411932 0 -0.00064836938857318067 0.0013165289208223469 0 -0.00066208949061020799 0.0012758319332510401 0 -0.00069256786782874522 0.0013339591199049725 0 -0.00064836938857318067 0.0013165289208223469 0 -0.00066208949061020799 0.0012758319332510401 0 -0.00059533291232792454 0.0012738545330864214 0 -0.00059930112530117005 0.0011946754298349919 0 -0.00066208949061020799 0.0012758319332510401 0 -0.00059533291232792454 0.0012738545330864214 0 -0.00067882313915205376 0.0012420639252411932 0 -0.00066208949061020799 0.0012758319332510401 0 -0.00047679957847740468 0.0010911389706620058 0 -0.00056208466866070994 0.0014063434393746788 0 -0.00030167791291764765 0.0013083286924926345 0 -0.00047679957847740468 0.0010911389706620058 0 -0.00067882313915205376 0.0012420639252411932 0 -0.00064836938857318067 0.0013165289208223469 0 -0.00047065901901660189 0.0010792304057898549 0 -0.00047947484703403587 0.0010583735889339717 0 -0.00047679957847740468 0.0010911389706620058 0 -0.00064836938857318067 0.0013165289208223469 0 -0.00056208466866070994 0.0014063434393746788 0 -0.00036098995385324892 0.0016506141408519962 0 -0.00056208466866070994 0.0014063434393746788 0 -0.00030167791291764765 0.0013083286924926345 0 -0.00047679957847740468 0.0010911389706620058 0 -0.00030167791291764765 0.0013083286924926345 0 -0.00027763578619190686 0.001101779416418843 0 -0.00030167791291764765 0.0013083286924926345 0 -4.9186921145402888e-05 0.0012083694325041477 0 -0.00027763578619190686 0.001101779416418843 0 0.00012154307378345554 0.0015924963624396366 0 -0.00030167791291764765 0.0013083286924926345 0 -4.9186921145402888e-05 0.0012083694325041477 0 0.00012154307378345554 0.0015924963624396366 0 -0.00036098995385324892 0.0016506141408519962 0 -0.00030167791291764765 0.0013083286924926345 0 0.00028984961414139563 0.0027007586707731902 0 0.00028467950193176886 0.0027063296359465675 0 0.00049943626693428633 0.0037641484753703058 0 0.00054683356520342154 0.00431167454082944 0 0.00015534789184034551 0.0040452092816025444 0 -9.4628110795068855e-05 0.0039060703477234019 0 -0.00014012394637643371 0.0041879701784171951 0 0.00015534789184034551 0.0040452092816025444 0 2.9627618269883166e-05 0.0036145102114299426 0 -9.4628110795068855e-05 0.0039060703477234019 0 0.00015534789184034551 0.0040452092816025444 0 -0.00014012394637643371 0.0041879701784171951 0 0.00015534789184034551 0.0040452092816025444 0 0.00013951333893988402 0.0043829526187559023 0 0.00054683356520342154 0.00431167454082944 0 0.00015534789184034551 0.0040452092816025444 0 0.00013951333893988402 0.0043829526187559023 0 0.00054683356520342154 0.00431167454082944 0 0.00019185181682624495 0.0047598976986578554 0 0.00060314142069219697 0.0047853585747521833 0 0.00054683356520342154 0.00431167454082944 0 0.00013951333893988402 0.0043829526187559023 0 0.00019185181682624495 0.0047598976986578554 0 -0.0001272869083745506 0.0045236507007803952 0 0.00013951333893988402 0.0043829526187559023 0 0.00019185181682624495 0.0047598976986578554 0 -6.9221995986460739e-05 0.0050622879460868854 0 2.995947455619714e-05 0.0051292567094389013 0 6.7585587641734749e-05 0.004998303219068953 0 0.00010530087906667561 0.0052106716230702109 0 6.7585587641734749e-05 0.004998303219068953 0 0.00023299075296082106 0.0050638538984280638 0 0.0002380947202411789 0.0050840940630917861 0 -9.1724524626326324e-06 0.0031491218214305533 0 -0.00015218884903611725 0.00098872355010226273 0 -0.00036124461634383609 0.00099873106511380529 0 -0.00027763578619190686 0.001101779416418843 0 -9.1724524626326324e-06 0.0031491218214305533 0 -0.00062265488596752508 0.0011478086711727224 0 -4.9186921145402888e-05 0.0012083694325041477 0 -0.00015218884903611725 0.00098872355010226273 0 -0.00027763578619190686 0.001101779416418843 0 0.00028467950193176886 0.0027063296359465675 0 -9.1724524626326324e-06 0.0031491218214305533 0 -0.00057498233409661358 0.014271758012248514 0 -0.00023804583227080483 0.014560408440410079 0 -0.00048051787218650089 0.0143018220224621 0 -0.00052643185573650038 0.013815991115736195 0 -0.00090016353972223494 0.013705802850310414 0 -0.00014706866707242262 0.014680712159322705 0 -0.00048051787218650089 0.0143018220224621 0 -0.00016998678375161028 0.015196966922215765 0 -0.00014706866707242262 0.014680712159322705 0 -3.8682178477888481e-05 0.01480679748344986 0 -9.0356065169075933e-05 0.014597442916525045 0 -0.00014706866707242262 0.014680712159322705 0 -9.0356065169075933e-05 0.014597442916525045 0 -0.00048051787218650089 0.0143018220224621 0 -0.00014706866707242262 0.014680712159322705 0 -3.0865113846548728e-05 0.014886132218140991 0 -3.8682178477888481e-05 0.01480679748344986 0 -0.00014706866707242262 0.014680712159322705 0 -3.0865113846548728e-05 0.014886132218140991 0 -0.00016998678375161028 0.015196966922215765 0 -3.0865113846548728e-05 0.014886132218140991 0 -3.8682178477888481e-05 0.01480679748344986 0 -2.2742187835332359e-06 0.014943139386439814 0 -3.8682178477888481e-05 0.01480679748344986 0 -3.375145120924835e-08 0.014999528967532224 0 -2.2742187835332359e-06 0.014943139386439814 0 -3.375145120924835e-08 0.014999528967532224 0 2.8837366004002803e-08 0.014999993277796941 0 -2.2742187835332359e-06 0.014943139386439814 0 -3.375145120924835e-08 0.014999528967532224 0 -5.8294881642854596e-05 0.014859245392866491 0 -9.5268112082428097e-08 0.014999923259524948 0 -3.8682178477888481e-05 0.01480679748344986 0 -3.375145120924835e-08 0.014999528967532224 0 -5.8294881642854596e-05 0.014859245392866491 0 -3.8682178477888481e-05 0.01480679748344986 0 -5.8294881642854596e-05 0.014859245392866491 0 -9.0356065169075933e-05 0.014597442916525045 0 -9.0356065169075933e-05 0.014597442916525045 0 7.3647624387139331e-05 0.014863139227481345 0 -2.6597885352866886e-05 0.014922629646232139 0 -5.8294881642854596e-05 0.014859245392866491 0 -9.0356065169075933e-05 0.014597442916525045 0 -2.6597885352866886e-05 0.014922629646232139 0 -9.0356065169075933e-05 0.014597442916525045 0 -0.00043528693595030452 0.014193204677151572 0 -0.00048051787218650089 0.0143018220224621 0 -9.0356065169075933e-05 0.014597442916525045 0 -0.00043528693595030452 0.014193204677151572 0 -0.00035992187649595825 0.013976848618400897 0 -0.00010128753031965727 0.014546700608553889 0 -0.00015446820927281183 0.014435909748826728 0 -0.00045420716280944782 0.014010262384656406 0 -0.00043528693595030452 0.014193204677151572 0 -0.00035992187649595825 0.013976848618400897 0 -0.00045420716280944782 0.014010262384656406 0 -0.00043528693595030452 0.014193204677151572 0 -0.00042533381400683938 0.014007164030109471 0 -0.00043528693595030452 0.014193204677151572 0 -0.00042533381400683938 0.014007164030109471 0 -0.00048051787218650089 0.0143018220224621 0 -0.00045420716280944782 0.014010262384656406 0 -0.00041071733216723719 0.013910396145676966 0 -0.00042533381400683938 0.014007164030109471 0 -0.00045420716280944782 0.014010262384656406 0 -0.00041071733216723719 0.013910396145676966 0 -0.00042825023221826656 0.013943679652636638 0 -0.00041071733216723719 0.013910396145676966 0 -0.00042533381400683938 0.014007164030109471 0 -0.00033633576548966574 0.013769090420660605 0 -0.00042533381400683938 0.014007164030109471 0 -0.00035822907905802082 0.013808794465889222 0 -0.00033633576548966574 0.013769090420660605 0 -0.00042533381400683938 0.014007164030109471 0 -0.00035822907905802082 0.013808794465889222 0 -0.00041175274953172758 0.013927510630776716 0 -0.00035822907905802082 0.013808794465889222 0 -0.00041175274953172758 0.013927510630776716 0 -0.00035384687774426383 0.01362859412179504 0 -0.00035822907905802082 0.013808794465889222 0 -0.00028016267902537725 0.013624489149052846 0 -0.00033633576548966574 0.013769090420660605 0 -0.00042533381400683938 0.014007164030109471 0 -0.00048051787218650089 0.0143018220224621 0 -0.00041175274953172758 0.013927510630776716 0 -0.00048051787218650089 0.0143018220224621 0 -0.00041175274953172758 0.013927510630776716 0 -0.00052643185573650038 0.013815991115736195 0 -0.00052643185573650038 0.013815991115736195 0 -0.00050419801711092669 0.013551074647717537 0 -0.00090016353972223494 0.013705802850310414 0 -0.00041175274953172758 0.013927510630776716 0 -0.00052643185573650038 0.013815991115736195 0 -0.00035384687774426383 0.01362859412179504 0 -0.00052643185573650038 0.013815991115736195 0 -0.00050419801711092669 0.013551074647717537 0 -0.00035384687774426383 0.01362859412179504 0 -0.00035384687774426383 0.01362859412179504 0 -0.00018768326965938292 0.013435946835427306 0 -0.00028016267902537725 0.013624489149052846 0 -0.00035822907905802082 0.013808794465889222 0 -0.00035384687774426383 0.01362859412179504 0 -0.00028016267902537725 0.013624489149052846 0 -0.00050419801711092669 0.013551074647717537 0 -0.00035384687774426383 0.01362859412179504 0 -0.00029368752933177253 0.013342383332115761 0 -0.00050419801711092669 0.013551074647717537 0 -0.00029368752933177253 0.013342383332115761 0 -0.00045656666437399261 0.013299520319369883 0 -0.00035384687774426383 0.01362859412179504 0 -0.00029368752933177253 0.013342383332115761 0 -0.00018768326965938292 0.013435946835427306 0 -0.00050419801711092669 0.013551074647717537 0 -0.00062592841274434509 0.01337116237846105 0 -0.00045656666437399261 0.013299520319369883 0 -4.766532679733149e-05 0.014959368773097559 0 -3.0778705488003895e-05 0.014922780980251658 0 -1.1041880783540562e-05 0.014955601916470076 0 -4.766532679733149e-05 0.014959368773097559 0 -1.1041880783540562e-05 0.014955601916470076 0 -1.9424223905075066e-05 0.014982764233060197 0 -0.00037159185328405279 0.014172318526627033 0 -0.00023804583227080483 0.014560408440410079 0 -0.00050419801711092669 0.013551074647717537 0 -0.00062592841274434509 0.01337116237846105 0 -0.00090016353972223494 0.013705802850310414 0 -0.00023804583227080483 0.014560408440410079 0 2.9325819010219298e-05 0.015039604273633161 0 -0.0001801941045118381 0.014919651684753791 0 -0.00023804583227080483 0.014560408440410079 0 2.8837366004002803e-08 0.014999993277796941 0 -2.2742187835332359e-06 0.014943139386439814 0 -8.6928166522895454e-06 0.015006915222404396 0 -5.2139907645519524e-05 0.014957993683958877 0 -2.2742187835332359e-06 0.014943139386439814 0 -8.6928166522895454e-06 0.015006915222404396 0 -3.0865113846548728e-05 0.014886132218140991 0 -5.2139907645519524e-05 0.014957993683958877 0 -2.2742187835332359e-06 0.014943139386439814 0 2.8837366004002803e-08 0.014999993277796941 0 -8.6928166522895454e-06 0.015006915222404396 0 -2.1628991470568232e-08 0.015000021661552928 0 2.9325819010219298e-05 0.015039604273633161 0 -4.3977035304643511e-08 0.014999935035231563 0 1.2232614458728573e-08 0.014999927645837935 0 -1.9424223905075066e-05 0.014982764233060197 0 -8.5175323988827042e-06 0.014994876136185699 0 -1.1041880783540562e-05 0.014955601916470076 0 1.2232614458728573e-08 0.014999927645837935 0 -1.9424223905075066e-05 0.014982764233060197 0 -1.9424223905075066e-05 0.014982764233060197 0 -8.5175323988827042e-06 0.014994876136185699 0 -2.2423023314052784e-05 0.015000133887706775 0 1.2232614458728573e-08 0.014999927645837935 0 -8.5175323988827042e-06 0.014994876136185699 0 -1.164486544075523e-08 0.015000038923549664 0 -4.766532679733149e-05 0.014959368773097559 0 -1.9424223905075066e-05 0.014982764233060197 0 -3.9526301561346065e-05 0.014984472161919346 0 -1.9424223905075066e-05 0.014982764233060197 0 -3.9526301561346065e-05 0.014984472161919346 0 -2.2423023314052784e-05 0.015000133887706775 0 0.0001012380112254432 0.015015718621858002 0 0.00016839504748409543 0.014268693215631902 0 -3.9526301561346065e-05 0.014984472161919346 0 -2.2423023314052784e-05 0.015000133887706775 0 -4.8513069923584156e-05 0.01499580628567892 0 0.00016879671010366698 0.015020132121587636 0 4.3697088981328428e-05 0.014818159854089666 0 0.00022686148751237028 0.014247241670583811 0 0.00016879671010366698 0.015020132121587636 0 0.00022686148751237028 0.014247241670583811 0 0.00078832482656702118 0.014885556187670741 0 0.0001012380112254432 0.015015718621858002 0 9.0096422896390957e-09 0.015000010688965348 0 -8.5175323988827042e-06 0.014994876136185699 0 -2.2423023314052784e-05 0.015000133887706775 0 -1.164486544075523e-08 0.015000038923549664 0 0.00016879671010366698 0.015020132121587636 0 6.7383021845409223e-08 0.01500066098358217 0 4.3697088981328428e-05 0.014818159854089666 0 6.7383021845409223e-08 0.01500066098358217 0 -2.7377844153520811e-07 0.014998320937928137 0 4.3697088981328428e-05 0.014818159854089666 0 5.9558209346604261e-08 0.014999699952502882 0 8.4297184710385329e-05 0.014326447727212898 0 -2.7377844153520811e-07 0.014998320937928137 0 0.00022686148751237028 0.014247241670583811 0 0.0001792544708581062 0.014056995800412865 0 3.844215634550242e-07 0.014588960515275669 0 -1.6150839417704229e-07 0.014999516739097832 0 2.4415518051513529e-07 0.01374638938130193 0 -2.7377844153520811e-07 0.014998320937928137 0 4.3697088981328428e-05 0.014818159854089666 0 0.00022686148751237028 0.014247241670583811 0 0.00030931914159385655 0.014216739556323315 0 0.00016839504748409543 0.014268693215631902 0 0.00022686148751237028 0.014247241670583811 0 8.1722295958999971e-05 0.013876036234516382 0 8.1626623193241444e-05 0.013516916704214819 0 0.00022686148751237028 0.014247241670583811 0 0.00010945948490984041 0.013900880625893595 0 8.1722295958999971e-05 0.013876036234516382 0 0.00022686148751237028 0.014247241670583811 0 0.0001792544708581062 0.014056995800412865 0 0.00010945948490984041 0.013900880625893595 0 8.0754287675616738e-08 0.014999923430167967 0 3.844215634550242e-07 0.014588960515275669 0 -1.6150839417704229e-07 0.014999516739097832 0 -2.7405983756316563e-07 0.013744978261568196 0 5.1909562694231923e-07 0.012870028388999692 0 -1.3888677466307045e-05 0.013122643821844349 0 -3.7381509354467309e-05 0.013470727041739884 0 -2.7405983756316563e-07 0.013744978261568196 0 -1.3888677466307045e-05 0.013122643821844349 0 -3.7381509354467309e-05 0.013470727041739884 0 1.9260547507755358e-06 0.013694561395159061 0 -6.0173958442402512e-05 0.013559545308557191 0 -3.7381509354467309e-05 0.013470727041739884 0 -3.3978574852574748e-05 0.013321858394502334 0 -1.3888677466307045e-05 0.013122643821844349 0 -3.7381509354467309e-05 0.013470727041739884 0 -2.7405983756316563e-07 0.013744978261568196 0 1.9260547507755358e-06 0.013694561395159061 0 8.4297184710385329e-05 0.014326447727212898 0 -6.6150427402217884e-09 0.013745619074650221 0 0.0001792544708581062 0.014056995800412865 0 -2.7405983756316563e-07 0.013744978261568196 0 0.00010945948490984041 0.013900880625893595 0 0.00010945948490984041 0.013900880625893595 0 1.9260547507755358e-06 0.013694561395159061 0 2.4765880538799607e-05 0.013774240637828252 0 -2.7405983756316563e-07 0.013744978261568196 0 0.00010945948490984041 0.013900880625893595 0 1.9260547507755358e-06 0.013694561395159061 0 2.4765880538799607e-05 0.013774240637828252 0 -4.2912913114822359e-05 0.013652865724141478 0 -6.0173958442402512e-05 0.013559545308557191 0 1.9260547507755358e-06 0.013694561395159061 0 2.4765880538799607e-05 0.013774240637828252 0 -6.0173958442402512e-05 0.013559545308557191 0 0.00010945948490984041 0.013900880625893595 0 2.4765880538799607e-05 0.013774240637828252 0 8.1722295958999971e-05 0.013876036234516382 0 8.1722295958999971e-05 0.013876036234516382 0 4.3241759372524644e-06 0.013706741879749726 0 8.1626623193241444e-05 0.013516916704214819 0 2.4765880538799607e-05 0.013774240637828252 0 8.1722295958999971e-05 0.013876036234516382 0 4.3241759372524644e-06 0.013706741879749726 0 4.3241759372524644e-06 0.013706741879749726 0 -4.2912913114822359e-05 0.013652865724141478 0 -7.0621534567166005e-05 0.013593483235053112 0 2.4765880538799607e-05 0.013774240637828252 0 4.3241759372524644e-06 0.013706741879749726 0 -4.2912913114822359e-05 0.013652865724141478 0 -4.2912913114822359e-05 0.013652865724141478 0 -6.4358625118842767e-05 0.013587115172956511 0 -6.0173958442402512e-05 0.013559545308557191 0 -3.7381509354467309e-05 0.013470727041739884 0 -6.0173958442402512e-05 0.013559545308557191 0 -3.3978574852574748e-05 0.013321858394502334 0 -6.0173958442402512e-05 0.013559545308557191 0 -3.3978574852574748e-05 0.013321858394502334 0 -5.1960323613206067e-05 0.013499572861922014 0 -6.4358625118842767e-05 0.013587115172956511 0 -6.0173958442402512e-05 0.013559545308557191 0 -5.1960323613206067e-05 0.013499572861922014 0 -6.4358625118842767e-05 0.013587115172956511 0 -5.1960323613206067e-05 0.013499572861922014 0 -3.9791864468468508e-05 0.013603721394139397 0 1.6200084447967453e-06 0.013475027491355889 0 -0.00018650276563799242 0.013880695731169004 0 -6.4358625118842767e-05 0.013587115172956511 0 -5.8867232552206181e-05 0.013552628034094457 0 -3.9791864468468508e-05 0.013603721394139397 0 -6.4358625118842767e-05 0.013587115172956511 0 -5.8867232552206181e-05 0.013552628034094457 0 -9.9028768851543637e-06 0.013541217570550492 0 -6.4358625118842767e-05 0.013587115172956511 0 -7.0621534567166005e-05 0.013593483235053112 0 -7.3741126548340381e-05 0.013606493342924436 0 -4.2912913114822359e-05 0.013652865724141478 0 -6.4358625118842767e-05 0.013587115172956511 0 -7.0621534567166005e-05 0.013593483235053112 0 4.3241759372524644e-06 0.013706741879749726 0 -7.0621534567166005e-05 0.013593483235053112 0 8.1626623193241444e-05 0.013516916704214819 0 -1.0250490688714104e-05 0.013808593462342405 0 0.00016839504748409543 0.014268693215631902 0 -7.0621534567166005e-05 0.013593483235053112 0 -7.9882925692777821e-05 0.01359950332882591 0 -7.3741126548340381e-05 0.013606493342924436 0 0.00016839504748409543 0.014268693215631902 0 -0.00018650276563799242 0.013880695731169004 0 -3.9526301561346065e-05 0.014984472161919346 0 -4.8513069923584156e-05 0.01499580628567892 0 -5.8833078758101275e-05 0.014982150525969214 0 -0.00062592841274434509 0.01337116237846105 0 -0.00045656666437399261 0.013299520319369883 0 -0.00045878818364380834 0.013133278402456018 0 -0.00037159185328405279 0.014172318526627033 0 -0.00018650276563799242 0.013880695731169004 0 -4.766532679733149e-05 0.014959368773097559 0 -3.9526301561346065e-05 0.014984472161919346 0 -5.8833078758101275e-05 0.014982150525969214 0 -7.8579528262933567e-05 0.013455144514709225 0 -5.8867232552206181e-05 0.013552628034094457 0 -9.9028768851543637e-06 0.013541217570550492 0 -0.00023206451695277635 0.013315147877507285 0 -0.00018650276563799242 0.013880695731169004 0 -7.8579528262933567e-05 0.013455144514709225 0 -5.8867232552206181e-05 0.013552628034094457 0 -0.00010538889661045811 0.013511731104238086 0 -0.00029368752933177253 0.013342383332115761 0 -0.00045656666437399261 0.013299520319369883 0 -0.00045878818364380834 0.013133278402456018 0 -7.8579528262933567e-05 0.013455144514709225 0 -0.00010538889661045811 0.013511731104238086 0 -0.00015268693972633079 0.013445219502943645 0 -0.00010538889661045811 0.013511731104238086 0 -0.00020046388443684194 0.013492273234808734 0 -0.00015268693972633079 0.013445219502943645 0 -2.8680160896642326e-05 0.012876900427561327 0 -0.00020306690681038238 0.013237741566839208 0 -0.00020046388443684194 0.013492273234808734 0 -0.00020172332491726598 0.013395330047298273 0 -0.00015268693972633079 0.013445219502943645 0 0.00030034311947065798 0.011438193570684331 0 1.4815500592785419e-05 0.011584099894364966 0 -1.2847454480812829e-05 0.011246167434848348 0 -2.8680160896642326e-05 0.012876900427561327 0 0.00031388705015105388 0.012491323937552501 0 2.1284347542485613e-05 0.01111344862882761 0 0.00030034311947065798 0.011438193570684331 0 -1.2847454480812829e-05 0.011246167434848348 0 0.00049212953563383297 0.014187827473274912 0 -3.9791864468468508e-05 0.013603721394139397 0 0.00035465667819589773 0.01359366020778338 0 -5.8867232552206181e-05 0.013552628034094457 0 -0.00010538889661045811 0.013511731104238086 0 -3.9791864468468508e-05 0.013603721394139397 0 -0.00010538889661045811 0.013511731104238086 0 -0.00020046388443684194 0.013492273234808734 0 -3.9791864468468508e-05 0.013603721394139397 0 -2.8680160896642326e-05 0.012876900427561327 0 0.00010259926470830614 0.013977499114618716 0 4.0975205636703317e-05 0.013182574038534027 0 0.00035465667819589773 0.01359366020778338 0 0.00013156762097066632 0.012701514883497822 0 -5.1960323613206067e-05 0.013499572861922014 0 -3.9791864468468508e-05 0.013603721394139397 0 1.9766554729079207e-05 0.013409431057736331 0 0.00031388705015105388 0.012491323937552501 0 0.00017280370310327812 0.012660907714396272 0 -3.3978574852574748e-05 0.013321858394502334 0 -5.1960323613206067e-05 0.013499572861922014 0 1.9766554729079207e-05 0.013409431057736331 0 -3.3978574852574748e-05 0.013321858394502334 0 1.9766554729079207e-05 0.013409431057736331 0 4.0975205636703317e-05 0.013182574038534027 0 1.9766554729079207e-05 0.013409431057736331 0 4.0975205636703317e-05 0.013182574038534027 0 0.00035465667819589773 0.01359366020778338 0 -3.9791864468468508e-05 0.013603721394139397 0 1.9766554729079207e-05 0.013409431057736331 0 0.00035465667819589773 0.01359366020778338 0 0.00030034311947065798 0.011438193570684331 0 0.0001059741481360106 0.011963867689687139 0 0.00013156762097066632 0.012701514883497822 0 0.00030034311947065798 0.011438193570684331 0 1.4815500592785419e-05 0.011584099894364966 0 0.0001059741481360106 0.011963867689687139 0 1.4815500592785419e-05 0.011584099894364966 0 0.0001059741481360106 0.011963867689687139 0 4.0757351061309061e-05 0.012103726956955647 0 0.0001059741481360106 0.011963867689687139 0 4.0757351061309061e-05 0.012103726956955647 0 0.00013156762097066632 0.012701514883497822 0 4.0757351061309061e-05 0.012103726956955647 0 5.1909562694231923e-07 0.012870028388999692 0 2.916064925851776e-08 0.011994098192176257 0 4.0757351061309061e-05 0.012103726956955647 0 5.1909562694231923e-07 0.012870028388999692 0 0.00013156762097066632 0.012701514883497822 0 5.1909562694231923e-07 0.012870028388999692 0 0.00013156762097066632 0.012701514883497822 0 -1.3888677466307045e-05 0.013122643821844349 0 -3.3978574852574748e-05 0.013321858394502334 0 4.0975205636703317e-05 0.013182574038534027 0 -1.3888677466307045e-05 0.013122643821844349 0 4.0975205636703317e-05 0.013182574038534027 0 0.00013156762097066632 0.012701514883497822 0 -1.3888677466307045e-05 0.013122643821844349 0 2.916064925851776e-08 0.011994098192176257 0 7.3244999052703499e-05 0.011129604461351561 0 1.1045518936721424e-09 0.011118968538149048 0 4.0757351061309061e-05 0.012103726956955647 0 2.916064925851776e-08 0.011994098192176257 0 7.3244999052703499e-05 0.011129604461351561 0 1.4815500592785419e-05 0.011584099894364966 0 4.0757351061309061e-05 0.012103726956955647 0 -6.3011534801525517e-05 0.011280644330977394 0 7.2054660196259584e-05 0.011954011284935076 0 -6.630280416755799e-06 0.011237436744293453 0 1.4815500592785419e-05 0.011584099894364966 0 -6.3011534801525517e-05 0.011280644330977394 0 -1.2847454480812829e-05 0.011246167434848348 0 -6.630280416755799e-06 0.011237436744293453 0 0.00011369490179213076 0.010623609650644154 0 -6.3011534801525517e-05 0.011280644330977394 0 2.7961660108493683e-05 0.011073046057120372 0 0.00031796226437187409 0.010878472539823285 0 -6.3011534801525517e-05 0.011280644330977394 0 -1.2847454480812829e-05 0.011246167434848348 0 2.7961660108493683e-05 0.011073046057120372 0 -8.8556739426381951e-05 0.01113392266945408 0 0.00010492764972528183 0.01109223061087314 0 2.7961660108493683e-05 0.011073046057120372 0 -1.2847454480812829e-05 0.011246167434848348 0 -8.8556739426381951e-05 0.01113392266945408 0 2.7961660108493683e-05 0.011073046057120372 0 2.1284347542485613e-05 0.01111344862882761 0 -1.2847454480812829e-05 0.011246167434848348 0 -8.8556739426381951e-05 0.01113392266945408 0 2.1284347542485613e-05 0.01111344862882761 0 -8.8556739426381951e-05 0.01113392266945408 0 -0.00030546337835246791 0.011367376510327168 0 0.00010492764972528183 0.01109223061087314 0 2.7961660108493683e-05 0.011073046057120372 0 0.00031796226437187409 0.010878472539823285 0 0.00010492764972528183 0.01109223061087314 0 0.00021715334145367153 0.011643806277321457 0 0.00062521742362522275 0.010724612501151332 0 0.00010492764972528183 0.01109223061087314 0 0.00021715334145367153 0.011643806277321457 0 -0.00030546337835246791 0.011367376510327168 0 0.00012813057159284099 0.012742195514680935 0 -0.00023717682662139481 0.012090649798749334 0 0.00021715334145367153 0.011643806277321457 0 6.3561929400198874e-05 0.012690316838975486 0 -0.00030546337835246791 0.011367376510327168 0 6.3561929400198874e-05 0.012690316838975486 0 -0.00010796592958968512 0.013057002430956166 0 -0.00011594894525162362 0.013046519384648523 0 -0.00010796592958968512 0.013057002430956166 0 -0.00011594894525162362 0.013046519384648523 0 -0.00018970327867144933 0.013216865203645714 0 -0.00010796592958968512 0.013057002430956166 0 -0.00018970327867144933 0.013216865203645714 0 -0.00018503676515474717 0.01332383727807724 0 -0.00011594894525162362 0.013046519384648523 0 -0.00025534486364923732 0.013014451471100802 0 -0.00018970327867144933 0.013216865203645714 0 -8.8556739426381951e-05 0.01113392266945408 0 0.00010492764972528183 0.01109223061087314 0 -0.00030546337835246791 0.011367376510327168 0 -0.00020172332491726598 0.013395330047298273 0 -0.00018768326965938292 0.013435946835427306 0 -0.00018970327867144933 0.013216865203645714 0 -2.8680160896642326e-05 0.012876900427561327 0 -0.00023717682662139481 0.012090649798749334 0 -0.00029181040590971403 0.012851115312012985 0 -0.00011594894525162362 0.013046519384648523 0 -0.00025534486364923732 0.013014451471100802 0 -0.00020306690681038238 0.013237741566839208 0 -0.0002039217449284547 0.013209942724151682 0 -7.8579528262933567e-05 0.013455144514709225 0 -0.00015268693972633079 0.013445219502943645 0 -0.00018768326965938292 0.013435946835427306 0 -0.00023206451695277635 0.013315147877507285 0 -0.00015826344550444558 0.013466151549696303 0 -0.00020172332491726598 0.013395330047298273 0 -0.00015268693972633079 0.013445219502943645 0 -0.00018768326965938292 0.013435946835427306 0 -0.00018768326965938292 0.013435946835427306 0 -0.00028016267902537725 0.013624489149052846 0 -0.00023186248498800545 0.013484521087875777 0 -0.00018768326965938292 0.013435946835427306 0 -0.00018970327867144933 0.013216865203645714 0 -0.00023186248498800545 0.013484521087875777 0 -0.00018970327867144933 0.013216865203645714 0 -0.00018503676515474717 0.01332383727807724 0 -0.00023186248498800545 0.013484521087875777 0 -0.00023186248498800545 0.013484521087875777 0 -0.00030824171592555225 0.013732926865486664 0 -0.00020947969574483961 0.01355124739715621 0 -0.00018503676515474717 0.01332383727807724 0 -0.00023186248498800545 0.013484521087875777 0 -0.00020947969574483961 0.01355124739715621 0 -0.00018503676515474717 0.01332383727807724 0 -0.00020947969574483961 0.01355124739715621 0 -0.00011225297133387711 0.01338298106365249 0 -0.00023186248498800545 0.013484521087875777 0 -0.00033633576548966574 0.013769090420660605 0 -0.00030824171592555225 0.013732926865486664 0 -0.00028016267902537725 0.013624489149052846 0 -0.00023186248498800545 0.013484521087875777 0 -0.00033633576548966574 0.013769090420660605 0 -0.00030824171592555225 0.013732926865486664 0 -0.00024488548923287602 0.013739158331416578 0 -0.0003706763456057818 0.0138860326766566 0 -0.00041071733216723719 0.013910396145676966 0 -0.00033633576548966574 0.013769090420660605 0 -0.00030824171592555225 0.013732926865486664 0 -0.00041071733216723719 0.013910396145676966 0 -0.00030824171592555225 0.013732926865486664 0 -0.0003706763456057818 0.0138860326766566 0 -0.00030824171592555225 0.013732926865486664 0 -0.00020947969574483961 0.01355124739715621 0 -0.00024488548923287602 0.013739158331416578 0 -0.00020947969574483961 0.01355124739715621 0 -0.00024488548923287602 0.013739158331416578 0 -0.00011719800177161213 0.01363436099427974 0 -0.00011719800177161213 0.01363436099427974 0 0.00013539694987249636 0.013339221584202362 0 8.395410428552366e-05 0.013722428596891869 0 -0.00011719800177161213 0.01363436099427974 0 0.00013539694987249636 0.013339221584202362 0 -0.00011225297133387711 0.01338298106365249 0 -0.00020947969574483961 0.01355124739715621 0 -0.00011719800177161213 0.01363436099427974 0 -0.00011225297133387711 0.01338298106365249 0 0.00013539694987249636 0.013339221584202362 0 0.00034527448146250242 0.01369147159652968 0 8.395410428552366e-05 0.013722428596891869 0 6.3561929400198874e-05 0.012690316838975486 0 -0.00010796592958968512 0.013057002430956166 0 0.00013539694987249636 0.013339221584202362 0 6.3561929400198874e-05 0.012690316838975486 0 0.00013539694987249636 0.013339221584202362 0 0.00091722050777282569 0.01260826974343751 0 -0.00010796592958968512 0.013057002430956166 0 0.00013539694987249636 0.013339221584202362 0 -0.00011225297133387711 0.01338298106365249 0 -0.00010796592958968512 0.013057002430956166 0 -0.00018503676515474717 0.01332383727807724 0 -0.00011225297133387711 0.01338298106365249 0 0.00037826104784089597 0.0092899895286959223 0 0.00040642504067505726 0.0092290967477166325 0 0.00067878511653727213 0.0094975867221606496 0 0.00013539694987249636 0.013339221584202362 0 0.00070285295002516402 0.013474664634901327 0 0.00091722050777282569 0.01260826974343751 0 0.00056447572595468118 0.01135027826581691 0 0.00075417358656764083 0.011049901351520428 0 0.00013539694987249636 0.013339221584202362 0 0.00070285295002516402 0.013474664634901327 0 0.00034527448146250242 0.01369147159652968 0 0.00040642504067505726 0.0092290967477166325 0 0.00039636115591045503 0.009240557667139486 0 0.00039896999221112825 0.009323620926840713 0 0.00037826104784089597 0.0092899895286959223 0 0.00040642504067505726 0.0092290967477166325 0 0.00039636115591045503 0.009240557667139486 0 0.00026900799646779064 0.0083856602886113012 0 -0.00014436702463718477 0.0082890686384878651 0 2.6184396775931801e-05 0.0080788380118967801 0 0.00026900799646779064 0.0083856602886113012 0 -0.00014436702463718477 0.0082890686384878651 0 -0.00020125408070650948 0.0089531847693787598 0 0.00026900799646779064 0.0083856602886113012 0 -0.00020125408070650948 0.0089531847693787598 0 0.00018154317420779404 0.0092688203688297902 0 0.00037826104784089597 0.0092899895286959223 0 0.00039636115591045503 0.009240557667139486 0 0.00018154317420779404 0.0092688203688297902 0 0.00031301699619793176 0.008838164482862905 0 0.00020088075244993969 0.0092532242766753692 0 0.00037826104784089597 0.0092899895286959223 0 0.00018154317420779404 0.0092688203688297902 0 0.00030433860089390638 0.0096238317703820891 0 0.00018154317420779404 0.0092688203688297902 0 0.00016032734284372244 0.0099492949972581277 0 0.00030433860089390638 0.0096238317703820891 0 0.00018154317420779404 0.0092688203688297902 0 -0.00010390584760824523 0.0094812737129275435 0 0.00016032734284372244 0.0099492949972581277 0 -0.00020125408070650948 0.0089531847693787598 0 0.00018154317420779404 0.0092688203688297902 0 -0.00010390584760824523 0.0094812737129275435 0 -0.00010390584760824523 0.0094812737129275435 0 0.00016032734284372244 0.0099492949972581277 0 -0.00019712352758619441 0.0095940703898900869 0 0.00016032734284372244 0.0099492949972581277 0 0.00030433860089390638 0.0096238317703820891 0 0.00062521742362522275 0.010724612501151332 0 0.00037826104784089597 0.0092899895286959223 0 0.00030433860089390638 0.0096238317703820891 0 0.00067878511653727213 0.0094975867221606496 0 0.00030433860089390638 0.0096238317703820891 0 0.00067878511653727213 0.0094975867221606496 0 0.00062521742362522275 0.010724612501151332 0 0.00021715334145367153 0.011643806277321457 0 6.3561929400198874e-05 0.012690316838975486 0 0.00091722050777282569 0.01260826974343751 0 0.00075417358656764083 0.011049901351520428 0 0.00066401757234049329 0.010744151854331264 0 0.00021715334145367153 0.011643806277321457 0 0.00091722050777282569 0.01260826974343751 0 0.00062521742362522275 0.010724612501151332 0 0.00031796226437187409 0.010878472539823285 0 0.00025204936054952335 0.010918247072094994 0 0.00021185788783957898 0.010520387857837517 0 0.00062521742362522275 0.010724612501151332 0 0.00031796226437187409 0.010878472539823285 0 0.00021185788783957898 0.010520387857837517 0 0.00010492764972528183 0.01109223061087314 0 0.00062521742362522275 0.010724612501151332 0 0.00031796226437187409 0.010878472539823285 0 0.00016032734284372244 0.0099492949972581277 0 0.00062521742362522275 0.010724612501151332 0 0.00021185788783957898 0.010520387857837517 0 0.00011369490179213076 0.010623609650644154 0 4.6572725543459243e-05 0.010137123499715427 0 1.7720139422497124e-05 0.01031521570357734 0 -7.2629082365911196e-05 0.010149959573039205 0 -0.00013241005193153049 0.0097732167262387162 0 -6.3011534801525517e-05 0.011280644330977394 0 0.00031796226437187409 0.010878472539823285 0 0.00025204936054952335 0.010918247072094994 0 7.3244999052703499e-05 0.011129604461351561 0 1.7720139422497124e-05 0.01031521570357734 0 1.1045518936721424e-09 0.011118968538149048 0 1.7720139422497124e-05 0.01031521570357734 0 -7.2629082365911196e-05 0.010149959573039205 0 1.1045518936721424e-09 0.011118968538149048 0 -7.2629082365911196e-05 0.010149959573039205 0 1.1045518936721424e-09 0.011118968538149048 0 -1.8046773279931908e-07 0.010243616717829541 0 -1.8046773279931908e-07 0.010243616717829541 0 -0.00014065395739497463 0.0096554901406400943 0 -2.2686969004164004e-07 0.0093683665279238812 0 -7.2629082365911196e-05 0.010149959573039205 0 -1.8046773279931908e-07 0.010243616717829541 0 -0.00014065395739497463 0.0096554901406400943 0 -7.2629082365911196e-05 0.010149959573039205 0 -0.00014065395739497463 0.0096554901406400943 0 -0.00013241005193153049 0.0097732167262387162 0 -0.00014065395739497463 0.0096554901406400943 0 -0.00013241005193153049 0.0097732167262387162 0 -0.00019712352758619441 0.0095940703898900869 0 -0.00014065395739497463 0.0096554901406400943 0 -0.00019712352758619441 0.0095940703898900869 0 -0.00011902864805797919 0.0090659999005215045 0 0.00016032734284372244 0.0099492949972581277 0 0.00021185788783957898 0.010520387857837517 0 -0.00019712352758619441 0.0095940703898900869 0 4.6572725543459243e-05 0.010137123499715427 0 -0.0001762447304275629 0.0096847624246821015 0 -0.00019712352758619441 0.0095940703898900869 0 -0.00021197919335948923 0.0091258192865523065 0 -0.00016290500513143629 0.0089896882348020294 0 -0.00019712352758619441 0.0095940703898900869 0 -0.00016290500513143629 0.0089896882348020294 0 -0.00011902864805797919 0.0090659999005215045 0 -0.00021197919335948923 0.0091258192865523065 0 -0.00016290500513143629 0.0089896882348020294 0 -0.00010158415885094966 0.0087118258352854184 0 -0.00014065395739497463 0.0096554901406400943 0 -0.00011902864805797919 0.0090659999005215045 0 -2.2686969004164004e-07 0.0093683665279238812 0 -0.00016290500513143629 0.0089896882348020294 0 -0.00011902864805797919 0.0090659999005215045 0 -5.0619869195740405e-05 0.0083779075831835331 0 -0.00011902864805797919 0.0090659999005215045 0 -1.7029678003780136e-07 0.008493066620201448 0 -5.0619869195740405e-05 0.0083779075831835331 0 -0.00011902864805797919 0.0090659999005215045 0 -1.7029678003780136e-07 0.008493066620201448 0 -2.2686969004164004e-07 0.0093683665279238812 0 1.3296983508383568e-07 0.007617719136369612 0 -5.0619869195740405e-05 0.0083779075831835331 0 8.8014458566411258e-05 0.0078469638067863185 0 -1.7029678003780136e-07 0.008493066620201448 0 1.3296983508383568e-07 0.007617719136369612 0 -5.0619869195740405e-05 0.0083779075831835331 0 -5.0619869195740405e-05 0.0083779075831835331 0 8.8014458566411258e-05 0.0078469638067863185 0 -2.5256620997310314e-06 0.0083220146595244463 0 0.00018738505469143956 0.0080728748819612721 0 8.8014458566411258e-05 0.0078469638067863185 0 -2.5256620997310314e-06 0.0083220146595244463 0 0.00018738505469143956 0.0080728748819612721 0 -2.5256620997310314e-06 0.0083220146595244463 0 1.6812969149317436e-05 0.008667857263708223 0 -5.0619869195740405e-05 0.0083779075831835331 0 -2.5256620997310314e-06 0.0083220146595244463 0 -0.00010158415885094966 0.0087118258352854184 0 -0.00016290500513143629 0.0089896882348020294 0 -5.0619869195740405e-05 0.0083779075831835331 0 -0.00010158415885094966 0.0087118258352854184 0 -2.5256620997310314e-06 0.0083220146595244463 0 -0.00010158415885094966 0.0087118258352854184 0 1.6812969149317436e-05 0.008667857263708223 0 -0.00011587300883409785 0.0089017189851604266 0 1.6812969149317436e-05 0.008667857263708223 0 -0.00014155759942448319 0.0090725841855549549 0 -0.00021197919335948923 0.0091258192865523065 0 -0.00010158415885094966 0.0087118258352854184 0 -0.00011587300883409785 0.0089017189851604266 0 -0.00010158415885094966 0.0087118258352854184 0 -0.00011587300883409785 0.0089017189851604266 0 1.6812969149317436e-05 0.008667857263708223 0 0.00029954608255580294 0.0083696285176235816 0 1.6812969149317436e-05 0.008667857263708223 0 0.00012601276390463516 0.0089432955076151829 0 0.00029954608255580294 0.0083696285176235816 0 0.00018738505469143956 0.0080728748819612721 0 1.6812969149317436e-05 0.008667857263708223 0 1.6812969149317436e-05 0.008667857263708223 0 0.00012601276390463516 0.0089432955076151829 0 -0.00014155759942448319 0.0090725841855549549 0 0.00012601276390463516 0.0089432955076151829 0 8.4108694971125775e-06 0.009166126594616731 0 -0.00014155759942448319 0.0090725841855549549 0 0.00027328977970137694 0.0092136590348183747 0 8.4108694971125775e-06 0.009166126594616731 0 5.9560545596434072e-05 0.0093705211937575947 0 8.4108694971125775e-06 0.009166126594616731 0 -0.00015708139394277662 0.0092017108877575117 0 5.9560545596434072e-05 0.0093705211937575947 0 0.00027328977970137694 0.0092136590348183747 0 0.00012601276390463516 0.0089432955076151829 0 8.4108694971125775e-06 0.009166126594616731 0 0.00028854934632581658 0.0083465143594095761 0 -0.00031265745033053196 0.0078165625258125506 0 -0.00015708139394277662 0.0092017108877575117 0 -0.00014155759942448319 0.0090725841855549549 0 -0.00027754984705349184 0.0092620222533169941 0 8.4108694971125775e-06 0.009166126594616731 0 -0.00015708139394277662 0.0092017108877575117 0 -0.00014155759942448319 0.0090725841855549549 0 -0.00021197919335948923 0.0091258192865523065 0 -0.00011587300883409785 0.0089017189851604266 0 -0.00014155759942448319 0.0090725841855549549 0 -0.00021197919335948923 0.0091258192865523065 0 -0.00014155759942448319 0.0090725841855549549 0 -0.00027754984705349184 0.0092620222533169941 0 -0.00010390584760824523 0.0094812737129275435 0 -0.00019712352758619441 0.0095940703898900869 0 -0.00027754984705349184 0.0092620222533169941 0 -0.00019712352758619441 0.0095940703898900869 0 -0.00021197919335948923 0.0091258192865523065 0 -0.00027754984705349184 0.0092620222533169941 0 -0.00020125408070650948 0.0089531847693787598 0 -0.00027754984705349184 0.0092620222533169941 0 -0.000256800678766249 0.0092272458423487483 0 -0.00020125408070650948 0.0089531847693787598 0 -0.00010390584760824523 0.0094812737129275435 0 -0.00027754984705349184 0.0092620222533169941 0 -0.00015708139394277662 0.0092017108877575117 0 -0.00027754984705349184 0.0092620222533169941 0 -0.000256800678766249 0.0092272458423487483 0 -0.00014276071281757232 0.0088968355333843459 0 -0.00052484446756624441 0.0090698242732004837 0 -0.00020125408070650948 0.0089531847693787598 0 -0.00066191093538247572 0.008567533538751065 0 -0.00049210405379375118 0.0081218857115636003 0 -0.00014436702463718477 0.0082890686384878651 0 -0.00020125408070650948 0.0089531847693787598 0 -0.00049210405379375118 0.0081218857115636003 0 -0.00049210405379375118 0.0081218857115636003 0 -0.00072432358615470292 0.0081037225801695728 0 -0.00071148302812173406 0.0075116089211908063 0 -0.00066191093538247572 0.008567533538751065 0 -0.00049210405379375118 0.0081218857115636003 0 -0.00072432358615470292 0.0081037225801695728 0 -0.00066191093538247572 0.008567533538751065 0 -0.00072432358615470292 0.0081037225801695728 0 -0.0011621446246291921 0.0081333887047344271 0 -0.00078227913336245875 0.0072965371106995611 0 -0.00075004785159879679 0.0074546904842185376 0 -0.00072432358615470292 0.0081037225801695728 0 -0.0011621446246291921 0.0081333887047344271 0 -0.00071148302812173406 0.0075116089211908063 0 -3.8737547634738513e-05 0.0063723468930411741 0 -0.00048200506325320289 0.0065019001519646003 0 -0.00015561403538818106 0.0070636869997854519 0 -3.8737547634738513e-05 0.0063723468930411741 0 -0.00048200506325320289 0.0065019001519646003 0 -0.00020612308285178566 0.0060329268995545741 0 -0.00078227913336245875 0.0072965371106995611 0 -0.00031265745033053196 0.0078165625258125506 0 -0.00066191093538247572 0.008567533538751065 0 -0.0011621446246291921 0.0081333887047344271 0 -0.0014101412471756553 0.0085275227163179052 0 -0.00052484446756624441 0.0090698242732004837 0 -0.00031265745033053196 0.0078165625258125506 0 -0.00015708139394277662 0.0092017108877575117 0 -0.000256800678766249 0.0092272458423487483 0 5.9560545596434072e-05 0.0093705211937575947 0 -0.00044663178550019659 0.0075012187538267194 0 -0.00054719737533218376 0.0076707695155615709 0 -0.00036027334815530362 0.0076969118067159508 0 5.2346696850251205e-05 0.0075190767790395512 0 -0.00044663178550019659 0.0075012187538267194 0 -0.00036027334815530362 0.0076969118067159508 0 5.2346696850251205e-05 0.0075190767790395512 0 -0.00044663178550019659 0.0075012187538267194 0 -0.00015561403538818106 0.0070636869997854519 0 -0.00048200506325320289 0.0065019001519646003 0 -0.00015561403538818106 0.0070636869997854519 0 -0.00071148302812173406 0.0075116089211908063 0 -0.00044663178550019659 0.0075012187538267194 0 -0.00015561403538818106 0.0070636869997854519 0 -0.00071148302812173406 0.0075116089211908063 0 -0.00044663178550019659 0.0075012187538267194 0 -0.00071148302812173406 0.0075116089211908063 0 -0.00054719737533218376 0.0076707695155615709 0 -0.00049210405379375118 0.0081218857115636003 0 -0.00071148302812173406 0.0075116089211908063 0 -0.00054719737533218376 0.0076707695155615709 0 -0.00049210405379375118 0.0081218857115636003 0 -0.00026399839909720471 0.0079609762991832561 0 -0.00054719737533218376 0.0076707695155615709 0 -0.00014436702463718477 0.0082890686384878651 0 -0.00049210405379375118 0.0081218857115636003 0 -0.00026399839909720471 0.0079609762991832561 0 -0.00026399839909720471 0.0079609762991832561 0 -0.00031270687404293509 0.0078103372986142883 0 -0.00054719737533218376 0.0076707695155615709 0 -0.00054719737533218376 0.0076707695155615709 0 -0.00047857641230493491 0.0077329505335427731 0 -0.00036027334815530362 0.0076969118067159508 0 -0.00031270687404293509 0.0078103372986142883 0 -0.00054719737533218376 0.0076707695155615709 0 -0.00047857641230493491 0.0077329505335427731 0 -0.00031270687404293509 0.0078103372986142883 0 -0.00047857641230493491 0.0077329505335427731 0 -0.00045505980352969152 0.0077543044726943412 0 -0.00019799362605075056 0.0079050043068249511 0 -0.0001449199820912885 0.0078451328534222195 0 -0.00031270687404293509 0.0078103372986142883 0 -0.00045505980352969152 0.0077543044726943412 0 -0.00013117663453801923 0.0078394066939620772 0 5.7482619060076499e-05 0.0080393632483584093 0 -1.4959250227381259e-05 0.0081791514797973815 0 -0.00010315643578198735 0.0080194409281770847 0 -0.00047857641230493491 0.0077329505335427731 0 -0.00045505980352969152 0.0077543044726943412 0 -0.0003317086148577738 0.0080322148721254753 0 5.7482619060076499e-05 0.0080393632483584093 0 0.00017661389561894985 0.0082026732894726079 0 0.00011136919775980702 0.0082913207776126128 0 -0.00019799362605075056 0.0079050043068249511 0 -5.9215664972885337e-05 0.0081159179130130699 0 -0.00047857641230493491 0.0077329505335427731 0 -0.0003317086148577738 0.0080322148721254753 0 -0.00036027334815530362 0.0076969118067159508 0 -0.0003317086148577738 0.0080322148721254753 0 -0.00036027334815530362 0.0076969118067159508 0 4.7504547069013054e-05 0.0078732351758272652 0 5.2346696850251205e-05 0.0075190767790395512 0 -0.00036027334815530362 0.0076969118067159508 0 4.7504547069013054e-05 0.0078732351758272652 0 0.00037587700904578197 0.008326772569098877 0 -5.9215664972885337e-05 0.0081159179130130699 0 0.00040038698315368002 0.0083457872855842302 0 -0.0003317086148577738 0.0080322148721254753 0 4.7504547069013054e-05 0.0078732351758272652 0 0.00040038698315368002 0.0083457872855842302 0 0.00017661389561894985 0.0082026732894726079 0 0.00023514809658800308 0.0084704721092667169 0 0.00017661389561894985 0.0082026732894726079 0 0.00023514809658800308 0.0084704721092667169 0 0.00011136919775980702 0.0082913207776126128 0 0.0014296548906803526 0.0088223455026113715 0 0.001086061028719711 0.0086433372528713446 0 0.0026142301171419905 0.0091614532084576365 0 0.0023757275256733024 0.0094983709337214638 0 0.002061455091618735 0.0089866792268184104 0 0.0023757275256733024 0.0094983709337214638 0 0.0019525391415979153 0.0095775846143172985 0 0.002061455091618735 0.0089866792268184104 0 0.0027893993935605016 0.0093789824059188776 0 0.0026142301171419905 0.0091614532084576365 0 0.0026778479172566375 0.0095433675650981164 0 0.0026142301171419905 0.0091614532084576365 0 0.0026778479172566375 0.0095433675650981164 0 0.0023757275256733024 0.0094983709337214638 0 0.0026778479172566375 0.0095433675650981164 0 0.0023757275256733024 0.0094983709337214638 0 0.0024719069732723089 0.009804635886469645 0 0.0023757275256733024 0.0094983709337214638 0 0.0024719069732723089 0.009804635886469645 0 0.0021691148433006968 0.0099266704740716902 0 0.0023757275256733024 0.0094983709337214638 0 0.0021691148433006968 0.0099266704740716902 0 0.0019525391415979153 0.0095775846143172985 0 0.0024719069732723089 0.009804635886469645 0 0.0021691148433006968 0.0099266704740716902 0 0.002358432449786692 0.010164148853529242 0 0.0021691148433006968 0.0099266704740716902 0 0.002358432449786692 0.010164148853529242 0 0.0020996682819390952 0.010398577342270711 0 0.0024719069732723089 0.009804635886469645 0 0.002358432449786692 0.010164148853529242 0 0.0025415876826855891 0.010002407897567038 0 0.0025415876826855891 0.010002407897567038 0 0.0026411667740269124 0.0098099186438381312 0 0.0026986968760302921 0.0099851929674751577 0 0.0027872790130630039 0.0097153964100823598 0 0.0026411667740269124 0.0098099186438381312 0 0.0026986968760302921 0.0099851929674751577 0 0.0027872790130630039 0.0097153964100823598 0 0.0026778479172566375 0.0095433675650981164 0 0.0026411667740269124 0.0098099186438381312 0 0.0024719069732723089 0.009804635886469645 0 0.0025415876826855891 0.010002407897567038 0 0.0026411667740269124 0.0098099186438381312 0 0.0026778479172566375 0.0095433675650981164 0 0.0024719069732723089 0.009804635886469645 0 0.0026411667740269124 0.0098099186438381312 0 0.0017313784824199451 0.010159384037198982 0 0.00135222980886546 0.0097068217902417132 0 0.0011543529587903947 0.010208704278812366 0 0.0017313784824199451 0.010159384037198982 0 0.0011543529587903947 0.010208704278812366 0 0.0013419025747789641 0.010611932387427504 0 0.0021691148433006968 0.0099266704740716902 0 0.0017313784824199451 0.010159384037198982 0 0.0019525391415979153 0.0095775846143172985 0 0.0021691148433006968 0.0099266704740716902 0 0.0017313784824199451 0.010159384037198982 0 0.0020996682819390952 0.010398577342270711 0 0.0019525391415979153 0.0095775846143172985 0 0.00135222980886546 0.0097068217902417132 0 0.0016177358151837568 0.0092513417777937163 0 0.0017313784824199451 0.010159384037198982 0 0.0019525391415979153 0.0095775846143172985 0 0.00135222980886546 0.0097068217902417132 0 0.0016177358151837568 0.0092513417777937163 0 0.0012996624271715931 0.0088055410010290797 0 0.0010288145214882613 0.0092543948157762703 0 0.00135222980886546 0.0097068217902417132 0 0.0016177358151837568 0.0092513417777937163 0 0.0010288145214882613 0.0092543948157762703 0 0.0016177358151837568 0.0092513417777937163 0 0.002061455091618735 0.0089866792268184104 0 0.0012996624271715931 0.0088055410010290797 0 0.0019525391415979153 0.0095775846143172985 0 0.0016177358151837568 0.0092513417777937163 0 0.002061455091618735 0.0089866792268184104 0 0.001086061028719711 0.0086433372528713446 0 0.00063459467573329282 0.0084817380814108927 0 5.7482619060076499e-05 0.0080393632483584093 0 0.00011136919775980702 0.0082913207776126128 0 -1.4959250227381259e-05 0.0081791514797973815 0 0.00063459467573329282 0.0084817380814108927 0 0.0001532111830644646 0.0085283393879527977 0 -1.4959250227381259e-05 0.0081791514797973815 0 -0.00019296808890811607 0.0081098264493419704 0 -0.00010315643578198735 0.0080194409281770847 0 0.0012996624271715931 0.0088055410010290797 0 0.00045030483916307524 0.0086824703115715995 0 0.0010288145214882613 0.0092543948157762703 0 0.0001532111830644646 0.0085283393879527977 0 2.8016780674151986e-05 0.010058957471988213 0 8.212030771898062e-05 0.0083818513666032574 0 -0.00015508468743007553 0.0083522878394839822 0 -2.9076833584060821e-05 0.008205245322330617 0 0.00039181311521196244 0.0089689688382551484 0 0.00015921799835112461 0.0091943926034342444 0 -1.3307790089514573e-05 0.0089265634112746517 0 0.0001532111830644646 0.0085283393879527977 0 0.0005003956067733444 0.0094281081134205552 0 0.00039181311521196244 0.0089689688382551484 0 0.00045857813426215826 0.0094362759276279806 0 0.00015921799835112461 0.0091943926034342444 0 0.00045030483916307524 0.0086824703115715995 0 0.00051392510958147642 0.0092748392523308645 0 0.0010288145214882613 0.0092543948157762703 0 0.00045857813426215826 0.0094362759276279806 0 0.00019646968693288227 0.0096009523186473406 0 0.00015921799835112461 0.0091943926034342444 0 0.00051392510958147642 0.0092748392523308645 0 0.0010288145214882613 0.0092543948157762703 0 0.0005638718686437681 0.0098854778478886275 0 0.00135222980886546 0.0097068217902417132 0 0.0005638718686437681 0.0098854778478886275 0 0.0011543529587903947 0.010208704278812366 0 0.00135222980886546 0.0097068217902417132 0 0.0010288145214882613 0.0092543948157762703 0 0.0005638718686437681 0.0098854778478886275 0 0.0005003956067733444 0.0094281081134205552 0 0.00055059040281374612 0.0098130280345002981 0 0.00045857813426215826 0.0094362759276279806 0 0.00019646968693288227 0.0096009523186473406 0 0.0005638718686437681 0.0098854778478886275 0 0.00019646968693288227 0.0096009523186473406 0 0.0002024899090149566 0.00988524958338898 0 0.0005638718686437681 0.0098854778478886275 0 0.0002024899090149566 0.00988524958338898 0 0.0005638718686437681 0.0098854778478886275 0 0.00015435689556424274 0.010220339535104317 0 0.0005638718686437681 0.0098854778478886275 0 0.00015435689556424274 0.010220339535104317 0 0.00069164740045314795 0.010660469959452626 0 0.0005638718686437681 0.0098854778478886275 0 0.0011543529587903947 0.010208704278812366 0 0.00069164740045314795 0.010660469959452626 0 -2.9212181111598205e-06 0.014626643329419488 0 5.0154290084337351e-05 0.014606463560129219 0 -7.3432169901586597e-06 0.014650063074559671 0 1.8460495254459982e-06 0.014615400344957143 0 -2.9212181111598205e-06 0.014626643329419488 0 5.0154290084337351e-05 0.014606463560129219 0 1.8460495254459982e-06 0.014615400344957143 0 -2.9212181111598205e-06 0.014626643329419488 0 -5.265685941227952e-05 0.014632479199632195 0 0.00015435689556424274 0.010220339535104317 0 -0.00028335446192166291 0.01013378303953065 0 -0.00011162894958775987 0.010526997924870371 0 0.00015435689556424274 0.010220339535104317 0 -0.00028335446192166291 0.01013378303953065 0 -0.00010129066210584967 0.0098467484036672288 0 -0.00028335446192166291 0.01013378303953065 0 -0.00010129066210584967 0.0098467484036672288 0 -0.00010731138564918128 0.0094113079667520576 0 -6.969679609572098e-05 0.012516844184436904 0 -6.0246194504761736e-05 0.011373852684699714 0 -0.00014337639523375725 0.0091785218844129025 0 -6.0246194504761736e-05 0.011373852684699714 0 0.00019646968693288227 0.0096009523186473406 0 -0.00010129066210584967 0.0098467484036672288 0 -0.00010773028401953338 0.009394186036536939 0 0.0002024899090149566 0.00988524958338898 0 0.00015435689556424274 0.010220339535104317 0 -0.00010129066210584967 0.0098467484036672288 0 0.00019646968693288227 0.0096009523186473406 0 0.0002024899090149566 0.00988524958338898 0 -0.00010129066210584967 0.0098467484036672288 0 1.8460495254459982e-06 0.014615400344957143 0 5.0154290084337351e-05 0.014606463560129219 0 4.7859852249887914e-05 0.014571353109598997 0 5.0154290084337351e-05 0.014606463560129219 0 4.7859852249887914e-05 0.014571353109598997 0 0.00015222821595258881 0.014501931834358581 0 4.7859852249887914e-05 0.014571353109598997 0 0.0001300796977248681 0.01446915591227721 0 5.2898922754096305e-05 0.014483946008002357 0 4.7859852249887914e-05 0.014571353109598997 0 0.0001300796977248681 0.01446915591227721 0 0.00015222821595258881 0.014501931834358581 0 -0.00010773028401953338 0.009394186036536939 0 0.00015921799835112461 0.0091943926034342444 0 -1.3307790089514573e-05 0.0089265634112746517 0 0.00019646968693288227 0.0096009523186473406 0 -0.00010773028401953338 0.009394186036536939 0 0.00015921799835112461 0.0091943926034342444 0 0.0001300796977248681 0.01446915591227721 0 0.00015222821595258881 0.014501931834358581 0 0.00017277517399306956 0.014416410475056988 0 -6.0246194504761736e-05 0.011373852684699714 0 2.8016780674151986e-05 0.010058957471988213 0 -6.0246194504761736e-05 0.011373852684699714 0 0.00018742916370069731 0.01250385500668743 0 -0.00016304829353493442 0.011367388440399123 0 -0.00016895521639381344 0.011230192209016287 0 -0.00013565735445701094 0.011232594673823754 0 0.00018742916370069731 0.01250385500668743 0 2.8016780674151986e-05 0.010058957471988213 0 0.0001300796977248681 0.01446915591227721 0 0.00015971670489864777 0.014407935803229632 0 5.2898922754096305e-05 0.014483946008002357 0 0.0001300796977248681 0.01446915591227721 0 0.00017277517399306956 0.014416410475056988 0 0.00015971670489864777 0.014407935803229632 0 0.00034663276182427737 0.014416139270096526 0 0.00015971670489864777 0.014407935803229632 0 0.00026496750493721738 0.014291598803998178 0 0.00018742916370069731 0.01250385500668743 0 0.00028467590730757572 0.014139210008982392 0 0.00015971670489864777 0.014407935803229632 0 0.00016439741184532829 0.014293607380574292 0 0.00026496750493721738 0.014291598803998178 0 0.00026496750493721738 0.014291598803998178 0 0.00023948100437663257 0.014203168257413291 0 0.00037192106064360347 0.014148591714832416 0 0.00016439741184532829 0.014293607380574292 0 0.00026496750493721738 0.014291598803998178 0 0.00023948100437663257 0.014203168257413291 0 0.00016439741184532829 0.014293607380574292 0 0.00023948100437663257 0.014203168257413291 0 0.00012028627638785322 0.014209904907879279 0 0.00023948100437663257 0.014203168257413291 0 0.00025607451829288118 0.014072171422283538 0 0.00012028627638785322 0.014209904907879279 0 0.00023948100437663257 0.014203168257413291 0 0.00025607451829288118 0.014072171422283538 0 0.00037192106064360347 0.014148591714832416 0 0.00022799189931293153 0.0099792448800255576 0 0.00049347096944492026 0.010004006905247052 0 0.00038111151561585877 0.0097165532621065181 0 0.00034663276182427737 0.014416139270096526 0 0.00026496750493721738 0.014291598803998178 0 0.00037192106064360347 0.014148591714832416 0 -0.00015508468743007553 0.0083522878394839822 0 -6.5805873611064333e-05 0.0079930678450647625 0 -2.9076833584060821e-05 0.008205245322330617 0 0.00026143192765381239 0.010667079306276361 0 0.00038212312211097514 0.010680161724970796 0 0.00049347096944492026 0.010004006905247052 0 2.8016780674151986e-05 0.010058957471988213 0 0.00023277504166796883 0.0088887263038532564 0 0.00026143192765381239 0.010667079306276361 0 0.00022799189931293153 0.0099792448800255576 0 0.00049347096944492026 0.010004006905247052 0 0.00018742916370069731 0.01250385500668743 0 0.00031936704085834723 0.012073089299997574 0 8.212030771898062e-05 0.0083818513666032574 0 -2.9076833584060821e-05 0.008205245322330617 0 3.0350658572685937e-05 0.0080661866813274436 0 0.0001532111830644646 0.0085283393879527977 0 -7.6342575375749577e-05 0.0079359064584069942 0 -0.00019296808890811607 0.0081098264493419704 0 -0.000170601169530922 0.0078981196258262557 0 -0.00010315643578198735 0.0080194409281770847 0 -6.5805873611064333e-05 0.0079930678450647625 0 -2.9076833584060821e-05 0.008205245322330617 0 3.0350658572685937e-05 0.0080661866813274436 0 5.7482619060076499e-05 0.0080393632483584093 0 -0.00010315643578198735 0.0080194409281770847 0 -0.00013117663453801923 0.0078394066939620772 0 -0.000170601169530922 0.0078981196258262557 0 -0.00010315643578198735 0.0080194409281770847 0 -0.00013117663453801923 0.0078394066939620772 0 -0.00031270687404293509 0.0078103372986142883 0 -0.00013117663453801923 0.0078394066939620772 0 -7.8308435247925466e-05 0.0078710511162730454 0 -6.5805873611064333e-05 0.0079930678450647625 0 3.0350658572685937e-05 0.0080661866813274436 0 8.3920332468093353e-07 0.007917733522638656 0 -7.6342575375749577e-05 0.0079359064584069942 0 -1.4728428825434823e-05 0.0079569614544277301 0 -0.000170601169530922 0.0078981196258262557 0 -0.00013117663453801923 0.0078394066939620772 0 -7.8308435247925466e-05 0.0078710511162730454 0 -0.000170601169530922 0.0078981196258262557 0 8.3920332468093353e-07 0.007917733522638656 0 -7.8308435247925466e-05 0.0078710511162730454 0 -6.5805873611064333e-05 0.0079930678450647625 0 8.3920332468093353e-07 0.007917733522638656 0 6.8262146587507762e-05 0.0079086131244292552 0 8.3920332468093353e-07 0.007917733522638656 0 -7.8308435247925466e-05 0.0078710511162730454 0 -1.1158917180325258e-05 0.0079166638001523064 0 -1.1158917180325258e-05 0.0079166638001523064 0 -0.00013058447237064395 0.0079114224008382857 0 2.6184396775931801e-05 0.0080788380118967801 0 -1.1158917180325258e-05 0.0079166638001523064 0 6.8262146587507762e-05 0.0079086131244292552 0 2.6184396775931801e-05 0.0080788380118967801 0 8.3920332468093353e-07 0.007917733522638656 0 -1.1158917180325258e-05 0.0079166638001523064 0 6.8262146587507762e-05 0.0079086131244292552 0 -0.00026399839909720471 0.0079609762991832561 0 -0.00031270687404293509 0.0078103372986142883 0 -0.00013058447237064395 0.0079114224008382857 0 -0.00031270687404293509 0.0078103372986142883 0 -7.8308435247925466e-05 0.0078710511162730454 0 -0.00013058447237064395 0.0079114224008382857 0 -7.8308435247925466e-05 0.0078710511162730454 0 -1.1158917180325258e-05 0.0079166638001523064 0 -0.00013058447237064395 0.0079114224008382857 0 -0.00026399839909720471 0.0079609762991832561 0 -0.00013058447237064395 0.0079114224008382857 0 2.6184396775931801e-05 0.0080788380118967801 0 -0.00014436702463718477 0.0082890686384878651 0 -0.00026399839909720471 0.0079609762991832561 0 2.6184396775931801e-05 0.0080788380118967801 0 0.00031301699619793176 0.008838164482862905 0 0.00028627766514762175 0.0087426004574323972 0 0.00039636115591045503 0.009240557667139486 0 0.00051088175267679733 0.0094737679045276534 0 0.00039896999221112825 0.009323620926840713 0 0.00026900799646779064 0.0083856602886113012 0 6.8262146587507762e-05 0.0079086131244292552 0 2.6184396775931801e-05 0.0080788380118967801 0 0.00051088175267679733 0.0094737679045276534 0 0.00039896999221112825 0.009323620926840713 0 0.0002686006137911611 0.00945563472451557 0 0.00040642504067505726 0.0092290967477166325 0 0.00039896999221112825 0.009323620926840713 0 0.0002686006137911611 0.00945563472451557 0 0.00056447572595468118 0.01135027826581691 0 0.00038100382493276265 0.011670571431984625 0 0.00070285295002516402 0.013474664634901327 0 0.00034527448146250242 0.01369147159652968 0 0.00048216001647049958 0.013896689912740649 0 0.00034527448146250242 0.01369147159652968 0 0.00048216001647049958 0.013896689912740649 0 0.00024775570712867929 0.013877064323850271 0 0.00025607451829288118 0.014072171422283538 0 0.00048216001647049958 0.013896689912740649 0 0.00024775570712867929 0.013877064323850271 0 0.00025607451829288118 0.014072171422283538 0 0.00037192106064360347 0.014148591714832416 0 0.00048216001647049958 0.013896689912740649 0 0.00051088175267679733 0.0094737679045276534 0 0.0002686006137911611 0.00945563472451557 0 0.00038111151561585877 0.0097165532621065181 0 0.00023277504166796883 0.0088887263038532564 0 0.00028627766514762175 0.0087426004574323972 0 0.00031936704085834723 0.012073089299997574 0 0.00038100382493276265 0.011670571431984625 0 0.00022799189931293153 0.0099792448800255576 0 0.0002686006137911611 0.00945563472451557 0 0.00038111151561585877 0.0097165532621065181 0 0.00049347096944492026 0.010004006905247052 0 0.00051088175267679733 0.0094737679045276534 0 0.00038111151561585877 0.0097165532621065181 0 1.1440167542225138e-05 0.013900294154532946 0 -0.00018618462961794504 0.013981156142789471 0 2.6003683146397461e-05 0.014068472609163378 0 1.1440167542225138e-05 0.013900294154532946 0 -0.00012235654888925499 0.013820895632989301 0 -0.00018618462961794504 0.013981156142789471 0 -0.00018618462961794504 0.013981156142789471 0 -0.00015745070178220288 0.014124092087916049 0 2.6003683146397461e-05 0.014068472609163378 0 0.00025607451829288118 0.014072171422283538 0 0.00024775570712867929 0.013877064323850271 0 2.6003683146397461e-05 0.014068472609163378 0 1.1440167542225138e-05 0.013900294154532946 0 0.00024775570712867929 0.013877064323850271 0 2.6003683146397461e-05 0.014068472609163378 0 1.1440167542225138e-05 0.013900294154532946 0 0.00024775570712867929 0.013877064323850271 0 8.395410428552366e-05 0.013722428596891869 0 0.00034527448146250242 0.01369147159652968 0 0.00024775570712867929 0.013877064323850271 0 8.395410428552366e-05 0.013722428596891869 0 1.1440167542225138e-05 0.013900294154532946 0 8.395410428552366e-05 0.013722428596891869 0 -0.00012235654888925499 0.013820895632989301 0 -0.00011719800177161213 0.01363436099427974 0 8.395410428552366e-05 0.013722428596891869 0 -0.00012235654888925499 0.013820895632989301 0 -0.00024488548923287602 0.013739158331416578 0 -0.00012235654888925499 0.013820895632989301 0 -0.00026458082058627882 0.013879787487927116 0 -0.00024488548923287602 0.013739158331416578 0 -0.00011719800177161213 0.01363436099427974 0 -0.00012235654888925499 0.013820895632989301 0 -0.00012235654888925499 0.013820895632989301 0 -0.00026458082058627882 0.013879787487927116 0 -0.00018618462961794504 0.013981156142789471 0 -0.00024488548923287602 0.013739158331416578 0 -0.00026458082058627882 0.013879787487927116 0 -0.0003706763456057818 0.0138860326766566 0 -0.00026458082058627882 0.013879787487927116 0 -0.0003706763456057818 0.0138860326766566 0 -0.00033539017199940427 0.013968140872258158 0 -0.0003706763456057818 0.0138860326766566 0 -0.00033539017199940427 0.013968140872258158 0 -0.00040592209190329966 0.013958812930133855 0 -0.00033539017199940427 0.013968140872258158 0 -0.00040284179050581882 0.014060861178323461 0 -0.00040592209190329966 0.013958812930133855 0 -0.00033539017199940427 0.013968140872258158 0 -0.00027441148152656934 0.014071624609899408 0 -0.00040284179050581882 0.014060861178323461 0 -0.00026458082058627882 0.013879787487927116 0 -0.00033539017199940427 0.013968140872258158 0 -0.00018618462961794504 0.013981156142789471 0 -0.00033539017199940427 0.013968140872258158 0 -0.00018618462961794504 0.013981156142789471 0 -0.00027441148152656934 0.014071624609899408 0 -0.00018618462961794504 0.013981156142789471 0 -0.00015745070178220288 0.014124092087916049 0 -0.00027441148152656934 0.014071624609899408 0 -0.00015745070178220288 0.014124092087916049 0 -0.00027193261097377755 0.014249850709379935 0 -6.1851205446043046e-05 0.014240707998692823 0 -0.00015745070178220288 0.014124092087916049 0 -0.00027441148152656934 0.014071624609899408 0 -0.00027193261097377755 0.014249850709379935 0 -0.00027441148152656934 0.014071624609899408 0 -0.00027193261097377755 0.014249850709379935 0 -0.00040284179050581882 0.014060861178323461 0 -0.0001630456046514512 0.014481721652533532 0 -0.00025880728527838105 0.014340693058695736 0 -6.1362162984157555e-05 0.014707977796326306 0 -9.0733999666954129e-05 0.014703911612383585 0 -9.0812312932722985e-05 0.014658996756178594 0 -6.1362162984157555e-05 0.014707977796326306 0 -6.7584629242185669e-05 0.0147441026310063 0 -9.0733999666954129e-05 0.014703911612383585 0 -0.00027193261097377755 0.014249850709379935 0 -6.1851205446043046e-05 0.014240707998692823 0 -0.00012395987821786948 0.014429023072946058 0 -0.0001630456046514512 0.014481721652533532 0 -9.1279510119508949e-05 0.014561925447986653 0 -6.1851205446043046e-05 0.014240707998692823 0 5.1659170513015391e-05 0.014351245400934725 0 -0.00012395987821786948 0.014429023072946058 0 -0.00015745070178220288 0.014124092087916049 0 -6.1851205446043046e-05 0.014240707998692823 0 2.6003683146397461e-05 0.014068472609163378 0 -6.1851205446043046e-05 0.014240707998692823 0 2.6003683146397461e-05 0.014068472609163378 0 0.00012028627638785322 0.014209904907879279 0 0.00025607451829288118 0.014072171422283538 0 2.6003683146397461e-05 0.014068472609163378 0 0.00012028627638785322 0.014209904907879279 0 -6.1851205446043046e-05 0.014240707998692823 0 0.00012028627638785322 0.014209904907879279 0 5.1659170513015391e-05 0.014351245400934725 0 0.00016439741184532829 0.014293607380574292 0 0.00012028627638785322 0.014209904907879279 0 5.1659170513015391e-05 0.014351245400934725 0 0.00015971670489864777 0.014407935803229632 0 0.00016439741184532829 0.014293607380574292 0 5.1659170513015391e-05 0.014351245400934725 0 5.1659170513015391e-05 0.014351245400934725 0 5.2898922754096305e-05 0.014483946008002357 0 -0.00012395987821786948 0.014429023072946058 0 0.00015971670489864777 0.014407935803229632 0 5.1659170513015391e-05 0.014351245400934725 0 5.2898922754096305e-05 0.014483946008002357 0 -9.1279510119508949e-05 0.014561925447986653 0 -2.9810227246643138e-05 0.014601372566881344 0 -6.7035764985373249e-05 0.014696540347706635 0 -2.8559312396149339e-05 0.014593462704836184 0 -7.2331140550789807e-05 0.014652020371501503 0 5.2898922754096305e-05 0.014483946008002357 0 -0.00012395987821786948 0.014429023072946058 0 -2.8559312396149339e-05 0.014593462704836184 0 4.7859852249887914e-05 0.014571353109598997 0 5.2898922754096305e-05 0.014483946008002357 0 -2.8559312396149339e-05 0.014593462704836184 0 1.8460495254459982e-06 0.014615400344957143 0 4.7859852249887914e-05 0.014571353109598997 0 -3.9747479692702732e-05 0.014623011717019838 0 4.7859852249887914e-05 0.014571353109598997 0 -2.8559312396149339e-05 0.014593462704836184 0 -3.9747479692702732e-05 0.014623011717019838 0 -3.9747479692702732e-05 0.014623011717019838 0 -7.2331140550789807e-05 0.014652020371501503 0 -9.2451039332488234e-05 0.014647120119259479 0 -2.8559312396149339e-05 0.014593462704836184 0 -3.9747479692702732e-05 0.014623011717019838 0 -7.2331140550789807e-05 0.014652020371501503 0 -7.2331140550789807e-05 0.014652020371501503 0 -9.2451039332488234e-05 0.014647120119259479 0 -9.4460169299404099e-05 0.01469001049850425 0 -9.2451039332488234e-05 0.014647120119259479 0 -5.265685941227952e-05 0.014632479199632195 0 -0.00011729043633951949 0.014628522443698902 0 -9.2451039332488234e-05 0.014647120119259479 0 -0.00011217774070417419 0.014661525954104795 0 -0.00011729043633951949 0.014628522443698902 0 -3.9747479692702732e-05 0.014623011717019838 0 -9.2451039332488234e-05 0.014647120119259479 0 -5.265685941227952e-05 0.014632479199632195 0 1.8460495254459982e-06 0.014615400344957143 0 -3.9747479692702732e-05 0.014623011717019838 0 -5.265685941227952e-05 0.014632479199632195 0 -9.2870440562268006e-05 0.014708436873366964 0 -8.1186777969184372e-05 0.014760819321064707 0 -6.6058653607689019e-05 0.014756379113821038 0 -9.2870440562268006e-05 0.014708436873366964 0 -7.6608440241044692e-05 0.014697672033875397 0 -0.0001078539402521472 0.014658054182986362 0 -9.2870440562268006e-05 0.014708436873366964 0 -0.00011217774070417419 0.014661525954104795 0 -0.0001078539402521472 0.014658054182986362 0 -9.2451039332488234e-05 0.014647120119259479 0 -0.00011217774070417419 0.014661525954104795 0 -9.4460169299404099e-05 0.01469001049850425 0 -9.2870440562268006e-05 0.014708436873366964 0 -0.00011217774070417419 0.014661525954104795 0 -9.4460169299404099e-05 0.01469001049850425 0 -7.2331140550789807e-05 0.014652020371501503 0 -9.4460169299404099e-05 0.01469001049850425 0 -7.4547886571981888e-05 0.014706333701656417 0 -9.4460169299404099e-05 0.01469001049850425 0 -8.1186777969184372e-05 0.014760819321064707 0 -7.4547886571981888e-05 0.014706333701656417 0 -9.2870440562268006e-05 0.014708436873366964 0 -9.4460169299404099e-05 0.01469001049850425 0 -8.1186777969184372e-05 0.014760819321064707 0 -8.1186777969184372e-05 0.014760819321064707 0 -6.7584629242185669e-05 0.0147441026310063 0 -8.0438721891604346e-05 0.01481620938804197 0 -8.1186777969184372e-05 0.014760819321064707 0 -7.4547886571981888e-05 0.014706333701656417 0 -6.7584629242185669e-05 0.0147441026310063 0 -6.7035764985373249e-05 0.014696540347706635 0 -7.2331140550789807e-05 0.014652020371501503 0 -7.4547886571981888e-05 0.014706333701656417 0 -6.7035764985373249e-05 0.014696540347706635 0 -7.4547886571981888e-05 0.014706333701656417 0 -6.7584629242185669e-05 0.0147441026310063 0 -6.1362162984157555e-05 0.014707977796326306 0 -6.7035764985373249e-05 0.014696540347706635 0 -6.7584629242185669e-05 0.0147441026310063 0 -1.5040112288337618e-05 0.014932918213975709 0 -8.0438721891604346e-05 0.01481620938804197 0 -5.2124124479130567e-05 0.014961518288402365 0 -6.7584629242185669e-05 0.0147441026310063 0 -8.0438721891604346e-05 0.01481620938804197 0 -0.0001123704865712686 0.014725656062248871 0 -8.0755249638605613e-05 0.014825193656071198 0 -8.3360534856175721e-05 0.014820820499171928 0 -1.5040112288337618e-05 0.014932918213975709 0 -2.5747388433630878e-05 0.014874836830251568 0 -8.0438721891604346e-05 0.01481620938804197 0 -1.5040112288337618e-05 0.014932918213975709 0 -2.5747388433630878e-05 0.014874836830251568 0 1.8262643646767248e-06 0.014952185511990849 0 -2.5747388433630878e-05 0.014874836830251568 0 -8.0438721891604346e-05 0.01481620938804197 0 -5.8405237534570214e-05 0.014806928045579875 0 -8.1186777969184372e-05 0.014760819321064707 0 -5.8405237534570214e-05 0.014806928045579875 0 -6.6058653607689019e-05 0.014756379113821038 0 -8.1186777969184372e-05 0.014760819321064707 0 -8.0438721891604346e-05 0.01481620938804197 0 -5.8405237534570214e-05 0.014806928045579875 0 -2.5747388433630878e-05 0.014874836830251568 0 -5.8405237534570214e-05 0.014806928045579875 0 -3.1317311726232641e-05 0.014827711683971232 0 -2.5747388433630878e-05 0.014874836830251568 0 -3.1317311726232641e-05 0.014827711683971232 0 -2.5765768645755182e-06 0.014921573848581681 0 -3.1317311726232641e-05 0.014827711683971232 0 -6.6058653607689019e-05 0.014756379113821038 0 -4.9361900111380109e-05 0.014742623342830108 0 -3.1317311726232641e-05 0.014827711683971232 0 -4.9361900111380109e-05 0.014742623342830108 0 -2.3104641266194935e-05 0.014803663190121524 0 -6.6058653607689019e-05 0.014756379113821038 0 -7.6608440241044692e-05 0.014697672033875397 0 -4.9361900111380109e-05 0.014742623342830108 0 -5.8405237534570214e-05 0.014806928045579875 0 -3.1317311726232641e-05 0.014827711683971232 0 -6.6058653607689019e-05 0.014756379113821038 0 -9.2870440562268006e-05 0.014708436873366964 0 -6.6058653607689019e-05 0.014756379113821038 0 -7.6608440241044692e-05 0.014697672033875397 0 -7.3380871659232755e-08 0.014999984326393693 0 -6.4179225828081854e-06 0.014884629694071966 0 2.6656254636373865e-06 0.014883124890712763 0 -7.3380871659232755e-08 0.014999984326393693 0 -6.4179225828081854e-06 0.014884629694071966 0 -2.5765768645755182e-06 0.014921573848581681 0 -3.1317311726232641e-05 0.014827711683971232 0 -6.4179225828081854e-06 0.014884629694071966 0 -2.5765768645755182e-06 0.014921573848581681 0 -3.1317311726232641e-05 0.014827711683971232 0 -6.4179225828081854e-06 0.014884629694071966 0 -2.3104641266194935e-05 0.014803663190121524 0 -7.3380871659232755e-08 0.014999984326393693 0 -2.5765768645755182e-06 0.014921573848581681 0 2.8846354274094144e-08 0.014999881948358709 0 2.8846354274094144e-08 0.014999881948358709 0 1.8262643646767248e-06 0.014952185511990849 0 2.5407402670732268e-09 0.014999969736965544 0 -2.5765768645755182e-06 0.014921573848581681 0 2.8846354274094144e-08 0.014999881948358709 0 1.8262643646767248e-06 0.014952185511990849 0 -2.5747388433630878e-05 0.014874836830251568 0 -2.5765768645755182e-06 0.014921573848581681 0 1.8262643646767248e-06 0.014952185511990849 0 -1.5040112288337618e-05 0.014932918213975709 0 1.8262643646767248e-06 0.014952185511990849 0 1.786362520338707e-06 0.014977327447342797 0 1.8262643646767248e-06 0.014952185511990849 0 2.5407402670732268e-09 0.014999969736965544 0 1.786362520338707e-06 0.014977327447342797 0 2.5407402670732268e-09 0.014999969736965544 0 6.8858825406840121e-07 0.014990252696076355 0 2.0388000127308139e-08 0.014999995030388482 0 2.5407402670732268e-09 0.014999969736965544 0 6.8858825406840121e-07 0.014990252696076355 0 1.786362520338707e-06 0.014977327447342797 0 6.8858825406840121e-07 0.014990252696076355 0 2.0388000127308139e-08 0.014999995030388482 0 -5.4127586802416137e-06 0.014980963202493879 0 6.8858825406840121e-07 0.014990252696076355 0 4.4887549063276635e-06 0.014987785351967112 0 -5.4127586802416137e-06 0.014980963202493879 0 6.8858825406840121e-07 0.014990252696076355 0 1.786362520338707e-06 0.014977327447342797 0 4.4887549063276635e-06 0.014987785351967112 0 -8.6738033789590827e-06 0.014980362484986395 0 -5.2124124479130567e-05 0.014961518288402365 0 6.609395569696517e-06 0.014989212246618424 0 -1.5040112288337618e-05 0.014932918213975709 0 1.786362520338707e-06 0.014977327447342797 0 -8.6738033789590827e-06 0.014980362484986395 0 -1.5040112288337618e-05 0.014932918213975709 0 -8.6738033789590827e-06 0.014980362484986395 0 -5.2124124479130567e-05 0.014961518288402365 0 1.786362520338707e-06 0.014977327447342797 0 -8.6738033789590827e-06 0.014980362484986395 0 4.4887549063276635e-06 0.014987785351967112 0 -9.0733999666954129e-05 0.014703911612383585 0 -0.0001123704865712686 0.014725656062248871 0 -0.00012726914428778105 0.014671850122775712 0 -6.7584629242185669e-05 0.0147441026310063 0 -9.0733999666954129e-05 0.014703911612383585 0 -0.0001123704865712686 0.014725656062248871 0 -8.3360534856175721e-05 0.014820820499171928 0 -3.5882987856087261e-05 0.01490902290373968 0 -9.0733999666954129e-05 0.014703911612383585 0 -0.00012726914428778105 0.014671850122775712 0 -9.0812312932722985e-05 0.014658996756178594 0 6.609395569696517e-06 0.014989212246618424 0 4.4887549063276635e-06 0.014987785351967112 0 2.037697587326986e-05 0.014974099781528529 0 -8.6738033789590827e-06 0.014980362484986395 0 6.609395569696517e-06 0.014989212246618424 0 4.4887549063276635e-06 0.014987785351967112 0 -3.5882987856087261e-05 0.01490902290373968 0 -0.0002420737803371194 0.014390956063892398 0 6.609395569696517e-06 0.014989212246618424 0 2.037697587326986e-05 0.014974099781528529 0 5.769935857349453e-05 0.014947176092097397 0 2.037697587326986e-05 0.014974099781528529 0 2.8893313152047261e-05 0.014947765364107631 0 5.769935857349453e-05 0.014947176092097397 0 -0.00040284179050581882 0.014060861178323461 0 -0.00040592209190329966 0.013958812930133855 0 -0.00044692731549253136 0.013954824682905216 0 -0.00012726914428778105 0.014671850122775712 0 -9.0812312932722985e-05 0.014658996756178594 0 -0.00013934701338061083 0.014600446360427788 0 -0.00025880728527838105 0.014340693058695736 0 -0.0002420737803371194 0.014390956063892398 0 -0.00045420716280944782 0.014010262384656406 0 -0.00042825023221826656 0.013943679652636638 0 -0.00044692731549253136 0.013954824682905216 0 -0.0003706763456057818 0.0138860326766566 0 -0.00040592209190329966 0.013958812930133855 0 -0.00042825023221826656 0.013943679652636638 0 -0.00040592209190329966 0.013958812930133855 0 -0.00042825023221826656 0.013943679652636638 0 -0.00044692731549253136 0.013954824682905216 0 -0.00041071733216723719 0.013910396145676966 0 -0.0003706763456057818 0.0138860326766566 0 -0.00042825023221826656 0.013943679652636638 0 -0.00046911480820233684 0.01383787063785346 0 -0.0002420737803371194 0.014390956063892398 0 -0.00045420716280944782 0.014010262384656406 0 -0.00047060081112676802 0.01386795592388697 0 -0.00035992187649595825 0.013976848618400897 0 2.8893313152047261e-05 0.014947765364107631 0 5.769935857349453e-05 0.014947176092097397 0 7.3647624387139331e-05 0.014863139227481345 0 -0.0002420737803371194 0.014390956063892398 0 -0.00015446820927281183 0.014435909748826728 0 2.8893313152047261e-05 0.014947765364107631 0 -2.6597885352866886e-05 0.014922629646232139 0 -5.4127586802416137e-06 0.014980963202493879 0 2.8893313152047261e-05 0.014947765364107631 0 7.3647624387139331e-05 0.014863139227481345 0 -2.6597885352866886e-05 0.014922629646232139 0 -5.8294881642854596e-05 0.014859245392866491 0 -2.6597885352866886e-05 0.014922629646232139 0 -9.5268112082428097e-08 0.014999923259524948 0 -2.6597885352866886e-05 0.014922629646232139 0 -9.5268112082428097e-08 0.014999923259524948 0 -5.4127586802416137e-06 0.014980963202493879 0 2.0388000127308139e-08 0.014999995030388482 0 -9.5268112082428097e-08 0.014999923259524948 0 -5.4127586802416137e-06 0.014980963202493879 0 2.037697587326986e-05 0.014974099781528529 0 2.8893313152047261e-05 0.014947765364107631 0 -5.4127586802416137e-06 0.014980963202493879 0 4.4887549063276635e-06 0.014987785351967112 0 2.037697587326986e-05 0.014974099781528529 0 -5.4127586802416137e-06 0.014980963202493879 0 -0.00033537681887502033 0.014461967789834872 0 -0.00031606512586772572 0.014545325603065599 0 -0.00064429243362185834 0.013983294207100271 0 -0.00060054193313085753 0.014073653585679968 0 -0.00052774567247789372 0.013957968394788058 0 -0.00064429243362185834 0.013983294207100271 0 -0.00052774567247789372 0.013957968394788058 0 -0.00059283672618011258 0.01391336490400189 0 -1.3745251674174043e-05 0.014997739578282937 0 -1.4510563238308468e-09 0.01500000038097204 0 -2.4056150276761929e-08 0.015000011918527121 0 -2.032888050946638e-05 0.014998141132811955 0 -1.3745251674174043e-05 0.014997739578282937 0 -2.4056150276761929e-08 0.015000011918527121 0 -1.3745251674174043e-05 0.014997739578282937 0 -2.0369112487978108e-05 0.014992330929575528 0 -2.930902206602716e-05 0.014991557777589898 0 -1.4510563238308468e-09 0.01500000038097204 0 -2.0369112487978108e-05 0.014992330929575528 0 -2.3140582114235587e-05 0.014983639914137316 0 -1.3745251674174043e-05 0.014997739578282937 0 -1.4510563238308468e-09 0.01500000038097204 0 -2.0369112487978108e-05 0.014992330929575528 0 -2.0369112487978108e-05 0.014992330929575528 0 -2.9268898514843547e-05 0.014983616249460424 0 -2.3140582114235587e-05 0.014983639914137316 0 -0.00064429243362185834 0.013983294207100271 0 -0.00061961944503599012 0.014080841642161951 0 -0.00060054193313085753 0.014073653585679968 0 -2.032888050946638e-05 0.014998141132811955 0 -1.3745251674174043e-05 0.014997739578282937 0 -2.930902206602716e-05 0.014991557777589898 0 -2.930902206602716e-05 0.014991557777589898 0 -3.2576736643199986e-05 0.014992610737314616 0 -2.9268898514843547e-05 0.014983616249460424 0 -2.032888050946638e-05 0.014998141132811955 0 -2.930902206602716e-05 0.014991557777589898 0 -3.089791453567401e-05 0.014991296320059647 0 -2.0369112487978108e-05 0.014992330929575528 0 -2.930902206602716e-05 0.014991557777589898 0 -2.9268898514843547e-05 0.014983616249460424 0 -0.0002433448332992717 0.014592595685541002 0 -0.00031606512586772572 0.014545325603065599 0 -0.00031606512586772572 0.014545325603065599 0 -0.00034388020902284381 0.014381764205990523 0 -9.7285533611469126e-05 0.014629263220288315 0 -8.5526185024259146e-05 0.01465383253140173 0 -9.8736541350123228e-05 0.014651155065990061 0 -9.8736541350123228e-05 0.014651155065990061 0 -0.00011705952250230948 0.01465015303292286 0 -9.9070054602155302e-05 0.014695659169201961 0 -2.930902206602716e-05 0.014991557777589898 0 -3.2236682435149482e-05 0.014993009931658793 0 -3.2576736643199986e-05 0.014992610737314616 0 -0.00031606512586772572 0.014545325603065599 0 -0.00026377049244209202 0.014648299244966275 0 -9.7285533611469126e-05 0.014629263220288315 0 -9.8736541350123228e-05 0.014651155065990061 0 -0.00011705952250230948 0.01465015303292286 0 -0.00030584597954702618 0.014498982559320297 0 -0.0003251660900460019 0.014505176285016332 0 -0.00030960002115764052 0.014484291876314287 0 -0.00034388020902284381 0.014381764205990523 0 -0.00026377049244209202 0.014648299244966275 0 -0.00026377049244209202 0.014648299244966275 0 -0.00022986706363085411 0.014678493227549431 0 -8.5526185024259146e-05 0.01465383253140173 0 -9.9070054602155302e-05 0.014695659169201961 0 -7.5971067482408897e-05 0.014693634750879241 0 -8.5526185024259146e-05 0.01465383253140173 0 -9.8736541350123228e-05 0.014651155065990061 0 -9.9070054602155302e-05 0.014695659169201961 0 -9.7285533611469126e-05 0.014629263220288315 0 -8.5526185024259146e-05 0.01465383253140173 0 -6.4767168140797114e-05 0.014640940059571431 0 -6.4767168140797114e-05 0.014640940059571431 0 -4.354262647392477e-05 0.014618959743982248 0 -6.1526130476391322e-05 0.014710365785445175 0 -8.5526185024259146e-05 0.01465383253140173 0 -6.4767168140797114e-05 0.014640940059571431 0 -7.5971067482408897e-05 0.014693634750879241 0 -9.7285533611469126e-05 0.014629263220288315 0 -6.4767168140797114e-05 0.014640940059571431 0 -3.6332867288233747e-05 0.014524984636135383 0 -0.00034388020902284381 0.014381764205990523 0 -0.00025383130063066038 0.014251033824754782 0 -6.4767168140797114e-05 0.014640940059571431 0 -4.354262647392477e-05 0.014618959743982248 0 -3.6332867288233747e-05 0.014524984636135383 0 -1.7354313497994325e-05 0.014557469322715108 0 -2.9789829034307131e-05 0.01456150368864929 0 -2.5660710552396257e-05 0.014487156173407246 0 -1.7354313497994325e-05 0.014557469322715108 0 -2.9789829034307131e-05 0.01456150368864929 0 -2.6288570434649193e-05 0.014623457384352841 0 -4.354262647392477e-05 0.014618959743982248 0 -2.9789829034307131e-05 0.01456150368864929 0 -2.6288570434649193e-05 0.014623457384352841 0 -4.354262647392477e-05 0.014618959743982248 0 -2.9789829034307131e-05 0.01456150368864929 0 -3.6332867288233747e-05 0.014524984636135383 0 -2.9789829034307131e-05 0.01456150368864929 0 -3.6332867288233747e-05 0.014524984636135383 0 -2.5660710552396257e-05 0.014487156173407246 0 -0.00025383130063066038 0.014251033824754782 0 -0.00019948588387028833 0.014175553228934729 0 -0.00048217698479669283 0.01399305341709607 0 -0.00045249735987244462 0.013917152300934838 0 -0.00036692902926138975 0.013952414222538498 0 -0.00048217698479669283 0.01399305341709607 0 -0.00045249735987244462 0.013917152300934838 0 -0.00053110279660572635 0.013938091561386319 0 -0.00034388020902284381 0.014381764205990523 0 -0.00053945136836847866 0.013908850000513381 0 -0.00059575050449179635 0.014036331352620663 0 -0.00048217698479669283 0.01399305341709607 0 -0.00053110279660572635 0.013938091561386319 0 -0.00052774567247789372 0.013957968394788058 0 -0.00046523862981973091 0.013841386069908151 0 -0.0005339313306658497 0.013820146662642301 0 -0.00052774567247789372 0.013957968394788058 0 -0.0005339313306658497 0.013820146662642301 0 -0.00059283672618011258 0.01391336490400189 0 -0.00053945136836847866 0.013908850000513381 0 -0.00047116049923541184 0.013861831391067853 0 -0.00045249735987244462 0.013917152300934838 0 -0.00053110279660572635 0.013938091561386319 0 -0.00046523862981973091 0.013841386069908151 0 -0.00045249735987244462 0.013917152300934838 0 -0.00046523862981973091 0.013841386069908151 0 -0.0003650779272752787 0.013843165310832916 0 -0.00046523862981973091 0.013841386069908151 0 -0.0005339313306658497 0.013820146662642301 0 -0.00041458516164944353 0.013742720313487826 0 -0.00032788823242863355 0.014044740747993755 0 -0.00027377902858131628 0.014058025888701696 0 -7.6540102213596808e-05 0.014381816577055093 0 -8.6456237227213839e-05 0.014427598740798226 0 -0.00013514770550194491 0.014364947688214147 0 -7.6540102213596808e-05 0.014381816577055093 0 -2.4755933653727565e-05 0.014445507500447716 0 -8.6456237227213839e-05 0.014427598740798226 0 -7.6540102213596808e-05 0.014381816577055093 0 3.795812395644019e-05 0.014329714896553348 0 -2.4755933653727565e-05 0.014445507500447716 0 3.795812395644019e-05 0.014329714896553348 0 7.4278544698121605e-05 0.014443862985427176 0 -2.4755933653727565e-05 0.014445507500447716 0 -0.00064429243362185834 0.013983294207100271 0 -0.00059283672618011258 0.01391336490400189 0 -0.00066475953886887466 0.013893104223077274 0 -0.00032788823242863355 0.014044740747993755 0 -0.00011614651413791492 0.014568020171305254 0 -0.0005339313306658497 0.013820146662642301 0 -0.00059283672618011258 0.01391336490400189 0 -0.00066475953886887466 0.013893104223077274 0 -0.00033537681887502033 0.014461967789834872 0 -0.00011614651413791492 0.014568020171305254 0 -0.00011614651413791492 0.014568020171305254 0 -5.8585199316971242e-08 0.015000056645087334 0 -2.032888050946638e-05 0.014998141132811955 0 -1.562641913794215e-05 0.015005181877677558 0 -2.4056150276761929e-08 0.015000011918527121 0 -7.1834418095363716e-07 0.0149973181640746 0 -6.5657979633185275e-10 0.014999995856348628 0 -4.773656407759819e-11 0.014999997230765892 0 -0.00011614651413791492 0.014568020171305254 0 5.1385580428793675e-05 0.014746566345276742 0 -7.1834418095363716e-07 0.0149973181640746 0 -2.9156048634351899e-07 0.014998826416808952 0 -4.773656407759819e-11 0.014999997230765892 0 7.4278544698121605e-05 0.014443862985427176 0 6.5618923960616807e-06 0.014542942022599176 0 0.00010179577130846889 0.014638063052963382 0 -2.9156048634351899e-07 0.014998826416808952 0 -4.773656407759819e-11 0.014999997230765892 0 1.5797368385194077e-11 0.01499999821873812 0 5.1385580428793675e-05 0.014746566345276742 0 3.8322663990345193e-05 0.014810224646699123 0 -2.9156048634351899e-07 0.014998826416808952 0 1.5797368385194077e-11 0.01499999821873812 0 -1.6052931838164343e-08 0.014999637120514251 0 6.5618923960616807e-06 0.014542942022599176 0 -2.4755933653727565e-05 0.014445507500447716 0 -5.9959775452410482e-05 0.014523914763058079 0 7.4278544698121605e-05 0.014443862985427176 0 6.5618923960616807e-06 0.014542942022599176 0 -2.4755933653727565e-05 0.014445507500447716 0 6.5618923960616807e-06 0.014542942022599176 0 -2.0559839560650392e-05 0.014672173840579802 0 -5.9959775452410482e-05 0.014523914763058079 0 6.5618923960616807e-06 0.014542942022599176 0 -2.0559839560650392e-05 0.014672173840579802 0 0.00010179577130846889 0.014638063052963382 0 1.5797368385194077e-11 0.01499999821873812 0 -1.6052931838164343e-08 0.014999637120514251 0 2.2968458448918305e-10 0.014999999785958064 0 -2.0559839560650392e-05 0.014672173840579802 0 0.00010179577130846889 0.014638063052963382 0 4.6717755334878646e-07 0.01483610273328608 0 0.00010179577130846889 0.014638063052963382 0 3.4158335875687553e-07 0.014999321425176657 0 4.6717755334878646e-07 0.01483610273328608 0 3.8322663990345193e-05 0.014810224646699123 0 2.6576902277075544e-08 0.014999921912456979 0 3.4158335875687553e-07 0.014999321425176657 0 4.6717755334878646e-07 0.01483610273328608 0 2.6656254636373865e-06 0.014883124890712763 0 -2.0559839560650392e-05 0.014672173840579802 0 4.6717755334878646e-07 0.01483610273328608 0 -2.1787167246786132e-05 0.014762823761307017 0 -2.0559839560650392e-05 0.014672173840579802 0 -2.1787167246786132e-05 0.014762823761307017 0 -5.0640194239036852e-05 0.014624121353631678 0 4.6717755334878646e-07 0.01483610273328608 0 -2.1787167246786132e-05 0.014762823761307017 0 2.6656254636373865e-06 0.014883124890712763 0 -2.1787167246786132e-05 0.014762823761307017 0 2.6656254636373865e-06 0.014883124890712763 0 -2.3104641266194935e-05 0.014803663190121524 0 -6.4179225828081854e-06 0.014884629694071966 0 2.6656254636373865e-06 0.014883124890712763 0 -2.3104641266194935e-05 0.014803663190121524 0 -7.3380871659232755e-08 0.014999984326393693 0 3.4158335875687553e-07 0.014999321425176657 0 2.6656254636373865e-06 0.014883124890712763 0 -6.6065528764399614e-05 0.014657292096269193 0 -4.9361900111380109e-05 0.014742623342830108 0 -4.4850519642928269e-05 0.014699501345205727 0 -6.6065528764399614e-05 0.014657292096269193 0 -7.6608440241044692e-05 0.014697672033875397 0 -9.5174802771154653e-05 0.014611443852201665 0 -6.6065528764399614e-05 0.014657292096269193 0 -7.6608440241044692e-05 0.014697672033875397 0 -4.9361900111380109e-05 0.014742623342830108 0 -2.1787167246786132e-05 0.014762823761307017 0 -2.3104641266194935e-05 0.014803663190121524 0 -4.4850519642928269e-05 0.014699501345205727 0 -4.9361900111380109e-05 0.014742623342830108 0 -2.3104641266194935e-05 0.014803663190121524 0 -4.4850519642928269e-05 0.014699501345205727 0 -2.1787167246786132e-05 0.014762823761307017 0 -4.4850519642928269e-05 0.014699501345205727 0 -5.0640194239036852e-05 0.014624121353631678 0 -4.4850519642928269e-05 0.014699501345205727 0 -5.0640194239036852e-05 0.014624121353631678 0 -6.8064902569400733e-05 0.014595558906258721 0 -5.0640194239036852e-05 0.014624121353631678 0 -6.8064902569400733e-05 0.014595558906258721 0 -7.8637179538702264e-05 0.01452889854516399 0 -6.6065528764399614e-05 0.014657292096269193 0 -4.4850519642928269e-05 0.014699501345205727 0 -6.8064902569400733e-05 0.014595558906258721 0 -6.6065528764399614e-05 0.014657292096269193 0 -8.3323598561243066e-05 0.014563423215819075 0 -9.5174802771154653e-05 0.014611443852201665 0 -6.6065528764399614e-05 0.014657292096269193 0 -6.8064902569400733e-05 0.014595558906258721 0 -8.3323598561243066e-05 0.014563423215819075 0 -6.8064902569400733e-05 0.014595558906258721 0 -8.3323598561243066e-05 0.014563423215819075 0 -9.3220951314450302e-05 0.014474841264216047 0 -6.8064902569400733e-05 0.014595558906258721 0 -9.3220951314450302e-05 0.014474841264216047 0 -7.8637179538702264e-05 0.01452889854516399 0 -9.3220951314450302e-05 0.014474841264216047 0 -7.8637179538702264e-05 0.01452889854516399 0 -0.00010287817397044504 0.014436545284264399 0 -9.3220951314450302e-05 0.014474841264216047 0 -0.00010287817397044504 0.014436545284264399 0 -0.00012054620624640087 0.0143771207153964 0 -2.0559839560650392e-05 0.014672173840579802 0 -5.0640194239036852e-05 0.014624121353631678 0 -5.9959775452410482e-05 0.014523914763058079 0 -5.0640194239036852e-05 0.014624121353631678 0 -7.8637179538702264e-05 0.01452889854516399 0 -5.9959775452410482e-05 0.014523914763058079 0 -7.8637179538702264e-05 0.01452889854516399 0 -5.9959775452410482e-05 0.014523914763058079 0 -0.00010287817397044504 0.014436545284264399 0 -2.4755933653727565e-05 0.014445507500447716 0 -5.9959775452410482e-05 0.014523914763058079 0 -8.6456237227213839e-05 0.014427598740798226 0 -5.9959775452410482e-05 0.014523914763058079 0 -8.6456237227213839e-05 0.014427598740798226 0 -0.00010287817397044504 0.014436545284264399 0 -8.6456237227213839e-05 0.014427598740798226 0 -0.00010287817397044504 0.014436545284264399 0 -0.00013514770550194491 0.014364947688214147 0 -0.00010287817397044504 0.014436545284264399 0 -0.00012054620624640087 0.0143771207153964 0 -0.00013514770550194491 0.014364947688214147 0 -0.00025752210171632313 0.013648452086950862 0 -0.00032393224256600101 0.013755714789333177 0 -0.00041458516164944353 0.013742720313487826 0 -0.00012054620624640087 0.0143771207153964 0 -0.00015110231205791373 0.014274830432094607 0 -0.00013514770550194491 0.014364947688214147 0 -0.00014848535772074892 0.014213547676073471 0 -0.00015110231205791373 0.014274830432094607 0 -0.00013514770550194491 0.014364947688214147 0 -0.00022115917648752177 0.013921620013611597 0 -0.00027377902858131628 0.014058025888701696 0 -0.00014848535772074892 0.014213547676073471 0 -0.00016266637316043013 0.014155495198205283 0 -0.00015110231205791373 0.014274830432094607 0 -0.00014848535772074892 0.014213547676073471 0 -0.00016266637316043013 0.014155495198205283 0 -0.00013751884582193652 0.013945471831869541 0 -0.00014382190813376836 0.014279596379447876 0 -0.00016266637316043013 0.014155495198205283 0 -0.00015110231205791373 0.014274830432094607 0 -0.00014382190813376836 0.014279596379447876 0 -0.00016266637316043013 0.014155495198205283 0 -0.0001526771343349429 0.014352424095459863 0 -0.00016266637316043013 0.014155495198205283 0 -0.00015575957019418822 0.01413627333402941 0 -0.00013751884582193652 0.013945471831869541 0 -0.00012054620624640087 0.0143771207153964 0 -0.00015110231205791373 0.014274830432094607 0 -0.00012214541543281528 0.014376879971389343 0 -0.00014382190813376836 0.014279596379447876 0 -0.00015110231205791373 0.014274830432094607 0 -0.00012214541543281528 0.014376879971389343 0 -0.00014382190813376836 0.014279596379447876 0 -0.00012214541543281528 0.014376879971389343 0 -0.00012026366934295523 0.014413516389761483 0 -9.3220951314450302e-05 0.014474841264216047 0 -0.00012054620624640087 0.0143771207153964 0 -0.00012214541543281528 0.014376879971389343 0 -9.3220951314450302e-05 0.014474841264216047 0 -0.00012214541543281528 0.014376879971389343 0 -0.00010075545908029526 0.014499686553701933 0 -8.3323598561243066e-05 0.014563423215819075 0 -9.3220951314450302e-05 0.014474841264216047 0 -0.00010075545908029526 0.014499686553701933 0 -8.3323598561243066e-05 0.014563423215819075 0 -0.00010075545908029526 0.014499686553701933 0 -9.5174802771154653e-05 0.014611443852201665 0 -0.00010075545908029526 0.014499686553701933 0 -0.00011549872073275047 0.014565785569331427 0 -9.5174802771154653e-05 0.014611443852201665 0 -0.00011549872073275047 0.014565785569331427 0 -0.00012414173768958412 0.014495201248083626 0 -0.00014568207454887888 0.014562037820965192 0 -0.00010075545908029526 0.014499686553701933 0 -0.00011549872073275047 0.014565785569331427 0 -0.00012414173768958412 0.014495201248083626 0 -0.00012214541543281528 0.014376879971389343 0 -0.00010075545908029526 0.014499686553701933 0 -0.00012026366934295523 0.014413516389761483 0 -0.00012414173768958412 0.014495201248083626 0 -0.00012026366934295523 0.014413516389761483 0 -0.0001526771343349429 0.014352424095459863 0 -0.00010075545908029526 0.014499686553701933 0 -0.00012414173768958412 0.014495201248083626 0 -0.00012026366934295523 0.014413516389761483 0 -0.00014382190813376836 0.014279596379447876 0 -0.00012026366934295523 0.014413516389761483 0 -0.0001526771343349429 0.014352424095459863 0 -0.00014574573577390241 0.014196612440134163 0 -0.00014790131851821791 0.014013195733208304 0 -0.0001526771343349429 0.014352424095459863 0 -0.00018319708553474299 0.014512955571034474 0 -0.00019878329817155031 0.014554958114327382 0 -0.00016266637316043013 0.014155495198205283 0 -0.0001526771343349429 0.014352424095459863 0 -0.00015575957019418822 0.01413627333402941 0 -0.0001526771343349429 0.014352424095459863 0 -0.00018319708553474299 0.014512955571034474 0 -0.00016208650403990734 0.014503685896759762 0 -0.00012414173768958412 0.014495201248083626 0 -0.0001526771343349429 0.014352424095459863 0 -0.00016208650403990734 0.014503685896759762 0 -0.00018319708553474299 0.014512955571034474 0 -0.00016775976780235204 0.014546654105608217 0 -0.00016909431298010508 0.014541796980788202 0 -0.0001501520661680692 0.014047355571290998 0 -0.00014790131851821791 0.014013195733208304 0 -0.00016909431298010508 0.014541796980788202 0 -0.00014568207454887888 0.014562037820965192 0 -0.00015003123429268252 0.014589607430737903 0 -0.00016775976780235204 0.014546654105608217 0 -0.00016909431298010508 0.014541796980788202 0 -0.00015003123429268252 0.014589607430737903 0 -0.00012414173768958412 0.014495201248083626 0 -0.00016208650403990734 0.014503685896759762 0 -0.00014568207454887888 0.014562037820965192 0 -0.00018319708553474299 0.014512955571034474 0 -0.00016909431298010508 0.014541796980788202 0 -0.00016208650403990734 0.014503685896759762 0 -0.00016909431298010508 0.014541796980788202 0 -0.00016208650403990734 0.014503685896759762 0 -0.00014568207454887888 0.014562037820965192 0 -0.00014568207454887888 0.014562037820965192 0 -0.00015003123429268252 0.014589607430737903 0 -0.00012316969966856922 0.014611404792958273 0 -0.00011549872073275047 0.014565785569331427 0 -0.00014568207454887888 0.014562037820965192 0 -0.00012316969966856922 0.014611404792958273 0 -0.00015003123429268252 0.014589607430737903 0 -0.00012720127031094547 0.014631007014869491 0 -0.00012316969966856922 0.014611404792958273 0 -0.00015003123429268252 0.014589607430737903 0 -0.00012720127031094547 0.014631007014869491 0 -0.00011729043633951949 0.014628522443698902 0 -0.00011217774070417419 0.014661525954104795 0 -0.00012720127031094547 0.014631007014869491 0 -0.00011729043633951949 0.014628522443698902 0 -0.00012720127031094547 0.014631007014869491 0 -0.0001078539402521472 0.014658054182986362 0 -0.00012316969966856922 0.014611404792958273 0 -0.00011217774070417419 0.014661525954104795 0 -0.00012720127031094547 0.014631007014869491 0 -0.0001078539402521472 0.014658054182986362 0 -7.6608440241044692e-05 0.014697672033875397 0 -0.0001078539402521472 0.014658054182986362 0 -9.5174802771154653e-05 0.014611443852201665 0 -0.00011549872073275047 0.014565785569331427 0 -9.5174802771154653e-05 0.014611443852201665 0 -0.00012316969966856922 0.014611404792958273 0 -0.0001078539402521472 0.014658054182986362 0 -9.5174802771154653e-05 0.014611443852201665 0 -0.00012316969966856922 0.014611404792958273 0 -5.265685941227952e-05 0.014632479199632195 0 -3.9138392337606803e-05 0.014639479854928228 0 -8.8723909447827943e-05 0.014644006977653966 0 -5.265685941227952e-05 0.014632479199632195 0 -0.00011729043633951949 0.014628522443698902 0 -8.8723909447827943e-05 0.014644006977653966 0 -2.9212181111598205e-06 0.014626643329419488 0 -5.265685941227952e-05 0.014632479199632195 0 -3.9138392337606803e-05 0.014639479854928228 0 -0.00015003123429268252 0.014589607430737903 0 -0.00011729043633951949 0.014628522443698902 0 -8.8723909447827943e-05 0.014644006977653966 0 -0.00014790131851821791 0.014013195733208304 0 -0.00013514741473086604 0.014191537295647975 0 -0.00014790131851821791 0.014013195733208304 0 -9.7175087674276914e-05 0.013604847213095354 0 -0.00016775976780235204 0.014546654105608217 0 -0.00015003123429268252 0.014589607430737903 0 -8.8723909447827943e-05 0.014644006977653966 0 -0.00015575957019418822 0.01413627333402941 0 -0.00012614500690617952 0.013729489579383873 0 -0.00013751884582193652 0.013945471831869541 0 -0.00010770781311345254 0.013449328483475711 0 -0.00027763311080370741 0.013475297329315798 0 -0.00026763159962487411 0.01342113868080741 0 -0.00012614500690617952 0.013729489579383873 0 -0.00011340604659529696 0.013478172766078151 0 -0.0001100242431813527 0.013343135144071892 0 -9.7175087674276914e-05 0.013604847213095354 0 -0.0005954896339694151 0.012863490899838514 0 -0.00027763311080370741 0.013475297329315798 0 -0.00026763159962487411 0.01342113868080741 0 -0.00042946695716214315 0.013397164539603247 0 -0.00012614500690617952 0.013729489579383873 0 -0.00011340604659529696 0.013478172766078151 0 -0.00013004419446973792 0.013674709382712539 0 -0.00011340604659529696 0.013478172766078151 0 -0.00013004419446973792 0.013674709382712539 0 -0.00010486628434292306 0.013480228694893393 0 -0.00014848535772074892 0.014213547676073471 0 -0.00013004419446973792 0.013674709382712539 0 -0.00013751884582193652 0.013945471831869541 0 -0.00012614500690617952 0.013729489579383873 0 -0.00013004419446973792 0.013674709382712539 0 -0.00013751884582193652 0.013945471831869541 0 -0.00025752210171632313 0.013648452086950862 0 -0.00014609091136107266 0.013629197142670588 0 -0.00017056827836162879 0.013689961977011191 0 -0.00022115917648752177 0.013921620013611597 0 -0.00015137779712782177 0.0137281521602459 0 -0.00025752210171632313 0.013648452086950862 0 -0.00013004419446973792 0.013674709382712539 0 -0.00014609091136107266 0.013629197142670588 0 -0.00014609091136107266 0.013629197142670588 0 -0.00010225481347360005 0.013589978471191545 0 -0.00010486628434292306 0.013480228694893393 0 -0.00013004419446973792 0.013674709382712539 0 -0.00014609091136107266 0.013629197142670588 0 -0.00010486628434292306 0.013480228694893393 0 -0.00014609091136107266 0.013629197142670588 0 -0.00010225481347360005 0.013589978471191545 0 -0.00017056827836162879 0.013689961977011191 0 -5.4476374820812624e-05 0.013693282256171363 0 -0.00018027315131622035 0.013815628557534957 0 -0.00017056827836162879 0.013689961977011191 0 -5.4476374820812624e-05 0.013693282256171363 0 -7.6270686821661542e-05 0.013937419835027672 0 -0.00018027315131622035 0.013815628557534957 0 -0.00010225481347360005 0.013589978471191545 0 -5.4476374820812624e-05 0.013693282256171363 0 -0.00017056827836162879 0.013689961977011191 0 -7.6270686821661542e-05 0.013937419835027672 0 -2.0269643527602441e-05 0.014131189833124093 0 4.0485354774478014e-05 0.01386330931393564 0 -5.4476374820812624e-05 0.013693282256171363 0 -7.6270686821661542e-05 0.013937419835027672 0 4.0485354774478014e-05 0.01386330931393564 0 -5.9439201712317867e-05 0.013955701603430294 0 -0.00015260951784459671 0.014068444252819806 0 -7.6270686821661542e-05 0.013937419835027672 0 -0.00025004382129786498 0.013919630895247604 0 -0.00018027315131622035 0.013815628557534957 0 -7.6270686821661542e-05 0.013937419835027672 0 -8.8388034826217344e-05 0.014236700500221199 0 -7.2593794151451578e-05 0.014151044551449778 0 -0.00025004382129786498 0.013919630895247604 0 -0.00018027315131622035 0.013815628557534957 0 -0.00025873951377285029 0.013779856935821424 0 -0.00025752210171632313 0.013648452086950862 0 -0.00017056827836162879 0.013689961977011191 0 -0.00025873951377285029 0.013779856935821424 0 -0.00018027315131622035 0.013815628557534957 0 -0.00017056827836162879 0.013689961977011191 0 -0.00025873951377285029 0.013779856935821424 0 -0.00025752210171632313 0.013648452086950862 0 -0.00032393224256600101 0.013755714789333177 0 -0.00025873951377285029 0.013779856935821424 0 -0.00032393224256600101 0.013755714789333177 0 -0.00025873951377285029 0.013779856935821424 0 -0.0003650779272752787 0.013843165310832916 0 -0.00032393224256600101 0.013755714789333177 0 -0.00041458516164944353 0.013742720313487826 0 -0.0003650779272752787 0.013843165310832916 0 -0.00046523862981973091 0.013841386069908151 0 -0.00041458516164944353 0.013742720313487826 0 -0.0003650779272752787 0.013843165310832916 0 -0.00045249735987244462 0.013917152300934838 0 -0.0003650779272752787 0.013843165310832916 0 -0.00036692902926138975 0.013952414222538498 0 -0.00025004382129786498 0.013919630895247604 0 -0.0003650779272752787 0.013843165310832916 0 -0.00036692902926138975 0.013952414222538498 0 -0.00025004382129786498 0.013919630895247604 0 -0.00025873951377285029 0.013779856935821424 0 -0.0003650779272752787 0.013843165310832916 0 -8.8388034826217344e-05 0.014236700500221199 0 -4.0547292046430303e-05 0.014405511799039351 0 -3.9749967357966085e-05 0.014397187101812313 0 -0.00015260951784459671 0.014068444252819806 0 -0.00019948588387028833 0.014175553228934729 0 -8.8388034826217344e-05 0.014236700500221199 0 -3.9749967357966085e-05 0.014397187101812313 0 -6.2100074861011153e-05 0.014321151576428055 0 -4.0547292046430303e-05 0.014405511799039351 0 -2.5660710552396257e-05 0.014487156173407246 0 -3.9749967357966085e-05 0.014397187101812313 0 -3.6332867288233747e-05 0.014524984636135383 0 -4.0547292046430303e-05 0.014405511799039351 0 -2.5660710552396257e-05 0.014487156173407246 0 -2.5660710552396257e-05 0.014487156173407246 0 -3.9749967357966085e-05 0.014397187101812313 0 -5.7874347443617486e-07 0.014506129467523662 0 -1.7354313497994325e-05 0.014557469322715108 0 -2.5660710552396257e-05 0.014487156173407246 0 -5.7874347443617486e-07 0.014506129467523662 0 -3.9749967357966085e-05 0.014397187101812313 0 -6.2100074861011153e-05 0.014321151576428055 0 -5.7874347443617486e-07 0.014506129467523662 0 -8.9101361365339741e-06 0.014343816656268346 0 -1.3042024264989967e-05 0.014482812334229321 0 4.6442644162764898e-05 0.014354605409861 0 3.5933106155755955e-05 0.014475197137165514 0 -5.7874347443617486e-07 0.014506129467523662 0 4.6442644162764898e-05 0.014354605409861 0 0.00011418989882729462 0.014334536150362207 0 8.442012865820305e-05 0.014443364802869797 0 4.6442644162764898e-05 0.014354605409861 0 8.442012865820305e-05 0.014443364802869797 0 3.5933106155755955e-05 0.014475197137165514 0 4.6442644162764898e-05 0.014354605409861 0 0.00011418989882729462 0.014334536150362207 0 0.00012839528865251688 0.014170397652682045 0 0.00011418989882729462 0.014334536150362207 0 0.00012839528865251688 0.014170397652682045 0 0.00019666061109490317 0.014309657771071826 0 0.00011418989882729462 0.014334536150362207 0 0.00019666061109490317 0.014309657771071826 0 0.00015595028812566907 0.014400080959518178 0 -8.9101361365339741e-06 0.014343816656268346 0 6.1927042216069702e-05 0.014145268150079153 0 -6.2100074861011153e-05 0.014321151576428055 0 -2.0269643527602441e-05 0.014131189833124093 0 -7.2593794151451578e-05 0.014151044551449778 0 -7.6270686821661542e-05 0.013937419835027672 0 -2.0269643527602441e-05 0.014131189833124093 0 -7.2593794151451578e-05 0.014151044551449778 0 -8.8388034826217344e-05 0.014236700500221199 0 -6.2100074861011153e-05 0.014321151576428055 0 -7.2593794151451578e-05 0.014151044551449778 0 0.00041564257125042579 0.014101057100527076 0 0.00028200553161272492 0.014200883239802011 0 0.00026408234081708046 0.013910569373469054 0 0.00012839528865251688 0.014170397652682045 0 0.00028200553161272492 0.014200883239802011 0 0.00026408234081708046 0.013910569373469054 0 6.1927042216069702e-05 0.014145268150079153 0 0.00026298002387523025 0.01393306136616358 0 0.00012839528865251688 0.014170397652682045 0 0.00028200553161272492 0.014200883239802011 0 0.00019666061109490317 0.014309657771071826 0 0.00028200553161272492 0.014200883239802011 0 0.00019666061109490317 0.014309657771071826 0 0.0002969684801402946 0.01434052352991865 0 0.00019666061109490317 0.014309657771071826 0 0.0002969684801402946 0.01434052352991865 0 0.00023363774820885815 0.014397218858633687 0 0.00041564257125042579 0.014101057100527076 0 0.00028200553161272492 0.014200883239802011 0 0.0004702967659901766 0.01433889390875203 0 0.00028200553161272492 0.014200883239802011 0 0.0002969684801402946 0.01434052352991865 0 0.0004702967659901766 0.01433889390875203 0 0.00091213323825576449 0.013663586448092882 0 0.00065930407108811054 0.013788058674767676 0 0.00073463483020829064 0.013267849988577813 0 0.0015110362414911937 0.0088747058150596796 0 0.001559868035024424 0.008592879998353592 0 0.001585619243630863 0.0089102097532027334 0 0.0015386132666252285 0.0087517924095815765 0 0.0014404173149430751 0.0090574141091054466 0 0.0010728910041862053 0.011509190155663424 0 0.0013313087961052943 0.010869923121683648 0 0.00065930407108811054 0.013788058674767676 0 0.00065629062418125314 0.013922852627950573 0 0.00087119486331806877 0.01386291965727268 0 0.001585619243630863 0.0089102097532027334 0 0.0014404173149430751 0.0090574141091054466 0 0.0013875793948926751 0.0094901557644157496 0 0.00091213323825576449 0.013663586448092882 0 0.00065930407108811054 0.013788058674767676 0 0.00065629062418125314 0.013922852627950573 0 0.00068907525246861669 0.013971865244888056 0 0.00066676983661900563 0.013925224549244006 0 0.00041564257125042579 0.014101057100527076 0 0.0004702967659901766 0.01433889390875203 0 0.00065629062418125314 0.013922852627950573 0 0.00041564257125042579 0.014101057100527076 0 0.00065629062418125314 0.013922852627950573 0 0.00026408234081708046 0.013910569373469054 0 0.00065629062418125314 0.013922852627950573 0 0.00072230745380877912 0.013645165888854624 0 0.00038783259047193682 0.013660582438693695 0 0.00065629062418125314 0.013922852627950573 0 0.00038783259047193682 0.013660582438693695 0 0.00026408234081708046 0.013910569373469054 0 0.00072230745380877912 0.013645165888854624 0 0.001119218212436268 0.013557879736201111 0 0.00087119486331806877 0.01386291965727268 0 0.00065629062418125314 0.013922852627950573 0 0.00072230745380877912 0.013645165888854624 0 0.00087119486331806877 0.01386291965727268 0 0.00072230745380877912 0.013645165888854624 0 0.0004666774962754169 0.013349982680640141 0 0.00084768019399666114 0.013169305902518816 0 0.00072230745380877912 0.013645165888854624 0 0.00084768019399666114 0.013169305902518816 0 0.001119218212436268 0.013557879736201111 0 0.00072230745380877912 0.013645165888854624 0 0.00038783259047193682 0.013660582438693695 0 0.0004666774962754169 0.013349982680640141 0 0.00038783259047193682 0.013660582438693695 0 0.00015622637204204602 0.013427433344425126 0 0.0004666774962754169 0.013349982680640141 0 0.00038783259047193682 0.013660582438693695 0 0.00011675828718764822 0.013685560579677569 0 0.00015622637204204602 0.013427433344425126 0 0.00011675828718764822 0.013685560579677569 0 7.401269081373177e-06 0.013564308932974757 0 0.00015622637204204602 0.013427433344425126 0 0.00038783259047193682 0.013660582438693695 0 0.00026408234081708046 0.013910569373469054 0 0.00011675828718764822 0.013685560579677569 0 -2.0269643527602441e-05 0.014131189833124093 0 0.00026408234081708046 0.013910569373469054 0 4.0485354774478014e-05 0.01386330931393564 0 0.00026408234081708046 0.013910569373469054 0 4.0485354774478014e-05 0.01386330931393564 0 0.00011675828718764822 0.013685560579677569 0 -5.4476374820812624e-05 0.013693282256171363 0 4.0485354774478014e-05 0.01386330931393564 0 0.00011675828718764822 0.013685560579677569 0 -5.4476374820812624e-05 0.013693282256171363 0 0.00011675828718764822 0.013685560579677569 0 7.401269081373177e-06 0.013564308932974757 0 -0.00010225481347360005 0.013589978471191545 0 -5.4476374820812624e-05 0.013693282256171363 0 7.401269081373177e-06 0.013564308932974757 0 -0.00010225481347360005 0.013589978471191545 0 7.401269081373177e-06 0.013564308932974757 0 -2.6808837805474815e-05 0.013427181383063985 0 7.401269081373177e-06 0.013564308932974757 0 -2.6808837805474815e-05 0.013427181383063985 0 0.00015622637204204602 0.013427433344425126 0 -2.6808837805474815e-05 0.013427181383063985 0 5.8615788756658946e-05 0.013238464400345011 0 -5.190071602704606e-05 0.013320349340623911 0 -2.6808837805474815e-05 0.013427181383063985 0 -0.00010486628434292306 0.013480228694893393 0 -5.190071602704606e-05 0.013320349340623911 0 -0.00010225481347360005 0.013589978471191545 0 -2.6808837805474815e-05 0.013427181383063985 0 -0.00010486628434292306 0.013480228694893393 0 -2.6808837805474815e-05 0.013427181383063985 0 0.00015622637204204602 0.013427433344425126 0 5.8615788756658946e-05 0.013238464400345011 0 0.00015622637204204602 0.013427433344425126 0 5.8615788756658946e-05 0.013238464400345011 0 0.00028816298592020969 0.013024007379156224 0 6.1374185521700243e-06 0.013123196810852602 0 -9.9066805202647712e-05 0.013175987238928242 0 9.0307349803045363e-05 0.012880431427168507 0 0.00011531564079219455 0.01299408838451987 0 9.0307349803045363e-05 0.012880431427168507 0 0.00028007032846262775 0.012356041731626553 0 5.8615788756658946e-05 0.013238464400345011 0 0.00011531564079219455 0.01299408838451987 0 0.00028816298592020969 0.013024007379156224 0 5.8615788756658946e-05 0.013238464400345011 0 6.1374185521700243e-06 0.013123196810852602 0 -5.190071602704606e-05 0.013320349340623911 0 5.8615788756658946e-05 0.013238464400345011 0 0.00011531564079219455 0.01299408838451987 0 6.1374185521700243e-06 0.013123196810852602 0 0.00011531564079219455 0.01299408838451987 0 6.1374185521700243e-06 0.013123196810852602 0 9.0307349803045363e-05 0.012880431427168507 0 -0.00010486628434292306 0.013480228694893393 0 -9.8594746822390305e-05 0.013394791785018272 0 -5.190071602704606e-05 0.013320349340623911 0 -0.00011340604659529696 0.013478172766078151 0 -0.00010486628434292306 0.013480228694893393 0 -9.8594746822390305e-05 0.013394791785018272 0 -9.8594746822390305e-05 0.013394791785018272 0 -5.190071602704606e-05 0.013320349340623911 0 -0.00011137078557347938 0.013300610780640388 0 6.1374185521700243e-06 0.013123196810852602 0 -0.00011137078557347938 0.013300610780640388 0 -9.9066805202647712e-05 0.013175987238928242 0 6.1374185521700243e-06 0.013123196810852602 0 -5.190071602704606e-05 0.013320349340623911 0 -0.00011137078557347938 0.013300610780640388 0 -0.00051998600134703973 0.013065543197839627 0 -0.0005954896339694151 0.012863490899838514 0 -0.00011340604659529696 0.013478172766078151 0 -0.00011137078557347938 0.013300610780640388 0 -0.0001100242431813527 0.013343135144071892 0 -0.00011340604659529696 0.013478172766078151 0 -9.8594746822390305e-05 0.013394791785018272 0 -0.00011137078557347938 0.013300610780640388 0 -0.00027763311080370741 0.013475297329315798 0 -0.00042946695716214315 0.013397164539603247 0 -0.0004491264684215626 0.013504677807140413 0 -0.00013514741473086604 0.014191537295647975 0 -0.00060967504246446625 0.012645238203863747 0 -0.0016618649222790004 0.012143106594367774 0 -0.00089659921438532404 0.011638927746517017 0 -0.0015002012471972059 0.011227466199585659 0 -0.0005954896339694151 0.012863490899838514 0 -0.00060967504246446625 0.012645238203863747 0 -0.0016618649222790004 0.012143106594367774 0 -0.00073108745592411557 0.012226050533900405 0 -0.00089659921438532404 0.011638927746517017 0 -0.0005954896339694151 0.012863490899838514 0 -0.00031436228852135773 0.012544596458691774 0 -0.00073108745592411557 0.012226050533900405 0 -0.00089659921438532404 0.011638927746517017 0 -0.00023725931641913238 0.011707754733931009 0 -0.00089659921438532404 0.011638927746517017 0 -0.00037745111398167371 0.010938974974357191 0 -0.00023725931641913238 0.011707754733931009 0 -0.00028335446192166291 0.01013378303953065 0 -0.00011162894958775987 0.010526997924870371 0 -0.00045315362286012868 0.010959681745572939 0 0.00013193884031187817 0.010800541690742092 0 -0.00011162894958775987 0.010526997924870371 0 -0.00045315362286012868 0.010959681745572939 0 0.00015435689556424274 0.010220339535104317 0 0.00013193884031187817 0.010800541690742092 0 -0.00011162894958775987 0.010526997924870371 0 -0.00012038066030704663 0.010813905662389246 0 -0.00060967504246446625 0.012645238203863747 0 -0.00089659921438532404 0.011638927746517017 0 -0.00037745111398167371 0.010938974974357191 0 -0.0015002012471972059 0.011227466199585659 0 -2.9212181111598205e-06 0.014626643329419488 0 -3.9138392337606803e-05 0.014639479854928228 0 -7.3432169901586597e-06 0.014650063074559671 0 -3.9138392337606803e-05 0.014639479854928228 0 -8.8723909447827943e-05 0.014644006977653966 0 -7.3432169901586597e-06 0.014650063074559671 0 -6.969679609572098e-05 0.012516844184436904 0 -0.00060967504246446625 0.012645238203863747 0 0.00069164740045314795 0.010660469959452626 0 0.0012259753936059441 0.01126863416075073 0 0.0013419025747789641 0.010611932387427504 0 0.00069164740045314795 0.010660469959452626 0 0.00053959332172092214 0.011454299136256042 0 0.0012259753936059441 0.01126863416075073 0 0.0011543529587903947 0.010208704278812366 0 0.00069164740045314795 0.010660469959452626 0 0.0013419025747789641 0.010611932387427504 0 -0.00012038066030704663 0.010813905662389246 0 0.0006138358066114962 0.010686163325819805 0 0.00015435689556424274 0.010220339535104317 0 0.00013193884031187817 0.010800541690742092 0 0.00069164740045314795 0.010660469959452626 0 -0.00037745111398167371 0.010938974974357191 0 0.00069164740045314795 0.010660469959452626 0 0.00053959332172092214 0.011454299136256042 0 -0.00037745111398167371 0.010938974974357191 0 0.00053959332172092214 0.011454299136256042 0 -0.00023725931641913238 0.011707754733931009 0 -0.00073108745592411557 0.012226050533900405 0 -0.00023725931641913238 0.011707754733931009 0 0.00028007032846262775 0.012356041731626553 0 0.00053959332172092214 0.011454299136256042 0 -0.00023725931641913238 0.011707754733931009 0 0.00028007032846262775 0.012356041731626553 0 0.00053959332172092214 0.011454299136256042 0 0.0010457825909766533 0.012415982612041099 0 0.0012259753936059441 0.01126863416075073 0 0.00053959332172092214 0.011454299136256042 0 0.0010457825909766533 0.012415982612041099 0 0.00028007032846262775 0.012356041731626553 0 0.0010457825909766533 0.012415982612041099 0 0.00058663037011572126 0.012852065273677516 0 0.00028007032846262775 0.012356041731626553 0 0.0010457825909766533 0.012415982612041099 0 0.00058663037011572126 0.012852065273677516 0 0.00084768019399666114 0.013169305902518816 0 -0.00031436228852135773 0.012544596458691774 0 0.000255025969715034 0.01244629969134976 0 0.00058663037011572126 0.012852065273677516 0 0.00028007032846262775 0.012356041731626553 0 0.00028816298592020969 0.013024007379156224 0 0.00011531564079219455 0.01299408838451987 0 0.00028007032846262775 0.012356041731626553 0 0.00028816298592020969 0.013024007379156224 0 0.00015622637204204602 0.013427433344425126 0 0.00028816298592020969 0.013024007379156224 0 0.0004666774962754169 0.013349982680640141 0 0.00058663037011572126 0.012852065273677516 0 0.00028816298592020969 0.013024007379156224 0 0.0004666774962754169 0.013349982680640141 0 0.0010457825909766533 0.012415982612041099 0 0.00084768019399666114 0.013169305902518816 0 0.0013857156737912006 0.012997486326616476 0 0.00058663037011572126 0.012852065273677516 0 0.0004666774962754169 0.013349982680640141 0 0.00084768019399666114 0.013169305902518816 0 0.0016700924375704527 0.012421488069894539 0 0.0013026369477416463 0.012674646778755022 0 0.0013824339636965841 0.011566323002848482 0 0.0015171030570928915 0.011714724338460204 0 0.0015848621098021962 0.011304091802196329 0 0.00084768019399666114 0.013169305902518816 0 0.0013857156737912006 0.012997486326616476 0 0.001119218212436268 0.013557879736201111 0 0.0017785311456139288 0.010630562409451101 0 0.0016700924375704527 0.012421488069894539 0 0.0017785311456139288 0.010630562409451101 0 0.0023916620681074334 0.011212340247062823 0 0.0028355342836210995 0.00982893854351659 0 0.0026451270442625287 0.010312653134734681 0 0.0023656353774636337 0.0098954516356572087 0 0.0018757794916862372 0.012592240514143201 0 0.0016755319989231147 0.012382785408308981 0 0.002147176654398951 0.011997748807006171 0 0.0016700924375704527 0.012421488069894539 0 0.0017684232187056659 0.011889954836753621 0 0.0016755319989231147 0.012382785408308981 0 0.002147176654398951 0.011997748807006171 0 0.0017784906816423584 0.011691316893963686 0 0.0010457825909766533 0.012415982612041099 0 0.0016611954079107283 0.013049651157036244 0 0.0017784906816423584 0.011691316893963686 0 0.0011512811508825819 0.012568049783253181 0 0.0016700924375704527 0.012421488069894539 0 0.0010457825909766533 0.012415982612041099 0 0.0017784906816423584 0.011691316893963686 0 0.0012259753936059441 0.01126863416075073 0 0.0017784906816423584 0.011691316893963686 0 0.0012259753936059441 0.01126863416075073 0 0.001828894173164535 0.010843201685733446 0 0.0023916620681074334 0.011212340247062823 0 0.0024058227271634525 0.010887215875159072 0 0.002147176654398951 0.011997748807006171 0 0.0020239096026969587 0.01119534600262562 0 0.0023837085687100227 0.010857253323108582 0 0.002147176654398951 0.011997748807006171 0 0.0017784906816423584 0.011691316893963686 0 0.0020239096026969587 0.01119534600262562 0 0.0017784906816423584 0.011691316893963686 0 0.0020239096026969587 0.01119534600262562 0 0.001828894173164535 0.010843201685733446 0 0.0020239096026969587 0.01119534600262562 0 0.0021518246411803507 0.010738213808379459 0 0.0023837085687100227 0.010857253323108582 0 0.0020239096026969587 0.01119534600262562 0 0.001828894173164535 0.010843201685733446 0 0.0021518246411803507 0.010738213808379459 0 0.001828894173164535 0.010843201685733446 0 0.0021518246411803507 0.010738213808379459 0 0.0020996682819390952 0.010398577342270711 0 0.0017313784824199451 0.010159384037198982 0 0.001828894173164535 0.010843201685733446 0 0.0020996682819390952 0.010398577342270711 0 0.0021518246411803507 0.010738213808379459 0 0.0020996682819390952 0.010398577342270711 0 0.0023174254083119915 0.010508151625445756 0 0.0021518246411803507 0.010738213808379459 0 0.0023174254083119915 0.010508151625445756 0 0.0023837085687100227 0.010857253323108582 0 0.0017313784824199451 0.010159384037198982 0 0.001828894173164535 0.010843201685733446 0 0.0013419025747789641 0.010611932387427504 0 0.0012259753936059441 0.01126863416075073 0 0.001828894173164535 0.010843201685733446 0 0.0013419025747789641 0.010611932387427504 0 0.0026654641644909718 0.010196017033651108 0 0.0024840316237184014 0.010271733518058546 0 0.0024990611368630707 0.010424227900236654 0 0.0026654641644909718 0.010196017033651108 0 0.0026986968760302921 0.0099851929674751577 0 0.0024840316237184014 0.010271733518058546 0 0.0026654641644909718 0.010196017033651108 0 0.0026986968760302921 0.0099851929674751577 0 0.0028633037605461137 0.010046190057818857 0 0.0025415876826855891 0.010002407897567038 0 0.0026986968760302921 0.0099851929674751577 0 0.0024840316237184014 0.010271733518058546 0 0.002358432449786692 0.010164148853529242 0 0.0023174254083119915 0.010508151625445756 0 0.0024840316237184014 0.010271733518058546 0 0.002358432449786692 0.010164148853529242 0 0.0025415876826855891 0.010002407897567038 0 0.0024840316237184014 0.010271733518058546 0 0.002358432449786692 0.010164148853529242 0 0.0020996682819390952 0.010398577342270711 0 0.0023174254083119915 0.010508151625445756 0 0.0024840316237184014 0.010271733518058546 0 0.0023840601111953332 0.010552790019055878 0 0.0024990611368630707 0.010424227900236654 0 0.0023174254083119915 0.010508151625445756 0 0.0024840316237184014 0.010271733518058546 0 0.0023840601111953332 0.010552790019055878 0 0.0023840601111953332 0.010552790019055878 0 0.0022867524839377948 0.010674619441235234 0 0.0024990611368630707 0.010424227900236654 0 0.0026451270442625287 0.010312653134734681 0 0.0023837085687100227 0.010857253323108582 0 0.0022867524839377948 0.010674619441235234 0 0.0023840601111953332 0.010552790019055878 0 0.0023837085687100227 0.010857253323108582 0 0.0022867524839377948 0.010674619441235234 0 0.0023174254083119915 0.010508151625445756 0 0.0023840601111953332 0.010552790019055878 0 0.0023837085687100227 0.010857253323108582 0 0.0022867524839377948 0.010674619441235234 0 0.0020433557838424664 0.01046620548878404 0 0.0016586436209942708 0.010564862853101048 0 0.0023259809368154391 0.01059940018301902 0 0.0020815694683132394 0.010702067938012814 0 0.0022867524839377948 0.010674619441235234 0 0.0024990611368630707 0.010424227900236654 0 0.0027518994211540248 0.01044040466162122 0 0.0026654641644909718 0.010196017033651108 0 0.0024990611368630707 0.010424227900236654 0 0.0027518994211540248 0.01044040466162122 0 0.0017033915335313789 0.01029493981428174 0 0.0019380091894432808 0.010327610902594079 0 0.0016586436209942708 0.010564862853101048 0 0.0020433557838424664 0.01046620548878404 0 0.0019380091894432808 0.010327610902594079 0 0.0016586436209942708 0.010564862853101048 0 0.0019380091894432808 0.010327610902594079 0 0.0022958649014595098 0.010277605466210777 0 0.0018979210052023855 0.010012729535105619 0 0.0017033915335313789 0.01029493981428174 0 0.0019380091894432808 0.010327610902594079 0 0.0018979210052023855 0.010012729535105619 0 0.0026451270442625287 0.010312653134734681 0 0.0022958649014595098 0.010277605466210777 0 0.0023656353774636337 0.0098954516356572087 0 0.0026451270442625287 0.010312653134734681 0 0.0022867524839377948 0.010674619441235234 0 0.0022958649014595098 0.010277605466210777 0 0.0020433557838424664 0.01046620548878404 0 0.0019380091894432808 0.010327610902594079 0 0.0022958649014595098 0.010277605466210777 0 0.0022867524839377948 0.010674619441235234 0 0.0020433557838424664 0.01046620548878404 0 0.0022958649014595098 0.010277605466210777 0 0.0022958649014595098 0.010277605466210777 0 0.0023656353774636337 0.0098954516356572087 0 0.0018979210052023855 0.010012729535105619 0 0.0018979210052023855 0.010012729535105619 0 0.0018824125207196941 0.0094507037762435134 0 0.0015290893194148919 0.0097113710729613764 0 0.0023656353774636337 0.0098954516356572087 0 0.0018979210052023855 0.010012729535105619 0 0.0018824125207196941 0.0094507037762435134 0 0.0018824125207196941 0.0094507037762435134 0 0.00192020769911526 0.0088914211427941689 0 0.0015954104533640568 0.0090458132976928615 0 0.0014875501590394509 0.0088170695810313761 0 0.0015038347811061144 0.0087554886100361922 0 0.0014608320452688354 0.0087238295285328848 0 0.0019393888866637537 0.0088914726413046527 0 0.0017025702320516191 0.0088492971002553256 0 0.0018824125207196941 0.0094507037762435134 0 0.0023863048442932652 0.0093495418086773502 0 0.00192020769911526 0.0088914211427941689 0 0.0023656353774636337 0.0098954516356572087 0 0.0018824125207196941 0.0094507037762435134 0 0.0023863048442932652 0.0093495418086773502 0 0.0017785311456139288 0.010630562409451101 0 0.0019393888866637537 0.0088914726413046527 0 0.0028355342836210995 0.00982893854351659 0 0.0023656353774636337 0.0098954516356572087 0 0.0023863048442932652 0.0093495418086773502 0 0.0015487680528638442 0.0089183890155127565 0 0.0014875501590394509 0.0088170695810313761 0 0.001570447851467544 0.0088422555617943162 0 0.0013824339636965841 0.011566323002848482 0 0.0015176364466126535 0.011230554131309505 0 0.0015848621098021962 0.011304091802196329 0 0.0017785311456139288 0.010630562409451101 0 0.0016279065736670259 0.0098431527251095583 0 0.0015725497329300848 0.0087826600724260871 0 0.0015343804896031804 0.0087839898253499627 0 0.0015277292939284543 0.0087366510756520764 0 0.0015176364466126535 0.011230554131309505 0 0.0015848621098021962 0.011304091802196329 0 0.0016406711410310915 0.010897085931955514 0 0.0016279065736670259 0.0098431527251095583 0 0.0013313087961052943 0.010869923121683648 0 0.0013026369477416463 0.012674646778755022 0 0.0013313087961052943 0.010869923121683648 0 0.001570447851467544 0.0088422555617943162 0 0.0015725497329300848 0.0087826600724260871 0 0.0015343804896031804 0.0087839898253499627 0 0.0014875501590394509 0.0088170695810313761 0 0.001570447851467544 0.0088422555617943162 0 0.0015343804896031804 0.0087839898253499627 0 0.0014875501590394509 0.0088170695810313761 0 0.0015343804896031804 0.0087839898253499627 0 0.0015038347811061144 0.0087554886100361922 0 0.0015038347811061144 0.0087554886100361922 0 0.0015277292939284543 0.0087366510756520764 0 0.0014967540620900808 0.0087126553615993439 0 0.0015343804896031804 0.0087839898253499627 0 0.0015038347811061144 0.0087554886100361922 0 0.0015277292939284543 0.0087366510756520764 0 0.0015725497329300848 0.0087826600724260871 0 0.0015277292939284543 0.0087366510756520764 0 0.0015440519857421494 0.0087343087767982417 0 0.0015277292939284543 0.0087366510756520764 0 0.0015440519857421494 0.0087343087767982417 0 0.0015369378698965705 0.0087170384864252923 0 0.001559868035024424 0.008592879998353592 0 0.0013313087961052943 0.010869923121683648 0 0.0015553906594005574 0.0087332160351505043 0 0.0015725497329300848 0.0087826600724260871 0 0.0015440519857421494 0.0087343087767982417 0 0.0015386132666252285 0.0087517924095815765 0 0.0015553906594005574 0.0087332160351505043 0 0.0015369378698965705 0.0087170384864252923 0 0.0015553906594005574 0.0087332160351505043 0 0.0015440519857421494 0.0087343087767982417 0 0.0015369378698965705 0.0087170384864252923 0 0.0015386132666252285 0.0087517924095815765 0 0.0015369378698965705 0.0087170384864252923 0 0.0015269021161423574 0.0086938073459482835 0 0.0015277292939284543 0.0087366510756520764 0 0.0015369378698965705 0.0087170384864252923 0 0.0015089195239381442 0.0086885100177761018 0 0.0015369378698965705 0.0087170384864252923 0 0.0015089195239381442 0.0086885100177761018 0 0.0015269021161423574 0.0086938073459482835 0 0.0015277292939284543 0.0087366510756520764 0 0.0015089195239381442 0.0086885100177761018 0 0.0014967540620900808 0.0087126553615993439 0 0.0015089195239381442 0.0086885100177761018 0 0.0014763014452599877 0.0086678056234310453 0 0.0014967540620900808 0.0087126553615993439 0 0.0015089195239381442 0.0086885100177761018 0 0.0014763014452599877 0.0086678056234310453 0 0.0014813506449141371 0.0086503968182122838 0 0.0014763014452599877 0.0086678056234310453 0 0.0014706946489433383 0.0086405390210223497 0 0.0014813506449141371 0.0086503968182122838 0 0.0014763014452599877 0.0086678056234310453 0 0.0014608320452688354 0.0087238295285328848 0 0.0014734414124717465 0.00861880762682069 0 0.0014763014452599877 0.0086678056234310453 0 0.0014706946489433383 0.0086405390210223497 0 0.0014734414124717465 0.00861880762682069 0 0.00192020769911526 0.0088914211427941689 0 0.0015954104533640568 0.0090458132976928615 0 0.0014989037425248569 0.0087248551339390284 0 0.0017025702320516191 0.0088492971002553256 0 0.0014905978895977581 0.0086224321610202173 0 0.0015038347811061144 0.0087554886100361922 0 0.0014608320452688354 0.0087238295285328848 0 0.0014967540620900808 0.0087126553615993439 0 0.0014763014452599877 0.0086678056234310453 0 0.0014608320452688354 0.0087238295285328848 0 0.0014967540620900808 0.0087126553615993439 0 0.0014861937547781747 0.0086074349565088883 0 0.0014638165336371546 0.0086088744532259159 0 0.0014857460154610077 0.0086097939919335485 0 0.0014601851076219393 0.0085857490700097863 0 0.0014727784044187933 0.0085659821626647634 0 0.0014706946489433383 0.0086405390210223497 0 0.0014665468089058787 0.0086346274031536812 0 0.0014813506449141371 0.0086503968182122838 0 0.0014857460154610077 0.0086097939919335485 0 0.0014665468089058787 0.0086346274031536812 0 0.0014813506449141371 0.0086503968182122838 0 0.0014857460154610077 0.0086097939919335485 0 0.0014813506449141371 0.0086503968182122838 0 0.0015063223365583958 0.0086547147972912668 0 0.0015089195239381442 0.0086885100177761018 0 0.0014813506449141371 0.0086503968182122838 0 0.0015063223365583958 0.0086547147972912668 0 0.0015089195239381442 0.0086885100177761018 0 0.0015063223365583958 0.0086547147972912668 0 0.0015269021161423574 0.0086938073459482835 0 0.0015063223365583958 0.0086547147972912668 0 0.0015269021161423574 0.0086938073459482835 0 0.0015265899751080046 0.0086561613442957906 0 0.0015386132666252285 0.0087517924095815765 0 0.0015269021161423574 0.0086938073459482835 0 0.001547745613438446 0.0086744376280727727 0 0.0015269021161423574 0.0086938073459482835 0 0.0015265899751080046 0.0086561613442957906 0 0.001547745613438446 0.0086744376280727727 0 0.0015265899751080046 0.0086561613442957906 0 0.0015379434995083613 0.0086290473176573769 0 0.001547745613438446 0.0086744376280727727 0 0.0015265899751080046 0.0086561613442957906 0 0.0015083697844818422 0.0086174416132401566 0 0.0015379434995083613 0.0086290473176573769 0 0.0014857460154610077 0.0086097939919335485 0 0.0015063223365583958 0.0086547147972912668 0 0.0015083697844818422 0.0086174416132401566 0 0.0015063223365583958 0.0086547147972912668 0 0.0015265899751080046 0.0086561613442957906 0 0.0015083697844818422 0.0086174416132401566 0 0.0015083697844818422 0.0086174416132401566 0 0.0015149479304018758 0.0085933302764525116 0 0.0014856256093153492 0.0085706483335732716 0 0.0015379434995083613 0.0086290473176573769 0 0.0015149479304018758 0.0085933302764525116 0 0.0015405187991328056 0.0086015686965755477 0 0.0015083697844818422 0.0086174416132401566 0 0.0015379434995083613 0.0086290473176573769 0 0.0015149479304018758 0.0085933302764525116 0 0.0015149479304018758 0.0085933302764525116 0 0.0015108185937646407 0.0085615962582193759 0 0.0015405187991328056 0.0086015686965755477 0 0.0015149479304018758 0.0085933302764525116 0 0.0014856256093153492 0.0085706483335732716 0 0.0015108185937646407 0.0085615962582193759 0 0.0014856256093153492 0.0085706483335732716 0 0.0014735815462937388 0.0085517943693120425 0 0.0014794131964423517 0.0085465166471205955 0 0.0014857460154610077 0.0086097939919335485 0 0.0015083697844818422 0.0086174416132401566 0 0.0014856256093153492 0.0085706483335732716 0 0.0014857460154610077 0.0086097939919335485 0 0.0014856256093153492 0.0085706483335732716 0 0.0014727784044187933 0.0085659821626647634 0 0.0014727784044187933 0.0085659821626647634 0 0.0014735815462937388 0.0085517943693120425 0 0.0014745336357064457 0.0085299202243171793 0 0.0014735815462937388 0.0085517943693120425 0 0.0014745336357064457 0.0085299202243171793 0 0.0014727497390300839 0.0085486148002143023 0 0.0014856256093153492 0.0085706483335732716 0 0.0014727784044187933 0.0085659821626647634 0 0.0014735815462937388 0.0085517943693120425 0 0.0014735815462937388 0.0085517943693120425 0 0.0014794131964423517 0.0085465166471205955 0 0.0014727497390300839 0.0085486148002143023 0 0.0014794131964423517 0.0085465166471205955 0 0.0014703444860511474 0.008540477786063063 0 0.0014727497390300839 0.0085486148002143023 0 0.0014856256093153492 0.0085706483335732716 0 0.0014794131964423517 0.0085465166471205955 0 0.0015108185937646407 0.0085615962582193759 0 0.0007147075018763047 0.0086965454237111512 0 0.00071823834759256839 0.0085211584200990016 0 0.00086304795837982139 0.0085911789436770372 0 0.0007147075018763047 0.0086965454237111512 0 0.00062728943485901192 0.0085970804665544825 0 0.00071823834759256839 0.0085211584200990016 0 0.0010220656829285249 0.0086834563771067685 0 0.0013887634463369141 0.0080133170600783232 0 0.0007147075018763047 0.0086965454237111512 0 0.00062728943485901192 0.0085970804665544825 0 0.00053063292516025739 0.0086588027651987969 0 0.00071823834759256839 0.0085211584200990016 0 0.00069422241017314641 0.0084079401668825538 0 0.00050840271162773431 0.0084410365648539248 0 0.00062728943485901192 0.0085970804665544825 0 0.00071823834759256839 0.0085211584200990016 0 0.00050840271162773431 0.0084410365648539248 0 0.00071823834759256839 0.0085211584200990016 0 0.00069422241017314641 0.0084079401668825538 0 0.00085008220496716482 0.0084200263393386671 0 0.00069422241017314641 0.0084079401668825538 0 0.00067934601394530904 0.0083388052810312793 0 0.00076958213341848177 0.0083587963183925033 0 0.00069422241017314641 0.0084079401668825538 0 0.00057738651144248671 0.0083411211190348306 0 0.00067934601394530904 0.0083388052810312793 0 0.00069422241017314641 0.0084079401668825538 0 0.00050840271162773431 0.0084410365648539248 0 0.00057738651144248671 0.0083411211190348306 0 0.00095655725938465896 0.0083175524050739021 0 0.00078097328290507786 0.0092019397642123038 0 0.00091946358865229556 0.0084671040361055227 0 0.0010291558463690796 0.0085761081230262184 0 0.0011052038266127185 0.0084013937456645579 0 0.00085008220496716482 0.0084200263393386671 0 0.00087831495851855939 0.0083828255646000716 0 0.00085375129841087818 0.0083485935607883754 0 0.00069422241017314641 0.0084079401668825538 0 0.00085008220496716482 0.0084200263393386671 0 0.00076958213341848177 0.0083587963183925033 0 0.00085008220496716482 0.0084200263393386671 0 0.00084070312596974445 0.0083263375223002079 0 0.00076958213341848177 0.0083587963183925033 0 0.00071823834759256839 0.0085211584200990016 0 0.00091946358865229556 0.0084671040361055227 0 0.00086304795837982139 0.0085911789436770372 0 0.0006846094421967911 0.0085592213117751878 0 0.00095655725938465896 0.0083175524050739021 0 0.00091946358865229556 0.0084671040361055227 0 0.0010291558463690796 0.0085761081230262184 0 0.00086304795837982139 0.0085911789436770372 0 0.0010291558463690796 0.0085761081230262184 0 0.00086304795837982139 0.0085911789436770372 0 0.00091168673825586452 0.0087354523958660113 0 0.0010291558463690796 0.0085761081230262184 0 0.00091168673825586452 0.0087354523958660113 0 0.0011038227090726283 0.0087718826042094637 0 0.0007147075018763047 0.0086965454237111512 0 0.00086304795837982139 0.0085911789436770372 0 0.00091168673825586452 0.0087354523958660113 0 0.0010220656829285249 0.0086834563771067685 0 0.0012157746781426167 0.008655076133220729 0 0.0012157746781426167 0.008655076133220729 0 0.0013836258912850829 0.0085625673608238709 0 0.0015108185937646407 0.0085615962582193759 0 0.0015501763892944844 0.0085849780716896733 0 0.0015405187991328056 0.0086015686965755477 0 0.0013836258912850829 0.0085625673608238709 0 0.001108639568458321 0.0097590652809911548 0 0.0015501763892944844 0.0085849780716896733 0 0.0015785130698641721 0.0086125732738625161 0 0.0015720116149677812 0.0086173175257485742 0 0.00056989315149339197 0.011039501276905386 0 0.0006016459375486155 0.011040121064085274 0 0.00061172809963854565 0.011006601690589354 0 0.0011038227090726283 0.0087718826042094637 0 0.0012020896361441453 0.0085979840916960929 0 0.0012989047041044237 0.008807308974409591 0 0.0008808023983317301 0.0099299975807288689 0 0.001108639568458321 0.0097590652809911548 0 0.0010291558463690796 0.0085761081230262184 0 0.0011038227090726283 0.0087718826042094637 0 0.0012020896361441453 0.0085979840916960929 0 0.0010291558463690796 0.0085761081230262184 0 0.0012020896361441453 0.0085979840916960929 0 0.0011052038266127185 0.0084013937456645579 0 0.0008808023983317301 0.0099299975807288689 0 0.00078097328290507786 0.0092019397642123038 0 0.00056989315149339197 0.011039501276905386 0 0.00046918094218557265 0.01088377892787736 0 0.00059754917360155604 0.011012061906871054 0 0.00056989315149339197 0.011039501276905386 0 0.00059754917360155604 0.011012061906871054 0 0.0006016459375486155 0.011040121064085274 0 0.00046918094218557265 0.01088377892787736 0 0.00061815743653991146 0.010924857613278249 0 0.00059754917360155604 0.011012061906871054 0 0.00046918094218557265 0.01088377892787736 0 0.00061815743653991146 0.010924857613278249 0 0.00061093435179038495 0.010810467688794637 0 0.00059736350168311449 0.011288374418487606 0 0.00065064651373350892 0.011036489900123084 0 0.00051366937416171172 0.011284711254907829 0 0.0004822012929812968 0.011443704337637197 0 0.00063453059773935065 0.011072401615073396 0 0.00051366937416171172 0.011284711254907829 0 0.00042219266932343104 0.011429541804364451 0 0.0004822012929812968 0.011443704337637197 0 0.00051366937416171172 0.011284711254907829 0 0.00042219266932343104 0.011429541804364451 0 0.00051938561389819381 0.011192805881165909 0 0.00042219266932343104 0.011429541804364451 0 0.0004822012929812968 0.011443704337637197 0 0.00045596524863770126 0.011420544649572428 0 0.00042219266932343104 0.011429541804364451 0 0.00045767498744358706 0.011405811159256079 0 0.00045596524863770126 0.011420544649572428 0 0.00074707703226970944 0.010902240639532098 0 0.00061815743653991146 0.010924857613278249 0 0.00063453059773935065 0.011072401615073396 0 0.00074707703226970944 0.010902240639532098 0 0.00061815743653991146 0.010924857613278249 0 0.0006741180802161186 0.010863967461043548 0 0.00061815743653991146 0.010924857613278249 0 0.00059754917360155604 0.011012061906871054 0 0.00063453059773935065 0.011072401615073396 0 0.00059754917360155604 0.011012061906871054 0 0.00063453059773935065 0.011072401615073396 0 0.0006016459375486155 0.011040121064085274 0 0.00063453059773935065 0.011072401615073396 0 0.0006016459375486155 0.011040121064085274 0 0.00059092645308997588 0.011044812313992524 0 0.00063453059773935065 0.011072401615073396 0 0.00056634839101265427 0.011095405029655333 0 0.00059092645308997588 0.011044812313992524 0 0.00044571499676225959 0.013228851719083326 0 0.00046846972685075933 0.013199471093689966 0 0.000419430071430939 0.011420620563132207 0 0.00040409544029710031 0.011453954031445565 0 0.00042219266932343104 0.011429541804364451 0 0.00027385011928131195 0.011837748478204211 0 0.00047185225912782036 0.011546380159548689 0 0.00063453059773935065 0.011072401615073396 0 0.00056634839101265427 0.011095405029655333 0 0.00051938561389819381 0.011192805881165909 0 0.00042219266932343104 0.011429541804364451 0 0.00051938561389819381 0.011192805881165909 0 0.00053140079031020596 0.01102351622998865 0 0.00054136210875414012 0.011073054785226178 0 0.00053140079031020596 0.01102351622998865 0 0.00059092645308997588 0.011044812313992524 0 0.00054136210875414012 0.011073054785226178 0 0.00056634839101265427 0.011095405029655333 0 0.00059092645308997588 0.011044812313992524 0 0.00054136210875414012 0.011073054785226178 0 0.00051938561389819381 0.011192805881165909 0 0.00053140079031020596 0.01102351622998865 0 0.00039103335327878204 0.011934839707093046 0 0.00027385011928131195 0.011837748478204211 0 0.00047185225912782036 0.011546380159548689 0 0.00054136210875414012 0.011073054785226178 0 0.00056634839101265427 0.011095405029655333 0 0.00051938561389819381 0.011192805881165909 0 0.00051366937416171172 0.011284711254907829 0 0.00063453059773935065 0.011072401615073396 0 0.00051938561389819381 0.011192805881165909 0 0.00040409544029710031 0.011453954031445565 0 0.00064225353387693579 0.011259418857272286 0 0.00049893273204726059 0.014590030309216942 0 0.00054881615635076202 0.01441257273330326 0 0.00037645989604656995 0.014537024107487334 0 0.00039103335327878204 0.011934839707093046 0 0.00027385011928131195 0.011837748478204211 0 0.00013381183431981588 0.012400190098294754 0 0.00040409544029710031 0.011453954031445565 0 0.0004477974850714253 0.012204081447064181 0 0.00053140079031020596 0.01102351622998865 0 0.00059859717612049501 0.011016757087931778 0 0.00060215661541965801 0.011002321727179673 0 0.0006016459375486155 0.011040121064085274 0 0.00059859717612049501 0.011016757087931778 0 0.00061172809963854565 0.011006601690589354 0 0.00053140079031020596 0.01102351622998865 0 0.00059241124261845358 0.011029788494952968 0 0.00059092645308997588 0.011044812313992524 0 0.00053140079031020596 0.01102351622998865 0 0.00059241124261845358 0.011029788494952968 0 0.00059859717612049501 0.011016757087931778 0 0.0006016459375486155 0.011040121064085274 0 0.00059241124261845358 0.011029788494952968 0 0.00059092645308997588 0.011044812313992524 0 0.0006016459375486155 0.011040121064085274 0 0.00059241124261845358 0.011029788494952968 0 0.00059859717612049501 0.011016757087931778 0 0.0004555516065826165 0.011487489506858633 0 0.00041489918763684241 0.011672737472778923 0 0.00038309849105882057 0.011668853097893638 0 0.00059859717612049501 0.011016757087931778 0 0.00060215661541965801 0.011002321727179673 0 0.00061172809963854565 0.011006601690589354 0 0.00055902649455163262 0.013006066018047425 0 0.00077360208480690398 0.013030128687943659 0 0.00040119325717189662 0.013602152381465758 0 0.00064225353387693579 0.011259418857272286 0 0.0010644520763888143 0.010568835868451032 0 0.00087558532692137096 0.011595365024651595 0 0.00072032844110593629 0.011577949010167636 0 0.00059282910079028032 0.011882088710015785 0 0.0004477974850714253 0.012204081447064181 0 0.00064225353387693579 0.011259418857272286 0 0.0015785130698641721 0.0086125732738625161 0 0.0015819545389674364 0.0086255121964188639 0 0.0015720116149677812 0.0086173175257485742 0 0.00064225353387693579 0.011259418857272286 0 0.001108639568458321 0.0097590652809911548 0 0.0010858427073018354 0.010476287992459438 0 0.0010188864970542644 0.010466859129465267 0 0.0010563388143061583 0.010547413023150785 0 0.001108639568458321 0.0097590652809911548 0 0.0010644520763888143 0.010568835868451032 0 0.00039103335327878204 0.011934839707093046 0 0.00013381183431981588 0.012400190098294754 0 0.00026409456698867908 0.012416381013465375 0 0.00044571499676225959 0.013228851719083326 0 0.00045083007991435719 0.013578940473975365 0 0.0004477974850714253 0.012204081447064181 0 0.00045083007991435719 0.013578940473975365 0 0.00024340876105578835 0.014685843125215498 0 0.0002102356977569989 0.014607968707852383 0 0.00014616378873039842 0.014678369163786365 0 0.00045083007991435719 0.013578940473975365 0 0.00046753151565827604 0.014380162389954045 0 0.00024340876105578835 0.014685843125215498 0 0.0002102356977569989 0.014607968707852383 0 0.00027430922330371382 0.014599994322968801 0 0.00038035892972159232 0.014537732096437567 0 0.00046753151565827604 0.014380162389954045 0 0.0002102356977569989 0.014607968707852383 0 0.00026384896496390317 0.014568464488663883 0 0.00027430922330371382 0.014599994322968801 0 0.00026384896496390317 0.014568464488663883 0 0.000215073999937934 0.014547108081318124 0 0.00026642657102927226 0.014522409053081957 0 0.0002102356977569989 0.014607968707852383 0 0.00026384896496390317 0.014568464488663883 0 0.000215073999937934 0.014547108081318124 0 0.001397899002999248 0.012066929733375998 0 0.00097959773250640538 0.012569858428521043 0 0.0011636262562387935 0.012946007654155049 0 0.00031769204037033718 0.014485471300430311 0 0.00033104543079350208 0.014515504407499413 0 0.00034788578889830067 0.014515446555911417 0 0.00073264314712905715 0.013032558502148428 0 0.0007700596468730172 0.013777542013337956 0 0.00032648487784204091 0.014494925416471946 0 0.00031769204037033718 0.014485471300430311 0 0.00033104543079350208 0.014515504407499413 0 0.00026384896496390317 0.014568464488663883 0 0.00029453404732265599 0.014632198263890495 0 0.00033104543079350208 0.014515504407499413 0 0.00046753151565827604 0.014380162389954045 0 0.00031254249775966824 0.014588879629449963 0 0.00026384896496390317 0.014568464488663883 0 0.00026642657102927226 0.014522409053081957 0 0.00033104543079350208 0.014515504407499413 0 0.001397899002999248 0.012066929733375998 0 0.0012819841999512662 0.011818812994743967 0 0.00097959773250640538 0.012569858428521043 0 0.0010644520763888143 0.010568835868451032 0 0.0013399337419892502 0.010530878488957866 0 0.00077360208480690398 0.013030128687943659 0 0.00053400645773969138 0.013887203968898124 0 0.00040119325717189662 0.013602152381465758 0 0.00046753151565827604 0.014380162389954045 0 0.00073264314712905715 0.013032558502148428 0 0.0004477974850714253 0.012204081447064181 0 0.00073264314712905715 0.013032558502148428 0 0.00087558532692137096 0.011595365024651595 0 0.00072630874602342007 0.012167774448588537 0 0.00059282910079028032 0.011882088710015785 0 0.00073264314712905715 0.013032558502148428 0 0.0010644520763888143 0.010568835868451032 0 0.0015501763892944844 0.0085849780716896733 0 0.0015632717571141858 0.0086171562163242909 0 0.0015720116149677812 0.0086173175257485742 0 0.0015819545389674364 0.0086255121964188639 0 0.0015720116149677812 0.0086173175257485742 0 0.0015788436651837782 0.0086479048911140711 0 0.0015632717571141858 0.0086171562163242909 0 0.0015720116149677812 0.0086173175257485742 0 0.0015788436651837782 0.0086479048911140711 0 0.0015632717571141858 0.0086171562163242909 0 0.0015405187991328056 0.0086015686965755477 0 0.0015599703539789572 0.0086285147936778668 0 0.0015501763892944844 0.0085849780716896733 0 0.0015632717571141858 0.0086171562163242909 0 0.0015405187991328056 0.0086015686965755477 0 0.0015379434995083613 0.0086290473176573769 0 0.0015405187991328056 0.0086015686965755477 0 0.0015599703539789572 0.0086285147936778668 0 0.0015379434995083613 0.0086290473176573769 0 0.0015599703539789572 0.0086285147936778668 0 0.0015685980193421351 0.0086476644482019038 0 0.0015632717571141858 0.0086171562163242909 0 0.0015599703539789572 0.0086285147936778668 0 0.0015788436651837782 0.0086479048911140711 0 0.0015599703539789572 0.0086285147936778668 0 0.0015788436651837782 0.0086479048911140711 0 0.0015685980193421351 0.0086476644482019038 0 0.0015788436651837782 0.0086479048911140711 0 0.0015685980193421351 0.0086476644482019038 0 0.0015993051273824192 0.0086774582053413783 0 0.00097959773250640538 0.012569858428521043 0 0.00073463483020829064 0.013267849988577813 0 0.0011636262562387935 0.012946007654155049 0 0.0013399337419892502 0.010530878488957866 0 0.0011752286968628135 0.010956734701763364 0 0.0015685980193421351 0.0086476644482019038 0 0.001547745613438446 0.0086744376280727727 0 0.0015993051273824192 0.0086774582053413783 0 0.0015379434995083613 0.0086290473176573769 0 0.0015685980193421351 0.0086476644482019038 0 0.001547745613438446 0.0086744376280727727 0 0.001585619243630863 0.0089102097532027334 0 0.0015386132666252285 0.0087517924095815765 0 0.0015993051273824192 0.0086774582053413783 0 0.0010728910041862053 0.011509190155663424 0 0.0011752286968628135 0.010956734701763364 0 0.0015386132666252285 0.0087517924095815765 0 0.001547745613438446 0.0086744376280727727 0 0.0015993051273824192 0.0086774582053413783 0 0.00091213323825576449 0.013663586448092882 0 0.00073463483020829064 0.013267849988577813 0 0.0011636262562387935 0.012946007654155049 0 0.00068907525246861669 0.013971865244888056 0 0.0007700596468730172 0.013777542013337956 0 0.0004702967659901766 0.01433889390875203 0 0.0003082610868634337 0.014445031029682321 0 0.00034788578889830067 0.014515446555911417 0 0.0002969684801402946 0.01434052352991865 0 0.0004702967659901766 0.01433889390875203 0 0.0003082610868634337 0.014445031029682321 0 0.0002969684801402946 0.01434052352991865 0 0.0003082610868634337 0.014445031029682321 0 0.00023363774820885815 0.014397218858633687 0 0.00019666061109490317 0.014309657771071826 0 0.00023363774820885815 0.014397218858633687 0 0.00015595028812566907 0.014400080959518178 0 0.00023363774820885815 0.014397218858633687 0 0.00019311116902826224 0.014450697742703928 0 0.00015595028812566907 0.014400080959518178 0 0.00023363774820885815 0.014397218858633687 0 0.00019311116902826224 0.014450697742703928 0 0.00025131213696539991 0.014453298076082899 0 0.0003082610868634337 0.014445031029682321 0 0.00023363774820885815 0.014397218858633687 0 0.00025131213696539991 0.014453298076082899 0 0.0003082610868634337 0.014445031029682321 0 0.00025131213696539991 0.014453298076082899 0 0.00029330222608469318 0.014490793843198778 0 0.00023349314946628726 0.014492883055168302 0 0.00026642657102927226 0.014522409053081957 0 0.00029330222608469318 0.014490793843198778 0 0.00025131213696539991 0.014453298076082899 0 0.00023349314946628726 0.014492883055168302 0 0.00029330222608469318 0.014490793843198778 0 0.00019311116902826224 0.014450697742703928 0 0.00023349314946628726 0.014492883055168302 0 0.00016931754439183756 0.014511018175026185 0 0.00019311116902826224 0.014450697742703928 0 0.00025131213696539991 0.014453298076082899 0 0.00023349314946628726 0.014492883055168302 0 0.000215073999937934 0.014547108081318124 0 0.00023349314946628726 0.014492883055168302 0 0.00026642657102927226 0.014522409053081957 0 0.000215073999937934 0.014547108081318124 0 0.00023349314946628726 0.014492883055168302 0 0.00016931754439183756 0.014511018175026185 0 0.00026642657102927226 0.014522409053081957 0 0.00033104543079350208 0.014515504407499413 0 0.00029330222608469318 0.014490793843198778 0 0.00033104543079350208 0.014515504407499413 0 0.00034788578889830067 0.014515446555911417 0 0.00029330222608469318 0.014490793843198778 0 0.0003082610868634337 0.014445031029682321 0 0.00034788578889830067 0.014515446555911417 0 0.00029330222608469318 0.014490793843198778 0 9.7798118067857087e-05 0.014528612789314051 0 0.00016931754439183756 0.014511018175026185 0 0.00013472223341078421 0.014466961488288374 0 9.7798118067857087e-05 0.014528612789314051 0 0.00016931754439183756 0.014511018175026185 0 0.00015652718250023135 0.014569428410890995 0 0.000215073999937934 0.014547108081318124 0 0.00016931754439183756 0.014511018175026185 0 0.00015652718250023135 0.014569428410890995 0 0.00019311116902826224 0.014450697742703928 0 0.00016931754439183756 0.014511018175026185 0 0.00013472223341078421 0.014466961488288374 0 0.00011418989882729462 0.014334536150362207 0 0.00015595028812566907 0.014400080959518178 0 8.442012865820305e-05 0.014443364802869797 0 0.00013472223341078421 0.014466961488288374 0 0.00015595028812566907 0.014400080959518178 0 8.442012865820305e-05 0.014443364802869797 0 0.00019311116902826224 0.014450697742703928 0 0.00013472223341078421 0.014466961488288374 0 0.00015595028812566907 0.014400080959518178 0 9.7798118067857087e-05 0.014528612789314051 0 8.442012865820305e-05 0.014443364802869797 0 3.9879018314783577e-05 0.014523873878896131 0 9.7798118067857087e-05 0.014528612789314051 0 0.00013472223341078421 0.014466961488288374 0 8.442012865820305e-05 0.014443364802869797 0 3.5933106155755955e-05 0.014475197137165514 0 2.0083101569750888e-05 0.014538190387906645 0 -5.7874347443617486e-07 0.014506129467523662 0 3.5933106155755955e-05 0.014475197137165514 0 2.0083101569750888e-05 0.014538190387906645 0 3.9879018314783577e-05 0.014523873878896131 0 8.442012865820305e-05 0.014443364802869797 0 3.5933106155755955e-05 0.014475197137165514 0 3.9879018314783577e-05 0.014523873878896131 0 -1.7354313497994325e-05 0.014557469322715108 0 -5.7874347443617486e-07 0.014506129467523662 0 -2.6064912240542744e-06 0.014621144849908303 0 2.0083101569750888e-05 0.014538190387906645 0 -5.7874347443617486e-07 0.014506129467523662 0 2.6894826969886945e-05 0.014597170051922268 0 2.0083101569750888e-05 0.014538190387906645 0 2.6894826969886945e-05 0.014597170051922268 0 1.9207768172143179e-05 0.014562027261384104 0 -5.7874347443617486e-07 0.014506129467523662 0 2.6894826969886945e-05 0.014597170051922268 0 -2.6064912240542744e-06 0.014621144849908303 0 2.6894826969886945e-05 0.014597170051922268 0 8.0965781124939316e-05 0.014837862387210939 0 6.2848640917124013e-06 0.014740617994416056 0 2.6894826969886945e-05 0.014597170051922268 0 1.9207768172143179e-05 0.014562027261384104 0 6.4817191263489389e-06 0.014573993937409532 0 1.9207768172143179e-05 0.014562027261384104 0 4.1428115356190024e-05 0.014569353565005055 0 6.4817191263489389e-06 0.014573993937409532 0 3.0622354186085902e-05 0.014603747284290893 0 4.2111811094588449e-05 0.01471961096010487 0 9.7798118067857087e-05 0.014528612789314051 0 3.9879018314783577e-05 0.014523873878896131 0 4.1428115356190024e-05 0.014569353565005055 0 1.9207768172143179e-05 0.014562027261384104 0 3.9879018314783577e-05 0.014523873878896131 0 4.1428115356190024e-05 0.014569353565005055 0 2.0083101569750888e-05 0.014538190387906645 0 1.9207768172143179e-05 0.014562027261384104 0 3.9879018314783577e-05 0.014523873878896131 0 4.1428115356190024e-05 0.014569353565005055 0 3.3990686752561372e-05 0.014612655681217663 0 0.0001031749866847833 0.014609096186990236 0 4.1428115356190024e-05 0.014569353565005055 0 6.4817191263489389e-06 0.014573993937409532 0 3.3990686752561372e-05 0.014612655681217663 0 6.4817191263489389e-06 0.014573993937409532 0 -4.140009984489646e-06 0.014647199077417617 0 3.3990686752561372e-05 0.014612655681217663 0 4.2111811094588449e-05 0.01471961096010487 0 1.8608732535393037e-05 0.014734041306010944 0 1.8608732535393037e-05 0.014734041306010944 0 0.00010344069888791309 0.014499284668432356 0 3.3990686752561372e-05 0.014612655681217663 0 0.0001031749866847833 0.014609096186990236 0 6.2626131413732374e-05 0.014660570199238429 0 -4.140009984489646e-06 0.014647199077417617 0 3.3990686752561372e-05 0.014612655681217663 0 6.2626131413732374e-05 0.014660570199238429 0 0.0001031749866847833 0.014609096186990236 0 0.00014616378873039842 0.014678369163786365 0 6.2626131413732374e-05 0.014660570199238429 0 9.7798118067857087e-05 0.014528612789314051 0 0.0001031749866847833 0.014609096186990236 0 0.00015652718250023135 0.014569428410890995 0 9.7798118067857087e-05 0.014528612789314051 0 4.1428115356190024e-05 0.014569353565005055 0 0.0001031749866847833 0.014609096186990236 0 0.0002102356977569989 0.014607968707852383 0 0.000215073999937934 0.014547108081318124 0 0.00015652718250023135 0.014569428410890995 0 0.0001031749866847833 0.014609096186990236 0 0.00015652718250023135 0.014569428410890995 0 0.00015426880747724587 0.014606400643696239 0 0.0002102356977569989 0.014607968707852383 0 0.00015652718250023135 0.014569428410890995 0 0.00015426880747724587 0.014606400643696239 0 0.0002102356977569989 0.014607968707852383 0 0.00015426880747724587 0.014606400643696239 0 0.00014616378873039842 0.014678369163786365 0 0.0001031749866847833 0.014609096186990236 0 0.00015426880747724587 0.014606400643696239 0 0.00014616378873039842 0.014678369163786365 0 0.00045083007991435719 0.013578940473975365 0 0.00025697701764250923 0.014619169759005761 0 0.00035805566451260979 0.014402368815026084 0 0.00024452304255853104 0.014577224007609104 0 0.00037645989604656995 0.014537024107487334 0 0.00054881615635076202 0.01441257273330326 0 0.00035805566451260979 0.014402368815026084 0 0.00037645989604656995 0.014537024107487334 0 0.00035805566451260979 0.014402368815026084 0 0.00024452304255853104 0.014577224007609104 0 0.00016583802977100895 0.014387969342978655 0 0.00025697701764250923 0.014619169759005761 0 0.00010344069888791309 0.014499284668432356 0 0.00024452304255853104 0.014577224007609104 0 0.00037645989604656995 0.014537024107487334 0 0.00033086250429760418 0.01468875316503781 0 0.00049893273204726059 0.014590030309216942 0 0.00037645989604656995 0.014537024107487334 0 0.00033086250429760418 0.01468875316503781 0 0.00033086250429760418 0.01468875316503781 0 0.00044605329186974871 0.01476533641110748 0 0.00028983865352899882 0.014857173943906498 0 0.00049893273204726059 0.014590030309216942 0 0.00033086250429760418 0.01468875316503781 0 0.00044605329186974871 0.01476533641110748 0 0.00033086250429760418 0.01468875316503781 0 0.00021474395533704077 0.014770173423505242 0 0.00028983865352899882 0.014857173943906498 0 0.00024452304255853104 0.014577224007609104 0 0.00033086250429760418 0.01468875316503781 0 0.00021474395533704077 0.014770173423505242 0 0.00021474395533704077 0.014770173423505242 0 0.00028983865352899882 0.014857173943906498 0 0.00013550834516216017 0.01486865667543508 0 0.00028983865352899882 0.014857173943906498 0 0.00013550834516216017 0.01486865667543508 0 0.00024137281337190204 0.01499580058522793 0 0.00046846972685075933 0.013199471093689966 0 0.00016085550979015644 0.012948893661202127 0 0.00047185225912782036 0.011546380159548689 0 0.00047657693154015148 0.011399303667808371 0 0.00045767498744358706 0.011405811159256079 0 0.00044605329186974871 0.01476533641110748 0 0.00028983865352899882 0.014857173943906498 0 0.00039264354507106682 0.014934927610915269 0 0.00042219266932343104 0.011429541804364451 0 0.00047185225912782036 0.011546380159548689 0 0.00045767498744358706 0.011405811159256079 0 -1.3706708495425668e-05 0.014882695858336048 0 -2.6732516625693039e-05 0.014916077342042504 0 2.9674868995980247e-05 0.014949826424879527 0 -1.3706708495425668e-05 0.014882695858336048 0 0.00013550834516216017 0.01486865667543508 0 2.9674868995980247e-05 0.014949826424879527 0 -1.3706708495425668e-05 0.014882695858336048 0 0.00013550834516216017 0.01486865667543508 0 9.3242435640843399e-05 0.014722262812472737 0 0.00024452304255853104 0.014577224007609104 0 0.00021474395533704077 0.014770173423505242 0 9.3242435640843399e-05 0.014722262812472737 0 0.00021474395533704077 0.014770173423505242 0 0.00013550834516216017 0.01486865667543508 0 9.3242435640843399e-05 0.014722262812472737 0 -1.3706708495425668e-05 0.014882695858336048 0 9.3242435640843399e-05 0.014722262812472737 0 -3.2447105171770052e-05 0.014604324424617343 0 -1.3706708495425668e-05 0.014882695858336048 0 -3.9757485370573112e-05 0.014956015764669588 0 -1.5951209191535002e-05 0.014936677031968571 0 -1.6575679174523411e-05 0.014883066063876288 0 -3.9986024322308924e-05 0.014768804209947821 0 9.3242435640843399e-05 0.014722262812472737 0 -3.2447105171770052e-05 0.014604324424617343 0 0.00010447614936004693 0.014526441798961558 0 0.00024452304255853104 0.014577224007609104 0 9.3242435640843399e-05 0.014722262812472737 0 0.00010447614936004693 0.014526441798961558 0 -3.1048783577596456e-05 0.014369275548016673 0 0.00010447614936004693 0.014526441798961558 0 0.00016583802977100895 0.014387969342978655 0 0.00024452304255853104 0.014577224007609104 0 0.00010447614936004693 0.014526441798961558 0 0.00016583802977100895 0.014387969342978655 0 -3.1048783577596456e-05 0.014369275548016673 0 -3.2447105171770052e-05 0.014604324424617343 0 0.00010447614936004693 0.014526441798961558 0 -3.7683952639916155e-05 0.014988918663402307 0 -3.9757485370573112e-05 0.014956015764669588 0 -2.0193135216440026e-05 0.014971954875382389 0 1.8608732535393037e-05 0.014734041306010944 0 -3.9986024322308924e-05 0.014768804209947821 0 -3.7683952639916155e-05 0.014988918663402307 0 -2.0193135216440026e-05 0.014971954875382389 0 -1.4006384118365826e-05 0.014992097627410623 0 -4.6979139119793468e-06 0.014973125062622716 0 6.9999501751868899e-07 0.014990833450387936 0 -1.4006384118365826e-05 0.014992097627410623 0 -4.6979139119793468e-06 0.014973125062622716 0 -2.0193135216440026e-05 0.014971954875382389 0 -1.4006384118365826e-05 0.014992097627410623 0 -4.6979139119793468e-06 0.014973125062622716 0 -2.0193135216440026e-05 0.014971954875382389 0 -1.5951209191535002e-05 0.014936677031968571 0 -3.9757485370573112e-05 0.014956015764669588 0 -2.0193135216440026e-05 0.014971954875382389 0 -1.5951209191535002e-05 0.014936677031968571 0 -4.6979139119793468e-06 0.014973125062622716 0 -1.5951209191535002e-05 0.014936677031968571 0 -1.5084670870813139e-06 0.014954255887316718 0 5.9936923190919154e-05 0.014887225317164656 0 3.0459438400445135e-05 0.014951756578218728 0 0.00015765900959077375 0.014908591235072538 0 5.5189454734215265e-05 0.014939114759041316 0 0.0001196828283447711 0.014964711672343525 0 -1.5951209191535002e-05 0.014936677031968571 0 -2.6732516625693039e-05 0.014916077342042504 0 -1.5084670870813139e-06 0.014954255887316718 0 -1.3706708495425668e-05 0.014882695858336048 0 -1.5951209191535002e-05 0.014936677031968571 0 -2.6732516625693039e-05 0.014916077342042504 0 3.0459438400445135e-05 0.014951756578218728 0 8.5495913075339784e-09 0.014999976888149046 0 6.6695739476739427e-09 0.014999908974835089 0 2.1155590832717806e-05 0.014983282924098149 0 1.9628447563918351e-08 0.014999995520324445 0 5.5189454734215265e-05 0.014939114759041316 0 6.6695739476739427e-09 0.014999908974835089 0 2.1155590832717806e-05 0.014983282924098149 0 -4.6979139119793468e-06 0.014973125062622716 0 -1.5084670870813139e-06 0.014954255887316718 0 1.2827873858657447e-06 0.014981820268018626 0 -1.5084670870813139e-06 0.014954255887316718 0 1.2827873858657447e-06 0.014981820268018626 0 1.1644110287787737e-08 0.014999939881377615 0 1.2827873858657447e-06 0.014981820268018626 0 1.1644110287787737e-08 0.014999939881377615 0 9.7239232638367827e-10 0.014999984033795212 0 1.2827873858657447e-06 0.014981820268018626 0 9.7239232638367827e-10 0.014999984033795212 0 6.9999501751868899e-07 0.014990833450387936 0 -4.6979139119793468e-06 0.014973125062622716 0 1.2827873858657447e-06 0.014981820268018626 0 6.9999501751868899e-07 0.014990833450387936 0 9.7239232638367827e-10 0.014999984033795212 0 6.9999501751868899e-07 0.014990833450387936 0 3.8061862718217063e-09 0.014999996849842583 0 6.9999501751868899e-07 0.014990833450387936 0 3.8061862718217063e-09 0.014999996849842583 0 -2.7882533808605486e-06 0.014996378366908382 0 -3.1699978987996024e-08 0.014999884753367826 0 -3.6925329899393925e-05 0.014951515657493761 0 -5.0270821104879393e-05 0.014928429611705563 0 -1.7448865510140475e-08 0.014999982252353576 0 -2.9076496309558075e-05 0.014964143782919661 0 -3.1699978987996024e-08 0.014999884753367826 0 -3.6925329899393925e-05 0.014951515657493761 0 -7.8860136840877436e-08 0.014999822593956444 0 -3.6925329899393925e-05 0.014951515657493761 0 -7.8860136840877436e-08 0.014999822593956444 0 -4.2345669507816478e-05 0.014938022339354535 0 -3.6925329899393925e-05 0.014951515657493761 0 -5.0221733126886753e-05 0.014900394556802645 0 -5.5776433685659958e-05 0.014893036656033075 0 -3.6925329899393925e-05 0.014951515657493761 0 -5.0270821104879393e-05 0.014928429611705563 0 -5.0221733126886753e-05 0.014900394556802645 0 -3.6925329899393925e-05 0.014951515657493761 0 -4.2345669507816478e-05 0.014938022339354535 0 -5.5776433685659958e-05 0.014893036656033075 0 6.9999501751868899e-07 0.014990833450387936 0 -2.7882533808605486e-06 0.014996378366908382 0 -1.4006384118365826e-05 0.014992097627410623 0 -5.0270821104879393e-05 0.014928429611705563 0 -2.5091801098244806e-05 0.014930580150073494 0 -5.0221733126886753e-05 0.014900394556802645 0 -2.9076496309558075e-05 0.014964143782919661 0 -1.5151699615190516e-05 0.01498161034172921 0 -2.5091801098244806e-05 0.014930580150073494 0 -1.0013394206128681e-05 0.014863303661413507 0 -5.0221733126886753e-05 0.014900394556802645 0 1.8608732535393037e-05 0.014734041306010944 0 -1.5151699615190516e-05 0.01498161034172921 0 7.2369957712085917e-05 0.014946879765422116 0 -2.5091801098244806e-05 0.014930580150073494 0 -1.0013394206128681e-05 0.014863303661413507 0 8.0965781124939316e-05 0.014837862387210939 0 -1.0013394206128681e-05 0.014863303661413507 0 6.2848640917124013e-06 0.014740617994416056 0 8.0965781124939316e-05 0.014837862387210939 0 7.2369957712085917e-05 0.014946879765422116 0 -1.0013394206128681e-05 0.014863303661413507 0 -5.0221733126886753e-05 0.014900394556802645 0 -4.1981875939286162e-05 0.014821011058115483 0 -5.5776433685659958e-05 0.014893036656033075 0 -1.0013394206128681e-05 0.014863303661413507 0 -5.0221733126886753e-05 0.014900394556802645 0 -4.1981875939286162e-05 0.014821011058115483 0 -4.1981875939286162e-05 0.014821011058115483 0 -5.9281180579382058e-05 0.014796143210277305 0 -5.5776433685659958e-05 0.014893036656033075 0 -4.1981875939286162e-05 0.014821011058115483 0 -5.9281180579382058e-05 0.014796143210277305 0 -3.0878577745536015e-05 0.014711382886834139 0 -1.0013394206128681e-05 0.014863303661413507 0 -4.1981875939286162e-05 0.014821011058115483 0 6.2848640917124013e-06 0.014740617994416056 0 -4.1981875939286162e-05 0.014821011058115483 0 6.2848640917124013e-06 0.014740617994416056 0 -3.0878577745536015e-05 0.014711382886834139 0 2.6894826969886945e-05 0.014597170051922268 0 6.2848640917124013e-06 0.014740617994416056 0 -2.6064912240542744e-06 0.014621144849908303 0 6.2848640917124013e-06 0.014740617994416056 0 -2.6064912240542744e-06 0.014621144849908303 0 -3.0878577745536015e-05 0.014711382886834139 0 -3.0878577745536015e-05 0.014711382886834139 0 -2.6288570434649193e-05 0.014623457384352841 0 -4.3223890955181583e-05 0.01468550672849929 0 -2.6064912240542744e-06 0.014621144849908303 0 -3.0878577745536015e-05 0.014711382886834139 0 -2.6288570434649193e-05 0.014623457384352841 0 -1.7354313497994325e-05 0.014557469322715108 0 -2.6064912240542744e-06 0.014621144849908303 0 -2.6288570434649193e-05 0.014623457384352841 0 -5.9281180579382058e-05 0.014796143210277305 0 -4.3223890955181583e-05 0.01468550672849929 0 -6.1526130476391322e-05 0.014710365785445175 0 -5.9281180579382058e-05 0.014796143210277305 0 -3.0878577745536015e-05 0.014711382886834139 0 -4.3223890955181583e-05 0.01468550672849929 0 -4.354262647392477e-05 0.014618959743982248 0 -4.3223890955181583e-05 0.01468550672849929 0 -6.1526130476391322e-05 0.014710365785445175 0 -4.354262647392477e-05 0.014618959743982248 0 -2.6288570434649193e-05 0.014623457384352841 0 -4.3223890955181583e-05 0.01468550672849929 0 -6.4767168140797114e-05 0.014640940059571431 0 -6.1526130476391322e-05 0.014710365785445175 0 -7.5971067482408897e-05 0.014693634750879241 0 -3.2576736643199986e-05 0.014992610737314616 0 -2.9268898514843547e-05 0.014983616249460424 0 -4.1621010681717812e-05 0.014952381763350448 0 -9.9070054602155302e-05 0.014695659169201961 0 -7.5971067482408897e-05 0.014693634750879241 0 -7.5048309839111294e-05 0.014776375099152497 0 -6.1526130476391322e-05 0.014710365785445175 0 -7.5971067482408897e-05 0.014693634750879241 0 -7.5048309839111294e-05 0.014776375099152497 0 -9.9070054602155302e-05 0.014695659169201961 0 -7.5048309839111294e-05 0.014776375099152497 0 -4.1621010681717812e-05 0.014952381763350448 0 -0.00026377049244209202 0.014648299244966275 0 -1.9503064600095867e-08 0.014972949721982858 0 -0.00012067033741231935 0.014655836453617406 0 -9.9070054602155302e-05 0.014695659169201961 0 -4.1621010681717812e-05 0.014952381763350448 0 -7.5048309839111294e-05 0.014776375099152497 0 -6.3403138962248612e-05 0.014849237979777411 0 -4.1621010681717812e-05 0.014952381763350448 0 -5.9281180579382058e-05 0.014796143210277305 0 -6.1526130476391322e-05 0.014710365785445175 0 -7.5048309839111294e-05 0.014776375099152497 0 -5.9281180579382058e-05 0.014796143210277305 0 -7.5048309839111294e-05 0.014776375099152497 0 -6.3403138962248612e-05 0.014849237979777411 0 -1.4510563238308468e-09 0.01500000038097204 0 -4.1621010681717812e-05 0.014952381763350448 0 -7.8860136840877436e-08 0.014999822593956444 0 -2.9268898514843547e-05 0.014983616249460424 0 -2.3140582114235587e-05 0.014983639914137316 0 -4.1621010681717812e-05 0.014952381763350448 0 -1.4510563238308468e-09 0.01500000038097204 0 -2.3140582114235587e-05 0.014983639914137316 0 -4.1621010681717812e-05 0.014952381763350448 0 -4.1621010681717812e-05 0.014952381763350448 0 -4.2345669507816478e-05 0.014938022339354535 0 -5.8620575520998498e-05 0.014884084615386848 0 -4.1621010681717812e-05 0.014952381763350448 0 -7.8860136840877436e-08 0.014999822593956444 0 -4.2345669507816478e-05 0.014938022339354535 0 -4.2345669507816478e-05 0.014938022339354535 0 -5.5776433685659958e-05 0.014893036656033075 0 -5.8620575520998498e-05 0.014884084615386848 0 -5.9281180579382058e-05 0.014796143210277305 0 -6.3403138962248612e-05 0.014849237979777411 0 -5.8620575520998498e-05 0.014884084615386848 0 -5.9281180579382058e-05 0.014796143210277305 0 -5.5776433685659958e-05 0.014893036656033075 0 -5.8620575520998498e-05 0.014884084615386848 0 -6.3403138962248612e-05 0.014849237979777411 0 -4.1621010681717812e-05 0.014952381763350448 0 -5.8620575520998498e-05 0.014884084615386848 0 -8.6050003740658653e-05 0.0021119397421956614 0 -0.0004700679008223127 0.0019174576090418747 0 -0.00020504665651561096 0.0026428733059925091 0 -8.6050003740658653e-05 0.0021119397421956614 0 -0.0004700679008223127 0.0019174576090418747 0 -0.00022106483199655234 0.001781195892944881 0 -0.0004700679008223127 0.0019174576090418747 0 -0.00080490321616686733 0.0020767033610789121 0 -0.0006170927546396487 0.0017557407818785233 0 -0.00080490321616686733 0.0020767033610789121 0 -0.00020504665651561096 0.0026428733059925091 0 -0.00092390384805127819 0.0037787836211327329 0 -8.6050003740658653e-05 0.0021119397421956614 0 -0.00020504665651561096 0.0026428733059925091 0 0.00016855635428697564 0.0024984434715671871 0 -0.0004700679008223127 0.0019174576090418747 0 -0.00080490321616686733 0.0020767033610789121 0 -0.00020504665651561096 0.0026428733059925091 0 -0.00020504665651561096 0.0026428733059925091 0 0.00038619121505680752 0.0030737574145068519 0 0.00016855635428697564 0.0024984434715671871 0 0.00016855635428697564 0.0024984434715671871 0 0.00051929419522005378 0.0027271300495021224 0 0.00038276646853157301 0.0023951141396491423 0 0.00038619121505680752 0.0030737574145068519 0 0.00016855635428697564 0.0024984434715671871 0 0.00051929419522005378 0.0027271300495021224 0 0.00038619121505680752 0.0030737574145068519 0 0.00051929419522005378 0.0027271300495021224 0 0.00072304282631375084 0.0032010068310909336 0 0.00083324936862471429 0.0029146325372805407 0 0.00051929419522005378 0.0027271300495021224 0 0.00072304282631375084 0.0032010068310909336 0 0.00051929419522005378 0.0027271300495021224 0 0.00080026055269783651 0.0026244839374940771 0 0.00060482771625807136 0.0024146055601368924 0 0.00083324936862471429 0.0029146325372805407 0 0.00051929419522005378 0.0027271300495021224 0 0.00080026055269783651 0.0026244839374940771 0 0.00083324936862471429 0.0029146325372805407 0 0.00080026055269783651 0.0026244839374940771 0 0.0010819563347179181 0.0026821912740010423 0 0.00080026055269783651 0.0026244839374940771 0 0.0009034541017194286 0.0023427411245692817 0 0.0010819563347179181 0.0026821912740010423 0 0.0009034541017194286 0.0023427411245692817 0 0.00060482771625807136 0.0024146055601368924 0 0.00064758955348585855 0.0021545462799732176 0 0.00080026055269783651 0.0026244839374940771 0 0.0009034541017194286 0.0023427411245692817 0 0.00060482771625807136 0.0024146055601368924 0 0.00051929419522005378 0.0027271300495021224 0 0.00060482771625807136 0.0024146055601368924 0 0.00038276646853157301 0.0023951141396491423 0 0.00060482771625807136 0.0024146055601368924 0 0.00045137129662494238 0.0022126270302626574 0 0.00038276646853157301 0.0023951141396491423 0 0.00060482771625807136 0.0024146055601368924 0 0.00045137129662494238 0.0022126270302626574 0 0.00064758955348585855 0.0021545462799732176 0 0.00045137129662494238 0.0022126270302626574 0 0.00064758955348585855 0.0021545462799732176 0 0.00042798104804150656 0.0019806607897242361 0 0.00064758955348585855 0.0021545462799732176 0 0.00091152633774076576 0.0020471030538442825 0 0.00068534753731605785 0.0019160989173826568 0 0.0009034541017194286 0.0023427411245692817 0 0.00064758955348585855 0.0021545462799732176 0 0.00091152633774076576 0.0020471030538442825 0 -8.6050003740658653e-05 0.0021119397421956614 0 0.00016855635428697564 0.0024984434715671871 0 0.00021863302109611935 0.0021210159056838742 0 0.00016855635428697564 0.0024984434715671871 0 0.00038276646853157301 0.0023951141396491423 0 0.00021863302109611935 0.0021210159056838742 0 0.00045137129662494238 0.0022126270302626574 0 0.00038276646853157301 0.0023951141396491423 0 0.00021863302109611935 0.0021210159056838742 0 0.00045137129662494238 0.0022126270302626574 0 0.00021863302109611935 0.0021210159056838742 0 0.00042798104804150656 0.0019806607897242361 0 -8.6050003740658653e-05 0.0021119397421956614 0 0.00021863302109611935 0.0021210159056838742 0 3.1348064973043769e-05 0.0018569803075946343 0 0.00021863302109611935 0.0021210159056838742 0 3.1348064973043769e-05 0.0018569803075946343 0 0.00025407407013111399 0.0018513315572564711 0 3.1348064973043769e-05 0.0018569803075946343 0 0.00025407407013111399 0.0018513315572564711 0 0.00015617599438364903 0.001703751830812064 0 0.00021863302109611935 0.0021210159056838742 0 0.00025407407013111399 0.0018513315572564711 0 0.00042798104804150656 0.0019806607897242361 0 0.00025407407013111399 0.0018513315572564711 0 0.00042798104804150656 0.0019806607897242361 0 0.00045991428547336398 0.001804889548936839 0 0.00025407407013111399 0.0018513315572564711 0 0.00029296985325799759 0.0017445707525478636 0 0.00045991428547336398 0.001804889548936839 0 0.00015617599438364903 0.001703751830812064 0 0.00029296985325799759 0.0017445707525478636 0 0.00026468147446216293 0.0016398107681985055 0 0.00025407407013111399 0.0018513315572564711 0 0.00015617599438364903 0.001703751830812064 0 0.00029296985325799759 0.0017445707525478636 0 0.00029296985325799759 0.0017445707525478636 0 0.00026468147446216293 0.0016398107681985055 0 0.00043663893206214458 0.0016412389441080436 0 0.00026468147446216293 0.0016398107681985055 0 0.00017386943608229741 0.0015695706753485388 0 0.00027687329279835757 0.0015230827068035946 0 0.00026468147446216293 0.0016398107681985055 0 0.00043663893206214458 0.0016412389441080436 0 0.00027687329279835757 0.0015230827068035946 0 0.00015617599438364903 0.001703751830812064 0 0.00026468147446216293 0.0016398107681985055 0 0.00017386943608229741 0.0015695706753485388 0 0.00015617599438364903 0.001703751830812064 0 0.00017386943608229741 0.0015695706753485388 0 6.5099540024074687e-05 0.0015738042611368795 0 0.00015617599438364903 0.001703751830812064 0 6.5099540024074687e-05 0.0015738042611368795 0 -5.1397945531962455e-05 0.0016586519933603893 0 6.5099540024074687e-05 0.0015738042611368795 0 -5.1397945531962455e-05 0.0016586519933603893 0 -4.7786805538946981e-05 0.0014901089416143678 0 3.1348064973043769e-05 0.0018569803075946343 0 0.00015617599438364903 0.001703751830812064 0 -5.1397945531962455e-05 0.0016586519933603893 0 0.00091152633774076576 0.0020471030538442825 0 0.00068534753731605785 0.0019160989173826568 0 0.00094243181499042625 0.0017734090319546166 0 0.00068534753731605785 0.0019160989173826568 0 0.000719297467890855 0.0016966315791375585 0 0.00094243181499042625 0.0017734090319546166 0 0.00068534753731605785 0.0019160989173826568 0 0.00045991428547336398 0.001804889548936839 0 0.000719297467890855 0.0016966315791375585 0 0.00068534753731605785 0.0019160989173826568 0 0.00042798104804150656 0.0019806607897242361 0 0.00045991428547336398 0.001804889548936839 0 0.00064758955348585855 0.0021545462799732176 0 0.00068534753731605785 0.0019160989173826568 0 0.00042798104804150656 0.0019806607897242361 0 0.00045991428547336398 0.001804889548936839 0 0.00043663893206214458 0.0016412389441080436 0 0.000719297467890855 0.0016966315791375585 0 0.00043663893206214458 0.0016412389441080436 0 0.000719297467890855 0.0016966315791375585 0 0.0006549336742118797 0.0014863166868829035 0 0.00029296985325799759 0.0017445707525478636 0 0.00045991428547336398 0.001804889548936839 0 0.00043663893206214458 0.0016412389441080436 0 0.000719297467890855 0.0016966315791375585 0 0.00094243181499042625 0.0017734090319546166 0 0.001035123357723504 0.0014120153481874322 0 0.00043714965562967621 0.0021836192496225903 0 0.00033687826662558108 0.0033890425921754047 0 0.00045621579898127372 0.0013266149770854469 0 0.0001230987252023242 0.001274468149349101 0 0.00071491819096979265 0.0010021932131010836 0 0.000719297467890855 0.0016966315791375585 0 0.0006549336742118797 0.0014863166868829035 0 0.001035123357723504 0.0014120153481874322 0 0.0006549336742118797 0.0014863166868829035 0 0.00041335135248472235 0.0014856482893749925 0 0.00045621579898127372 0.0013266149770854469 0 0.00043663893206214458 0.0016412389441080436 0 0.0006549336742118797 0.0014863166868829035 0 0.00041335135248472235 0.0014856482893749925 0 0.00043663893206214458 0.0016412389441080436 0 0.00041335135248472235 0.0014856482893749925 0 0.00027687329279835757 0.0015230827068035946 0 0.00041335135248472235 0.0014856482893749925 0 0.00045621579898127372 0.0013266149770854469 0 0.00028111574971538631 0.0013892402292165532 0 0.0006549336742118797 0.0014863166868829035 0 0.00045621579898127372 0.0013266149770854469 0 0.00071491819096979265 0.0010021932131010836 0 0.00064392640111769186 0.0028534562335759549 0 0.00033687826662558108 0.0033890425921754047 0 0.0006549336742118797 0.0014863166868829035 0 0.001035123357723504 0.0014120153481874322 0 0.00071491819096979265 0.0010021932131010836 0 1.7724595119124267e-05 0.0014175667994219168 0 -4.2560674057104308e-05 0.0014122733843919366 0 -4.7786805538946981e-05 0.0014901089416143678 0 1.7724595119124267e-05 0.0014175667994219168 0 -4.7786805538946981e-05 0.0014901089416143678 0 4.4871527230572884e-05 0.0014872429380643052 0 1.7724595119124267e-05 0.0014175667994219168 0 4.4871527230572884e-05 0.0014872429380643052 0 0.00010077676216517263 0.0014599059235434193 0 1.7724595119124267e-05 0.0014175667994219168 0 9.144458588121621e-05 0.0013987292036653427 0 -1.396017481935871e-05 0.0013659518624687956 0 1.7724595119124267e-05 0.0014175667994219168 0 -4.2560674057104308e-05 0.0014122733843919366 0 -1.396017481935871e-05 0.0013659518624687956 0 -4.2560674057104308e-05 0.0014122733843919366 0 -4.7786805538946981e-05 0.0014901089416143678 0 -0.00012218237227099938 0.0013870036887105187 0 6.5099540024074687e-05 0.0015738042611368795 0 -4.7786805538946981e-05 0.0014901089416143678 0 4.4871527230572884e-05 0.0014872429380643052 0 6.5099540024074687e-05 0.0015738042611368795 0 4.4871527230572884e-05 0.0014872429380643052 0 0.00011041016157623787 0.0015187343375742232 0 0.00017386943608229741 0.0015695706753485388 0 6.5099540024074687e-05 0.0015738042611368795 0 0.00011041016157623787 0.0015187343375742232 0 0.00017386943608229741 0.0015695706753485388 0 0.00017154846880584835 0.0015012523654987287 0 0.00011041016157623787 0.0015187343375742232 0 0.00017386943608229741 0.0015695706753485388 0 0.00017154846880584835 0.0015012523654987287 0 0.00027687329279835757 0.0015230827068035946 0 0.00017154846880584835 0.0015012523654987287 0 0.00027687329279835757 0.0015230827068035946 0 0.00018256274033429473 0.0014302418333700785 0 4.4871527230572884e-05 0.0014872429380643052 0 0.00011041016157623787 0.0015187343375742232 0 0.00010077676216517263 0.0014599059235434193 0 0.00017154846880584835 0.0015012523654987287 0 0.00011041016157623787 0.0015187343375742232 0 0.00010077676216517263 0.0014599059235434193 0 0.00041335135248472235 0.0014856482893749925 0 0.00027687329279835757 0.0015230827068035946 0 0.00028111574971538631 0.0013892402292165532 0 0.00027687329279835757 0.0015230827068035946 0 0.00028111574971538631 0.0013892402292165532 0 0.00018256274033429473 0.0014302418333700785 0 0.00018256274033429473 0.0014302418333700785 0 9.144458588121621e-05 0.0013987292036653427 0 0.0001230987252023242 0.001274468149349101 0 0.00028111574971538631 0.0013892402292165532 0 0.00018256274033429473 0.0014302418333700785 0 0.0001230987252023242 0.001274468149349101 0 0.00010077676216517263 0.0014599059235434193 0 0.00018256274033429473 0.0014302418333700785 0 9.144458588121621e-05 0.0013987292036653427 0 0.00017154846880584835 0.0015012523654987287 0 0.00010077676216517263 0.0014599059235434193 0 0.00018256274033429473 0.0014302418333700785 0 1.7724595119124267e-05 0.0014175667994219168 0 0.00010077676216517263 0.0014599059235434193 0 9.144458588121621e-05 0.0013987292036653427 0 0.00043714965562967621 0.0021836192496225903 0 0.00041185051680325509 0.0021420723827307248 0 9.144458588121621e-05 0.0013987292036653427 0 0.0001230987252023242 0.001274468149349101 0 -1.396017481935871e-05 0.0013659518624687956 0 0.00045621579898127372 0.0013266149770854469 0 0.00028111574971538631 0.0013892402292165532 0 0.0001230987252023242 0.001274468149349101 0 -7.7384937123786709e-06 0.0013685539913623162 0 -1.396017481935871e-05 0.0013659518624687956 0 -0.00012218237227099938 0.0013870036887105187 0 -7.7384937123786709e-06 0.0013685539913623162 0 -0.00021761640325326104 0.0013605704290828935 0 -0.00012218237227099938 0.0013870036887105187 0 -4.2560674057104308e-05 0.0014122733843919366 0 -1.396017481935871e-05 0.0013659518624687956 0 -0.00012218237227099938 0.0013870036887105187 0 -0.00021761640325326104 0.0013605704290828935 0 -0.00012218237227099938 0.0013870036887105187 0 -0.00021699882676090058 0.0014552621437060476 0 -0.00021761640325326104 0.0013605704290828935 0 -0.00034965618006091377 0.0014711221382706985 0 -0.00037639064592664907 0.0013238938477042009 0 -0.00021761640325326104 0.0013605704290828935 0 -0.00034965618006091377 0.0014711221382706985 0 -0.00021699882676090058 0.0014552621437060476 0 -0.00034965618006091377 0.0014711221382706985 0 -0.00021699882676090058 0.0014552621437060476 0 -0.00023061767911006472 0.001585551518084313 0 -4.7786805538946981e-05 0.0014901089416143678 0 -0.00021699882676090058 0.0014552621437060476 0 -0.00023061767911006472 0.001585551518084313 0 -4.7786805538946981e-05 0.0014901089416143678 0 -0.00012218237227099938 0.0013870036887105187 0 -0.00021699882676090058 0.0014552621437060476 0 -5.1397945531962455e-05 0.0016586519933603893 0 -0.00023061767911006472 0.001585551518084313 0 -0.00022106483199655234 0.001781195892944881 0 -5.1397945531962455e-05 0.0016586519933603893 0 -4.7786805538946981e-05 0.0014901089416143678 0 -0.00023061767911006472 0.001585551518084313 0 -0.00034965618006091377 0.0014711221382706985 0 -0.00023061767911006472 0.001585551518084313 0 -0.00041535107848862017 0.0016729419649538513 0 -0.00023061767911006472 0.001585551518084313 0 -0.00022106483199655234 0.001781195892944881 0 -0.00041535107848862017 0.0016729419649538513 0 -0.0004700679008223127 0.0019174576090418747 0 -0.00022106483199655234 0.001781195892944881 0 -0.00041535107848862017 0.0016729419649538513 0 -8.6050003740658653e-05 0.0021119397421956614 0 3.1348064973043769e-05 0.0018569803075946343 0 -0.00022106483199655234 0.001781195892944881 0 3.1348064973043769e-05 0.0018569803075946343 0 -5.1397945531962455e-05 0.0016586519933603893 0 -0.00022106483199655234 0.001781195892944881 0 -0.0006170927546396487 0.0017557407818785233 0 -0.00041535107848862017 0.0016729419649538513 0 -0.00056379436041528958 0.0014890543397014914 0 -0.0004700679008223127 0.0019174576090418747 0 -0.0006170927546396487 0.0017557407818785233 0 -0.00041535107848862017 0.0016729419649538513 0 -0.00034965618006091377 0.0014711221382706985 0 -0.00041535107848862017 0.0016729419649538513 0 -0.00056379436041528958 0.0014890543397014914 0 -0.00034965618006091377 0.0014711221382706985 0 -0.00056379436041528958 0.0014890543397014914 0 -0.00037639064592664907 0.0013238938477042009 0 -0.00056379436041528958 0.0014890543397014914 0 -0.00069906038934253493 0.001475517208296211 0 -0.0006155872845896406 0.001330063753441081 0 -0.00069906038934253493 0.001475517208296211 0 -0.00078245394816063118 0.0013774141423959583 0 -0.0006155872845896406 0.001330063753441081 0 -0.0007126344506925889 0.001302090956237589 0 -0.00061604372346069503 0.0013235820207850048 0 -0.00069906038934253493 0.001475517208296211 0 -0.00074645163701963558 0.0014752860466129049 0 -0.00070601281876770598 0.0016882544004972458 0 -0.00056379436041528958 0.0014890543397014914 0 -0.00069906038934253493 0.001475517208296211 0 -0.00070601281876770598 0.0016882544004972458 0 -0.0006170927546396487 0.0017557407818785233 0 -0.00056379436041528958 0.0014890543397014914 0 -0.00070601281876770598 0.0016882544004972458 0 -0.00072647185417748375 0.0012134145570712009 0 -0.0007126344506925889 0.001302090956237589 0 -0.00077975276244060011 0.0012783165375944883 0 -0.00078245394816063118 0.0013774141423959583 0 -0.00077315652789748863 0.0013548369936066977 0 -0.00069906038934253493 0.001475517208296211 0 -0.00078245394816063118 0.0013774141423959583 0 -0.00074645163701963558 0.0014752860466129049 0 -0.00078245394816063118 0.0013774141423959583 0 -0.00074645163701963558 0.0014752860466129049 0 -0.00077315652789748863 0.0013548369936066977 0 -0.00074645163701963558 0.0014752860466129049 0 -0.00077315652789748863 0.0013548369936066977 0 -0.00073789374485919916 0.0014116577793116137 0 -0.00076769422218914997 0.001232693245708735 0 -0.00077315652789748863 0.0013548369936066977 0 -0.00073789374485919916 0.0014116577793116137 0 -0.00074645163701963558 0.0014752860466129049 0 -0.00073789374485919916 0.0014116577793116137 0 -0.00071395655717065019 0.0015858450546206784 0 -0.00073789374485919916 0.0014116577793116137 0 -0.00071395655717065019 0.0015858450546206784 0 -0.00071084707299861856 0.0015063959851750091 0 -0.00071395655717065019 0.0015858450546206784 0 -0.00071084707299861856 0.0015063959851750091 0 -0.00069406730174116009 0.0015612882261560822 0 -0.00071084707299861856 0.0015063959851750091 0 -0.00070785916570747565 0.0014508624443587395 0 -0.00069406730174116009 0.0015612882261560822 0 -0.00073789374485919916 0.0014116577793116137 0 -0.00071084707299861856 0.0015063959851750091 0 -0.00070785916570747565 0.0014508624443587395 0 -0.00072958354895434564 0.0013219231387186369 0 -0.00073789374485919916 0.0014116577793116137 0 -0.00070785916570747565 0.0014508624443587395 0 -0.00080490321616686733 0.0020767033610789121 0 -0.0006170927546396487 0.0017557407818785233 0 -0.00070601281876770598 0.0016882544004972458 0 -0.00071395655717065019 0.0015858450546206784 0 -0.00070601281876770598 0.0016882544004972458 0 -0.00069932379697213083 0.0017529329523613014 0 -0.00074645163701963558 0.0014752860466129049 0 -0.00071395655717065019 0.0015858450546206784 0 -0.00070601281876770598 0.0016882544004972458 0 -0.00071395655717065019 0.0015858450546206784 0 -0.00069932379697213083 0.0017529329523613014 0 -0.00069406730174116009 0.0015612882261560822 0 -0.00080490321616686733 0.0020767033610789121 0 -0.00070601281876770598 0.0016882544004972458 0 -0.00069932379697213083 0.0017529329523613014 0 -0.00069932379697213083 0.0017529329523613014 0 -0.00071784157688506585 0.0015927126458853327 0 -0.00082245342482252233 0.0016427813568367976 0 -0.00069932379697213083 0.0017529329523613014 0 -0.00071784157688506585 0.0015927126458853327 0 -0.00069406730174116009 0.0015612882261560822 0 -0.0007026092641329014 0.001482797961623033 0 -0.00070785916570747565 0.0014508624443587395 0 -0.00069406730174116009 0.0015612882261560822 0 -0.00071784157688506585 0.0015927126458853327 0 -0.00069406730174116009 0.0015612882261560822 0 -0.0007142453972666746 0.0015162726139755522 0 -0.0007026092641329014 0.001482797961623033 0 -0.00075066470500846541 0.0014595687757281578 0 -0.0007142453972666746 0.0015162726139755522 0 -0.0007026092641329014 0.001482797961623033 0 -0.00069406730174116009 0.0015612882261560822 0 -0.0007142453972666746 0.0015162726139755522 0 -0.00075066470500846541 0.0014595687757281578 0 -0.0007142453972666746 0.0015162726139755522 0 -0.00073453810398258607 0.0015119084202423055 0 -0.0007142453972666746 0.0015162726139755522 0 -0.00073453810398258607 0.0015119084202423055 0 -0.00071865920966914356 0.0015376714936870656 0 -0.00073787935857185622 0.0015100885851962425 0 -0.00075066470500846541 0.0014595687757281578 0 -0.00073453810398258607 0.0015119084202423055 0 -0.00071921373552335231 0.0015553210193446187 0 -0.00071865920966914356 0.0015376714936870656 0 -0.00075408704285545288 0.0015614524797228435 0 -0.00071784157688506585 0.0015927126458853327 0 -0.00071865920966914356 0.0015376714936870656 0 -0.00075408704285545288 0.0015614524797228435 0 -0.00071784157688506585 0.0015927126458853327 0 -0.0007142453972666746 0.0015162726139755522 0 -0.00071865920966914356 0.0015376714936870656 0 -0.00071921373552335231 0.0015553210193446187 0 -0.00072969256825699776 0.0015413245905965801 0 -0.00071865920966914356 0.0015376714936870656 0 -0.00072969256825699776 0.0015413245905965801 0 -0.00073453810398258607 0.0015119084202423055 0 -0.00071865920966914356 0.0015376714936870656 0 -0.00068628637415295518 0.0015840079900474474 0 -0.00071921373552335231 0.0015553210193446187 0 -0.00075408704285545288 0.0015614524797228435 0 -0.00055586399083703988 0.0050692458542644222 0 1.5251527744787477e-05 0.0050258675754009541 0 -1.4222229735933874e-06 0.0053748541962693437 0 -6.0663212292777106e-05 0.0054946254188506247 0 -0.00055586399083703988 0.0050692458542644222 0 -1.4222229735933874e-06 0.0053748541962693437 0 -0.00038044498384734497 0.0035094177308233844 0 -0.00065172965845370647 0.0032986674723190397 0 -0.00055586399083703988 0.0050692458542644222 0 -0.00021910466187705864 0.0044247365010191093 0 1.5251527744787477e-05 0.0050258675754009541 0 -0.00065172965845370647 0.0032986674723190397 0 -0.00084841443467538035 0.0027089412775111233 0 -0.00071784157688506585 0.0015927126458853327 0 -0.00075408704285545288 0.0015614524797228435 0 -0.00082245342482252233 0.0016427813568367976 0 -0.00055586399083703988 0.0050692458542644222 0 -0.00092390384805127819 0.0037787836211327329 0 -0.00021910466187705864 0.0044247365010191093 0 -0.00092390384805127819 0.0037787836211327329 0 -0.00021910466187705864 0.0044247365010191093 0 0.00018314366866851778 0.003716846438726116 0 -0.00020504665651561096 0.0026428733059925091 0 -0.00092390384805127819 0.0037787836211327329 0 0.00018314366866851778 0.003716846438726116 0 -0.00080490321616686733 0.0020767033610789121 0 -0.00069932379697213083 0.0017529329523613014 0 -0.00082245342482252233 0.0016427813568367976 0 -0.00082768997140934808 0.0021294941006213173 0 -0.00084841443467538035 0.0027089412775111233 0 0.00083324936862471429 0.0029146325372805407 0 0.00072304282631375084 0.0032010068310909336 0 0.0014216905748115332 0.003821231170427453 0 0.00090988568715600639 0.0030961944205912242 0 0.0012277702985252377 0.0037494932475085675 0 0.00067296490231520602 0.0035949019810841629 0 0.00072304282631375084 0.0032010068310909336 0 0.0014216905748115332 0.003821231170427453 0 0.00038619121505680752 0.0030737574145068519 0 0.00067296490231520602 0.0035949019810841629 0 0.00072304282631375084 0.0032010068310909336 0 -0.00020504665651561096 0.0026428733059925091 0 0.00038619121505680752 0.0030737574145068519 0 0.00018314366866851778 0.003716846438726116 0 0.00038619121505680752 0.0030737574145068519 0 0.00067296490231520602 0.0035949019810841629 0 0.00018314366866851778 0.003716846438726116 0 -0.00021910466187705864 0.0044247365010191093 0 0.00018314366866851778 0.003716846438726116 0 0.00025555897367933851 0.0045407361787613782 0 0.00018314366866851778 0.003716846438726116 0 0.00025555897367933851 0.0045407361787613782 0 0.00075076149076485092 0.0041636546201948349 0 0.00025555897367933851 0.0045407361787613782 0 0.00075076149076485092 0.0041636546201948349 0 0.00072586443690258399 0.0046389668831354003 0 0.00067296490231520602 0.0035949019810841629 0 0.00075076149076485092 0.0041636546201948349 0 0.0014216905748115332 0.003821231170427453 0 0.00067296490231520602 0.0035949019810841629 0 0.00018314366866851778 0.003716846438726116 0 0.00075076149076485092 0.0041636546201948349 0 0.00075076149076485092 0.0041636546201948349 0 0.0012055025578468742 0.0045055032212490903 0 0.0014216905748115332 0.003821231170427453 0 0.00075076149076485092 0.0041636546201948349 0 0.0012055025578468742 0.0045055032212490903 0 0.00072586443690258399 0.0046389668831354003 0 0.0012055025578468742 0.0045055032212490903 0 0.0011958109748360448 0.0050071245861789274 0 0.00072586443690258399 0.0046389668831354003 0 0.0011958109748360448 0.0050071245861789274 0 0.00072586443690258399 0.0046389668831354003 0 0.00030056172765997792 0.0050595400264627144 0 0.0011329353099528902 0.0051571823234991161 0 0.00038956783426687147 0.0050890109165279427 0 0.00025555897367933851 0.0045407361787613782 0 0.00072586443690258399 0.0046389668831354003 0 0.00030056172765997792 0.0050595400264627144 0 0.0010586487321784144 0.0052260377393262038 0 0.00042925557499863971 0.0054022879454015838 0 0.00030056172765997792 0.0050595400264627144 0 0.00042925557499863971 0.0054022879454015838 0 0.00030056172765997792 0.0050595400264627144 0 0.0002422322685968607 0.005387948396539834 0 0.0010586487321784144 0.0052260377393262038 0 0.00042925557499863971 0.0054022879454015838 0 0.0014384752761410471 0.0066824797086587166 0 -0.00021910466187705864 0.0044247365010191093 0 0.00025555897367933851 0.0045407361787613782 0 1.5251527744787477e-05 0.0050258675754009541 0 0.00025555897367933851 0.0045407361787613782 0 0.00030056172765997792 0.0050595400264627144 0 1.5251527744787477e-05 0.0050258675754009541 0 0.00030056172765997792 0.0050595400264627144 0 1.5251527744787477e-05 0.0050258675754009541 0 0.0002422322685968607 0.005387948396539834 0 1.5251527744787477e-05 0.0050258675754009541 0 -1.4222229735933874e-06 0.0053748541962693437 0 0.0002422322685968607 0.005387948396539834 0 0.00013677460715409492 0.0054509112880549984 0 -1.4222229735933874e-06 0.0053748541962693437 0 0.0002422322685968607 0.005387948396539834 0 0.00013788318013948861 0.005459517133821843 0 0.00042925557499863971 0.0054022879454015838 0 0.0002422322685968607 0.005387948396539834 0 0.0006388345848664655 0.0067897581796284891 0 0.00042593544902156988 0.0055148570323312598 0 0.0012231309455138846 0.0082768654877044753 0 0.00042925557499863971 0.0054022879454015838 0 0.0014384752761410471 0.0066824797086587166 0 0.0022653600714434342 0.0079449461755618078 0 0.0014384752761410471 0.0066824797086587166 0 0.0030308305368998327 0.0068787974097398175 0 0.0014384752761410471 0.0066824797086587166 0 0.0020301781956344671 0.0060413341420037705 0 0.0030308305368998327 0.0068787974097398175 0 0.0022653600714434342 0.0079449461755618078 0 0.0012231309455138846 0.0082768654877044753 0 0.0014384752761410471 0.0066824797086587166 0 0.0010586487321784144 0.0052260377393262038 0 0.0014384752761410471 0.0066824797086587166 0 0.0020301781956344671 0.0060413341420037705 0 0.0020301781956344671 0.0060413341420037705 0 0.0025458200342452298 0.0053304031022955818 0 0.0030308305368998327 0.0068787974097398175 0 0.0010586487321784144 0.0052260377393262038 0 0.0020301781956344671 0.0060413341420037705 0 0.0025458200342452298 0.0053304031022955818 0 0.0012055025578468742 0.0045055032212490903 0 0.0011958109748360448 0.0050071245861789274 0 0.0019886729142507944 0.0049878708920331463 0 0.0011329353099528902 0.0051571823234991161 0 0.0021824022091018187 0.006175916919308376 0 0.0017405159768906556 0.0052360889312686862 0 0.0028523682492626766 0.0051277471417891188 0 0.0022923576224424089 0.0048315775245092261 0 0.003426394773026436 0.0092208541346996131 0 0.0031855377195151896 0.0091078103153690686 0 0.0030640245772700189 0.0092589010340721808 0 0.003426394773026436 0.0092208541346996131 0 0.0033714766988200895 0.0090090787262076116 0 0.0031855377195151896 0.0091078103153690686 0 0.0021824022091018187 0.006175916919308376 0 0.0030065002185658603 0.0073608007836710766 0 0.0021824022091018187 0.006175916919308376 0 0.0032327945853689111 0.0081278067821859579 0 0.0031709496366063902 0.0085937106935617853 0 0.0033714766988200895 0.0090090787262076116 0 0.0031855377195151896 0.0091078103153690686 0 0.0031709496366063902 0.0085937106935617853 0 0.0022653600714434342 0.0079449461755618078 0 0.0030308305368998327 0.0068787974097398175 0 0.0031917446239312216 0.0083761753418829434 0 0.0032327945853689111 0.0081278067821859579 0 0.0031709496366063902 0.0085937106935617853 0 0.0030565176974535362 0.0090795188696326037 0 0.0031855377195151896 0.0091078103153690686 0 0.0030565176974535362 0.0090795188696326037 0 0.0031855377195151896 0.0091078103153690686 0 0.0030640245772700189 0.0092589010340721808 0 0.0030296035604584427 0.0092156254284232655 0 0.0030565176974535362 0.0090795188696326037 0 0.0030148352759998705 0.0092831072963936896 0 0.0030565176974535362 0.0090795188696326037 0 0.0030148352759998705 0.0092831072963936896 0 0.0030640245772700189 0.0092589010340721808 0 0.0030148352759998705 0.0092831072963936896 0 0.0030640245772700189 0.0092589010340721808 0 0.0029991077124242047 0.0094149832434373068 0 0.0028523682492626766 0.0051277471417891188 0 0.0032964662736957207 0.0048648824140787358 0 0.0034956606099790732 0.0051072570306442472 0 0.0030065002185658603 0.0073608007836710766 0 0.0033653023292657303 0.0070836737453351768 0 0.0028523682492626766 0.0051277471417891188 0 0.0028921950849769272 0.0046028737800317757 0 0.0025694686718989034 0.0046010658645582831 0 0.0028523682492626766 0.0051277471417891188 0 0.0025694686718989034 0.0046010658645582831 0 0.0022923576224424089 0.0048315775245092261 0 0.0032344359927504434 0.0039816603529312508 0 0.0020447306206787057 0.0064125505124633534 0 0.0028523682492626766 0.0051277471417891188 0 0.0028921950849769272 0.0046028737800317757 0 0.0030547190004357712 0.0047837523995723332 0 0.0025694686718989034 0.0046010658645582831 0 0.0034039215467827743 0.0039640447941094222 0 0.0027476090265336518 0.0041179113150590077 0 0.0028921950849769272 0.0046028737800317757 0 0.0025694686718989034 0.0046010658645582831 0 0.0030069997857739743 0.0044119475756326408 0 0.0020447306206787057 0.0064125505124633534 0 0.001955636490322113 0.0074396587134143303 0 0.0028523682492626766 0.0051277471417891188 0 0.0032964662736957207 0.0048648824140787358 0 0.0030547190004357712 0.0047837523995723332 0 0.0031222006924756505 0.0045758555303064578 0 0.0030087544241372676 0.004413020726804215 0 0.0035761992868076726 0.004805774024172582 0 0.0028921950849769272 0.0046028737800317757 0 0.0030547190004357712 0.0047837523995723332 0 0.002998028975621239 0.0045295872325242697 0 0.0030547190004357712 0.0047837523995723332 0 0.002998028975621239 0.0045295872325242697 0 0.0031222006924756505 0.0045758555303064578 0 0.0032964662736957207 0.0048648824140787358 0 0.0030547190004357712 0.0047837523995723332 0 0.0031222006924756505 0.0045758555303064578 0 0.0020447306206787057 0.0064125505124633534 0 0.00058252449467041895 0.0096187409683888715 0 0.0028921950849769272 0.0046028737800317757 0 0.002998028975621239 0.0045295872325242697 0 0.0030069997857739743 0.0044119475756326408 0 0.002998028975621239 0.0045295872325242697 0 0.0031222006924756505 0.0045758555303064578 0 0.0030069997857739743 0.0044119475756326408 0 0.002245197220679587 0.0052428108107479537 0 0.0020447306206787057 0.0064125505124633534 0 0.0020447306206787057 0.0064125505124633534 0 0.0022818089089065921 0.0057612335894943615 0 0.0020447306206787057 0.0064125505124633534 0 0.0019089143833723732 0.0058308537918528988 0 0.003394004025302638 0.0039637937814595266 0 0.0031557486386889744 0.0038290985929954617 0 0.0027803067249287882 0.0031132480988816848 0 0.0027476090265336518 0.0041179113150590077 0 0.0027666433797290391 0.003673106005299191 0 0.0023857118151873807 0.0036432619380228955 0 0.0034039215467827743 0.0039640447941094222 0 0.0027476090265336518 0.0041179113150590077 0 0.0031557486386889744 0.0038290985929954617 0 0.0027476090265336518 0.0041179113150590077 0 0.0031557486386889744 0.0038290985929954617 0 0.0027666433797290391 0.003673106005299191 0 0.0031557486386889744 0.0038290985929954617 0 0.0027666433797290391 0.003673106005299191 0 0.0027803067249287882 0.0031132480988816848 0 0.0027666433797290391 0.003673106005299191 0 0.0023857118151873807 0.0036432619380228955 0 0.0027803067249287882 0.0031132480988816848 0 0.0023857118151873807 0.0036432619380228955 0 0.0017789078078055244 0.0035055937166782241 0 0.0021579966172102821 0.0030481524889677965 0 0.0027476090265336518 0.0041179113150590077 0 0.0023857118151873807 0.0036432619380228955 0 0.001926952793597441 0.0042732427034852987 0 0.0023857118151873807 0.0036432619380228955 0 0.0017789078078055244 0.0035055937166782241 0 0.001926952793597441 0.0042732427034852987 0 0.00083324936862471429 0.0029146325372805407 0 0.0012067184261307336 0.0041581575218379669 0 0.001301752320218931 0.0031994850039708095 0 0.0017789078078055244 0.0035055937166782241 0 0.0012067184261307336 0.0041581575218379669 0 0.001301752320218931 0.0031994850039708095 0 0.0017789078078055244 0.0035055937166782241 0 0.0012067184261307336 0.0041581575218379669 0 0.001926952793597441 0.0042732427034852987 0 0.0017405159768906556 0.0052360889312686862 0 0.0012067184261307336 0.0041581575218379669 0 0.001926952793597441 0.0042732427034852987 0 0.0012055025578468742 0.0045055032212490903 0 0.0019886729142507944 0.0049878708920331463 0 0.0014216905748115332 0.003821231170427453 0 0.0021824022091018187 0.006175916919308376 0 0.0012277702985252377 0.0037494932475085675 0 0.0025694686718989034 0.0046010658645582831 0 0.0027476090265336518 0.0041179113150590077 0 0.001926952793597441 0.0042732427034852987 0 0.0017405159768906556 0.0052360889312686862 0 0.0022923576224424089 0.0048315775245092261 0 0.001926952793597441 0.0042732427034852987 0 0.0025694686718989034 0.0046010658645582831 0 0.0022923576224424089 0.0048315775245092261 0 0.001926952793597441 0.0042732427034852987 0 0.0020815694683132394 0.010702067938012814 0 0.0028769595704626577 0.0086883242559762045 0 0.0027518994211540248 0.01044040466162122 0 0.0028633037605461137 0.010046190057818857 0 0.0035099059072420035 0.010382518533428791 0 0.0026654641644909718 0.010196017033651108 0 0.0027518994211540248 0.01044040466162122 0 0.0028633037605461137 0.010046190057818857 0 0.0026986968760302921 0.0099851929674751577 0 0.0028633037605461137 0.010046190057818857 0 0.0028445644788385274 0.009898449841942247 0 0.0028633037605461137 0.010046190057818857 0 0.0028445644788385274 0.009898449841942247 0 0.0029270756230373712 0.0097624737099637916 0 0.0029270756230373712 0.0097624737099637916 0 0.0029745628727986051 0.0095976641772353623 0 0.0029627621730316019 0.0096965984867988398 0 0.0028633037605461137 0.010046190057818857 0 0.0029270756230373712 0.0097624737099637916 0 0.0029627621730316019 0.0096965984867988398 0 0.0031329097752237005 0.010347743960746147 0 0.0028769595704626577 0.0086883242559762045 0 0.0040750940555813143 0.0051646993262493132 0 0.0034956606099790732 0.0051072570306442472 0 0.0035761992868076726 0.004805774024172582 0 0.0029627621730316019 0.0096965984867988398 0 0.002985307909668227 0.0095341815923851679 0 0.0029991077124242047 0.0094149832434373068 0 0.0028769595704626577 0.0086883242559762045 0 0.0033653023292657303 0.0070836737453351768 0 0.0029745628727986051 0.0095976641772353623 0 0.0029627621730316019 0.0096965984867988398 0 0.002985307909668227 0.0095341815923851679 0 0.0029745628727986051 0.0095976641772353623 0 0.0030021092778428514 0.0094521979423771215 0 0.002985307909668227 0.0095341815923851679 0 0.0030021092778428514 0.0094521979423771215 0 0.002985307909668227 0.0095341815923851679 0 0.0030033228505778405 0.009410844264938165 0 0.0030296035604584427 0.0092156254284232655 0 0.0030148352759998705 0.0092831072963936896 0 0.0030137172901014411 0.009339698929058728 0 0.0030021092778428514 0.0094521979423771215 0 0.0030033228505778405 0.009410844264938165 0 0.0030137172901014411 0.009339698929058728 0 0.0030148352759998705 0.0092831072963936896 0 0.0030033228505778405 0.009410844264938165 0 0.0030137172901014411 0.009339698929058728 0 0.0030148352759998705 0.0092831072963936896 0 0.0030033228505778405 0.009410844264938165 0 0.0029991077124242047 0.0094149832434373068 0 0.002985307909668227 0.0095341815923851679 0 0.0030033228505778405 0.009410844264938165 0 0.0029991077124242047 0.0094149832434373068 0 0.0032964662736957207 0.0048648824140787358 0 0.0031222006924756505 0.0045758555303064578 0 0.0035761992868076726 0.004805774024172582 0 0.0032964662736957207 0.0048648824140787358 0 0.0034956606099790732 0.0051072570306442472 0 0.0035761992868076726 0.004805774024172582 0 0.00018630993952844561 0.0098589017017853813 0 0.00047909165574649889 0.0098630905839563795 0 0.00059378954134899542 0.0095447525956074628 0 0.00018630993952844561 0.0098589017017853813 0 0.00063129250133182164 0.010158785833319315 0 0.00047909165574649889 0.0098630905839563795 0 0.00047909165574649889 0.0098630905839563795 0 0.00079983518298453523 0.0098414317256872927 0 0.00059378954134899542 0.0095447525956074628 0 0.00063129250133182164 0.010158785833319315 0 0.00047909165574649889 0.0098630905839563795 0 0.00079983518298453523 0.0098414317256872927 0 0.00079983518298453523 0.0098414317256872927 0 0.0011771497697659911 0.0098099071130626891 0 0.000970613009098594 0.009568618958052633 0 0.00079983518298453523 0.0098414317256872927 0 0.0010305246498505665 0.010092713788134849 0 0.0011771497697659911 0.0098099071130626891 0 0.0011278057440989638 0.010498926075124876 0 0.00063129250133182164 0.010158785833319315 0 0.0010305246498505665 0.010092713788134849 0 0.0028769595704626577 0.0086883242559762045 0 0.001955636490322113 0.0074396587134143303 0 0.00063129250133182164 0.010158785833319315 0 0.00079983518298453523 0.0098414317256872927 0 0.0010305246498505665 0.010092713788134849 0 0.0011278057440989638 0.010498926075124876 0 0.0010305246498505665 0.010092713788134849 0 0.0014398867702726456 0.010153784567425264 0 0.0010305246498505665 0.010092713788134849 0 0.0011771497697659911 0.0098099071130626891 0 0.0014398867702726456 0.010153784567425264 0 0.0011771497697659911 0.0098099071130626891 0 0.0015290893194148919 0.0097113710729613764 0 0.0014398867702726456 0.010153784567425264 0 0.0018979210052023855 0.010012729535105619 0 0.0015290893194148919 0.0097113710729613764 0 0.0014398867702726456 0.010153784567425264 0 0.0017033915335313789 0.01029493981428174 0 0.0018979210052023855 0.010012729535105619 0 0.0014398867702726456 0.010153784567425264 0 0.0017033915335313789 0.01029493981428174 0 0.0016586436209942708 0.010564862853101048 0 0.0014398867702726456 0.010153784567425264 0 0.0016586436209942708 0.010564862853101048 0 0.0011278057440989638 0.010498926075124876 0 0.0014398867702726456 0.010153784567425264 0 0.0018824125207196941 0.0094507037762435134 0 0.0014929281763809623 0.009327081993996381 0 0.0015954104533640568 0.0090458132976928615 0 0.0014929281763809623 0.009327081993996381 0 0.0015954104533640568 0.0090458132976928615 0 0.0010358464958863036 0.0091480231555261787 0 0.0015290893194148919 0.0097113710729613764 0 0.0014929281763809623 0.009327081993996381 0 0.0012380882112503859 0.0095114534056981569 0 0.0018824125207196941 0.0094507037762435134 0 0.0015290893194148919 0.0097113710729613764 0 0.0014929281763809623 0.009327081993996381 0 0.0011771497697659911 0.0098099071130626891 0 0.0015290893194148919 0.0097113710729613764 0 0.0012380882112503859 0.0095114534056981569 0 0.0012380882112503859 0.0095114534056981569 0 0.0010358464958863036 0.0091480231555261787 0 0.000970613009098594 0.009568618958052633 0 0.0011771497697659911 0.0098099071130626891 0 0.0012380882112503859 0.0095114534056981569 0 0.000970613009098594 0.009568618958052633 0 0.0014929281763809623 0.009327081993996381 0 0.0012380882112503859 0.0095114534056981569 0 0.0010358464958863036 0.0091480231555261787 0 0.0014115054495350391 0.00856423140466076 0 0.0013660087651760687 0.0085738658476627004 0 0.0013991572513003512 0.0085083243428307389 0 0.0013431838481309123 0.0087372405958987213 0 0.00058252449467041895 0.0096187409683888715 0 0.0014115054495350391 0.00856423140466076 0 0.0013991572513003512 0.0085083243428307389 0 0.0014064510317634603 0.0085731450278614535 0 0.00079983518298453523 0.0098414317256872927 0 0.000970613009098594 0.009568618958052633 0 0.00059378954134899542 0.0095447525956074628 0 0.0010358464958863036 0.0091480231555261787 0 0.000970613009098594 0.009568618958052633 0 0.00059378954134899542 0.0095447525956074628 0 0.0013991572513003512 0.0085083243428307389 0 0.0012680303122673223 0.0084807931858376633 0 0.0012541248666290213 0.0083369285403034829 0 0.0013660087651760687 0.0085738658476627004 0 0.0013991572513003512 0.0085083243428307389 0 0.0012680303122673223 0.0084807931858376633 0 0.0013991572513003512 0.0085083243428307389 0 0.0013952670090016848 0.0085842226383546077 0 0.0013943215221200343 0.008584968981717029 0 0.0014005071472979848 0.0084923390101708605 0 0.0013555466711633781 0.0083645504763639276 0 0.0013991572513003512 0.0085083243428307389 0 0.0013415383421372534 0.0081699938874191403 0 0.0012541248666290213 0.0083369285403034829 0 0.0013952670090016848 0.0085842226383546077 0 0.0013842322697855069 0.0085781577603421168 0 0.0013456707647643024 0.008565769709953968 0 0.0013952670090016848 0.0085842226383546077 0 0.0013842322697855069 0.0085781577603421168 0 0.0013943215221200343 0.008584968981717029 0 0.0013842322697855069 0.0085781577603421168 0 0.0013971518661810717 0.0085792006316107259 0 0.0013943215221200343 0.008584968981717029 0 0.0013971109717188838 0.0085902684804068687 0 0.0014288298178897531 0.0086001930673840019 0 0.0013971518661810717 0.0085792006316107259 0 0.0013943215221200343 0.008584968981717029 0 0.0014178617792387398 0.0085886255227611667 0 0.0014064510317634603 0.0085731450278614535 0 0.0013943215221200343 0.008584968981717029 0 0.001428407388338407 0.0086219217951099842 0 0.0013991572513003512 0.0085083243428307389 0 0.0014064510317634603 0.0085731450278614535 0 0.0013943215221200343 0.008584968981717029 0 0.0014115054495350391 0.00856423140466076 0 0.0014064510317634603 0.0085731450278614535 0 0.001428407388338407 0.0086219217951099842 0 0.0014115054495350391 0.00856423140466076 0 0.001428407388338407 0.0086219217951099842 0 0.0014989037425248569 0.0087248551339390284 0 0.0013431838481309123 0.0087372405958987213 0 0.0014398651782207767 0.0087652250097476504 0 0.0013943215221200343 0.008584968981717029 0 0.001428407388338407 0.0086219217951099842 0 0.0014439361962032731 0.0086120735085603774 0 0.001428407388338407 0.0086219217951099842 0 0.0014439361962032731 0.0086120735085603774 0 0.0014511307499750364 0.0086368270158498992 0 0.0014665468089058787 0.0086346274031536812 0 0.0014439361962032731 0.0086120735085603774 0 0.0014734414124717465 0.00861880762682069 0 0.0014439361962032731 0.0086120735085603774 0 0.0014511307499750364 0.0086368270158498992 0 0.0014734414124717465 0.00861880762682069 0 0.0014511307499750364 0.0086368270158498992 0 0.0014734414124717465 0.00861880762682069 0 0.0014989037425248569 0.0087248551339390284 0 0.0015954104533640568 0.0090458132976928615 0 0.0010358464958863036 0.0091480231555261787 0 0.0014989037425248569 0.0087248551339390284 0 0.001428407388338407 0.0086219217951099842 0 0.0014511307499750364 0.0086368270158498992 0 0.0014989037425248569 0.0087248551339390284 0 0.00192020769911526 0.0088914211427941689 0 0.0014734414124717465 0.00861880762682069 0 0.0014989037425248569 0.0087248551339390284 0 0.0015850963215999652 0.0054778822574562879 0 0.0010966620521712454 0.004158898628930186 0 0.0021687376813971189 0.0023280742643907552 0 0.0016833700825125339 0.0026835306720477 0 0.0016191320548208264 0.0016269435083480486 0 0.0009034541017194286 0.0023427411245692817 0 0.0010819563347179181 0.0026821912740010423 0 0.00135227214061009 0.0017914423936907743 0 0.0009034541017194286 0.0023427411245692817 0 0.00091152633774076576 0.0020471030538442825 0 0.00135227214061009 0.0017914423936907743 0 0.0016833700825125339 0.0026835306720477 0 0.0010819563347179181 0.0026821912740010423 0 0.0016191320548208264 0.0016269435083480486 0 0.0013608939901534904 0.0016312355381434655 0 0.0010966620521712454 0.004158898628930186 0 0.0017789078078055244 0.0035055937166782241 0 0.0016833700825125339 0.0026835306720477 0 0.001301752320218931 0.0031994850039708095 0 0.0016833700825125339 0.0026835306720477 0 0.0010819563347179181 0.0026821912740010423 0 0.001301752320218931 0.0031994850039708095 0 0.00083324936862471429 0.0029146325372805407 0 0.0010819563347179181 0.0026821912740010423 0 0.001301752320218931 0.0031994850039708095 0 0.0021687376813971189 0.0023280742643907552 0 0.0021579966172102821 0.0030481524889677965 0 0.0027803067249287882 0.0031132480988816848 0 0.0017789078078055244 0.0035055937166782241 0 0.0016833700825125339 0.0026835306720477 0 0.0021579966172102821 0.0030481524889677965 0 0.0021687376813971189 0.0023280742643907552 0 0.0016833700825125339 0.0026835306720477 0 0.0021579966172102821 0.0030481524889677965 0 0.0023857118151873807 0.0036432619380228955 0 0.0021579966172102821 0.0030481524889677965 0 0.0027803067249287882 0.0031132480988816848 0 0.0010422974957724335 0.0085764099571572702 0 0.0012014118601244759 0.0085661678126870665 0 0.001120535903812653 0.0084864280228825195 0 0.00088170351826725795 0.0083997923707992105 0 0.0010422974957724335 0.0085764099571572702 0 0.001120535903812653 0.0084864280228825195 0 0.0015850963215999652 0.0054778822574562879 0 0.0019089143833723732 0.0058308537918528988 0 0.0011702378746624798 0.0087114772439965162 0 0.0010422974957724335 0.0085764099571572702 0 0.0012014118601244759 0.0085661678126870665 0 0.0013660087651760687 0.0085738658476627004 0 0.0012014118601244759 0.0085661678126870665 0 0.0012680303122673223 0.0084807931858376633 0 0.0011702378746624798 0.0087114772439965162 0 0.0013660087651760687 0.0085738658476627004 0 0.0012014118601244759 0.0085661678126870665 0 0.0012014118601244759 0.0085661678126870665 0 0.0012680303122673223 0.0084807931858376633 0 0.001120535903812653 0.0084864280228825195 0 0.0012680303122673223 0.0084807931858376633 0 0.001120535903812653 0.0084864280228825195 0 0.0011116659379729736 0.008347231946806262 0 0.0012680303122673223 0.0084807931858376633 0 0.0011116659379729736 0.008347231946806262 0 0.0012541248666290213 0.0083369285403034829 0 0.00088170351826725795 0.0083997923707992105 0 0.001120535903812653 0.0084864280228825195 0 0.0011116659379729736 0.008347231946806262 0 0.0011116659379729736 0.008347231946806262 0 0.00094737955280810402 0.0081761995999015003 0 0.0011366152555204237 0.0081539904981300041 0 0.00088170351826725795 0.0083997923707992105 0 0.0011116659379729736 0.008347231946806262 0 0.00094737955280810402 0.0081761995999015003 0 0.0013415383421372534 0.0081699938874191403 0 0.0011366152555204237 0.0081539904981300041 0 0.0012541248666290213 0.0083369285403034829 0 0.0011116659379729736 0.008347231946806262 0 0.0011366152555204237 0.0081539904981300041 0 0.0012541248666290213 0.0083369285403034829 0 0.0011366152555204237 0.0081539904981300041 0 0.0010107845611523722 0.0079965038853979323 0 0.0012227181087120027 0.0078951468155415445 0 0.0013415383421372534 0.0081699938874191403 0 0.0011366152555204237 0.0081539904981300041 0 0.0012227181087120027 0.0078951468155415445 0 0.0013555466711633781 0.0083645504763639276 0 0.0013113911162875819 0.0082757424428916947 0 0.00094737955280810402 0.0081761995999015003 0 0.0011366152555204237 0.0081539904981300041 0 0.0010107845611523722 0.0079965038853979323 0 0.00094737955280810402 0.0081761995999015003 0 0.0010107845611523722 0.0079965038853979323 0 0.00082382266859091331 0.0079606018403030384 0 0.00094737955280810402 0.0081761995999015003 0 0.00082382266859091331 0.0079606018403030384 0 0.00072539694758434075 0.0081907557077921193 0 0.00032167082185047697 0.0068791731928893015 0 0.0010966620521712454 0.004158898628930186 0 0.00088170351826725795 0.0083997923707992105 0 0.00094737955280810402 0.0081761995999015003 0 0.00072539694758434075 0.0081907557077921193 0 0.00091152633774076576 0.0020471030538442825 0 0.00135227214061009 0.0017914423936907743 0 0.00094243181499042625 0.0017734090319546166 0 0.0010966620521712454 0.004158898628930186 0 0.00064392640111769186 0.0028534562335759549 0 0.00135227214061009 0.0017914423936907743 0 0.00094243181499042625 0.0017734090319546166 0 0.001035123357723504 0.0014120153481874322 0 0.00052963871214855359 0.004538536506903122 0 0.00039739038887583693 0.0047190269279912527 0 0.0007009496587020395 0.0047664437212511877 0 0.00035998140755054983 0.0043066874710642189 0 0.00052963871214855359 0.004538536506903122 0 0.00039739038887583693 0.0047190269279912527 0 0.00017678665100974162 0.004707076178029115 0 0.00035998140755054983 0.0043066874710642189 0 0.00039739038887583693 0.0047190269279912527 0 0.00039739038887583693 0.0047190269279912527 0 0.00035314284755363234 0.0049374647221118381 0 0.0007009496587020395 0.0047664437212511877 0 0.00016119096092595124 0.0041905601899288854 0 0.00033687826662558108 0.0033890425921754047 0 3.3357952485503975e-05 0.0034888829301515057 0 0.0001889986771052098 0.0033993787073983628 0 0.00014827612500438838 0.0034979797515824187 0 0.00017678665100974162 0.004707076178029115 0 0.00039739038887583693 0.0047190269279912527 0 0.00035314284755363234 0.0049374647221118381 0 3.3357952485503975e-05 0.0034888829301515057 0 0.00011901163352338393 0.0036109256827882657 0 0.00014827612500438838 0.0034979797515824187 0 3.3357952485503975e-05 0.0034888829301515057 0 0.00011901163352338393 0.0036109256827882657 0 -1.0621343779039672e-05 0.0036897892645892942 0 -0.00011511672363949766 0.0035757847311867282 0 -0.00016854242094594096 0.0037082689110427051 0 -1.0621343779039672e-05 0.0036897892645892942 0 3.3357952485503975e-05 0.0034888829301515057 0 -0.00011511672363949766 0.0035757847311867282 0 -1.0621343779039672e-05 0.0036897892645892942 0 0.00032167082185047697 0.0068791731928893015 0 0.00041253076190012126 0.0055766699971643713 0 0.00017678665100974162 0.004707076178029115 0 0.00035314284755363234 0.0049374647221118381 0 -3.0445235821240911e-07 0.0051064198660072443 0 0.00016119096092595124 0.0041905601899288854 0 0.00041253076190012126 0.0055766699971643713 0 0.0010107845611523722 0.0079965038853979323 0 0.00082382266859091331 0.0079606018403030384 0 0.0010718836269422848 0.0078075683242484397 0 0.00082382266859091331 0.0079606018403030384 0 0.0010718836269422848 0.0078075683242484397 0 0.0009334489424219066 0.0076994129888891538 0 0.0010107845611523722 0.0079965038853979323 0 0.0010718836269422848 0.0078075683242484397 0 0.0012227181087120027 0.0078951468155415445 0 0.0013113911162875819 0.0082757424428916947 0 0.0010664492265667421 0.00785935645923618 0 0.0010718836269422848 0.0078075683242484397 0 0.0012227181087120027 0.0078951468155415445 0 0.0010916669673349591 0.0076315787830936533 0 0.0013456707647643024 0.008565769709953968 0 0.0013212525779771405 0.0085323430307252691 0 0.0013465504998105358 0.0085416453217435455 0 0.0013212525779771405 0.0085323430307252691 0 0.0013465504998105358 0.0085416453217435455 0 0.001342200658256105 0.0085126100304674743 0 0.0010664492265667421 0.00785935645923618 0 0.0013407685956342815 0.0087213466722000609 0 0.00041253076190012126 0.0055766699971643713 0 0.00023263109264087245 0.006086916487732642 0 0.00055273195432002165 0.0063833261544717426 0 0.00041271415187053677 0.0064511276934817721 0 0.00047148212366159822 0.0065623011694462587 0 0.00041253076190012126 0.0055766699971643713 0 0.0010664492265667421 0.00785935645923618 0 0.0010718836269422848 0.0078075683242484397 0 0.0009334489424219066 0.0076994129888891538 0 0.0010916669673349591 0.0076315787830936533 0 0.0010664492265667421 0.00785935645923618 0 0.00023263109264087245 0.006086916487732642 0 -8.9593122527845042e-05 0.0059347590985664852 0 0.00011087497262781208 0.005483045992634758 0 -0.00026854977987682786 0.0056012141602034748 0 0.00023263109264087245 0.006086916487732642 0 -0.00026392083182025418 0.0045678383788303216 0 0.00098135899311397007 0.008524585221451695 0 0.0011212619023810049 0.0084206137144296721 0 0.0010818199729160276 0.0082144284204684302 0 0.00023263109264087245 0.006086916487732642 0 0.00059998789457077527 0.0069595190811651952 0 0.0010585016425841852 0.008638941596286101 0 0.00098135899311397007 0.008524585221451695 0 0.0011576852436512421 0.0085027621675896215 0 0.0010585016425841852 0.008638941596286101 0 0.0011576852436512421 0.0085027621675896215 0 0.001342200658256105 0.0085126100304674743 0 0.0011576852436512421 0.0085027621675896215 0 0.0012660515241798261 0.0084380482484368319 0 0.001342200658256105 0.0085126100304674743 0 0.00098135899311397007 0.008524585221451695 0 0.0011576852436512421 0.0085027621675896215 0 0.0011212619023810049 0.0084206137144296721 0 0.0011576852436512421 0.0085027621675896215 0 0.0011212619023810049 0.0084206137144296721 0 0.0012660515241798261 0.0084380482484368319 0 0.0012665186615403398 0.0083451009322598399 0 0.0012822231177685225 0.0084787673370921249 0 0.0012660515241798261 0.0084380482484368319 0 0.0010818199729160276 0.0082144284204684302 0 0.0012761306506767873 0.0081224036693966304 0 0.0011212619023810049 0.0084206137144296721 0 0.0012660515241798261 0.0084380482484368319 0 0.0010818199729160276 0.0082144284204684302 0 0.00011087497262781208 0.005483045992634758 0 -0.00026854977987682786 0.0056012141602034748 0 -0.0001897383552862091 0.0051797752737111477 0 -0.00010055145721404297 0.0038251706043679187 0 2.2660384156926776e-05 0.0038202411133209531 0 -3.3127705650353596e-05 0.0039476775141236847 0 -0.00026392083182025418 0.0045678383788303216 0 -7.7422921032625254e-05 0.0041361649235341653 0 -0.00026854977987682786 0.0056012141602034748 0 -0.00044479704834640813 0.005266183958472323 0 -0.0001897383552862091 0.0051797752737111477 0 2.2660384156926776e-05 0.0038202411133209531 0 0.00012914126523315978 0.0038827038316381966 0 0.00013110434588230237 0.0037549304407185173 0 2.2660384156926776e-05 0.0038202411133209531 0 0.00012914126523315978 0.0038827038316381966 0 -3.3127705650353596e-05 0.0039476775141236847 0 2.2660384156926776e-05 0.0038202411133209531 0 0.00013110434588230237 0.0037549304407185173 0 -1.0621343779039672e-05 0.0036897892645892942 0 0.00011901163352338393 0.0036109256827882657 0 0.00013110434588230237 0.0037549304407185173 0 -1.0621343779039672e-05 0.0036897892645892942 0 -0.00010055145721404297 0.0038251706043679187 0 2.2660384156926776e-05 0.0038202411133209531 0 -1.0621343779039672e-05 0.0036897892645892942 0 -0.00016854242094594096 0.0037082689110427051 0 -0.00010055145721404297 0.0038251706043679187 0 -1.0621343779039672e-05 0.0036897892645892942 0 0.0014601851076219393 0.0085857490700097863 0 0.0014727784044187933 0.0085659821626647634 0 0.0014505302773507958 0.0085565034900907701 0 0.0014601851076219393 0.0085857490700097863 0 0.0014505302773507958 0.0085565034900907701 0 0.0014304777249199926 0.0085706622919515269 0 0.0014706946489433383 0.0086405390210223497 0 0.0014665468089058787 0.0086346274031536812 0 0.0014734414124717465 0.00861880762682069 0 0.0014638165336371546 0.0086088744532259159 0 0.0014288298178897531 0.0086001930673840019 0 0.0014601851076219393 0.0085857490700097863 0 0.0014178617792387398 0.0085886255227611667 0 0.0014304777249199926 0.0085706622919515269 0 0.0013971518661810717 0.0085792006316107259 0 0.0014178617792387398 0.0085886255227611667 0 0.0014042034052940797 0.0085692003414845393 0 0.0014178617792387398 0.0085886255227611667 0 0.0014304777249199926 0.0085706622919515269 0 0.0014042034052940797 0.0085692003414845393 0 0.0014304777249199926 0.0085706622919515269 0 0.0014142632989455916 0.008547072632517411 0 0.0014042034052940797 0.0085692003414845393 0 0.0014505302773507958 0.0085565034900907701 0 0.0014304777249199926 0.0085706622919515269 0 0.0014142632989455916 0.008547072632517411 0 0.0014142632989455916 0.008547072632517411 0 0.0013762320405735211 0.0085471220305652542 0 0.0014042034052940797 0.0085692003414845393 0 0.0014142632989455916 0.008547072632517411 0 0.0013762320405735211 0.0085471220305652542 0 0.0013816387301621665 0.0085086843811241798 0 0.0013971518661810717 0.0085792006316107259 0 0.0014042034052940797 0.0085692003414845393 0 0.0013864024673111278 0.0085681584200975863 0 0.0013842322697855069 0.0085781577603421168 0 0.0013971518661810717 0.0085792006316107259 0 0.0013864024673111278 0.0085681584200975863 0 0.0013762320405735211 0.0085471220305652542 0 0.0014042034052940797 0.0085692003414845393 0 0.0013864024673111278 0.0085681584200975863 0 0.0013762320405735211 0.0085471220305652542 0 0.0013864024673111278 0.0085681584200975863 0 0.0013684110544994617 0.0085606010610795782 0 0.0013842322697855069 0.0085781577603421168 0 0.0013456707647643024 0.008565769709953968 0 0.0013684110544994617 0.0085606010610795782 0 0.0013456707647643024 0.008565769709953968 0 0.0013684110544994617 0.0085606010610795782 0 0.0013465504998105358 0.0085416453217435455 0 0.0013842322697855069 0.0085781577603421168 0 0.0013864024673111278 0.0085681584200975863 0 0.0013684110544994617 0.0085606010610795782 0 0.0013762320405735211 0.0085471220305652542 0 0.0013465504998105358 0.0085416453217435455 0 0.001342200658256105 0.0085126100304674743 0 0.0013762320405735211 0.0085471220305652542 0 0.0013684110544994617 0.0085606010610795782 0 0.0013465504998105358 0.0085416453217435455 0 0.0012660515241798261 0.0084380482484368319 0 0.001342200658256105 0.0085126100304674743 0 0.0013498977936001965 0.008476988917947046 0 0.0012660515241798261 0.0084380482484368319 0 0.0013498977936001965 0.008476988917947046 0 0.0013033295461201185 0.0084310840352022874 0 0.001342200658256105 0.0085126100304674743 0 0.0013498977936001965 0.008476988917947046 0 0.0013816387301621665 0.0085086843811241798 0 0.0012660515241798261 0.0084380482484368319 0 0.0012703285403022689 0.0084081057885494592 0 0.0013033295461201185 0.0084310840352022874 0 0.0012703285403022689 0.0084081057885494592 0 0.0013033295461201185 0.0084310840352022874 0 0.001304256770702628 0.0084079922637239918 0 0.0013033295461201185 0.0084310840352022874 0 0.001304256770702628 0.0084079922637239918 0 0.0013416162811379542 0.0084359780999351507 0 0.001304256770702628 0.0084079922637239918 0 0.0013416162811379542 0.0084359780999351507 0 0.0013561434232558403 0.0084026702820796245 0 0.0013498977936001965 0.008476988917947046 0 0.0013033295461201185 0.0084310840352022874 0 0.0013416162811379542 0.0084359780999351507 0 0.0013879278146080149 0.0084630488467950845 0 0.0014212839204752129 0.0084066371232896266 0 0.0013561434232558403 0.0084026702820796245 0 0.0013498977936001965 0.008476988917947046 0 0.0013416162811379542 0.0084359780999351507 0 0.0013879278146080149 0.0084630488467950845 0 0.0013416162811379542 0.0084359780999351507 0 0.0013879278146080149 0.0084630488467950845 0 0.0013561434232558403 0.0084026702820796245 0 0.0013762320405735211 0.0085471220305652542 0 0.001342200658256105 0.0085126100304674743 0 0.0013816387301621665 0.0085086843811241798 0 0.0013498977936001965 0.008476988917947046 0 0.0013879278146080149 0.0084630488467950845 0 0.0013816387301621665 0.0085086843811241798 0 0.0014505302773507958 0.0085565034900907701 0 0.0014142632989455916 0.008547072632517411 0 0.0014277581556295311 0.008516426737667537 0 0.0014142632989455916 0.008547072632517411 0 0.0013816387301621665 0.0085086843811241798 0 0.0014277581556295311 0.008516426737667537 0 0.0013879278146080149 0.0084630488467950845 0 0.0013816387301621665 0.0085086843811241798 0 0.0014277581556295311 0.008516426737667537 0 0.0013879278146080149 0.0084630488467950845 0 0.0014371285204310689 0.0084724867311024021 0 0.0014212839204752129 0.0084066371232896266 0 0.0013879278146080149 0.0084630488467950845 0 0.0014277581556295311 0.008516426737667537 0 0.0014371285204310689 0.0084724867311024021 0 0.0014756529707416024 0.0084997483889125095 0 0.0014841034149859452 0.0085602442924350205 0 0.0014371285204310689 0.0084724867311024021 0 0.0014745336357064457 0.0085299202243171793 0 0.0014900327992625252 0.0084291952565585353 0 0.0014371285204310689 0.0084724867311024021 0 0.0014900327992625252 0.0084291952565585353 0 0.0014212839204752129 0.0084066371232896266 0 0.0014277581556295311 0.008516426737667537 0 0.0014371285204310689 0.0084724867311024021 0 0.0014745336357064457 0.0085299202243171793 0 0.0014727784044187933 0.0085659821626647634 0 0.0014505302773507958 0.0085565034900907701 0 0.0014745336357064457 0.0085299202243171793 0 0.0014505302773507958 0.0085565034900907701 0 0.0014277581556295311 0.008516426737667537 0 0.0014745336357064457 0.0085299202243171793 0 0.00062728943485901192 0.0085970804665544825 0 0.00053063292516025739 0.0086588027651987969 0 0.00050840271162773431 0.0084410365648539248 0 0.0014855952769408098 0.0083544507756501494 0 0.0014900327992625252 0.0084291952565585353 0 0.0014212839204752129 0.0084066371232896266 0 0.0013887634463369141 0.0080133170600783232 0 0.0014841034149859452 0.0085602442924350205 0 0.0014855952769408098 0.0083544507756501494 0 0.0014212839204752129 0.0084066371232896266 0 0.0013746482004684407 0.0083337451454315939 0 0.0018537757566846663 0.0069988894439624305 0 0.00081576079827912066 0.0068755734463878289 0 0.0010733178136059192 0.0062130773955526965 0 0.0013887634463369141 0.0080133170600783232 0 0.0012002908081883703 0.0076689297095024452 0 0.00081576079827912066 0.0068755734463878289 0 0.00043499169534174753 0.0064649072727458422 0 0.0010733178136059192 0.0062130773955526965 0 0.0013746482004684407 0.0083337451454315939 0 0.0013561434232558403 0.0084026702820796245 0 0.0013068546802043482 0.0083652680655935171 0 0.0014212839204752129 0.0084066371232896266 0 0.0013746482004684407 0.0083337451454315939 0 0.0013561434232558403 0.0084026702820796245 0 0.0012703285403022689 0.0084081057885494592 0 0.0013068546802043482 0.0083652680655935171 0 0.0012556265479631639 0.008335994452965385 0 0.001304256770702628 0.0084079922637239918 0 0.0013561434232558403 0.0084026702820796245 0 0.0013068546802043482 0.0083652680655935171 0 0.0012703285403022689 0.0084081057885494592 0 0.001304256770702628 0.0084079922637239918 0 0.0013068546802043482 0.0083652680655935171 0 0.0013746482004684407 0.0083337451454315939 0 0.0013068546802043482 0.0083652680655935171 0 0.001266941733202944 0.0083042866471364617 0 0.0013068546802043482 0.0083652680655935171 0 0.0012556265479631639 0.008335994452965385 0 0.001266941733202944 0.0083042866471364617 0 0.00081576079827912066 0.0068755734463878289 0 0.00043499169534174753 0.0064649072727458422 0 -0.00022759676593991679 0.0067548277556830185 0 -0.0001182608983068124 0.0065071079460826296 0 0.00043499169534174753 0.0064649072727458422 0 -0.00022759676593991679 0.0067548277556830185 0 0.0012002908081883703 0.0076689297095024452 0 0.0003317528986961585 0.0067413918935719016 0 0.00012715294530403571 0.0067082021281579581 0 0.0003317528986961585 0.0067413918935719016 0 -0.0001182608983068124 0.0065071079460826296 0 8.3006646111310827e-05 0.0059586553798819933 0 -0.00043068527903787992 0.0057659695139246269 0 8.3006646111310827e-05 0.0059586553798819933 0 0.00052928790609204723 0.0057128634077826214 0 0.00043499169534174753 0.0064649072727458422 0 -0.0001182608983068124 0.0065071079460826296 0 8.3006646111310827e-05 0.0059586553798819933 0 0.00043499169534174753 0.0064649072727458422 0 8.3006646111310827e-05 0.0059586553798819933 0 -3.761179609405695e-06 0.0053312771863287351 0 -0.00043068527903787992 0.0057659695139246269 0 -3.761179609405695e-06 0.0053312771863287351 0 0.00052928790609204723 0.0057128634077826214 0 0.00030283148252063064 0.0049305440643422956 0 8.3006646111310827e-05 0.0059586553798819933 0 -3.761179609405695e-06 0.0053312771863287351 0 0.00052928790609204723 0.0057128634077826214 0 0.00052928790609204723 0.0057128634077826214 0 0.0010733178136059192 0.0062130773955526965 0 0.0010388347167459514 0.0053341809655253116 0 0.00052928790609204723 0.0057128634077826214 0 0.0010388347167459514 0.0053341809655253116 0 0.00030283148252063064 0.0049305440643422956 0 0.00052928790609204723 0.0057128634077826214 0 0.00043499169534174753 0.0064649072727458422 0 0.0010733178136059192 0.0062130773955526965 0 0.0010388347167459514 0.0053341809655253116 0 0.0017628922393426564 0.0058920310247797709 0 0.0016670204857422543 0.0047958687255295436 0 0.0010733178136059192 0.0062130773955526965 0 0.0010388347167459514 0.0053341809655253116 0 0.0017628922393426564 0.0058920310247797709 0 0.00050840271162773431 0.0084410365648539248 0 0.00048084629065136132 0.0082290632490175705 0 0.00057738651144248671 0.0083411211190348306 0 0.0011409615344221339 0.0071042090429833255 0 0.00082459618720555198 0.0066134700881353252 0 0.0018537757566846663 0.0069988894439624305 0 0.0010733178136059192 0.0062130773955526965 0 0.0017628922393426564 0.0058920310247797709 0 0.0013887634463369141 0.0080133170600783232 0 0.0011409615344221339 0.0071042090429833255 0 -0.00038938628349391858 0.0049957159305403292 0 -0.0001897383552862091 0.0051797752737111477 0 -0.00020853027650091988 0.0048060639471921964 0 -0.00044910381877283687 0.0034746032140138554 0 -0.00045602993011517525 0.0049201705362464992 0 -0.00038938628349391858 0.0049957159305403292 0 -0.00071783424818180582 0.0047347756333719236 0 -0.00020853027650091988 0.0048060639471921964 0 -0.00038938628349391858 0.0049957159305403292 0 -0.00071783424818180582 0.0047347756333719236 0 -0.00044144550509456182 0.0052622357836625624 0 -8.7950273705328946e-05 0.0020883601332373344 0 -0.00039454340159636117 0.0020441011838831457 0 -0.00027681378346768753 0.0024240162611826096 0 -8.7950273705328946e-05 0.0020883601332373344 0 0.00020851143999786958 0.0026608024048761746 0 -0.00027681378346768753 0.0024240162611826096 0 -0.00044910381877283687 0.0034746032140138554 0 -7.7422921032625254e-05 0.0041361649235341653 0 -0.00044910381877283687 0.0034746032140138554 0 -0.00032266034315415787 0.0022768227941441154 0 -1.3503083138772704e-05 0.0033605305488466179 0 -7.7422921032625254e-05 0.0041361649235341653 0 -0.0002343981803573421 0.0028061380107807709 0 0.00020851143999786958 0.0026608024048761746 0 -0.00027681378346768753 0.0024240162611826096 0 -0.00038938628349391858 0.0049957159305403292 0 -0.00044144550509456182 0.0052622357836625624 0 -0.0001897383552862091 0.0051797752737111477 0 -7.7422921032625254e-05 0.0041361649235341653 0 -0.00045654186306792039 0.005086177495435047 0 0.00011087497262781208 0.005483045992634758 0 6.6061115281244975e-05 0.0051982311064696241 0 -0.0001897383552862091 0.0051797752737111477 0 6.6061115281244975e-05 0.0051982311064696241 0 -0.0001897383552862091 0.0051797752737111477 0 5.2926836795313639e-05 0.0050281512913444961 0 0.0012822231177685225 0.0084787673370921249 0 0.00075398108891211154 0.0068888839914752762 0 0.0010818199729160276 0.0082144284204684302 0 0.0012761306506767873 0.0081224036693966304 0 0.0012466550494295455 0.0077719757720393972 0 0.00059998789457077527 0.0069595190811651952 0 0.00075398108891211154 0.0068888839914752762 0 0.00011087497262781208 0.005483045992634758 0 6.6061115281244975e-05 0.0051982311064696241 0 0.00030758421259902417 0.0050388585452356555 0 6.6061115281244975e-05 0.0051982311064696241 0 0.00030758421259902417 0.0050388585452356555 0 5.2926836795313639e-05 0.0050281512913444961 0 0.00054727876550147861 0.0066633273158056535 0 0.00053988304368431735 0.0065576529389871022 0 0.00058990649289876928 0.0065634780759741117 0 0.00075398108891211154 0.0068888839914752762 0 2.9773928617121293e-05 0.0058694027261017891 0 0.00075398108891211154 0.0068888839914752762 0 0.0003317528986961585 0.0067413918935719016 0 0.00030758421259902417 0.0050388585452356555 0 0.00029861880756751742 0.0048793763924171625 0 5.2926836795313639e-05 0.0050281512913444961 0 -0.0001182608983068124 0.0065071079460826296 0 -0.00037014585526618676 0.0067374404282437433 0 -0.00022850567174097032 0.0067523596504189057 0 2.9773928617121293e-05 0.0058694027261017891 0 0.0003317528986961585 0.0067413918935719016 0 2.9773928617121293e-05 0.0058694027261017891 0 -0.00045602993011517525 0.0049201705362464992 0 0.00029861880756751742 0.0048793763924171625 0 -0.00020853027650091988 0.0048060639471921964 0 5.2926836795313639e-05 0.0050281512913444961 0 -0.0004133968338863157 0.0049685619134695359 0 -0.00055944568834409212 0.0049488350661400088 0 -0.00048971866866330549 0.0048829240904190319 0 -0.0001897383552862091 0.0051797752737111477 0 -0.00020853027650091988 0.0048060639471921964 0 5.2926836795313639e-05 0.0050281512913444961 0 -0.00055944568834409212 0.0049488350661400088 0 -0.00048971866866330549 0.0048829240904190319 0 -0.00060456966763829849 0.0048371113423619156 0 -0.0004133968338863157 0.0049685619134695359 0 -0.00048971866866330549 0.0048829240904190319 0 -0.00043532635627283858 0.0048142803546034748 0 2.9773928617121293e-05 0.0058694027261017891 0 -0.00048151731909040258 0.0052786303204133932 0 -0.0001182608983068124 0.0065071079460826296 0 -0.00037014585526618676 0.0067374404282437433 0 -0.00043068527903787992 0.0057659695139246269 0 -0.00048971866866330549 0.0048829240904190319 0 -0.00043532635627283858 0.0048142803546034748 0 -0.00052880067043441269 0.0047507330388349657 0 -0.00043532635627283858 0.0048142803546034748 0 -0.00052880067043441269 0.0047507330388349657 0 -0.00048091277469915379 0.0047495010306069342 0 -0.00048971866866330549 0.0048829240904190319 0 -0.00052880067043441269 0.0047507330388349657 0 -0.00060456966763829849 0.0048371113423619156 0 -0.00052880067043441269 0.0047507330388349657 0 -0.00060456966763829849 0.0048371113423619156 0 -0.00065046774390110896 0.0046873017389792099 0 -0.00060456966763829849 0.0048371113423619156 0 -0.00070912537608470527 0.0048069022031960338 0 -0.00065046774390110896 0.0046873017389792099 0 -0.00072419776893921882 0.0049393246267769647 0 -0.00055944568834409212 0.0049488350661400088 0 -0.00060456966763829849 0.0048371113423619156 0 -0.00072419776893921882 0.0049393246267769647 0 -0.00070912537608470527 0.0048069022031960338 0 -0.00086749594227655195 0.0047513353504871391 0 -0.00072419776893921882 0.0049393246267769647 0 -0.00060456966763829849 0.0048371113423619156 0 -0.00070912537608470527 0.0048069022031960338 0 -0.00044910381877283687 0.0034746032140138554 0 -0.00066584224093234291 0.0033204693047338991 0 -0.00070912537608470527 0.0048069022031960338 0 -0.00086749594227655195 0.0047513353504871391 0 -0.00065046774390110896 0.0046873017389792099 0 -0.00043933604811899845 0.0015745191842831084 0 -0.0005659046577299457 0.0016112064084943607 0 -0.00041312818305287886 0.0018273327202616083 0 -0.00043933604811899845 0.0015745191842831084 0 -0.0005440381056454524 0.0015674679344768289 0 -0.0005659046577299457 0.0016112064084943607 0 -0.00056535069390126593 0.001560345425518483 0 -0.0005394223372112689 0.0015825714324017 0 -0.00056959394896422878 0.0015913486819987372 0 -0.0005440381056454524 0.0015674679344768289 0 -0.00056535069390126593 0.001560345425518483 0 -0.0005394223372112689 0.0015825714324017 0 -0.0005440381056454524 0.0015674679344768289 0 -0.0005394223372112689 0.0015825714324017 0 -0.0005659046577299457 0.0016112064084943607 0 -0.00057745558543034596 0.0016168879529141595 0 -0.00060097211628486506 0.0017166300354986698 0 -0.0005394223372112689 0.0015825714324017 0 -0.00048765221343626642 0.0014043435187096494 0 -0.00058354878379513104 0.0013596476215556963 0 -0.0005394223372112689 0.0015825714324017 0 -0.00048765221343626642 0.0014043435187096494 0 -0.00038036612767621745 0.0014236550526503628 0 -0.00063141488443862516 0.0016561518166226816 0 -0.00031535874889568528 0.0011587491180486431 0 -0.0005394223372112689 0.0015825714324017 0 -0.0005659046577299457 0.0016112064084943607 0 -0.00058354878379513104 0.0013596476215556963 0 -0.00051250142415398229 0.0018459614743793866 0 -0.00039454340159636117 0.0020441011838831457 0 -0.00063619984041280364 0.0020549759025939424 0 -0.0005659046577299457 0.0016112064084943607 0 -0.00051250142415398229 0.0018459614743793866 0 -0.00063619984041280364 0.0020549759025939424 0 -0.00041312818305287886 0.0018273327202616083 0 -0.00051250142415398229 0.0018459614743793866 0 -0.00039454340159636117 0.0020441011838831457 0 -0.00011924700644936001 0.0020666510851072451 0 -0.00043933604811899845 0.0015745191842831084 0 -0.00041312818305287886 0.0018273327202616083 0 -0.00011924700644936001 0.0020666510851072451 0 -0.00041312818305287886 0.0018273327202616083 0 -0.00039454340159636117 0.0020441011838831457 0 -0.0005659046577299457 0.0016112064084943607 0 -0.00041312818305287886 0.0018273327202616083 0 -0.00051250142415398229 0.0018459614743793866 0 -7.7931847852901856e-05 0.00051754965193687012 0 -6.9082337211691933e-05 0.00055092633569935555 0 -9.7768055733283158e-05 0.00052898228733064593 0 -6.0116626031414139e-05 0.00052166332694242735 0 -7.7931847852901856e-05 0.00051754965193687012 0 -6.9082337211691933e-05 0.00055092633569935555 0 -0.0002326574162103928 0.00080035038070282269 0 -0.00031535874889568528 0.0011587491180486431 0 -0.00048765221343626642 0.0014043435187096494 0 -0.00038036612767621745 0.0014236550526503628 0 -0.00045867477891380748 0.001273378307081504 0 -6.9082337211691933e-05 0.00055092633569935555 0 -0.00010069385095168129 0.00057047261027101453 0 -9.7768055733283158e-05 0.00052898228733064593 0 -0.00031535874889568528 0.0011587491180486431 0 -0.00022553884021633846 0.00077986672644238481 0 -0.00031535874889568528 0.0011587491180486431 0 -0.00038918340944749233 0.0012054302863988892 0 -0.00031748954659446067 0.0010423499656300585 0 -0.00037769859749325262 0.0011616540513032156 0 -0.00042027194779768501 0.0010959763329139885 0 -0.00038036612767621745 0.0014236550526503628 0 -0.00045867477891380748 0.001273378307081504 0 -0.00037769859749325262 0.0011616540513032156 0 -0.00045867477891380748 0.001273378307081504 0 -0.00042827838049274612 0.001156661774148146 0 -0.00037769859749325262 0.0011616540513032156 0 -0.00037769859749325262 0.0011616540513032156 0 -0.0003955425533943241 0.0011391368768964879 0 -0.00043634033185564926 0.0011328399513206053 0 -0.00042827838049274612 0.001156661774148146 0 -0.00037769859749325262 0.0011616540513032156 0 -0.0003955425533943241 0.0011391368768964879 0 -0.00050369224883625567 0.0022846836597169976 0 -0.00039454340159636117 0.0020441011838831457 0 -0.00027681378346768753 0.0024240162611826096 0 -0.00050369224883625567 0.0022846836597169976 0 -0.00063619984041280364 0.0020549759025939424 0 -0.00065560532655919079 0.0025104718561494051 0 -0.00050369224883625567 0.0022846836597169976 0 -0.00039454340159636117 0.0020441011838831457 0 -0.00063619984041280364 0.0020549759025939424 0 -0.00045867477891380748 0.001273378307081504 0 -0.00058354878379513104 0.0013596476215556963 0 -0.00053717940228745263 0.0012079566640453912 0 -0.00060097211628486506 0.0017166300354986698 0 -0.00061155740408507951 0.0018292555295458968 0 -0.00048765221343626642 0.0014043435187096494 0 -0.00045867477891380748 0.001273378307081504 0 -0.00058354878379513104 0.0013596476215556963 0 -0.00045867477891380748 0.001273378307081504 0 -0.00042827838049274612 0.001156661774148146 0 -0.00053717940228745263 0.0012079566640453912 0 -0.00050369224883625567 0.0022846836597169976 0 -0.00065560532655919079 0.0025104718561494051 0 -0.00027681378346768753 0.0024240162611826096 0 -0.0002343981803573421 0.0028061380107807709 0 -0.00065560532655919079 0.0025104718561494051 0 -0.00027681378346768753 0.0024240162611826096 0 0.00012914126523315978 0.0038827038316381966 0 0.00013110434588230237 0.0037549304407185173 0 0.0002939519176561372 0.0038128378417989074 0 -0.0002343981803573421 0.0028061380107807709 0 -0.00065560532655919079 0.0025104718561494051 0 -0.00067096233839425976 0.0029527138154729674 0 -1.3503083138772704e-05 0.0033605305488466179 0 -0.00031408376641612197 0.0022123776518098029 0 0.00011901163352338393 0.0036109256827882657 0 0.00013110434588230237 0.0037549304407185173 0 0.00021454703847022781 0.0036611584724177589 0 0.00013110434588230237 0.0037549304407185173 0 0.00021454703847022781 0.0036611584724177589 0 0.0002939519176561372 0.0038128378417989074 0 -0.00031408376641612197 0.0022123776518098029 0 9.436738945560855e-05 0.0024865929914777585 0 -0.00018016328349908424 0.001050338267553031 0 -0.00036866738684913637 0.0011122884771142981 0 -0.0001599414384168384 0.0012202254053242194 0 0.00021454703847022781 0.0036611584724177589 0 0.0002939519176561372 0.0038128378417989074 0 0.00031491007771739849 0.0035809353683744299 0 -0.00061155740408507951 0.0018292555295458968 0 -0.00031408376641612197 0.0022123776518098029 0 -0.00042827838049274612 0.001156661774148146 0 -0.00053717940228745263 0.0012079566640453912 0 -0.00050480902336279818 0.0011184991804966827 0 -0.00031408376641612197 0.0022123776518098029 0 -0.00031204286840986274 0.00083265214566437696 0 -0.00042827838049274612 0.001156661774148146 0 -0.00050480902336279818 0.0011184991804966827 0 -0.00036866738684913637 0.0011122884771142981 0 -0.00042827838049274612 0.001156661774148146 0 -0.0003955425533943241 0.0011391368768964879 0 -0.00036866738684913637 0.0011122884771142981 0 -0.0003955425533943241 0.0011391368768964879 0 -0.00036866738684913637 0.0011122884771142981 0 -0.00043868241793496075 0.0011387348920246683 0 -0.0003955425533943241 0.0011391368768964879 0 -0.00043868241793496075 0.0011387348920246683 0 -0.00043634033185564926 0.0011328399513206053 0 -0.00036866738684913637 0.0011122884771142981 0 -0.00039871334722755539 0.0012164538250718324 0 -0.00047350097521531206 0.0011752482465080471 0 -0.00036866738684913637 0.0011122884771142981 0 -0.00047350097521531206 0.0011752482465080471 0 -0.00043868241793496075 0.0011387348920246683 0 -0.00036866738684913637 0.0011122884771142981 0 -0.00025664502261771142 0.0012444863214394807 0 -0.0001599414384168384 0.0012202254053242194 0 -0.00036866738684913637 0.0011122884771142981 0 -0.00025664502261771142 0.0012444863214394807 0 -0.00039871334722755539 0.0012164538250718324 0 -0.00039871334722755539 0.0012164538250718324 0 -0.00050608277037922844 0.0012768099489783343 0 -0.00047350097521531206 0.0011752482465080471 0 -0.00039871334722755539 0.0012164538250718324 0 -0.00037639064592664907 0.0013238938477042009 0 -0.00050608277037922844 0.0012768099489783343 0 -0.00056379436041528958 0.0014890543397014914 0 -0.00037639064592664907 0.0013238938477042009 0 -0.00050608277037922844 0.0012768099489783343 0 -0.00021761640325326104 0.0013605704290828935 0 -0.00025664502261771142 0.0012444863214394807 0 -0.00037639064592664907 0.0013238938477042009 0 -7.7384937123786709e-06 0.0013685539913623162 0 -0.00021761640325326104 0.0013605704290828935 0 -0.00025664502261771142 0.0012444863214394807 0 -0.00025664502261771142 0.0012444863214394807 0 -0.00039871334722755539 0.0012164538250718324 0 -0.00037639064592664907 0.0013238938477042009 0 -7.7384937123786709e-06 0.0013685539913623162 0 -0.00025664502261771142 0.0012444863214394807 0 -0.0001599414384168384 0.0012202254053242194 0 0.00043714965562967621 0.0021836192496225903 0 9.436738945560855e-05 0.0024865929914777585 0 0.00033953818572267434 0.0033126363542853384 0 0.00022342950084079785 0.0034411788306127076 0 0.00031491007771739849 0.0035809353683744299 0 0.00033953818572267434 0.0033126363542853384 0 0.00022342950084079785 0.0034411788306127076 0 0.0001837152512059489 0.0033867013905349657 0 0.00022342950084079785 0.0034411788306127076 0 0.0001889986771052098 0.0033993787073983628 0 0.00014827612500438838 0.0034979797515824187 0 0.00027914146151238549 0.0033846250934253404 0 0.00033687826662558108 0.0033890425921754047 0 0.00022342950084079785 0.0034411788306127076 0 0.00014827612500438838 0.0034979797515824187 0 0.00020341472113303251 0.0035596087860053235 0 0.00022342950084079785 0.0034411788306127076 0 0.00020341472113303251 0.0035596087860053235 0 0.00031491007771739849 0.0035809353683744299 0 0.00011901163352338393 0.0036109256827882657 0 0.00014827612500438838 0.0034979797515824187 0 0.00020341472113303251 0.0035596087860053235 0 0.00011901163352338393 0.0036109256827882657 0 0.00021454703847022781 0.0036611584724177589 0 0.00020341472113303251 0.0035596087860053235 0 0.00021454703847022781 0.0036611584724177589 0 0.00020341472113303251 0.0035596087860053235 0 0.00031491007771739849 0.0035809353683744299 0 -0.00063796429601547632 0.0012137253087621043 0 -0.00060576680951549998 0.0012332893037975382 0 -0.000631593410740829 0.0011818018105165815 0 -0.00063796429601547632 0.0012137253087621043 0 -0.00065505953232708068 0.0011884339866700582 0 -0.000631593410740829 0.0011818018105165815 0 -0.00065237997117673075 0.0012313439481037439 0 -0.00063796429601547632 0.0012137253087621043 0 -0.00065505953232708068 0.0011884339866700582 0 -0.00066362979691197987 0.0011714819662538088 0 -0.00065237997117673075 0.0012313439481037439 0 -0.00065505953232708068 0.0011884339866700582 0 -0.00065237997117673075 0.0012313439481037439 0 -0.00063796429601547632 0.0012137253087621043 0 -0.00060576680951549998 0.0012332893037975382 0 -0.00065237997117673075 0.0012313439481037439 0 -0.0006155872845896406 0.001330063753441081 0 -0.00060576680951549998 0.0012332893037975382 0 -0.00056379436041528958 0.0014890543397014914 0 -0.0006155872845896406 0.001330063753441081 0 -0.00050608277037922844 0.0012768099489783343 0 -0.0006155872845896406 0.001330063753441081 0 -0.00050608277037922844 0.0012768099489783343 0 -0.00060576680951549998 0.0012332893037975382 0 -0.00050608277037922844 0.0012768099489783343 0 -0.00060576680951549998 0.0012332893037975382 0 -0.00047350097521531206 0.0011752482465080471 0 -0.00058780086843623761 0.0012048402042447778 0 -0.00058406623224663051 0.0012195418567624761 0 -0.00060576680951549998 0.0012332893037975382 0 -0.00047350097521531206 0.0011752482465080471 0 -0.00051328764881331272 0.0011455361437941146 0 -0.00047350097521531206 0.0011752482465080471 0 -0.00043868241793496075 0.0011387348920246683 0 -0.00051328764881331272 0.0011455361437941146 0 -0.00043868241793496075 0.0011387348920246683 0 -0.00051328764881331272 0.0011455361437941146 0 -0.00043634033185564926 0.0011328399513206053 0 -0.00058582655383217577 0.0011576975682884643 0 -0.00061206157602243646 0.0011421415166645689 0 -0.0005770304985427304 0.0010877060598423664 0 -0.00058406623224663051 0.0012195418567624761 0 -0.00030228539657505416 0.00083349236807386319 0 -0.00061206157602243646 0.0011421415166645689 0 -0.000631593410740829 0.0011818018105165815 0 -0.0006369515711506698 0.0011501659716986153 0 -0.00061206157602243646 0.0011421415166645689 0 -0.0006369515711506698 0.0011501659716986153 0 -0.00062915486100944672 0.0011186638363999786 0 -0.00060576680951549998 0.0012332893037975382 0 -0.00058582655383217577 0.0011576975682884643 0 -0.000631593410740829 0.0011818018105165815 0 -0.00058582655383217577 0.0011576975682884643 0 -0.00061206157602243646 0.0011421415166645689 0 -0.000631593410740829 0.0011818018105165815 0 -0.00065505953232708068 0.0011884339866700582 0 -0.000631593410740829 0.0011818018105165815 0 -0.00065091088316499186 0.0011733177238099435 0 -0.000631593410740829 0.0011818018105165815 0 -0.00065091088316499186 0.0011733177238099435 0 -0.0006369515711506698 0.0011501659716986153 0 -0.00065551914486687785 0.0011624705223539063 0 -0.00065091088316499186 0.0011733177238099435 0 -0.0006369515711506698 0.0011501659716986153 0 6.2930024415570757e-05 0.00063062025737345862 0 -2.3099694715588381e-05 0.00060745324458803753 0 -0.00065551914486687785 0.0011624705223539063 0 -0.0006369515711506698 0.0011501659716986153 0 -0.00062809335330946212 0.0011274856312918557 0 -0.00060012442176914018 0.0013093252003137925 0 -2.3099694715588381e-05 0.00060745324458803753 0 0.00074107571955396546 -9.5605507026710659e-05 0 0.00089830857449541555 -1.735905698665234e-05 0 0.00085104079194777749 -0.00015943033763270428 0 0.00071602634363407273 0.0001226475231676336 0 0.00074107571955396546 -9.5605507026710659e-05 0 0.00089830857449541555 -1.735905698665234e-05 0 -2.3099694715588381e-05 0.00060745324458803753 0 -0.00030228539657505416 0.00083349236807386319 0 -0.00061206157602243646 0.0011421415166645689 0 -0.00062915486100944672 0.0011186638363999786 0 -0.0005770304985427304 0.0010877060598423664 0 -7.7938081578406849e-06 0.00061342701097630791 0 0.00012427496244558296 0.00027860971805654963 0 0.00025301672085048169 0.00047456624918381854 0 0.00089830857449541555 -1.735905698665234e-05 0 0.0009624010310004973 -0.00025571203214319843 0 0.00085104079194777749 -0.00015943033763270428 0 -2.3099694715588381e-05 0.00060745324458803753 0 0.00067257279496811756 -0.00012349562892927495 0 0.00074107571955396546 -9.5605507026710659e-05 0 0.00085104079194777749 -0.00015943033763270428 0 0.0008000579346836565 -0.00026682572910823271 0 0.0009624010310004973 -0.00025571203214319843 0 0.00085104079194777749 -0.00015943033763270428 0 0.0008000579346836565 -0.00026682572910823271 0 -0.00037769859749325262 0.0011616540513032156 0 -0.00043634033185564926 0.0011328399513206053 0 -0.00042027194779768501 0.0010959763329139885 0 -0.00051328764881331272 0.0011455361437941146 0 -0.00043634033185564926 0.0011328399513206053 0 -0.00047792982098376414 0.0011154086324413127 0 0.00012427496244558296 0.00027860971805654963 0 0.00025301672085048169 0.00047456624918381854 0 0.00025480356296778036 0.00020954908971814026 0 -0.00014087585310695712 0.00059423726728864018 0 -0.00010069385095168129 0.00057047261027101453 0 -0.00013858076449750734 0.00055439223557324593 0 -0.00030228539657505416 0.00083349236807386319 0 6.2876383713003373e-05 0.0003695181985024675 0 -0.00043634033185564926 0.0011328399513206053 0 -0.00047792982098376414 0.0011154086324413127 0 -0.00042027194779768501 0.0010959763329139885 0 -0.00030228539657505416 0.00083349236807386319 0 -0.00022553884021633846 0.00077986672644238481 0 -0.00010069385095168129 0.00057047261027101453 0 -0.00012009243275096111 0.00053695085010469293 0 -0.00013858076449750734 0.00055439223557324593 0 -0.00010069385095168129 0.00057047261027101453 0 -0.00012009243275096111 0.00053695085010469293 0 -9.7768055733283158e-05 0.00052898228733064593 0 0.00012427496244558296 0.00027860971805654963 0 0.00025480356296778036 0.00020954908971814026 0 0.00025601613572022545 -5.3829928285624512e-05 0 6.2876383713003373e-05 0.0003695181985024675 0 0.00035018311169627739 -3.6898309506322703e-06 0 -0.00012009243275096111 0.00053695085010469293 0 -0.00013858076449750734 0.00055439223557324593 0 -0.00013623259672423371 0.00051618205597806432 0 0.00035018311169627739 -3.6898309506322703e-06 0 0.00049583867789775092 -0.00026713117373903275 0 -0.00013623259672423371 0.00051618205597806432 0 -0.00011763508196366386 0.00051580460961935914 0 -0.00012982375486154227 0.0004991869886291694 0 -0.00012009243275096111 0.00053695085010469293 0 -0.00013623259672423371 0.00051618205597806432 0 -0.00011763508196366386 0.00051580460961935914 0 -0.00012009243275096111 0.00053695085010469293 0 -0.00011763508196366386 0.00051580460961935914 0 -9.7768055733283158e-05 0.00052898228733064593 0 0.0009624010310004973 -0.00025571203214319843 0 0.0008000579346836565 -0.00026682572910823271 0 0.00085215467049873904 -0.00044031241260046041 0 0.00065788277395323162 -0.00037017604949335766 0 0.0008000579346836565 -0.00026682572910823271 0 0.00085215467049873904 -0.00044031241260046041 0 0.00067257279496811756 -0.00012349562892927495 0 0.00035018311169627739 -3.6898309506322703e-06 0 0.0009624010310004973 -0.00025571203214319843 0 0.0010221940207423108 -0.00045096554299869202 0 0.00085215467049873904 -0.00044031241260046041 0 0.00061380282538144536 -0.00080503912584364867 0 0.00049583867789775092 -0.00026713117373903275 0 0.0010221940207423108 -0.00045096554299869202 0 0.00085215467049873904 -0.00044031241260046041 0 0.0010201345552104616 -0.00050761383143210954 0 0.00026414058687315419 -0.0010131575896938302 0 0.0002587454480564833 -0.0010972429416092314 0 0.00021392493463969094 -0.0010945206495549576 0 0.00026414058687315419 -0.0010131575896938302 0 0.00030291568993235995 -0.0010984484835449479 0 0.0003379027988771174 -0.0010589684428555534 0 0.00026414058687315419 -0.0010131575896938302 0 0.0002587454480564833 -0.0010972429416092314 0 0.00030291568993235995 -0.0010984484835449479 0 0.0002587454480564833 -0.0010972429416092314 0 0.00030291568993235995 -0.0010984484835449479 0 0.00027460696361663282 -0.0011346278914994778 0 0.00030291568993235995 -0.0010984484835449479 0 0.00029810088749999725 -0.0011285085252029292 0 0.00032573393367753121 -0.0011471488522836006 0 0.00030291568993235995 -0.0010984484835449479 0 0.00027460696361663282 -0.0011346278914994778 0 0.00029810088749999725 -0.0011285085252029292 0 0.00029810088749999725 -0.0011285085252029292 0 0.00030498924974968017 -0.0011478439847289808 0 0.00028497206474704115 -0.0011568177236576625 0 0.00027460696361663282 -0.0011346278914994778 0 0.00029810088749999725 -0.0011285085252029292 0 0.00028497206474704115 -0.0011568177236576625 0 0.00030498924974968017 -0.0011478439847289808 0 0.00028497206474704115 -0.0011568177236576625 0 0.00029575369601794358 -0.0011639373379262036 0 0.00027460696361663282 -0.0011346278914994778 0 0.00028497206474704115 -0.0011568177236576625 0 0.00024993170996528367 -0.0011772633850831023 0 0.00027460696361663282 -0.0011346278914994778 0 0.00023307551650630809 -0.0011457910868701031 0 0.00024993170996528367 -0.0011772633850831023 0 0.0002587454480564833 -0.0010972429416092314 0 0.00023307551650630809 -0.0011457910868701031 0 0.00021392493463969094 -0.0010945206495549576 0 0.0002587454480564833 -0.0010972429416092314 0 0.00027460696361663282 -0.0011346278914994778 0 0.00023307551650630809 -0.0011457910868701031 0 -0.00013914955120510527 0.00052664242436382253 0 -9.3236952815612935e-06 0.00029826828662721542 0 -9.0639496627219733e-05 0.00048579893483906197 0 -6.9266217234547662e-05 0.00045583406104797718 0 -7.3868016863524986e-05 0.00047035575278087457 0 -0.00011763508196366386 0.00051580460961935914 0 -9.0639496627219733e-05 0.00048579893483906197 0 -0.00012982375486154227 0.0004991869886291694 0 -0.00011763508196366386 0.00051580460961935914 0 -9.7768055733283158e-05 0.00052898228733064593 0 -9.0639496627219733e-05 0.00048579893483906197 0 0.00030291568993235995 -0.0010984484835449479 0 0.0003379027988771174 -0.0010589684428555534 0 0.00032573393367753121 -0.0011471488522836006 0 0.00049583867789775092 -0.00026713117373903275 0 6.889407640782433e-05 -0.00058603111288227892 0 -9.3236952815612935e-06 0.00029826828662721542 0 -8.3531633276390702e-05 0.00049304763811971466 0 -6.3898831791473566e-05 0.00044807165601562867 0 -5.5230802383776587e-05 0.00044426643230693848 0 -7.3868016863524986e-05 0.00047035575278087457 0 0.0003093841281033863 -4.5071416632400986e-05 0 0.00028967438678643298 -7.882629511316159e-07 0 0.00030804582279430102 -8.9214596143192021e-06 0 -9.3236952815612935e-06 0.00029826828662721542 0 0.00049583867789775092 -0.00026713117373903275 0 0.00035018311169627739 -3.6898309506322703e-06 0 -9.3236952815612935e-06 0.00029826828662721542 0 6.889407640782433e-05 -0.00058603111288227892 0 8.3229939774517753e-05 -0.00032938232472819683 0 -5.5230802383776587e-05 0.00044426643230693848 0 -6.1978721392601615e-05 0.00048066115310435874 0 -7.3868016863524986e-05 0.00047035575278087457 0 -6.1978721392601615e-05 0.00048066115310435874 0 -7.3868016863524986e-05 0.00047035575278087457 0 -8.589046446264481e-05 0.0004826764976777822 0 0.00029810088749999725 -0.0011285085252029292 0 0.00030498924974968017 -0.0011478439847289808 0 0.00032573393367753121 -0.0011471488522836006 0 0.00024817557333902827 -0.000733721233936019 0 6.889407640782433e-05 -0.00058603111288227892 0 0.00030498924974968017 -0.0011478439847289808 0 0.00030844941744745505 -0.0011506108941801031 0 0.00029575369601794358 -0.0011639373379262036 0 -9.0639496627219733e-05 0.00048579893483906197 0 -7.3868016863524986e-05 0.00047035575278087457 0 -8.589046446264481e-05 0.0004826764976777822 0 0.00027102423629786769 -0.001173131027915036 0 0.00028679828581491194 -0.0011657959033015463 0 0.00024228517317097532 -0.0011285263766516213 0 0.00029862638536848292 -0.0011752394901520765 0 0.00027102423629786769 -0.001173131027915036 0 0.00028679828581491194 -0.0011657959033015463 0 0.00028679828581491194 -0.0011657959033015463 0 0.00029890738704232522 -0.0011714925335621455 0 0.00024228517317097532 -0.0011285263766516213 0 0.00029863769029907905 -0.0011689207058552028 0 0.00029890738704232522 -0.0011714925335621455 0 0.00028587295837094977 -0.0011818098573170848 0 0.00028679828581491194 -0.0011657959033015463 0 0.00029863769029907905 -0.0011689207058552028 0 0.00029890738704232522 -0.0011714925335621455 0 0.00029862638536848292 -0.0011752394901520765 0 0.00028679828581491194 -0.0011657959033015463 0 0.00029863769029907905 -0.0011689207058552028 0 6.889407640782433e-05 -0.00058603111288227892 0 0.00018012940643614549 -0.0011559018680485694 0 0.00030844941744745505 -0.0011506108941801031 0 0.00029863769029907905 -0.0011689207058552028 0 0.00029575369601794358 -0.0011639373379262036 0 -0.00034344157122416827 -7.4072603357099517e-05 0 -0.0003438308471728257 -7.4463869752222075e-05 0 -0.0003455985895161552 -6.2720466162818114e-05 0 -0.00034344157122416827 -7.4072603357099517e-05 0 -0.0003329379712420345 -9.7593591578775088e-05 0 -0.0003438308471728257 -7.4463869752222075e-05 0 -0.00034344157122416827 -7.4072603357099517e-05 0 -0.0003455985895161552 -6.2720466162818114e-05 0 -0.00034512942576332933 -5.853771592186898e-05 0 -3.0616020098651848e-05 -0.00060507920838198941 0 -9.4821359339713139e-06 -0.00073706952821874178 0 0.00023307551650630809 -0.0011457910868701031 0 0.00024993170996528367 -0.0011772633850831023 0 0.00019813118444581809 -0.0012125257349401241 0 0.00024993170996528367 -0.0011772633850831023 0 0.0002570911665111731 -0.0012442326274583844 0 0.00019813118444581809 -0.0012125257349401241 0 0.00028497206474704115 -0.0011568177236576625 0 0.00024993170996528367 -0.0011772633850831023 0 0.00028587295837094977 -0.0011818098573170848 0 0.00024993170996528367 -0.0011772633850831023 0 0.00028587295837094977 -0.0011818098573170848 0 0.0002570911665111731 -0.0012442326274583844 0 0.00028497206474704115 -0.0011568177236576625 0 0.00029575369601794358 -0.0011639373379262036 0 0.00028587295837094977 -0.0011818098573170848 0 0.00029863769029907905 -0.0011689207058552028 0 0.00029575369601794358 -0.0011639373379262036 0 0.00028587295837094977 -0.0011818098573170848 0 0.00029890738704232522 -0.0011714925335621455 0 0.00028587295837094977 -0.0011818098573170848 0 0.0002570911665111731 -0.0012442326274583844 0 -3.0616020098651848e-05 -0.00060507920838198941 0 -3.9585302538055698e-05 -0.00068072142152485063 0 0.0002570911665111731 -0.0012442326274583844 0 0.00019813118444581809 -0.0012125257349401241 0 0.00016371955658726683 -0.0012996187722193382 0 -3.9585302538055698e-05 -0.00068072142152485063 0 -5.7138392364212356e-05 -0.00063376733481463839 0 -0.0003329379712420345 -9.7593591578775088e-05 0 -0.00031594217578691139 -7.6505293621219556e-05 0 -0.00027594224358063271 -0.00010243746898152238 0 -0.00031594217578691139 -7.6505293621219556e-05 0 -0.00031656292528446504 -4.2413238123183554e-05 0 -0.00034243493254496418 -5.431941414075952e-05 0 -0.00031594217578691139 -7.6505293621219556e-05 0 -0.00031656292528446504 -4.2413238123183554e-05 0 -0.0002707751078675336 -5.7044290030856249e-05 0 -0.00037545003100147455 -5.8151383351969268e-05 0 -0.000408993821682641 -3.4361297502140854e-05 0 -0.00031656292528446504 -4.2413238123183554e-05 0 -0.00034243493254496418 -5.431941414075952e-05 0 -0.00037175000875818093 -2.6484720309285568e-05 0 -0.00031594217578691139 -7.6505293621219556e-05 0 -0.00034243493254496418 -5.431941414075952e-05 0 -0.00034330328688586613 -8.4659017476225196e-05 0 -0.0003329379712420345 -9.7593591578775088e-05 0 -0.00034330328688586613 -8.4659017476225196e-05 0 -0.0003438308471728257 -7.4463869752222075e-05 0 -0.0003329379712420345 -9.7593591578775088e-05 0 -0.00031594217578691139 -7.6505293621219556e-05 0 -0.00034330328688586613 -8.4659017476225196e-05 0 -0.00034243493254496418 -5.431941414075952e-05 0 -0.00034330328688586613 -8.4659017476225196e-05 0 -0.00041735225338779015 -6.9312846097191431e-05 0 -0.00034330328688586613 -8.4659017476225196e-05 0 -0.0003438308471728257 -7.4463869752222075e-05 0 -0.00034421380594850418 -6.3640636403883036e-05 0 -0.0003920209786924825 -4.8358046985317458e-05 0 -0.00028618820948351625 -0.00019420701753827886 0 -0.00034421380594850418 -6.3640636403883036e-05 0 -0.0003455985895161552 -6.2720466162818114e-05 0 -0.00034927862834712055 -4.9601942392599526e-05 0 -0.0003438308471728257 -7.4463869752222075e-05 0 -0.00034421380594850418 -6.3640636403883036e-05 0 -0.0003455985895161552 -6.2720466162818114e-05 0 -0.00028618820948351625 -0.00019420701753827886 0 -0.00068490260737100639 0.0009991416039644898 0 -0.00041735225338779015 -6.9312846097191431e-05 0 -0.00044267755092080983 -2.0074998937282225e-05 0 -0.00047934477631878013 -3.921744221675339e-05 0 -0.00041735225338779015 -6.9312846097191431e-05 0 -0.00037175000875818093 -2.6484720309285568e-05 0 -0.00044267755092080983 -2.0074998937282225e-05 0 -0.00034243493254496418 -5.431941414075952e-05 0 -0.00041735225338779015 -6.9312846097191431e-05 0 -0.00037175000875818093 -2.6484720309285568e-05 0 -0.000408993821682641 -3.4361297502140854e-05 0 -0.00043905600112557934 -2.284721065315576e-05 0 -0.00044730134162470367 -4.2075846339301565e-05 0 -0.00044721997040917207 -3.3024115125022119e-05 0 -0.00044267755092080983 -2.0074998937282225e-05 0 -0.00044721997040917207 -3.3024115125022119e-05 0 -0.00044672362421457147 -3.6046783096398179e-05 0 -0.00044811441091032627 -2.8872021432210225e-05 0 -0.00044721997040917207 -3.3024115125022119e-05 0 -0.00044503401080574413 -2.2001309080815221e-05 0 -0.00044811441091032627 -2.8872021432210225e-05 0 -0.00044267755092080983 -2.0074998937282225e-05 0 -0.00045261256982892577 -4.8026732462460727e-06 0 -0.00047934477631878013 -3.921744221675339e-05 0 -0.00044267755092080983 -2.0074998937282225e-05 0 -0.00044503401080574413 -2.2001309080815221e-05 0 -0.00045261256982892577 -4.8026732462460727e-06 0 -0.00044721997040917207 -3.3024115125022119e-05 0 -0.00044267755092080983 -2.0074998937282225e-05 0 -0.00044503401080574413 -2.2001309080815221e-05 0 -0.00044503401080574413 -2.2001309080815221e-05 0 -0.00044398994101673821 -1.9807270560759847e-05 0 -0.00044811441091032627 -2.8872021432210225e-05 0 -0.00031937061371992766 0.00035563517361604128 0 -0.00085567234059147118 0.00097679400756435302 0 -0.0010579299052828582 0.0012752729702567344 0 -0.0010460735435120392 0.0012988363212855668 0 -0.0010779489956233949 0.0012997250847808844 0 -0.00085567234059147118 0.00097679400756435302 0 -0.00078985084823045813 0.00059043407117937211 0 -0.00044398994101673821 -1.9807270560759847e-05 0 -0.00044851283779879109 -2.7467375993115233e-05 0 -0.00044811441091032627 -2.8872021432210225e-05 0 -0.00078985084823045813 0.00059043407117937211 0 -0.00094449765815383274 0.00090718004275218195 0 -0.00044851283779879109 -2.7467375993115233e-05 0 -0.00044811441091032627 -2.8872021432210225e-05 0 -0.00044870323284133085 -3.1278185169913841e-05 0 -0.00044851283779879109 -2.7467375993115233e-05 0 -0.00044870323284133085 -3.1278185169913841e-05 0 -0.00045107431199235002 -2.6317691496096964e-05 0 -0.00044672362421457147 -3.6046783096398179e-05 0 -0.00044811441091032627 -2.8872021432210225e-05 0 -0.00044870323284133085 -3.1278185169913841e-05 0 -0.00044672362421457147 -3.6046783096398179e-05 0 -0.00044870323284133085 -3.1278185169913841e-05 0 -0.00044130178300379788 -3.769927805683114e-05 0 -0.00044672362421457147 -3.6046783096398179e-05 0 -0.00044130178300379788 -3.769927805683114e-05 0 -0.00044331831490688545 -4.4615931932662983e-05 0 -0.00044130178300379788 -3.769927805683114e-05 0 -0.0004241455463063661 -5.6409407441279379e-05 0 -0.00042315212965928325 -3.9409475940045575e-05 0 -0.00044130178300379788 -3.769927805683114e-05 0 -0.00044331831490688545 -4.4615931932662983e-05 0 -0.0004241455463063661 -5.6409407441279379e-05 0 -0.00043418810868822542 -6.5177483812303686e-05 0 -0.00044331831490688545 -4.4615931932662983e-05 0 -0.0004241455463063661 -5.6409407441279379e-05 0 -0.00044730134162470367 -4.2075846339301565e-05 0 -0.00044721997040917207 -3.3024115125022119e-05 0 -0.00044331831490688545 -4.4615931932662983e-05 0 -0.00043418810868822542 -6.5177483812303686e-05 0 -0.00044730134162470367 -4.2075846339301565e-05 0 -0.00044331831490688545 -4.4615931932662983e-05 0 -0.00044721997040917207 -3.3024115125022119e-05 0 -0.00044672362421457147 -3.6046783096398179e-05 0 -0.00044331831490688545 -4.4615931932662983e-05 0 -0.0010899324910126327 0.0021214949503954388 0 -0.0010983336001043509 0.0021225933414622433 0 -0.0010740035172645478 0.0021160181383902805 0 -0.0010899324910126327 0.0021214949503954388 0 -0.0010740035172645478 0.0021160181383902805 0 -0.0010751168814916296 0.0020946596556919847 0 -0.0010899324910126327 0.0021214949503954388 0 -0.0011043984001799601 0.0021336052280592076 0 -0.0010983336001043509 0.0021225933414622433 0 -0.0011241667933571005 0.0017843596635700629 0 -0.0010578563303598712 0.0018878805632075674 0 -0.0012791788775821144 0.0020506638664663968 0 -0.0010965986656408205 0.0020949868729140783 0 -0.0011262979266779905 0.0020098866491534495 0 -0.0011241667933571005 0.0017843596635700629 0 -0.0011125997534902668 0.0021534194419129331 0 -0.0011043984001799601 0.0021336052280592076 0 -0.0010983336001043509 0.0021225933414622433 0 -0.0010965986656408205 0.0020949868729140783 0 -0.0011241667933571005 0.0017843596635700629 0 -0.0011439863766807582 0.0017895490508664574 0 -0.0011510154674553017 0.001318065304034432 0 -0.0011108686578832278 0.0013181904274440018 0 -0.0011047261481175789 0.0012955984141789082 0 -0.0010498337639709286 0.001754347143937912 0 -0.0011486018657259759 0.0017181924715817397 0 -0.001078286449586148 0.0016816196576389629 0 -0.0011241667933571005 0.0017843596635700629 0 -0.0011249215318967162 0.0014960689838122913 0 -0.0011108686578832278 0.0013181904274440018 0 -0.0011047261481175789 0.0012955984141789082 0 -0.0010779489956233949 0.0012997250847808844 0 -0.0010579299052828582 0.0012752729702567344 0 -0.0011047261481175789 0.0012955984141789082 0 -0.0010779489956233949 0.0012997250847808844 0 -0.0010460735435120392 0.0012988363212855668 0 -0.0010779489956233949 0.0012997250847808844 0 -0.0010710951250148299 0.0013185822378761357 0 -0.0011249215318967162 0.0014960689838122913 0 -0.0011985075411304774 0.0015418822221357658 0 -0.0011108686578832278 0.0013181904274440018 0 -0.0010779489956233949 0.0012997250847808844 0 -0.0010710951250148299 0.0013185822378761357 0 -0.00085567234059147118 0.00097679400756435302 0 -0.0011439863766807582 0.0017895490508664574 0 -0.0010335467346959549 0.0020966925705528192 0 -0.0010740035172645478 0.0021160181383902805 0 -0.001059032425138819 0.0020945361729784407 0 -0.0010335467346959549 0.0020966925705528192 0 -0.001059032425138819 0.0020945361729784407 0 -0.001049554893582861 0.0020705444042801919 0 -0.0010740035172645478 0.0021160181383902805 0 -0.001059032425138819 0.0020945361729784407 0 -0.0010751168814916296 0.0020946596556919847 0 -0.001059032425138819 0.0020945361729784407 0 -0.0010751168814916296 0.0020946596556919847 0 -0.001049554893582861 0.0020705444042801919 0 -0.0011674513670506328 0.0021762845855849058 0 -0.00068490260737100639 0.0009991416039644898 0 -0.0010410169001835634 0.0021175236136856401 0 -0.00099452854520132002 0.0020957697162181836 0 -0.0010496770030022609 0.0020841235545602955 0 -0.00085567234059147118 0.00097679400756435302 0 -0.00068490260737100639 0.0009991416039644898 0 -0.00068490260737100639 0.0009991416039644898 0 -0.00069849377383520924 0.001073464838227195 0 -0.0003455985895161552 -6.2720466162818114e-05 0 -0.00034927862834712055 -4.9601942392599526e-05 0 -0.00034647891844819586 -5.2701495701793722e-05 0 -0.00099452854520132002 0.0020957697162181836 0 -0.0010496770030022609 0.0020841235545602955 0 -0.0010208201590649357 0.0020495601405259049 0 -0.0010613331017582618 0.0020646197403647814 0 -0.0010496770030022609 0.0020841235545602955 0 -0.0010208201590649357 0.0020495601405259049 0 -0.0010496770030022609 0.0020841235545602955 0 -0.0010757531604863525 0.0021085766658335155 0 -0.0010836871668534454 0.0020909530043659824 0 -0.0010613331017582618 0.0020646197403647814 0 -0.0010496770030022609 0.0020841235545602955 0 -0.0010836871668534454 0.0020909530043659824 0 -0.0010613331017582618 0.0020646197403647814 0 -0.0010836871668534454 0.0020909530043659824 0 -0.0010886316254688597 0.0020622856346273564 0 -0.0010410169001835634 0.0021175236136856401 0 -0.0010496770030022609 0.0020841235545602955 0 -0.0010757531604863525 0.0021085766658335155 0 -0.0010417894210425532 0.0021021567088656012 0 -0.0011674513670506328 0.0021762845855849058 0 -0.0010899324910126327 0.0021214949503954388 0 -0.0010410169001835634 0.0021175236136856401 0 -0.0010757531604863525 0.0021085766658335155 0 -0.0010899324910126327 0.0021214949503954388 0 -0.0011043984001799601 0.0021336052280592076 0 -0.0010972606581680729 0.0021273603022993626 0 -0.0010899324910126327 0.0021214949503954388 0 -0.0010757531604863525 0.0021085766658335155 0 -0.0010972606581680729 0.0021273603022993626 0 -0.0010757531604863525 0.0021085766658335155 0 -0.0010972606581680729 0.0021273603022993626 0 -0.0010836871668534454 0.0020909530043659824 0 -0.0010836871668534454 0.0020909530043659824 0 -0.0010886316254688597 0.0020622856346273564 0 -0.0011165460973659265 0.0021074234513979205 0 -0.0010972606581680729 0.0021273603022993626 0 -0.0010836871668534454 0.0020909530043659824 0 -0.0011165460973659265 0.0021074234513979205 0 -0.0011097919001356329 0.0020458539304208509 0 -0.0010886316254688597 0.0020622856346273564 0 -0.0011165460973659265 0.0021074234513979205 0 -0.0013343785928377839 0.002678191563198718 0 -0.0013007245710535624 0.0027927595345487344 0 -0.0012454608240398909 0.0026935331304561477 0 -0.0011097919001356329 0.0020458539304208509 0 -0.001084581624865046 0.0020293079158054147 0 -0.0010886316254688597 0.0020622856346273564 0 -0.0010613331017582618 0.0020646197403647814 0 -0.0010886316254688597 0.0020622856346273564 0 -0.0010636119479996427 0.0020346380275888085 0 -0.0010613331017582618 0.0020646197403647814 0 -0.0010636119479996427 0.0020346380275888085 0 -0.0010208201590649357 0.0020495601405259049 0 -0.001084581624865046 0.0020293079158054147 0 -0.0010636119479996427 0.0020346380275888085 0 -0.0010744373943401648 0.0020136555163456338 0 -0.001084581624865046 0.0020293079158054147 0 -0.0010886316254688597 0.0020622856346273564 0 -0.0010636119479996427 0.0020346380275888085 0 -0.0010744373943401648 0.0020136555163456338 0 -0.0010436595929890504 0.0019962009405086463 0 -0.0010657195698198438 0.001992633031007736 0 -0.0010636119479996427 0.0020346380275888085 0 -0.0010744373943401648 0.0020136555163456338 0 -0.0010436595929890504 0.0019962009405086463 0 -0.00047822718214146631 0.0010358821892473486 0 -0.00051337913881822049 0.00097118737837671493 0 -0.00066033564820120534 0.00099201076824022381 0 -0.0004271299136705909 0.00054432233436557578 0 -0.00085427296574855176 0.0015026726223106468 0 -0.0004271299136705909 0.00054432233436557578 0 -0.00027907608381685722 0.00057194375407814714 0 -0.00027907608381685722 0.00057194375407814714 0 -0.00085427296574855176 0.0015026726223106468 0 -0.00085427296574855176 0.0015026726223106468 0 -0.0010999399529371511 0.0017504553872574296 0 -0.0010744373943401648 0.0020136555163456338 0 -0.0010657195698198438 0.001992633031007736 0 -0.0010875082640308758 0.0019976788406123294 0 -0.0010604082972299263 0.0019919643349602411 0 -0.0010879503624040105 0.001988818121805062 0 -0.0010875082640308758 0.0019976788406123294 0 -0.00085427296574855176 0.0015026726223106468 0 -0.0011477691512941995 0.0026890932392313331 0 -0.0011097919001356329 0.0020458539304208509 0 -0.001084581624865046 0.0020293079158054147 0 -0.0010875082640308758 0.0019976788406123294 0 -0.0011097919001356329 0.0020458539304208509 0 -0.0010879503624040105 0.001988818121805062 0 -0.0010875082640308758 0.0019976788406123294 0 -0.0014625186522479786 0.002946583216693572 0 -0.0013007245710535624 0.0027927595345487344 0 -0.0011924708322994502 0.0030264664529637887 0 -0.001222261739530293 0.0023296585680156975 0 -0.0011477691512941995 0.0026890932392313331 0 -0.0013343785928377839 0.002678191563198718 0 -0.0014625186522479786 0.002946583216693572 0 -0.0013007245710535624 0.0027927595345487344 0 -0.001084581624865046 0.0020293079158054147 0 -0.0010744373943401648 0.0020136555163456338 0 -0.0010875082640308758 0.0019976788406123294 0 -0.0003455985895161552 -6.2720466162818114e-05 0 -0.00034647891844819586 -5.2701495701793722e-05 0 -0.00034512942576332933 -5.853771592186898e-05 0 -0.0010636119479996427 0.0020346380275888085 0 -0.0010436595929890504 0.0019962009405086463 0 -0.0010208201590649357 0.0020495601405259049 0 -0.0004271299136705909 0.00054432233436557578 0 -0.00069849377383520924 0.001073464838227195 0 -0.0003430993353164025 -4.5484918284033273e-05 0 -0.00034647891844819586 -5.2701495701793722e-05 0 -0.00034512942576332933 -5.853771592186898e-05 0 0.00013924744844609165 -0.0011147316986549946 0 0.00024228517317097532 -0.0011285263766516213 0 0.00021172898038654278 -0.0011569050990625138 0 -0.00027907608381685722 0.00057194375407814714 0 0.0001425087220514471 -0.00038699304838220484 0 -0.0004271299136705909 0.00054432233436557578 0 -9.4821359339713139e-06 -0.00073706952821874178 0 0.00013924744844609165 -0.0011147316986549946 0 0.00013195589472251795 -0.0011249649093017704 0 0.00021172898038654278 -0.0011569050990625138 0 8.3229939774517753e-05 -0.00032938232472819683 0 0.0001425087220514471 -0.00038699304838220484 0 0.00027102423629786769 -0.001173131027915036 0 0.00024228517317097532 -0.0011285263766516213 0 0.00021172898038654278 -0.0011569050990625138 0 -9.0639496627219733e-05 0.00048579893483906197 0 -7.8107182216768681e-05 0.00048307133014485851 0 -7.4352243481670043e-05 0.00050090369126491177 0 -9.0639496627219733e-05 0.00048579893483906197 0 -8.589046446264481e-05 0.0004826764976777822 0 -7.8107182216768681e-05 0.00048307133014485851 0 -6.284111955733787e-05 0.00048840795583221931 0 -7.8107182216768681e-05 0.00048307133014485851 0 -6.6532602068476609e-05 0.00049957031265857326 0 -7.8107182216768681e-05 0.00048307133014485851 0 -6.6532602068476609e-05 0.00049957031265857326 0 -7.4352243481670043e-05 0.00050090369126491177 0 -6.0116626031414139e-05 0.00052166332694242735 0 -6.6532602068476609e-05 0.00049957031265857326 0 -7.4352243481670043e-05 0.00050090369126491177 0 -6.0116626031414139e-05 0.00052166332694242735 0 -7.7931847852901856e-05 0.00051754965193687012 0 -7.4352243481670043e-05 0.00050090369126491177 0 -7.7931847852901856e-05 0.00051754965193687012 0 -9.7768055733283158e-05 0.00052898228733064593 0 -9.0639496627219733e-05 0.00048579893483906197 0 -7.7931847852901856e-05 0.00051754965193687012 0 -9.0639496627219733e-05 0.00048579893483906197 0 -7.4352243481670043e-05 0.00050090369126491177 0 -0.0009352233022246985 0.0043328341122133669 0 -0.00092188618037435241 0.0045083935810435192 0 -0.00066053908070800758 0.0042439518223040601 0 -0.0011477691512941995 0.0026890932392313331 0 -0.00082742834999198641 0.0040916930545753369 0 -0.00089989120502198116 0.0045377781603991385 0 -0.00082742834999198641 0.0040916930545753369 0 -0.00098530937862125888 0.0041550303474536506 0 -0.0009352233022246985 0.0043328341122133669 0 -0.00066053908070800758 0.0042439518223040601 0 -0.0009352233022246985 0.0043328341122133669 0 -0.0010838114386739514 0.0044062886139238028 0 -0.00092188618037435241 0.0045083935810435192 0 -0.00098530937862125888 0.0041550303474536506 0 -0.0009352233022246985 0.0043328341122133669 0 -0.0010838114386739514 0.0044062886139238028 0 -0.00072307952150252243 0.0017272090386172029 0 -0.00065513039513463885 0.0017214100070417208 0 -0.00064243410393061064 0.0018836843373024905 0 -0.0011477691512941995 0.0026890932392313331 0 -0.00053125499034447732 0.0021639595983135485 0 -0.00027907608381685722 0.00057194375407814714 0 -0.00053125499034447732 0.0021639595983135485 0 -6.284111955733787e-05 0.00048840795583221931 0 -6.6532602068476609e-05 0.00049957031265857326 0 -5.6286547319975436e-05 0.00050750235288523553 0 -0.00065513039513463885 0.0017214100070417208 0 -0.00057806891448235209 0.0017452813684403509 0 -0.00064243410393061064 0.0018836843373024905 0 -0.0002326574162103928 0.00080035038070282269 0 -0.00053125499034447732 0.0021639595983135485 0 -0.0005440381056454524 0.0015674679344768289 0 -0.00056535069390126593 0.001560345425518483 0 -0.00055033663317900555 0.0014765982189077073 0 -6.0116626031414139e-05 0.00052166332694242735 0 -6.6532602068476609e-05 0.00049957031265857326 0 -5.6286547319975436e-05 0.00050750235288523553 0 -0.00086749594227655195 0.0047513353504871391 0 -0.00092188618037435241 0.0045083935810435192 0 -0.00076997137125025866 0.0045420068638137622 0 -0.00086749594227655195 0.0047513353504871391 0 -0.0010838114386739514 0.0044062886139238028 0 -0.00092188618037435241 0.0045083935810435192 0 -0.00066584224093234291 0.0033204693047338991 0 -0.00053125499034447732 0.0021639595983135485 0 -0.00043933604811899845 0.0015745191842831084 0 -0.0005440381056454524 0.0015674679344768289 0 -0.00055033663317900555 0.0014765982189077073 0 -0.00086749594227655195 0.0047513353504871391 0 -0.00076997137125025866 0.0045420068638137622 0 -0.00065046774390110896 0.0046873017389792099 0 -0.00076997137125025866 0.0045420068638137622 0 -0.00062567194463065739 0.0044861148868352643 0 -0.00065046774390110896 0.0046873017389792099 0 -0.00076997137125025866 0.0045420068638137622 0 -0.00075485996438172344 0.0043571531595084124 0 -0.00062567194463065739 0.0044861148868352643 0 -0.00092188618037435241 0.0045083935810435192 0 -0.00076997137125025866 0.0045420068638137622 0 -0.00075485996438172344 0.0043571531595084124 0 -0.00082136059371929642 0.0043736495368522166 0 -0.00067641077673411291 0.0044171865714740834 0 -0.00068104004727478776 0.0043382113135095853 0 -0.00082742834999198641 0.0040916930545753369 0 -0.00062460596452309635 0.0045960626373027268 0 -0.00075485996438172344 0.0043571531595084124 0 -0.00062567194463065739 0.0044861148868352643 0 -0.00044275900941953637 0.0044346725085783875 0 -0.00060009631336114123 0.004654817730820539 0 -0.00062460596452309635 0.0045960626373027268 0 -0.00062567194463065739 0.0044861148868352643 0 -0.00065046774390110896 0.0046873017389792099 0 -0.00044275900941953637 0.0044346725085783875 0 -0.00052880067043441269 0.0047507330388349657 0 -0.00065046774390110896 0.0046873017389792099 0 -0.00055971480554020236 0.0046542162699476598 0 -0.00052880067043441269 0.0047507330388349657 0 -0.00051303624841041574 0.0047078117980646535 0 -0.00055971480554020236 0.0046542162699476598 0 -0.00052880067043441269 0.0047507330388349657 0 -0.00051303624841041574 0.0047078117980646535 0 -0.00048091277469915379 0.0047495010306069342 0 -0.00048151731909040258 0.0052786303204133932 0 -0.0004437124481105186 0.0047769209611811395 0 -3.761179609405695e-06 0.0053312771863287351 0 -0.00043068527903787992 0.0057659695139246269 0 -0.00045559093382555027 0.0047399141042169645 0 -0.00043532635627283858 0.0048142803546034748 0 -0.00048091277469915379 0.0047495010306069342 0 -0.00045559093382555027 0.0047399141042169645 0 -0.00051303624841041574 0.0047078117980646535 0 -0.00047484790640333545 0.0047308478057466784 0 -0.00044749716605783202 0.0047124094081724167 0 -0.00048091277469915379 0.0047495010306069342 0 -0.00047484790640333545 0.0047308478057466784 0 -0.00045559093382555027 0.0047399141042169645 0 -0.00051303624841041574 0.0047078117980646535 0 -0.00048091277469915379 0.0047495010306069342 0 -0.00047484790640333545 0.0047308478057466784 0 -0.00047484790640333545 0.0047308478057466784 0 -0.00045559093382555027 0.0047399141042169645 0 -0.00044749716605783202 0.0047124094081724167 0 -0.00045559093382555027 0.0047399141042169645 0 -0.00032532950897113565 0.0047073940004524802 0 -0.00012099293231295627 0.0048479142430172331 0 -0.00045559093382555027 0.0047399141042169645 0 -0.00044749716605783202 0.0047124094081724167 0 -0.00032532950897113565 0.0047073940004524802 0 -0.00044749716605783202 0.0047124094081724167 0 -0.00026521840662070646 0.0045205644486440563 0 -0.0011274240039425331 0.0044306952177669123 0 -0.00019023474859135853 0.0057715602230260041 0 -0.0003756674065696383 0.0056592538523775075 0 -0.00059023549426006142 0.0057073605647073623 0 -0.00026380585341270529 0.0051743922368230342 0 -0.00072196457073581556 0.0049689309655731352 0 -0.00032532950897113565 0.0047073940004524802 0 -0.00026521840662070646 0.0045205644486440563 0 -0.00012099293231295627 0.0048479142430172331 0 -0.00044749716605783202 0.0047124094081724167 0 -0.00032532950897113565 0.0047073940004524802 0 -0.00026521840662070646 0.0045205644486440563 0 -0.00019023474859135853 0.0057715602230260041 0 -0.0003756674065696383 0.0056592538523775075 0 -0.00029748948817918394 0.0056280773181839024 0 -0.00019023474859135853 0.0057715602230260041 0 -0.00029748948817918394 0.0056280773181839024 0 -0.0001833038179360893 0.0056462251138686137 0 -0.00051303624841041574 0.0047078117980646535 0 -0.00044749716605783202 0.0047124094081724167 0 -0.00055971480554020236 0.0046542162699476598 0 -0.00044749716605783202 0.0047124094081724167 0 -0.0012044621672382115 0.0045219590990157824 0 -0.0011274240039425331 0.0044306952177669123 0 -0.00057814897859246076 0.0046879250634793814 0 -0.00062460596452309635 0.0045960626373027268 0 -0.00062460596452309635 0.0045960626373027268 0 -0.00072196457073581556 0.0049689309655731352 0 -0.00072196457073581556 0.0049689309655731352 0 -0.00052700239081775017 0.0049411073066731297 0 -0.0003756674065696383 0.0056592538523775075 0 -0.00059023549426006142 0.0057073605647073623 0 -0.00042985358985690204 0.0055259237902668939 0 -0.00067641077673411291 0.0044171865714740834 0 -0.00066306812678041185 0.0044015452748832774 0 -0.00068104004727478776 0.0043382113135095853 0 -0.00068104004727478776 0.0043382113135095853 0 -0.00062349241757332565 0.004258612459723126 0 -0.0007155603571684314 0.0042656805572904299 0 -0.00066306812678041185 0.0044015452748832774 0 -0.00068104004727478776 0.0043382113135095853 0 -0.00060429385471325817 0.0043332356982454766 0 -0.00068104004727478776 0.0043382113135095853 0 -0.00060429385471325817 0.0043332356982454766 0 -0.00062349241757332565 0.004258612459723126 0 -0.00060429385471325817 0.0043332356982454766 0 -0.00053107959917556772 0.0042512835538154325 0 -0.00062349241757332565 0.004258612459723126 0 -0.00029748948817918394 0.0056280773181839024 0 -0.0001833038179360893 0.0056462251138686137 0 -0.00021648159316925525 0.0055292859508588206 0 -0.00029748948817918394 0.0056280773181839024 0 -0.00042985358985690204 0.0055259237902668939 0 -0.00021648159316925525 0.0055292859508588206 0 -0.0003756674065696383 0.0056592538523775075 0 -0.00029748948817918394 0.0056280773181839024 0 -0.00042985358985690204 0.0055259237902668939 0 -0.00052700239081775017 0.0049411073066731297 0 -0.00036943117551371644 0.0046888248935174504 0 -0.00021648159316925525 0.0055292859508588206 0 -0.000233457535693664 0.0052961492676607816 0 -9.9882473640402388e-05 0.0054523805980263504 0 -0.00042985358985690204 0.0055259237902668939 0 -0.00021648159316925525 0.0055292859508588206 0 -0.000233457535693664 0.0052961492676607816 0 -0.00055828180775821252 0.0037175901597922925 0 -0.00062137839389396596 0.0036498902270423058 0 -0.00069801215753915319 0.0037296357296271784 0 -0.00036943117551371644 0.0046888248935174504 0 -0.00066956638600974871 0.0039955036907461904 0 -0.00055828180775821252 0.0037175901597922925 0 -0.00062137839389396596 0.0036498902270423058 0 -0.00046092294035394819 0.0036049967708739507 0 -0.00069801215753915319 0.0037296357296271784 0 -0.00074105244541677418 0.0036478297050668218 0 -0.00083459474116303256 0.0037420529175700508 0 -0.00066956638600974871 0.0039955036907461904 0 -0.00089217090238707605 0.003309913168110995 0 -0.00062137839389396596 0.0036498902270423058 0 -0.00069801215753915319 0.0037296357296271784 0 -0.00074105244541677418 0.0036478297050668218 0 -0.00098657341474192453 0.0027356994109995181 0 -0.0011534021044982106 0.0026818815222367193 0 -0.0010307404724626806 0.0025330651638141022 0 -0.00086097300456770907 0.0025948636107624781 0 -0.00098657341474192453 0.0027356994109995181 0 -0.0010307404724626806 0.0025330651638141022 0 -0.00081975936051466953 0.0031339612277007712 0 -0.00089217090238707605 0.003309913168110995 0 -0.0013007245710535624 0.0027927595345487344 0 -0.00098657341474192453 0.0027356994109995181 0 -0.0011534021044982106 0.0026818815222367193 0 -0.0013343785928377839 0.002678191563198718 0 -0.0012454608240398909 0.0026935331304561477 0 -0.0012202120698161308 0.0024383306549159416 0 -0.0012454608240398909 0.0026935331304561477 0 -0.0011534021044982106 0.0026818815222367193 0 -0.0012202120698161308 0.0024383306549159416 0 -0.0013007245710535624 0.0027927595345487344 0 -0.0012454608240398909 0.0026935331304561477 0 -0.0011534021044982106 0.0026818815222367193 0 -0.0013007245710535624 0.0027927595345487344 0 -0.0011924708322994502 0.0030264664529637887 0 -0.00092607031449865995 0.0027570095095855985 0 -0.0012996284011024528 0.0026544185047256592 0 -0.00089217090238707605 0.003309913168110995 0 -0.00082136059371929642 0.0043736495368522166 0 -0.00068104004727478776 0.0043382113135095853 0 -0.0007155603571684314 0.0042656805572904299 0 -0.00082742834999198641 0.0040916930545753369 0 -0.00089217090238707605 0.003309913168110995 0 0.00054586907127299254 0.008184057899310938 0 0.00047879389904234961 0.0082297155661564779 0 0.00045577692109536938 0.008084707092446566 0 0.00082459618720555198 0.0066134700881353252 0 0.00053103962762433832 0.0068971441175393567 0 0.00054586907127299254 0.008184057899310938 0 0.00050645874413426538 0.0082350449212215161 0 0.00047879389904234961 0.0082297155661564779 0 0.00054586907127299254 0.008184057899310938 0 0.00050645874413426538 0.0082350449212215161 0 0.00055891695213644132 0.0082369861224989935 0 0.00050645874413426538 0.0082350449212215161 0 0.00055891695213644132 0.0082369861224989935 0 0.00057738651144248671 0.0083411211190348306 0 0.00050645874413426538 0.0082350449212215161 0 0.00048084629065136132 0.0082290632490175705 0 0.00057738651144248671 0.0083411211190348306 0 0.00074516286072042685 0.006819150360245935 0 0.00082459618720555198 0.0066134700881353252 0 0.0010388347167459514 0.0053341809655253116 0 0.0016670204857422543 0.0047958687255295436 0 0.0007043353665078532 0.0046546722145794856 0 0.00082459618720555198 0.0066134700881353252 0 0.00052157811544796409 0.0050958864540982269 0 0.00062939233639650266 0.0059006120659552989 0 0.00021709496322368379 0.0058368490018660011 0 0.00060131593403890931 0.0055865405560708986 0 0.00021709496322368379 0.0058368490018660011 0 0.00030937977929613379 0.005529347439365187 0 0.00060131593403890931 0.0055865405560708986 0 0.00021709496322368379 0.0058368490018660011 0 7.9322990699584649e-05 0.0056440697935439856 0 0.0001617404094159727 0.0055656648124275893 0 0.00021709496322368379 0.0058368490018660011 0 7.9322990699584649e-05 0.0056440697935439856 0 -7.2610485765255099e-05 0.0056538237034954586 0 0.00021709496322368379 0.0058368490018660011 0 0.0001617404094159727 0.0055656648124275893 0 0.00030937977929613379 0.005529347439365187 0 0.0010388347167459514 0.0053341809655253116 0 0.0007043353665078532 0.0046546722145794856 0 0.00030283148252063064 0.0049305440643422956 0 -3.761179609405695e-06 0.0053312771863287351 0 0.00030283148252063064 0.0049305440643422956 0 -0.00012099293231295627 0.0048479142430172331 0 -0.00026521840662070646 0.0045205644486440563 0 0.00030283148252063064 0.0049305440643422956 0 -0.00012099293231295627 0.0048479142430172331 0 -3.761179609405695e-06 0.0053312771863287351 0 -0.00045559093382555027 0.0047399141042169645 0 -0.00012099293231295627 0.0048479142430172331 0 -0.00026380585341270529 0.0051743922368230342 0 0.00052157811544796409 0.0050958864540982269 0 -0.00019023474859135853 0.0057715602230260041 0 0.00021709496322368379 0.0058368490018660011 0 -7.2610485765255099e-05 0.0056538237034954586 0 -0.00026521840662070646 0.0045205644486440563 0 0.0007043353665078532 0.0046546722145794856 0 0.00030283148252063064 0.0049305440643422956 0 -0.00019023474859135853 0.0057715602230260041 0 -0.0001833038179360893 0.0056462251138686137 0 -7.2610485765255099e-05 0.0056538237034954586 0 -0.0001833038179360893 0.0056462251138686137 0 -0.00021648159316925525 0.0055292859508588206 0 -9.74945384992266e-05 0.0055479128606467339 0 -0.00021648159316925525 0.0055292859508588206 0 -9.74945384992266e-05 0.0055479128606467339 0 -9.9882473640402388e-05 0.0054523805980263504 0 -9.74945384992266e-05 0.0055479128606467339 0 1.1401540874893421e-05 0.0055206266504049129 0 -9.9882473640402388e-05 0.0054523805980263504 0 -0.0001833038179360893 0.0056462251138686137 0 -7.2610485765255099e-05 0.0056538237034954586 0 -9.74945384992266e-05 0.0055479128606467339 0 -7.2610485765255099e-05 0.0056538237034954586 0 -9.74945384992266e-05 0.0055479128606467339 0 1.1401540874893421e-05 0.0055206266504049129 0 7.9322990699584649e-05 0.0056440697935439856 0 -7.2610485765255099e-05 0.0056538237034954586 0 1.1401540874893421e-05 0.0055206266504049129 0 1.1401540874893421e-05 0.0055206266504049129 0 -2.4809661307320027e-05 0.0054071514904655317 0 -9.9882473640402388e-05 0.0054523805980263504 0 1.1401540874893421e-05 0.0055206266504049129 0 -2.4809661307320027e-05 0.0054071514904655317 0 8.4651924615538701e-05 0.005450805734447243 0 -2.4809661307320027e-05 0.0054071514904655317 0 7.4726587694278729e-05 0.0053585964682415794 0 8.4651924615538701e-05 0.005450805734447243 0 -0.000233457535693664 0.0052961492676607816 0 -2.4809661307320027e-05 0.0054071514904655317 0 -9.9882473640402388e-05 0.0054523805980263504 0 -0.000233457535693664 0.0052961492676607816 0 -2.4809661307320027e-05 0.0054071514904655317 0 7.4726587694278729e-05 0.0053585964682415794 0 -0.000233457535693664 0.0052961492676607816 0 7.4726587694278729e-05 0.0053585964682415794 0 0.00021898043206868906 0.0052403500956153051 0 -0.0003022641888217357 0.0052885639238973818 0 0.00021898043206868906 0.0052403500956153051 0 -0.00010076912602556926 0.0050586070713453998 0 -0.00036943117551371644 0.0046888248935174504 0 0.00023286439034093316 0.0054125168408884162 0 -0.00036943117551371644 0.0046888248935174504 0 -0.00038909332262359193 0.0041790016755171256 0 7.4726587694278729e-05 0.0053585964682415794 0 0.00021898043206868906 0.0052403500956153051 0 0.00021567090134491418 0.0053368868837651998 0 7.4726587694278729e-05 0.0053585964682415794 0 0.00021567090134491418 0.0053368868837651998 0 0.00019132581530182524 0.0054234516077192093 0 0.00025523162471498268 0.0051702499409362447 0 0.00021898043206868906 0.0052403500956153051 0 -0.00010076912602556926 0.0050586070713453998 0 0.00025523162471498268 0.0051702499409362447 0 0.00021898043206868906 0.0052403500956153051 0 0.00033944741913301415 0.0053669083948025128 0 0.00021567090134491418 0.0053368868837651998 0 0.00019132581530182524 0.0054234516077192093 0 0.00033944741913301415 0.0053669083948025128 0 0.00021898043206868906 0.0052403500956153051 0 0.00021567090134491418 0.0053368868837651998 0 0.00033944741913301415 0.0053669083948025128 0 0.00019132581530182524 0.0054234516077192093 0 0.00030937977929613379 0.005529347439365187 0 0.00033944741913301415 0.0053669083948025128 0 0.00019132581530182524 0.0054234516077192093 0 0.0001617404094159727 0.0055656648124275893 0 0.00030937977929613379 0.005529347439365187 0 0.00019132581530182524 0.0054234516077192093 0 8.4651924615538701e-05 0.005450805734447243 0 0.0001617404094159727 0.0055656648124275893 0 7.4726587694278729e-05 0.0053585964682415794 0 0.00019132581530182524 0.0054234516077192093 0 8.4651924615538701e-05 0.005450805734447243 0 1.1401540874893421e-05 0.0055206266504049129 0 8.4651924615538701e-05 0.005450805734447243 0 0.0001617404094159727 0.0055656648124275893 0 7.9322990699584649e-05 0.0056440697935439856 0 1.1401540874893421e-05 0.0055206266504049129 0 0.0001617404094159727 0.0055656648124275893 0 0.00030937977929613379 0.005529347439365187 0 0.00033944741913301415 0.0053669083948025128 0 0.00060131593403890931 0.0055865405560708986 0 0.00033944741913301415 0.0053669083948025128 0 0.00057522856483515304 0.0052732082115329532 0 0.00060131593403890931 0.0055865405560708986 0 0.00025523162471498268 0.0051702499409362447 0 0.00033944741913301415 0.0053669083948025128 0 0.00057522856483515304 0.0052732082115329532 0 8.0412571566942581e-05 0.0052547269946791701 0 0.00027458652881927369 0.0067138806738118043 0 0.00027458652881927369 0.0067138806738118043 0 0.00030246500576417578 0.008222742581200251 0 0.00027458652881927369 0.0067138806738118043 0 0.00053103962762433832 0.0068971441175393567 0 0.00043885808244489014 0.0079267841074183009 0 0.00055136554375717097 0.0080735903379844775 0 0.00062893926803540552 0.0079986873437700914 0 0.00043885808244489014 0.0079267841074183009 0 0.00045577692109536938 0.008084707092446566 0 0.00055136554375717097 0.0080735903379844775 0 0.00054586907127299254 0.008184057899310938 0 0.00045577692109536938 0.008084707092446566 0 0.00055136554375717097 0.0080735903379844775 0 -0.0015351677765150819 0.0090381888690917334 0 -0.00092563164663222444 0.0091207471689150801 0 -0.001110241125482532 0.0086250761810030552 0 -0.0015351677765150819 0.0090381888690917334 0 -0.0016549121347539191 0.0083904656718600482 0 -0.001110241125482532 0.0086250761810030552 0 -0.00025636651660408525 0.0062611751793606825 0 -0.0005859623550779643 0.0087566362124359143 0 0.00027458652881927369 0.0067138806738118043 0 -0.00025636651660408525 0.0062611751793606825 0 -0.00021739898272991101 0.0080523553466716469 0 -0.00023435326846362123 0.0078826445834529607 0 -4.3286035848009001e-05 0.0079350482139327362 0 -0.00014585033307979754 0.0053746089569458632 0 0.00033034634649536666 0.0055177637003124107 0 0.00028675475156797215 0.0050116706118967565 0 -0.00014585033307979754 0.0053746089569458632 0 0.00028675475156797215 0.0050116706118967565 0 -0.00033024935326614481 0.0048958698562744183 0 -0.00025636651660408525 0.0062611751793606825 0 -0.00099996512325231266 0.0052989744361127819 0 -0.00025636651660408525 0.0062611751793606825 0 -0.00059214364052113391 0.0030908567467873324 0 -0.00041851227353993675 0.0027471759628571952 0 -0.00102286780981336 0.0030690075656164433 0 -0.00034794440360072564 0.0022963366063120131 0 -4.7936402452914944e-05 0.0032307110526055977 0 -0.00041851227353993675 0.0027471759628571952 0 -0.00020876800138988979 0.0022620116500413094 0 -4.7936402452914944e-05 0.0032307110526055977 0 -0.00041851227353993675 0.0027471759628571952 0 -0.00102286780981336 0.0030690075656164433 0 -0.00049956110755582377 0.0023360636644459039 0 -0.00050353072774666694 0.0023869687750511671 0 -0.00034794440360072564 0.0022963366063120131 0 -0.00059214364052113391 0.0030908567467873324 0 -0.00039330668475326668 0.0021969382522401579 0 -0.00049956110755582377 0.0023360636644459039 0 -0.0005588638079370552 0.0023159536584807278 0 -0.0005435798205099654 0.0022740800447134807 0 -0.00049956110755582377 0.0023360636644459039 0 -0.0005142327395424274 0.0023867333974190376 0 -0.00055714101250193312 0.0023543760197436087 0 -0.00049956110755582377 0.0023360636644459039 0 -0.0005142327395424274 0.0023867333974190376 0 -0.00050353072774666694 0.0023869687750511671 0 -0.00059221016121274186 0.0030636398661315549 0 -0.00059214364052113391 0.0030908567467873324 0 8.0412571566942581e-05 0.0052547269946791701 0 -0.00038909332262359193 0.0041790016755171256 0 -0.00014585033307979754 0.0053746089569458632 0 -0.00033024935326614481 0.0048958698562744183 0 -0.00061769864851730677 0.0052325953044415957 0 -0.0005142327395424274 0.0023867333974190376 0 -0.00049823136986569029 0.0023898129850660078 0 -0.00059662131944359547 0.0025170421404916944 0 -0.00059214364052113391 0.0030908567467873324 0 -0.00038909332262359193 0.0041790016755171256 0 -0.0005142327395424274 0.0023867333974190376 0 -0.00059662131944359547 0.0025170421404916944 0 -0.00060495512487174685 0.0023924201836606281 0 -0.00059662131944359547 0.0025170421404916944 0 -0.00060495512487174685 0.0023924201836606281 0 -0.00067993019269527849 0.0024213812642141573 0 -0.00060495512487174685 0.0023924201836606281 0 -0.00067993019269527849 0.0024213812642141573 0 -0.00067375844296730714 0.0023388177080540832 0 -0.00060495512487174685 0.0023924201836606281 0 -0.00060480231757884776 0.0023266938466292046 0 -0.00067375844296730714 0.0023388177080540832 0 -0.00060495512487174685 0.0023924201836606281 0 -0.00055714101250193312 0.0023543760197436087 0 -0.00060480231757884776 0.0023266938466292046 0 -0.0005142327395424274 0.0023867333974190376 0 -0.00060495512487174685 0.0023924201836606281 0 -0.00055714101250193312 0.0023543760197436087 0 -0.00055714101250193312 0.0023543760197436087 0 -0.0005588638079370552 0.0023159536584807278 0 -0.00060480231757884776 0.0023266938466292046 0 -0.00049956110755582377 0.0023360636644459039 0 -0.00055714101250193312 0.0023543760197436087 0 -0.0005588638079370552 0.0023159536584807278 0 -0.0005588638079370552 0.0023159536584807278 0 -0.00059547531449080247 0.0022704823826259412 0 -0.0005435798205099654 0.0022740800447134807 0 -0.0005588638079370552 0.0023159536584807278 0 -0.00060480231757884776 0.0023266938466292046 0 -0.00059547531449080247 0.0022704823826259412 0 -0.0006452631787444939 0.0022809491460805652 0 -0.00060480231757884776 0.0023266938466292046 0 -0.00059547531449080247 0.0022704823826259412 0 -0.0006452631787444939 0.0022809491460805652 0 -0.00060480231757884776 0.0023266938466292046 0 -0.00067375844296730714 0.0023388177080540832 0 -0.00064738354430763051 0.0022126769614965944 0 -0.00059547531449080247 0.0022704823826259412 0 -0.00057496839277186638 0.0022148600350918703 0 -0.0006452631787444939 0.0022809491460805652 0 -0.00064738354430763051 0.0022126769614965944 0 -0.00059547531449080247 0.0022704823826259412 0 -0.0005435798205099654 0.0022740800447134807 0 -0.00057496839277186638 0.0022148600350918703 0 -0.00049585860834909685 0.002254444984618382 0 -0.00059547531449080247 0.0022704823826259412 0 -0.0005435798205099654 0.0022740800447134807 0 -0.00057496839277186638 0.0022148600350918703 0 -0.00057496839277186638 0.0022148600350918703 0 -0.00062870264670693602 0.0021154845196827308 0 -0.00051927290919882385 0.0021522643187039023 0 -0.00064738354430763051 0.0022126769614965944 0 -0.00057496839277186638 0.0022148600350918703 0 -0.00062870264670693602 0.0021154845196827308 0 -0.00062870264670693602 0.0021154845196827308 0 -0.00063490182604204639 0.0020152476211557002 0 -0.00054893120860189249 0.0020180491620718 0 -0.00062870264670693602 0.0021154845196827308 0 -0.00054893120860189249 0.0020180491620718 0 -0.00051927290919882385 0.0021522643187039023 0 -0.00054893120860189249 0.0020180491620718 0 -0.00051927290919882385 0.0021522643187039023 0 -0.00042430259454362141 0.0021075302310332158 0 -0.00054893120860189249 0.0020180491620718 0 -0.00042430259454362141 0.0021075302310332158 0 -0.00046964957403421241 0.0019221532632434889 0 -0.00051927290919882385 0.0021522643187039023 0 -0.00042430259454362141 0.0021075302310332158 0 -0.00043978052349972455 0.0022053703538208102 0 -0.00043978052349972455 0.0022053703538208102 0 -0.00049585860834909685 0.002254444984618382 0 -0.00034794440360072564 0.0022963366063120131 0 -0.00049956110755582377 0.0023360636644459039 0 -0.00049585860834909685 0.002254444984618382 0 -0.00034794440360072564 0.0022963366063120131 0 -0.00057496839277186638 0.0022148600350918703 0 -0.00051927290919882385 0.0021522643187039023 0 -0.00049585860834909685 0.002254444984618382 0 -0.00051927290919882385 0.0021522643187039023 0 -0.00043978052349972455 0.0022053703538208102 0 -0.00049585860834909685 0.002254444984618382 0 -0.00049956110755582377 0.0023360636644459039 0 -0.0005435798205099654 0.0022740800447134807 0 -0.00049585860834909685 0.002254444984618382 0 -0.00041851227353993675 0.0027471759628571952 0 -0.00020876800138988979 0.0022620116500413094 0 -0.00034794440360072564 0.0022963366063120131 0 -0.00042430259454362141 0.0021075302310332158 0 -0.00043978052349972455 0.0022053703538208102 0 -0.00034794440360072564 0.0022963366063120131 0 -0.00042430259454362141 0.0021075302310332158 0 -0.00020876800138988979 0.0022620116500413094 0 -0.00034794440360072564 0.0022963366063120131 0 -0.00099996512325231266 0.0052989744361127819 0 -0.0010668413847990923 0.0048008025336680991 0 -0.00042430259454362141 0.0021075302310332158 0 -0.00020876800138988979 0.0022620116500413094 0 -0.00032044922627752411 0.0019771269610603858 0 -0.0016549121347539191 0.0083904656718600482 0 -0.0011863792365113641 0.0080400259039166092 0 -0.0018256883772620868 0.0075962702055535902 0 -0.0016549121347539191 0.0083904656718600482 0 -0.0011863792365113641 0.0080400259039166092 0 -0.001110241125482532 0.0086250761810030552 0 -0.0010327949220824886 0.002358104353090367 0 -0.0009553850551259586 0.0022419592884155735 0 -0.00090374429022459213 0.0024069425175307527 0 -0.0010327949220824886 0.002358104353090367 0 -0.0009553850551259586 0.0022419592884155735 0 -0.0010877857004458343 0.002189144007574383 0 -0.0010327949220824886 0.002358104353090367 0 -0.0010877857004458343 0.002189144007574383 0 -0.0012202120698161308 0.0024383306549159416 0 -0.0011043984001799601 0.0021336052280592076 0 -0.0010972606581680729 0.0021273603022993626 0 -0.0010877857004458343 0.002189144007574383 0 -0.001097706254998102 0.0021880822849719896 0 -0.0011648500581910391 0.0022767075959781299 0 -0.0010972606581680729 0.0021273603022993626 0 -0.0010877857004458343 0.002189144007574383 0 -0.0011165460973659265 0.0021074234513979205 0 -0.001222261739530293 0.0023296585680156975 0 -0.0011648500581910391 0.0022767075959781299 0 -0.0011534021044982106 0.0026818815222367193 0 -0.0012202120698161308 0.0024383306549159416 0 -0.0010307404724626806 0.0025330651638141022 0 -0.0010327949220824886 0.002358104353090367 0 -0.0012202120698161308 0.0024383306549159416 0 -0.0010307404724626806 0.0025330651638141022 0 -0.00086097300456770907 0.0025948636107624781 0 -0.0010307404724626806 0.0025330651638141022 0 -0.00090374429022459213 0.0024069425175307527 0 -0.0010327949220824886 0.002358104353090367 0 -0.0010307404724626806 0.0025330651638141022 0 -0.00090374429022459213 0.0024069425175307527 0 -0.00086097300456770907 0.0025948636107624781 0 -0.00090374429022459213 0.0024069425175307527 0 -0.00072875371431802873 0.0024555320367372667 0 -0.00081975936051466953 0.0031339612277007712 0 -0.00080750105918612255 0.0026408827585360901 0 -0.00062137839389396596 0.0036498902270423058 0 -0.00074105244541677418 0.0036478297050668218 0 -0.00064626125784217477 0.0035484239243095792 0 -0.00088744792707259488 0.0024322146246146883 0 -0.00080750105918612255 0.0026408827585360901 0 -0.00090374429022459213 0.0024069425175307527 0 -0.0007836939890300984 0.002446363679556216 0 -0.00082685159551525698 0.0023459438644869075 0 -0.00038909332262359193 0.0041790016755171256 0 -0.00080750105918612255 0.0026408827585360901 0 -0.00059662131944359547 0.0025170421404916944 0 -0.00078726044166620667 0.0024576220311530545 0 -0.00067993019269527849 0.0024213812642141573 0 -0.00062137839389396596 0.0036498902270423058 0 -0.00046092294035394819 0.0036049967708739507 0 -0.00064626125784217477 0.0035484239243095792 0 -0.00078726044166620667 0.0024576220311530545 0 -0.00074079193816164958 0.0024060273521012161 0 -0.00067993019269527849 0.0024213812642141573 0 -0.0007836939890300984 0.002446363679556216 0 -0.00074079193816164958 0.0024060273521012161 0 -0.00082685159551525698 0.0023459438644869075 0 -0.00080750105918612255 0.0026408827585360901 0 -0.00071910699176272322 0.0024805672499084042 0 -0.00074079193816164958 0.0024060273521012161 0 -0.00067375844296730714 0.0023388177080540832 0 -0.00075430637948628923 0.0023057025241099371 0 -0.00074079193816164958 0.0024060273521012161 0 -0.00067993019269527849 0.0024213812642141573 0 -0.00067375844296730714 0.0023388177080540832 0 -0.00074079193816164958 0.0024060273521012161 0 -0.00075430637948628923 0.0023057025241099371 0 -0.00082685159551525698 0.0023459438644869075 0 -0.0006452631787444939 0.0022809491460805652 0 -0.00067375844296730714 0.0023388177080540832 0 -0.00070258364542707529 0.0022461920771966707 0 -0.00067375844296730714 0.0023388177080540832 0 -0.00075430637948628923 0.0023057025241099371 0 -0.00070258364542707529 0.0022461920771966707 0 -0.0009553850551259586 0.0022419592884155735 0 -0.00090374429022459213 0.0024069425175307527 0 -0.00082685159551525698 0.0023459438644869075 0 -0.00075430637948628923 0.0023057025241099371 0 -0.00082685159551525698 0.0023459438644869075 0 -0.0008227494773525285 0.0022107652921432505 0 -0.0009553850551259586 0.0022419592884155735 0 -0.00082685159551525698 0.0023459438644869075 0 -0.0008227494773525285 0.0022107652921432505 0 -0.0009553850551259586 0.0022419592884155735 0 -0.0008227494773525285 0.0022107652921432505 0 -0.00093860694908785435 0.0021206759708345927 0 -0.0008227494773525285 0.0022107652921432505 0 -0.00093860694908785435 0.0021206759708345927 0 -0.00082880453008196784 0.0021031912509893568 0 -0.00064738354430763051 0.0022126769614965944 0 -0.00070258364542707529 0.0022461920771966707 0 -0.00072565728667641437 0.0021521339404909187 0 -0.0006452631787444939 0.0022809491460805652 0 -0.00064738354430763051 0.0022126769614965944 0 -0.00070258364542707529 0.0022461920771966707 0 -0.0008227494773525285 0.0022107652921432505 0 -0.00070258364542707529 0.0022461920771966707 0 -0.00072565728667641437 0.0021521339404909187 0 -0.00075430637948628923 0.0023057025241099371 0 -0.0008227494773525285 0.0022107652921432505 0 -0.00070258364542707529 0.0022461920771966707 0 -0.0008227494773525285 0.0022107652921432505 0 -0.00072565728667641437 0.0021521339404909187 0 -0.00082880453008196784 0.0021031912509893568 0 -0.00064738354430763051 0.0022126769614965944 0 -0.00062870264670693602 0.0021154845196827308 0 -0.00072565728667641437 0.0021521339404909187 0 -0.00062870264670693602 0.0021154845196827308 0 -0.00072565728667641437 0.0021521339404909187 0 -0.0007361281289024619 0.0020181720029453249 0 -0.00072565728667641437 0.0021521339404909187 0 -0.0007361281289024619 0.0020181720029453249 0 -0.00082880453008196784 0.0021031912509893568 0 -0.00062870264670693602 0.0021154845196827308 0 -0.00063490182604204639 0.0020152476211557002 0 -0.0007361281289024619 0.0020181720029453249 0 -0.0007361281289024619 0.0020181720029453249 0 -0.00082880453008196784 0.0021031912509893568 0 -0.00089402578349192597 0.0020186019016774164 0 -0.0007361281289024619 0.0020181720029453249 0 -0.00089402578349192597 0.0020186019016774164 0 -0.0008062859168245965 0.0018446451084578304 0 -0.00093860694908785435 0.0021206759708345927 0 -0.00082880453008196784 0.0021031912509893568 0 -0.00089402578349192597 0.0020186019016774164 0 -0.00093860694908785435 0.0021206759708345927 0 -0.00089402578349192597 0.0020186019016774164 0 -0.0010279463707253246 0.0020533320978034456 0 -0.0010279463707253246 0.0020533320978034456 0 -0.0011262979266779905 0.0020098866491534495 0 -0.00099468600190414096 0.0019405840864924505 0 -0.00089402578349192597 0.0020186019016774164 0 -0.0010279463707253246 0.0020533320978034456 0 -0.00099468600190414096 0.0019405840864924505 0 -0.00093860694908785435 0.0021206759708345927 0 -0.0010279463707253246 0.0020533320978034456 0 -0.0010613559936845573 0.0021317650353573172 0 -0.0009553850551259586 0.0022419592884155735 0 -0.00093860694908785435 0.0021206759708345927 0 -0.0010613559936845573 0.0021317650353573172 0 -0.0009553850551259586 0.0022419592884155735 0 -0.0010877857004458343 0.002189144007574383 0 -0.0010613559936845573 0.0021317650353573172 0 -0.0011043984001799601 0.0021336052280592076 0 -0.0010613559936845573 0.0021317650353573172 0 -0.0010965986656408205 0.0020949868729140783 0 -0.0011043984001799601 0.0021336052280592076 0 -0.0010877857004458343 0.002189144007574383 0 -0.0010613559936845573 0.0021317650353573172 0 -0.0010279463707253246 0.0020533320978034456 0 -0.0010613559936845573 0.0021317650353573172 0 -0.0010965986656408205 0.0020949868729140783 0 -0.0010279463707253246 0.0020533320978034456 0 -0.0010965986656408205 0.0020949868729140783 0 -0.0011262979266779905 0.0020098866491534495 0 -0.00096768354551721668 0.0017493101827442106 0 -0.00094432552098564176 0.0017166725996732818 0 -0.0010098395362532458 0.0016971895023124156 0 -0.00096768354551721668 0.0017493101827442106 0 -0.00094432552098564176 0.0017166725996732818 0 -0.00089005432690445418 0.0017721538274340686 0 -0.0010578563303598712 0.0018878805632075674 0 -0.00092910573483425318 0.0018553775820513156 0 -0.00094432552098564176 0.0017166725996732818 0 -0.00095893696533733196 0.001660751954357392 0 -0.0010098395362532458 0.0016971895023124156 0 -0.00094432552098564176 0.0017166725996732818 0 -0.00095893696533733196 0.001660751954357392 0 -0.00089728085110465667 0.0017047210297762656 0 -0.00095893696533733196 0.001660751954357392 0 -0.00089728085110465667 0.0017047210297762656 0 -0.00092836884631338314 0.0015464483068014965 0 -0.00095893696533733196 0.001660751954357392 0 -0.00092836884631338314 0.0015464483068014965 0 -0.0010406908383622326 0.0016056056699094163 0 -0.00089728085110465667 0.0017047210297762656 0 -0.00083529312721218271 0.001678941353131115 0 -0.00092836884631338314 0.0015464483068014965 0 -0.00094432552098564176 0.0017166725996732818 0 -0.00089728085110465667 0.0017047210297762656 0 -0.00089005432690445418 0.0017721538274340686 0 -0.00089728085110465667 0.0017047210297762656 0 -0.00089005432690445418 0.0017721538274340686 0 -0.0008062859168245965 0.0018446451084578304 0 -0.00092910573483425318 0.0018553775820513156 0 -0.00081265512397405814 0.0018391605411660378 0 -0.00089402578349192597 0.0020186019016774164 0 -0.00099468600190414096 0.0019405840864924505 0 -0.0008062859168245965 0.0018446451084578304 0 -0.0007361281289024619 0.0020181720029453249 0 -0.0008062859168245965 0.0018446451084578304 0 -0.00063971051039372873 0.0019040939032096188 0 -0.0008062859168245965 0.0018446451084578304 0 -0.00072760813119834432 0.0017292850315119436 0 -0.00063971051039372873 0.0019040939032096188 0 -0.00063490182604204639 0.0020152476211557002 0 -0.0007361281289024619 0.0020181720029453249 0 -0.00063971051039372873 0.0019040939032096188 0 -0.00089728085110465667 0.0017047210297762656 0 -0.0008062859168245965 0.0018446451084578304 0 -0.00083529312721218271 0.001678941353131115 0 -0.0008062859168245965 0.0018446451084578304 0 -0.00072760813119834432 0.0017292850315119436 0 -0.00083529312721218271 0.001678941353131115 0 -0.00083529312721218271 0.001678941353131115 0 -0.000800637744236173 0.0015648439474106762 0 -0.00098594001850949801 0.0015413999361925171 0 -0.000800637744236173 0.0015648439474106762 0 -0.00098594001850949801 0.0015413999361925171 0 -0.00084409808029360948 0.001429007138679202 0 -0.00072760813119834432 0.0017292850315119436 0 -0.00083529312721218271 0.001678941353131115 0 -0.000800637744236173 0.0015648439474106762 0 -0.00072760813119834432 0.0017292850315119436 0 -0.000800637744236173 0.0015648439474106762 0 -0.00066723949018089872 0.0016290594626290466 0 -0.000800637744236173 0.0015648439474106762 0 -0.00066723949018089872 0.0016290594626290466 0 -0.00070698294266901684 0.0014960300429496596 0 -0.000800637744236173 0.0015648439474106762 0 -0.00070698294266901684 0.0014960300429496596 0 -0.00084409808029360948 0.001429007138679202 0 -0.00098594001850949801 0.0015413999361925171 0 -0.0010068283457656316 0.0014048258958550214 0 -0.00084409808029360948 0.001429007138679202 0 -0.00098594001850949801 0.0015413999361925171 0 -0.0010068283457656316 0.0014048258958550214 0 -0.0010983003157993808 0.0014129217142127618 0 -0.00095608301713951869 0.0015462905946019611 0 -0.0010671676163035446 0.0014169106265831588 0 -0.0008392313337197405 0.0016657458574307925 0 -0.00095608301713951869 0.0015462905946019611 0 -0.0011863792365113641 0.0080400259039166092 0 -0.0018256883772620868 0.0075962702055535902 0 -0.0010944829100095598 0.0074832470163572118 0 -0.0013882841452356476 0.0069333982208779378 0 -0.0018256883772620868 0.0075962702055535902 0 -0.0010944829100095598 0.0074832470163572118 0 -0.00042430259454362141 0.0021075302310332158 0 -0.00032044922627752411 0.0019771269610603858 0 -0.00046964957403421241 0.0019221532632434889 0 -0.00032044922627752411 0.0019771269610603858 0 -0.00046964957403421241 0.0019221532632434889 0 -0.00040030482153029977 0.001805057349338183 0 -0.0013882841452356476 0.0069333982208779378 0 -0.0018256883772620868 0.0075962702055535902 0 -0.0019586186509796422 0.006657353589922449 0 -0.0010668413847990923 0.0048008025336680991 0 -0.0011332490689877587 0.0041888707742914885 0 -0.00046888042381679754 0.0018014028290235229 0 -0.00046964957403421241 0.0019221532632434889 0 -0.0005922460060734017 0.0017836509045094325 0 -0.00046888042381679754 0.0018014028290235229 0 -0.00046964957403421241 0.0019221532632434889 0 -0.00040030482153029977 0.001805057349338183 0 -0.00046964957403421241 0.0019221532632434889 0 -0.00063971051039372873 0.0019040939032096188 0 -0.0005922460060734017 0.0017836509045094325 0 -0.00054893120860189249 0.0020180491620718 0 -0.00046964957403421241 0.0019221532632434889 0 -0.00063971051039372873 0.0019040939032096188 0 -0.00063490182604204639 0.0020152476211557002 0 -0.00054893120860189249 0.0020180491620718 0 -0.00063971051039372873 0.0019040939032096188 0 -0.00072760813119834432 0.0017292850315119436 0 -0.00066723949018089872 0.0016290594626290466 0 -0.0005922460060734017 0.0017836509045094325 0 -0.00072760813119834432 0.0017292850315119436 0 -0.00063971051039372873 0.0019040939032096188 0 -0.0005922460060734017 0.0017836509045094325 0 -0.00046888042381679754 0.0018014028290235229 0 -0.0005922460060734017 0.0017836509045094325 0 -0.0005474697535743059 0.0016429989838165199 0 -0.00066723949018089872 0.0016290594626290466 0 -0.0005474697535743059 0.0016429989838165199 0 -0.0005867239959846842 0.0014944011834363664 0 -0.00066723949018089872 0.0016290594626290466 0 -0.0005922460060734017 0.0017836509045094325 0 -0.0005474697535743059 0.0016429989838165199 0 -0.0005474697535743059 0.0016429989838165199 0 -0.0005867239959846842 0.0014944011834363664 0 -0.00049447505000275917 0.0015260163382906893 0 -0.00066723949018089872 0.0016290594626290466 0 -0.00070698294266901684 0.0014960300429496596 0 -0.0005867239959846842 0.0014944011834363664 0 -0.00039308475915712001 0.0015538455140560812 0 -0.001100269164499574 0.0024138556356831341 0 -0.00042402301694423019 0.0018131992422041996 0 -0.00044929762830585535 0.0018517927803324299 0 -0.00043155024927946778 0.0018666515609524357 0 -0.00049447505000275917 0.0015260163382906893 0 -0.00044465995273024325 0.0016026580525131961 0 -0.00042873121477531338 0.0014503757026411088 0 -0.0005867239959846842 0.0014944011834363664 0 -0.00049447505000275917 0.0015260163382906893 0 -0.00042873121477531338 0.0014503757026411088 0 -0.00046888042381679754 0.0018014028290235229 0 -0.0005474697535743059 0.0016429989838165199 0 -0.00044465995273024325 0.0016026580525131961 0 -0.00047478169931267419 0.0018542322288383024 0 -0.00039308475915712001 0.0015538455140560812 0 -0.00046888042381679754 0.0018014028290235229 0 -0.00042402301694423019 0.0018131992422041996 0 -0.00040030482153029977 0.001805057349338183 0 -0.0005474697535743059 0.0016429989838165199 0 -0.00049447505000275917 0.0015260163382906893 0 -0.00044465995273024325 0.0016026580525131961 0 -0.0011332490689877587 0.0041888707742914885 0 -0.0016234568248681025 0.0039807350583392362 0 -0.00042402301694423019 0.0018131992422041996 0 -0.00040030482153029977 0.001805057349338183 0 -0.00044929762830585535 0.0018517927803324299 0 -0.0019586186509796422 0.006657353589922449 0 -0.0020446037517351766 0.0056760402259363818 0 -0.001206483892457845 0.0062405740704649841 0 -0.0016234568248681025 0.0039807350583392362 0 -0.001100269164499574 0.0024138556356831341 0 -0.0010008174836568962 0.004672324988466597 0 -0.0012637759449138591 0.003915260764713123 0 -0.00066717217680535524 0.004128246792949616 0 -0.0016234568248681025 0.0039807350583392362 0 -0.0011582995879008237 0.0054603108190792978 0 -0.0017333527187309234 0.0041884908298719442 0 -0.0010008174836568962 0.004672324988466597 0 -0.0012637759449138591 0.003915260764713123 0 -0.0013882841452356476 0.0069333982208779378 0 -0.0019586186509796422 0.006657353589922449 0 -0.001206483892457845 0.0062405740704649841 0 -0.00095426477195484415 0.0031070847754137904 0 -0.0012059482765280666 0.0034218491840625033 0 -0.00086498933135491544 0.0036255131737743321 0 -0.00095426477195484415 0.0031070847754137904 0 -0.0013348093178204021 0.003023934036548076 0 -0.0012059482765280666 0.0034218491840625033 0 -0.0013348093178204021 0.003023934036548076 0 -0.0012059482765280666 0.0034218491840625033 0 -0.001531826061018029 0.0034559335246339296 0 -0.0012059482765280666 0.0034218491840625033 0 -0.0012637759449138591 0.003915260764713123 0 -0.00086498933135491544 0.0036255131737743321 0 -0.0012059482765280666 0.0034218491840625033 0 -0.0012637759449138591 0.003915260764713123 0 -0.001531826061018029 0.0034559335246339296 0 -0.0017776446608476907 0.0027955471409708207 0 -0.001100269164499574 0.0024138556356831341 0 -0.0017645842179590361 0.0037275608843058898 0 -0.0018596674106646539 0.0032568554974112328 0 -0.0019927528827033271 0.004010059801748918 0 -0.0017333527187309234 0.0041884908298719442 0 -0.0012637759449138591 0.003915260764713123 0 -0.0017645842179590361 0.0037275608843058898 0 -0.0012637759449138591 0.003915260764713123 0 -0.0017645842179590361 0.0037275608843058898 0 -0.001531826061018029 0.0034559335246339296 0 -0.0017272047262795341 0.0041723988634226935 0 -0.0017645842179590361 0.0037275608843058898 0 -0.0019927528827033271 0.004010059801748918 0 -0.0016234568248681025 0.0039807350583392362 0 -0.0017375988120997823 0.0038487290634283645 0 -0.0017645842179590361 0.0037275608843058898 0 -0.001531826061018029 0.0034559335246339296 0 -0.0018596674106646539 0.0032568554974112328 0 -0.0013348093178204021 0.003023934036548076 0 -0.001531826061018029 0.0034559335246339296 0 -0.0018596674106646539 0.0032568554974112328 0 -0.0015659927075793887 0.0020578574205440225 0 -0.0015083342911987115 0.0020413315829701938 0 -0.00149072288077207 0.0020863223442978474 0 -0.0015083342911987115 0.0020413315829701938 0 -0.0015218852598493846 0.0020158770225266486 0 -0.0014640301845961965 0.0020048498023406301 0 -0.0015659927075793887 0.0020578574205440225 0 -0.0015083342911987115 0.0020413315829701938 0 -0.0015218852598493846 0.0020158770225266486 0 -0.0015659927075793887 0.0020578574205440225 0 -0.0015406564497803476 0.0019683465776396594 0 -0.0015218852598493846 0.0020158770225266486 0 -0.001100269164499574 0.0024138556356831341 0 -0.001053068770649692 0.0015643441808496771 0 -0.0015406564497803476 0.0019683465776396594 0 -0.0015218852598493846 0.0020158770225266486 0 -0.0014640301845961965 0.0020048498023406301 0 -0.0005867239959846842 0.0014944011834363664 0 -0.00042873121477531338 0.0014503757026411088 0 -0.0006293570883232273 0.0013345645552140354 0 -0.00070698294266901684 0.0014960300429496596 0 -0.0005867239959846842 0.0014944011834363664 0 -0.0006293570883232273 0.0013345645552140354 0 -0.0015083342911987115 0.0020413315829701938 0 -0.0014640301845961965 0.0020048498023406301 0 -0.00149072288077207 0.0020863223442978474 0 -0.0014640301845961965 0.0020048498023406301 0 -0.00149072288077207 0.0020863223442978474 0 -0.0014583781152532373 0.0019962335470715981 0 -0.00149072288077207 0.0020863223442978474 0 -0.0014794559476320587 0.0019643951565661033 0 -0.0014583781152532373 0.0019962335470715981 0 -0.00149072288077207 0.0020863223442978474 0 -0.0014794559476320587 0.0019643951565661033 0 -0.001555835663621353 0.0020515624866907422 0 -0.00149072288077207 0.0020863223442978474 0 -0.0015656083448791821 0.0023303964709007296 0 -0.001555835663621353 0.0020515624866907422 0 -0.0015659927075793887 0.0020578574205440225 0 -0.00149072288077207 0.0020863223442978474 0 -0.0015656083448791821 0.0023303964709007296 0 -0.0017776446608476907 0.0027955471409708207 0 -0.0015703773681967927 0.0022961412936480887 0 -0.0013348093178204021 0.003023934036548076 0 -0.0018596674106646539 0.0032568554974112328 0 -0.0015656083448791821 0.0023303964709007296 0 -0.0015656083448791821 0.0023303964709007296 0 -0.0011343630544627006 0.0021876414314807853 0 -0.0015350071015141193 0.0019810510368946529 0 -0.0015656083448791821 0.0023303964709007296 0 -0.0015350071015141193 0.0019810510368946529 0 -0.001555835663621353 0.0020515624866907422 0 -0.0015656083448791821 0.0023303964709007296 0 -0.0010318200229685998 0.0026317229722355381 0 -0.0011343630544627006 0.0021876414314807853 0 -0.0013348093178204021 0.003023934036548076 0 -0.0015656083448791821 0.0023303964709007296 0 -0.0010318200229685998 0.0026317229722355381 0 -0.00095426477195484415 0.0031070847754137904 0 -0.0013348093178204021 0.003023934036548076 0 -0.0010318200229685998 0.0026317229722355381 0 -0.00096343498999533765 0.0013096154718399916 0 -0.0010068283457656316 0.0014048258958550214 0 -0.00084409808029360948 0.001429007138679202 0 -0.0010594347765784842 0.0013172075812776568 0 -0.00082485725142484451 0.0012305897252155125 0 -0.0010405404192548951 0.0011524438594747335 0 -0.0010098927187767745 0.0013133627938776888 0 -0.0011378044733217658 0.001205756125027197 0 -0.00096343498999533765 0.0013096154718399916 0 -0.0010068283457656316 0.0014048258958550214 0 -0.0011016394816888322 0.0013018448091970882 0 -0.0010098927187767745 0.0013133627938776888 0 -0.00085483350636331406 0.0014212007321165855 0 -0.00070698294266901684 0.0014960300429496596 0 -0.0006293570883232273 0.0013345645552140354 0 -0.00084409808029360948 0.001429007138679202 0 -0.0014640301845961965 0.0020048498023406301 0 -0.0014416902551956125 0.0019574393606220509 0 -0.0014583781152532373 0.0019962335470715981 0 -0.001053068770649692 0.0015643441808496771 0 -0.0011222116160033615 0.0016119227344505182 0 -0.0006293570883232273 0.0013345645552140354 0 -0.00084409808029360948 0.001429007138679202 0 -0.00082485725142484451 0.0012305897252155125 0 -0.0010594347765784842 0.0013172075812776568 0 -0.00084409808029360948 0.001429007138679202 0 -0.00082485725142484451 0.0012305897252155125 0 -0.0011222116160033615 0.0016119227344505182 0 -0.001221141832672266 0.001490808178992279 0 -0.0014416902551956125 0.0019574393606220509 0 -0.0014341953709648475 0.0019014978356203438 0 -0.0014154751342858433 0.001824490776291093 0 -0.0014416902551956125 0.0019574393606220509 0 -0.0014583781152532373 0.0019962335470715981 0 -0.0014341953709648475 0.0019014978356203438 0 -0.0014794559476320587 0.0019643951565661033 0 -0.0014583781152532373 0.0019962335470715981 0 -0.0014341953709648475 0.0019014978356203438 0 -0.0014794559476320587 0.0019643951565661033 0 -0.0014341953709648475 0.0019014978356203438 0 -0.001419364723727312 0.0018595430207267473 0 -0.0014341953709648475 0.0019014978356203438 0 -0.0014030630376245469 0.0017925550646864499 0 -0.001419364723727312 0.0018595430207267473 0 -0.0014341953709648475 0.0019014978356203438 0 -0.0014030630376245469 0.0017925550646864499 0 -0.0014154751342858433 0.001824490776291093 0 -0.0014030630376245469 0.0017925550646864499 0 -0.0014154751342858433 0.001824490776291093 0 -0.0013765184549351247 0.0016163275194992525 0 -0.0010594347765784842 0.0013172075812776568 0 -0.0010405404192548951 0.0011524438594747335 0 -0.0012035043692083637 0.001202724255511299 0 -0.0010405404192548951 0.0011524438594747335 0 -0.0012073346184981861 0.0011481651377033652 0 -0.0012035043692083637 0.001202724255511299 0 -0.001221141832672266 0.001490808178992279 0 -0.0012712197565111355 0.0013863387422171731 0 -0.0012073346184981861 0.0011481651377033652 0 -0.0012035043692083637 0.001202724255511299 0 -0.0011955174399328249 0.0011354723447051646 0 -0.001076513600814783 0.0012087239059312329 0 -0.0011844377613410687 0.0011944435209337511 0 -0.0011955174399328249 0.0011354723447051646 0 -0.0012073346184981861 0.0011481651377033652 0 -0.0011955174399328249 0.0011354723447051646 0 -0.0012618962402806701 0.0012632096640318345 0 -0.0011378044733217658 0.001205756125027197 0 -0.0011922753662630095 0.0011433121280181914 0 -0.001076513600814783 0.0012087239059312329 0 -0.0011016394816888322 0.0013018448091970882 0 -0.0011844377613410687 0.0011944435209337511 0 -0.00096343498999533765 0.0013096154718399916 0 -0.001076513600814783 0.0012087239059312329 0 -0.0011016394816888322 0.0013018448091970882 0 -0.0011016394816888322 0.0013018448091970882 0 -0.0011693865536254251 0.0013044850900804815 0 -0.0011844377613410687 0.0011944435209337511 0 -0.0011660443275944637 0.0013153804762744748 0 -0.0010671676163035446 0.0014169106265831588 0 -0.0011016394816888322 0.0013018448091970882 0 -0.0011693865536254251 0.0013044850900804815 0 -0.0010983003157993808 0.0014129217142127618 0 -0.0010068283457656316 0.0014048258958550214 0 -0.0011016394816888322 0.0013018448091970882 0 -0.0010983003157993808 0.0014129217142127618 0 -0.0011693865536254251 0.0013044850900804815 0 -0.0012593990801986099 0.0011981149709034214 0 -0.0012368003055813592 0.0013806713429901963 0 -0.0011693865536254251 0.0013044850900804815 0 -0.0011844377613410687 0.0011944435209337511 0 -0.0012593990801986099 0.0011981149709034214 0 -0.0011844377613410687 0.0011944435209337511 0 -0.0012069346435482498 0.0010920074203744762 0 -0.0012593990801986099 0.0011981149709034214 0 -0.0011844377613410687 0.0011944435209337511 0 -0.0012069346435482498 0.0010920074203744762 0 -0.0011955174399328249 0.0011354723447051646 0 -0.0012069346435482498 0.0010920074203744762 0 -0.0011955174399328249 0.0011354723447051646 0 -0.0011910129590286275 0.0010870678140374444 0 -0.0011955174399328249 0.0011354723447051646 0 -0.0011910129590286275 0.0010870678140374444 0 -0.0012618962402806701 0.0012632096640318345 0 -0.0012069346435482498 0.0010920074203744762 0 -0.0012121617588233484 0.00097734446974203173 0 -0.0011910129590286275 0.0010870678140374444 0 -0.0012069346435482498 0.0010920074203744762 0 -0.0012823394755314451 0.00098462322471017929 0 -0.0012121617588233484 0.00097734446974203173 0 -0.0012823394755314451 0.00098462322471017929 0 -0.0012593990801986099 0.0011981149709034214 0 -0.0013766507100994745 0.0011306253481997992 0 -0.0012069346435482498 0.0010920074203744762 0 -0.0012823394755314451 0.00098462322471017929 0 -0.0012593990801986099 0.0011981149709034214 0 -0.0014351159202795419 0.00066402045688543181 0 -0.0016834240949187538 0.00049213164506630141 0 -0.0017219134269760769 0.00099770022505534309 0 -0.0014621537336595807 0.0009985416680628838 0 -0.0014351159202795419 0.00066402045688543181 0 -0.0017219134269760769 0.00099770022505534309 0 -0.0012823394755314451 0.00098462322471017929 0 -0.0014621537336595807 0.0009985416680628838 0 -0.0014351159202795419 0.00066402045688543181 0 -0.0012823394755314451 0.00098462322471017929 0 -0.0014621537336595807 0.0009985416680628838 0 -0.0013766507100994745 0.0011306253481997992 0 -0.0014621537336595807 0.0009985416680628838 0 -0.0015617615224517065 0.0011986865393699955 0 -0.0017219134269760769 0.00099770022505534309 0 -0.0015617615224517065 0.0011986865393699955 0 -0.0013641718529437765 0.0012750151795212117 0 -0.0014824153643489819 0.0013349080484165042 0 -0.0015617615224517065 0.0011986865393699955 0 -0.0013766507100994745 0.0011306253481997992 0 -0.0013641718529437765 0.0012750151795212117 0 -0.0014621537336595807 0.0009985416680628838 0 -0.0015617615224517065 0.0011986865393699955 0 -0.0013766507100994745 0.0011306253481997992 0 -0.0019172062266147279 -0.00037414954121403572 0 -0.0018889421719087667 -0.00033847556579715715 0 -0.0022961103910680691 -0.0019921754791095291 0 -0.0021743099541505469 -0.0018355198701475877 0 -0.0023370828942391527 -0.0018611288461919614 0 -0.0012593990801986099 0.0011981149709034214 0 -0.0013766507100994745 0.0011306253481997992 0 -0.0013641718529437765 0.0012750151795212117 0 -0.0012593990801986099 0.0011981149709034214 0 -0.0013641718529437765 0.0012750151795212117 0 -0.0012368003055813592 0.0013806713429901963 0 -0.0013641718529437765 0.0012750151795212117 0 -0.0013370456831673018 0.0014008225133017988 0 -0.0012368003055813592 0.0013806713429901963 0 -0.0013641718529437765 0.0012750151795212117 0 -0.0013370456831673018 0.0014008225133017988 0 -0.0014824153643489819 0.0013349080484165042 0 -0.0013370456831673018 0.0014008225133017988 0 -0.0014489017516014042 0.0014922315885445405 0 -0.0012983330457209271 0.0015412630408213033 0 -0.00147933646764719 0.0017250954020141312 0 -0.0014428057472015907 0.0002739146446222597 0 -0.0013370456831673018 0.0014008225133017988 0 -0.0014199160805951809 0.0014487738781225452 0 -0.0014824153643489819 0.0013349080484165042 0 -0.0013370456831673018 0.0014008225133017988 0 -0.0012983330457209271 0.0015412630408213033 0 -0.0012368003055813592 0.0013806713429901963 0 -0.0021743099541505469 -0.0018355198701475877 0 -0.0022845014466335448 -0.0017187972907947589 0 -0.0023370828942391527 -0.0018611288461919614 0 -0.0014428057472015907 0.0002739146446222597 0 -0.0018889421719087667 -0.00033847556579715715 0 -0.0020690721602439092 -0.0016594024045784989 0 -0.0021743099541505469 -0.0018355198701475877 0 -0.0022845014466335448 -0.0017187972907947589 0 -0.0020690721602439092 -0.0016594024045784989 0 -0.0022845014466335448 -0.0017187972907947589 0 -0.0022127249585323049 -0.0015438585330621788 0 -0.0014428057472015907 0.0002739146446222597 0 -0.00126444456558408 -0.00085842320002476322 0 -0.0010395854909260051 2.7045359187687486e-05 0 -0.0010665280600418371 0.00020722457632655429 0 -0.0012088228689958853 0.0001708503806436144 0 -0.00044870323284133085 -3.1278185169913841e-05 0 -0.00044130178300379788 -3.769927805683114e-05 0 -0.00044796234066726799 -2.8625138631402793e-05 0 -0.00064067068113299894 0.00011371174088608592 0 -0.00126444456558408 -0.00085842320002476322 0 -0.00044130178300379788 -3.769927805683114e-05 0 -0.00044796234066726799 -2.8625138631402793e-05 0 -0.00044031596406859464 -2.9520230148257313e-05 0 -0.00044130178300379788 -3.769927805683114e-05 0 -0.00044031596406859464 -2.9520230148257313e-05 0 -0.00042315212965928325 -3.9409475940045575e-05 0 -0.00126444456558408 -0.00085842320002476322 0 -0.00053900456172887494 -0.00088372777603540288 0 -0.0014489017516014042 0.0014922315885445405 0 -0.0012983330457209271 0.0015412630408213033 0 -0.0013709211945587291 0.0016452052927985019 0 -0.0014428057472015907 0.0002739146446222597 0 -0.00094449765815383274 0.00090718004275218195 0 -0.0010395854909260051 2.7045359187687486e-05 0 -0.0010665280600418371 0.00020722457632655429 0 -0.00092342868412642436 0.00024271156497999912 0 -0.00044870323284133085 -3.1278185169913841e-05 0 -0.00044796234066726799 -2.8625138631402793e-05 0 -0.00045107431199235002 -2.6317691496096964e-05 0 -0.00064067068113299894 0.00011371174088608592 0 -0.00094449765815383274 0.00090718004275218195 0 -0.00094449765815383274 0.00090718004275218195 0 -0.0011985075411304774 0.0015418822221357658 0 -0.0012983330457209271 0.0015412630408213033 0 -0.0013709211945587291 0.0016452052927985019 0 -0.0012542157749243861 0.0016800274915528385 0 -0.0010460735435120392 0.0012988363212855668 0 -0.0010339962559882303 0.0013191777315747887 0 -0.0010710951250148299 0.0013185822378761357 0 -0.0011486018657259759 0.0017181924715817397 0 -0.0012542157749243861 0.0016800274915528385 0 -0.0012101802651527925 0.0016077647912792305 0 -0.0012983330457209271 0.0015412630408213033 0 -0.0012542157749243861 0.0016800274915528385 0 -0.0012101802651527925 0.0016077647912792305 0 -0.0012983330457209271 0.0015412630408213033 0 -0.0012101802651527925 0.0016077647912792305 0 -0.0011921433818443191 0.0015235476246489429 0 -0.0012101802651527925 0.0016077647912792305 0 -0.0011295614380234882 0.0016119937222951158 0 -0.0011921433818443191 0.0015235476246489429 0 -0.0011295614380234882 0.0016119937222951158 0 -0.0011109917400193244 0.0014935213137715867 0 -0.0011921433818443191 0.0015235476246489429 0 -0.0011486018657259759 0.0017181924715817397 0 -0.0012101802651527925 0.0016077647912792305 0 -0.0011295614380234882 0.0016119937222951158 0 -0.0011486018657259759 0.0017181924715817397 0 -0.0011295614380234882 0.0016119937222951158 0 -0.001078286449586148 0.0016816196576389629 0 -0.001078286449586148 0.0016816196576389629 0 -0.0010098395362532458 0.0016971895023124156 0 -0.0010406908383622326 0.0016056056699094163 0 -0.0010498337639709286 0.001754347143937912 0 -0.00096768354551721668 0.0017493101827442106 0 -0.0010098395362532458 0.0016971895023124156 0 -0.0010498337639709286 0.001754347143937912 0 -0.001078286449586148 0.0016816196576389629 0 -0.0010098395362532458 0.0016971895023124156 0 -0.00095893696533733196 0.001660751954357392 0 -0.0010098395362532458 0.0016971895023124156 0 -0.0010406908383622326 0.0016056056699094163 0 -0.0011295614380234882 0.0016119937222951158 0 -0.001078286449586148 0.0016816196576389629 0 -0.0010406908383622326 0.0016056056699094163 0 -0.0011295614380234882 0.0016119937222951158 0 -0.0010406908383622326 0.0016056056699094163 0 -0.0011109917400193244 0.0014935213137715867 0 -0.00092836884631338314 0.0015464483068014965 0 -0.0010406908383622326 0.0016056056699094163 0 -0.0010344880667404618 0.0014233323756571369 0 -0.0010406908383622326 0.0016056056699094163 0 -0.0011109917400193244 0.0014935213137715867 0 -0.0010344880667404618 0.0014233323756571369 0 -0.0011693865536254251 0.0013044850900804815 0 -0.0011109917400193244 0.0014935213137715867 0 -0.0010344880667404618 0.0014233323756571369 0 -0.0011693865536254251 0.0013044850900804815 0 -0.0011109917400193244 0.0014935213137715867 0 -0.0012368003055813592 0.0013806713429901963 0 -0.0012983330457209271 0.0015412630408213033 0 -0.0012368003055813592 0.0013806713429901963 0 -0.0011921433818443191 0.0015235476246489429 0 -0.0011109917400193244 0.0014935213137715867 0 -0.0012368003055813592 0.0013806713429901963 0 -0.0011921433818443191 0.0015235476246489429 0 -1.8433473673447983e-05 0.014318421960781246 0 -7.5215254885758933e-05 0.014131302729522616 0 0.000196199380310759 0.014430357711156609 0 5.4936484446352232e-05 0.014558136580309572 0 0.00019449110892890949 0.014579108536341236 0 -0.00030277230241343894 0.013671701920235362 0 -0.00025746967757263545 0.013692349225794804 0 -0.00023994279856177618 0.013656355666681299 0 -0.00030277230241343894 0.013671701920235362 0 -0.00023994279856177618 0.013656355666681299 0 -0.00024614989689438415 0.013609065524273111 0 -1.3349844943650261e-09 0.01499999594976895 0 -2.7503058252147053e-07 0.014999598941667554 0 -9.3174360183250177e-07 0.015000343587526751 0 0.000196199380310759 0.014430357711156609 0 0.00027467939312817661 0.01447235314748843 0 0.00019449110892890949 0.014579108536341236 0 8.5984313270576001e-08 0.014999840297061008 0 6.4190847390370445e-05 0.014772711367895583 0 -1.8433473673447983e-05 0.014318421960781246 0 6.4190847390370445e-05 0.014772711367895583 0 6.4190847390370445e-05 0.014772711367895583 0 -4.7133278606222176e-05 0.0148995832704966 0 1.8069449478593952e-05 0.014647350420010417 0 -1.3703078007600034e-05 0.014631560183628692 0 -8.0573244329503223e-06 0.014672575915904096 0 -4.7133278606222176e-05 0.0148995832704966 0 -1.9317382772826159e-05 0.014990666256811431 0 -1.3349844943650261e-09 0.01499999594976895 0 -9.3174360183250177e-07 0.015000343587526751 0 -1.2210243740972223e-09 0.015000007529843928 0 -1.8433473673447983e-05 0.014318421960781246 0 -4.7133278606222176e-05 0.0148995832704966 0 -4.3712275759083737e-05 0.014933355483467744 0 -2.3892609256294166e-05 0.014948062512189577 0 -3.6694118148439435e-05 0.01496169256945664 0 -2.7503058252147053e-07 0.014999598941667554 0 -6.5189519556914462e-07 0.014999878600177654 0 -9.3174360183250177e-07 0.015000343587526751 0 -3.4390595650003735e-06 0.015002221507505962 0 -9.3174360183250177e-07 0.015000343587526751 0 -7.5728504373902811e-06 0.014997627281315503 0 -4.7133278606222176e-05 0.0148995832704966 0 -3.9003464778914397e-05 0.014957514924691268 0 -3.1718584769131701e-05 0.014920517968479872 0 -4.3712275759083737e-05 0.014933355483467744 0 -2.3892609256294166e-05 0.014948062512189577 0 -3.1718584769131701e-05 0.014920517968479872 0 -2.3892609256294166e-05 0.014948062512189577 0 -1.3620236518505556e-05 0.014932703853467491 0 -1.8433473673447983e-05 0.014318421960781246 0 -9.6735527197147782e-05 0.014315678578674516 0 -2.3892609256294166e-05 0.014948062512189577 0 -1.3620236518505556e-05 0.014932703853467491 0 -1.0465129242052303e-05 0.014950748683580031 0 -0.00026817234539024083 0.013811609746155272 0 -9.6735527197147782e-05 0.014315678578674516 0 2.9045574646569227e-06 0.014941029376753642 0 -1.3620236518505556e-05 0.014932703853467491 0 -1.0465129242052303e-05 0.014950748683580031 0 -0.00021171694977627984 0.013715329729581893 0 -0.00025746967757263545 0.013692349225794804 0 -0.00023994279856177618 0.013656355666681299 0 -0.0010059713567325704 0.012390305433972026 0 -0.00085275668141793453 0.012295935158658722 0 -0.00095429326835627735 0.012086793831331781 0 -0.00026817234539024083 0.013811609746155272 0 -0.00059291115104721228 0.012562809468087166 0 -0.00085275668141793453 0.012295935158658722 0 -0.00068256733709330902 0.012370695111981793 0 -0.00087703362862315054 0.012434409183988471 0 -0.00076474201982519628 0.012224211167725162 0 -0.00068057198093054625 0.013076412691628982 0 -0.0010059713567325704 0.012390305433972026 0 -0.00085275668141793453 0.012295935158658722 0 -0.00087304009389246168 0.012461877035341996 0 -0.00026817234539024083 0.013811609746155272 0 -0.00068057198093054625 0.013076412691628982 0 -0.00085275668141793453 0.012295935158658722 0 -0.00095429326835627735 0.012086793831331781 0 -0.00072360037567327626 0.012080058946203233 0 -0.00021171694977627984 0.013715329729581893 0 -0.00019896518736024787 0.013630187008059501 0 -0.00023994279856177618 0.013656355666681299 0 -0.00019896518736024787 0.013630187008059501 0 -0.00023994279856177618 0.013656355666681299 0 -0.00024614989689438415 0.013609065524273111 0 -0.00019896518736024787 0.013630187008059501 0 -0.00024614989689438415 0.013609065524273111 0 -0.00018765484708746882 0.013547244004957382 0 5.4936484446352232e-05 0.014558136580309572 0 -9.1462552355102737e-05 0.014690856344637954 0 -2.1608329540672735e-05 0.014706395747673181 0 -7.5215254885758933e-05 0.014131302729522616 0 -0.00045187459759256338 0.013425376635267999 0 -0.00059291115104721228 0.012562809468087166 0 -0.00045187459759256338 0.013425376635267999 0 -0.00095429326835627735 0.012086793831331781 0 -0.00090326904518852908 0.011801383046638364 0 -0.00072360037567327626 0.012080058946203233 0 -9.1462552355102737e-05 0.014690856344637954 0 -0.00012358564455551265 0.014805192646990067 0 -0.00023443258824327169 0.014814922916485628 0 -9.1462552355102737e-05 0.014690856344637954 0 -6.6232171017868946e-05 0.014765761543413461 0 -2.1608329540672735e-05 0.014706395747673181 0 -9.1462552355102737e-05 0.014690856344637954 0 -6.6232171017868946e-05 0.014765761543413461 0 -0.00012358564455551265 0.014805192646990067 0 -2.1608329540672735e-05 0.014706395747673181 0 -2.0615202219712216e-05 0.014790620015944684 0 0.00014024055153845271 0.014772135986279925 0 5.4936484446352232e-05 0.014558136580309572 0 -2.1608329540672735e-05 0.014706395747673181 0 0.00014024055153845271 0.014772135986279925 0 -6.6232171017868946e-05 0.014765761543413461 0 -2.1608329540672735e-05 0.014706395747673181 0 -2.0615202219712216e-05 0.014790620015944684 0 0.00014024055153845271 0.014772135986279925 0 0.00019449110892890949 0.014579108536341236 0 0.00030501267298957305 0.014665626405208894 0 5.4936484446352232e-05 0.014558136580309572 0 0.00014024055153845271 0.014772135986279925 0 0.00019449110892890949 0.014579108536341236 0 6.4190847390370445e-05 0.014772711367895583 0 9.745111861886801e-05 0.014871084430059738 0 0.00027467939312817661 0.01447235314748843 0 0.00019449110892890949 0.014579108536341236 0 0.00030501267298957305 0.014665626405208894 0 3.1914789621450481e-12 0.01499999723988703 0 1.1372700320067353e-09 0.014999999079636721 0 2.6949300466098179e-07 0.014999674590489519 0 3.1914789621450481e-12 0.01499999723988703 0 2.2172292361268259e-07 0.014999148611954517 0 2.6949300466098179e-07 0.014999674590489519 0 2.4373223831644613e-08 0.014999866178516629 0 9.745111861886801e-05 0.014871084430059738 0 4.9597818208163526e-06 0.014946144803502218 0 -3.5520520177736284e-06 0.014970585730354225 0 2.2475501588708335e-08 0.014999894620892556 0 9.745111861886801e-05 0.014871084430059738 0 -1.9027162908699476e-05 0.01503731568942566 0 7.2383492319080049e-05 0.014851672745350769 0 9.745111861886801e-05 0.014871084430059738 0 3.4988046600855675e-10 0.01499999905763472 0 1.4700785506710745e-07 0.014999841495166071 0 3.5284472614473122e-10 0.01499999923775666 0 -1.6312059053176166e-05 0.014956789915038116 0 4.9597818208163526e-06 0.014946144803502218 0 -3.5520520177736284e-06 0.014970585730354225 0 1.4700785506710745e-07 0.014999841495166071 0 3.5284472614473122e-10 0.01499999923775666 0 -3.4566163334226803e-10 0.015000001054264633 0 -3.5520520177736284e-06 0.014970585730354225 0 -2.7217548394971941e-06 0.01498492256124203 0 2.2475501588708335e-08 0.014999894620892556 0 -3.5520520177736284e-06 0.014970585730354225 0 -6.9269859179172879e-06 0.014976144779584259 0 -2.7217548394971941e-06 0.01498492256124203 0 -6.9269859179172879e-06 0.014976144779584259 0 -2.7217548394971941e-06 0.01498492256124203 0 -1.1314923831127836e-06 0.014991437195331355 0 -2.7217548394971941e-06 0.01498492256124203 0 2.2475501588708335e-08 0.014999894620892556 0 -1.1314923831127836e-06 0.014991437195331355 0 -1.6312059053176166e-05 0.014956789915038116 0 -3.5520520177736284e-06 0.014970585730354225 0 -6.9269859179172879e-06 0.014976144779584259 0 -1.6312059053176166e-05 0.014956789915038116 0 -1.1851438719067965e-05 0.014963129581530055 0 -1.9460840307052426e-05 0.014945656225220384 0 -1.6312059053176166e-05 0.014956789915038116 0 -6.9269859179172879e-06 0.014976144779584259 0 -1.1851438719067965e-05 0.014963129581530055 0 -6.9269859179172879e-06 0.014976144779584259 0 -1.1851438719067965e-05 0.014963129581530055 0 -7.4013651452702959e-06 0.014975301416650785 0 -1.1512378906266278e-05 0.014969998736711503 0 -1.8619138496424103e-05 0.014967270061003877 0 -1.9460840307052426e-05 0.014945656225220384 0 -1.1851438719067965e-05 0.014963129581530055 0 -1.1512378906266278e-05 0.014969998736711503 0 -1.9460840307052426e-05 0.014945656225220384 0 -1.1851438719067965e-05 0.014963129581530055 0 -7.4013651452702959e-06 0.014975301416650785 0 -1.1512378906266278e-05 0.014969998736711503 0 -7.4013651452702959e-06 0.014975301416650785 0 -5.150644939071033e-06 0.014983487968594996 0 -2.3637582634502603e-06 0.014987288573843153 0 -7.4013651452702959e-06 0.014975301416650785 0 -5.150644939071033e-06 0.014983487968594996 0 -1.1512378906266278e-05 0.014969998736711503 0 -5.150644939071033e-06 0.014983487968594996 0 -1.1512378906266278e-05 0.014969998736711503 0 -6.3835472503516305e-06 0.014992384793245474 0 -1.1512378906266278e-05 0.014969998736711503 0 -6.3835472503516305e-06 0.014992384793245474 0 -1.9229806428860791e-05 0.014967254388420935 0 -0.00026627754384670594 0.014381232867621826 0 0.00059493959801144543 0.01329403232316549 0 2.2475501588708335e-08 0.014999894620892556 0 -1.1314923831127836e-06 0.014991437195331355 0 -5.0485491129672824e-09 0.015000007269547058 0 -1.1314923831127836e-06 0.014991437195331355 0 -2.3637582634502603e-06 0.014987288573843153 0 -5.0485491129672824e-09 0.015000007269547058 0 -6.9269859179172879e-06 0.014976144779584259 0 -1.1314923831127836e-06 0.014991437195331355 0 -2.3637582634502603e-06 0.014987288573843153 0 -6.9269859179172879e-06 0.014976144779584259 0 -7.4013651452702959e-06 0.014975301416650785 0 -2.3637582634502603e-06 0.014987288573843153 0 -5.150644939071033e-06 0.014983487968594996 0 -2.3637582634502603e-06 0.014987288573843153 0 1.0225366663207273e-07 0.014995887331718178 0 -2.3637582634502603e-06 0.014987288573843153 0 -5.0485491129672824e-09 0.015000007269547058 0 1.0225366663207273e-07 0.014995887331718178 0 -5.0485491129672824e-09 0.015000007269547058 0 3.9836780591926507e-06 0.015001002542589962 0 1.0225366663207273e-07 0.014995887331718178 0 -5.0485491129672824e-09 0.015000007269547058 0 3.9836780591926507e-06 0.015001002542589962 0 1.9628447563918351e-08 0.014999995520324445 0 -1.6372234367923552e-05 0.014986050535421314 0 8.1605521003372852e-05 0.015056246171103028 0 3.9836780591926507e-06 0.015001002542589962 0 1.0225366663207273e-07 0.014995887331718178 0 -6.3835472503516305e-06 0.014992384793245474 0 3.9836780591926507e-06 0.015001002542589962 0 5.0047926953589038e-05 0.015018628328527879 0 4.0523164971075969e-05 0.014996458267083027 0 -5.150644939071033e-06 0.014983487968594996 0 1.0225366663207273e-07 0.014995887331718178 0 -6.3835472503516305e-06 0.014992384793245474 0 8.1605521003372852e-05 0.015056246171103028 0 0.00059493959801144543 0.01329403232316549 0 5.0047926953589038e-05 0.015018628328527879 0 8.9988708462657849e-05 0.015002205982882485 0 0.00010641481399686826 0.015039694781603032 0 4.0523164971075969e-05 0.014996458267083027 0 6.1079367170230434e-05 0.014979342099577466 0 8.9988708462657849e-05 0.015002205982882485 0 5.0047926953589038e-05 0.015018628328527879 0 4.0523164971075969e-05 0.014996458267083027 0 8.9988708462657849e-05 0.015002205982882485 0 5.5189454734215265e-05 0.014939114759041316 0 6.1079367170230434e-05 0.014979342099577466 0 2.1155590832717806e-05 0.014983282924098149 0 5.5189454734215265e-05 0.014939114759041316 0 6.1079367170230434e-05 0.014979342099577466 0 0.0001196828283447711 0.014964711672343525 0 4.0523164971075969e-05 0.014996458267083027 0 6.1079367170230434e-05 0.014979342099577466 0 2.1155590832717806e-05 0.014983282924098149 0 3.9836780591926507e-06 0.015001002542589962 0 2.1155590832717806e-05 0.014983282924098149 0 1.9628447563918351e-08 0.014999995520324445 0 3.9836780591926507e-06 0.015001002542589962 0 4.0523164971075969e-05 0.014996458267083027 0 2.1155590832717806e-05 0.014983282924098149 0 0.00015765900959077375 0.014908591235072538 0 0.00020709623778120511 0.014945640554545827 0 0.00027828690413382368 0.014896045933826917 0 0.00015765900959077375 0.014908591235072538 0 0.00020709623778120511 0.014945640554545827 0 0.0001196828283447711 0.014964711672343525 0 6.1079367170230434e-05 0.014979342099577466 0 0.0001196828283447711 0.014964711672343525 0 8.9988708462657849e-05 0.015002205982882485 0 0.0010805524963920156 0.012456192032860487 0 0.00059493959801144543 0.01329403232316549 0 8.9988708462657849e-05 0.015002205982882485 0 0.00019473887367245124 0.015003925299194438 0 0.00010641481399686826 0.015039694781603032 0 0.0001196828283447711 0.014964711672343525 0 8.9988708462657849e-05 0.015002205982882485 0 0.00019473887367245124 0.015003925299194438 0 0.00020709623778120511 0.014945640554545827 0 0.0001196828283447711 0.014964711672343525 0 0.00019473887367245124 0.015003925299194438 0 0.0017273533144299741 0.010092961318643729 0 0.001787743946759906 0.009755394045461472 0 0.0014798923573450331 0.0097924485201016133 0 0.0017273533144299741 0.010092961318643729 0 0.001787743946759906 0.009755394045461472 0 0.0020772282774805333 0.0099853641662214151 0 -7.66523982204982e-05 0.014923088998183051 0 -1.8619138496424103e-05 0.014967270061003877 0 -4.2441818748535375e-05 0.0149034008079787 0 0.00096554345435177432 0.012299637774354912 0 0.00059493959801144543 0.01329403232316549 0 -1.8619138496424103e-05 0.014967270061003877 0 -1.9460840307052426e-05 0.014945656225220384 0 -4.2441818748535375e-05 0.0149034008079787 0 7.2383492319080049e-05 0.014851672745350769 0 -4.4359295830216362e-05 0.0149108827602505 0 -2.0615202219712216e-05 0.014790620015944684 0 0.00014024055153845271 0.014772135986279925 0 -4.2441818748535375e-05 0.0149034008079787 0 -1.6312059053176166e-05 0.014956789915038116 0 -1.9460840307052426e-05 0.014945656225220384 0 -4.2441818748535375e-05 0.0149034008079787 0 0.00096554345435177432 0.012299637774354912 0 -1.2147713169447892e-05 0.012279631056003779 0 -7.66523982204982e-05 0.014923088998183051 0 -0.00012358564455551265 0.014805192646990067 0 -0.00023443258824327169 0.014814922916485628 0 -7.66523982204982e-05 0.014923088998183051 0 -6.9283665769887971e-05 0.014841955730816375 0 -0.00012358564455551265 0.014805192646990067 0 -7.66523982204982e-05 0.014923088998183051 0 -4.2441818748535375e-05 0.0149034008079787 0 -6.9283665769887971e-05 0.014841955730816375 0 -2.0615202219712216e-05 0.014790620015944684 0 -4.2441818748535375e-05 0.0149034008079787 0 -6.9283665769887971e-05 0.014841955730816375 0 -6.6232171017868946e-05 0.014765761543413461 0 -6.9283665769887971e-05 0.014841955730816375 0 -0.00012358564455551265 0.014805192646990067 0 -6.6232171017868946e-05 0.014765761543413461 0 -2.0615202219712216e-05 0.014790620015944684 0 -6.9283665769887971e-05 0.014841955730816375 0 0.001787743946759906 0.009755394045461472 0 0.0014675322995477559 0.009494505982147643 0 0.0014798923573450331 0.0097924485201016133 0 0.0014675322995477559 0.009494505982147643 0 0.0013335388561450294 0.0096443781116411723 0 0.0014798923573450331 0.0097924485201016133 0 0.0014675322995477559 0.009494505982147643 0 0.0011800990629099687 0.0094730082575691966 0 0.0010230361783715681 0.0091772487415199919 0 0.0011800990629099687 0.0094730082575691966 0 0.0013335388561450294 0.0096443781116411723 0 0.0012046779782386712 0.0098187639981110499 0 0.0014675322995477559 0.009494505982147643 0 0.0011800990629099687 0.0094730082575691966 0 0.0013335388561450294 0.0096443781116411723 0 0.0011800990629099687 0.0094730082575691966 0 0.0012046779782386712 0.0098187639981110499 0 0.00096121698585455021 0.0097486069670026532 0 0.0012046779782386712 0.0098187639981110499 0 0.0014798923573450331 0.0097924485201016133 0 0.0013489467262588093 0.010235424379223366 0 0.0013335388561450294 0.0096443781116411723 0 0.0012046779782386712 0.0098187639981110499 0 0.0014798923573450331 0.0097924485201016133 0 0.00020709623778120511 0.014945640554545827 0 0.00019473887367245124 0.015003925299194438 0 0.00029764577698073341 0.014957589496470015 0 0.0017273533144299741 0.010092961318643729 0 0.0014798923573450331 0.0097924485201016133 0 0.0013489467262588093 0.010235424379223366 0 0.0010805524963920156 0.012456192032860487 0 0.00083289952261707137 0.01257392947189884 0 0.0013489467262588093 0.010235424379223366 0 0.00093099603957091167 0.010407075224690704 0 0.0010076239981597125 0.010064403328750016 0 0.0012046779782386712 0.0098187639981110499 0 0.0013489467262588093 0.010235424379223366 0 0.0010076239981597125 0.010064403328750016 0 0.00013550834516216017 0.01486865667543508 0 2.9674868995980247e-05 0.014949826424879527 0 0.00024137281337190204 0.01499580058522793 0 0.00016693548123095309 0.015157056699723812 0 0.00053201299922176078 0.01297325635451697 0 0.00083289952261707137 0.01257392947189884 0 0.00053201299922176078 0.01297325635451697 0 0.00029764577698073341 0.014957589496470015 0 0.00027828690413382368 0.014896045933826917 0 0.00040861864888003371 0.014894512896338653 0 0.00020709623778120511 0.014945640554545827 0 0.00029764577698073341 0.014957589496470015 0 0.00027828690413382368 0.014896045933826917 0 5.9936923190919154e-05 0.014887225317164656 0 0.00016693548123095309 0.015157056699723812 0 0.00045103591277000939 0.011414041192546163 0 0.00045076559051362183 0.011413807642212712 0 0.00045210702481813652 0.011431063505363975 0 0.00053201299922176078 0.01297325635451697 0 0.00050428181586761531 0.010400616159114459 0 0.00045103591277000939 0.011414041192546163 0 0.00045210702481813652 0.011431063505363975 0 0.00044726088633575847 0.01140792605398383 0 0.00045103591277000939 0.011414041192546163 0 0.00044726088633575847 0.01140792605398383 0 0.00045596524863770126 0.011420544649572428 0 0.00045103591277000939 0.011414041192546163 0 0.00045076559051362183 0.011413807642212712 0 0.00045767498744358706 0.011405811159256079 0 0.00045103591277000939 0.011414041192546163 0 0.00045767498744358706 0.011405811159256079 0 0.00045596524863770126 0.011420544649572428 0 0.00016085550979015644 0.012948893661202127 0 0.00038260490950259242 0.012712370436051413 0 0.00016085550979015644 0.012948893661202127 0 0.00053201299922176078 0.01297325635451697 0 0.00028983865352899882 0.014857173943906498 0 0.00039264354507106682 0.014934927610915269 0 0.00024137281337190204 0.01499580058522793 0 0.00093099603957091167 0.010407075224690704 0 0.00080159472352055302 0.010194151711610535 0 0.0010076239981597125 0.010064403328750016 0 0.00080159472352055302 0.010194151711610535 0 0.0010076239981597125 0.010064403328750016 0 0.0007970092224702087 0.0099878835588804449 0 0.00080159472352055302 0.010194151711610535 0 0.0007970092224702087 0.0099878835588804449 0 0.00062466054777156679 0.010118124004913262 0 0.00062466054777156679 0.010118124004913262 0 0.00048906748354248734 0.010177392718153641 0 0.00066820167464230317 0.0098119163353458973 0 0.00093099603957091167 0.010407075224690704 0 0.00080159472352055302 0.010194151711610535 0 0.00044344713005839512 0.010276614949806343 0 0.00060764540875564953 0.009951708024214077 0 0.00075867248410372971 0.009630027657486875 0 0.00080159472352055302 0.010194151711610535 0 0.00062466054777156679 0.010118124004913262 0 0.00044344713005839512 0.010276614949806343 0 0.00062466054777156679 0.010118124004913262 0 0.00044344713005839512 0.010276614949806343 0 0.00049183491221578308 0.0101776798656243 0 0.00050879781943748582 0.0098463144017361063 0 0.00045681041037381261 0.0099500467612289485 0 0.00062445379720373507 0.0098768479290813043 0 0.00055357762381167807 0.010039754617258067 0 0.00060764540875564953 0.009951708024214077 0 0.00050428181586761531 0.010400616159114459 0 0.00060764540875564953 0.009951708024214077 0 0.0007566139978433925 0.0095988731172230481 0 0.0008251723200894686 0.0094768785200263338 0 0.00073129201350768459 0.0094892997766684063 0 0.0008251723200894686 0.0094768785200263338 0 0.00075311242451581498 0.0093719804336039117 0 0.00073129201350768459 0.0094892997766684063 0 0.0007970092224702087 0.0099878835588804449 0 0.00062466054777156679 0.010118124004913262 0 0.00066820167464230317 0.0098119163353458973 0 0.00066820167464230317 0.0098119163353458973 0 0.00096121698585455021 0.0097486069670026532 0 0.00089992604298721839 0.009410707890439211 0 0.0010076239981597125 0.010064403328750016 0 0.0007970092224702087 0.0099878835588804449 0 0.00096121698585455021 0.0097486069670026532 0 0.0012046779782386712 0.0098187639981110499 0 0.0010076239981597125 0.010064403328750016 0 0.00096121698585455021 0.0097486069670026532 0 0.0007970092224702087 0.0099878835588804449 0 0.00066820167464230317 0.0098119163353458973 0 0.00096121698585455021 0.0097486069670026532 0 0.0011800990629099687 0.0094730082575691966 0 0.00096121698585455021 0.0097486069670026532 0 0.00089992604298721839 0.009410707890439211 0 0.0011800990629099687 0.0094730082575691966 0 0.00089992604298721839 0.009410707890439211 0 0.0010230361783715681 0.0091772487415199919 0 0.00075867248410372971 0.009630027657486875 0 0.00087712220618140369 0.0094345136556070984 0 0.0008251723200894686 0.0094768785200263338 0 0.00089992604298721839 0.009410707890439211 0 0.00075311242451581498 0.0093719804336039117 0 0.00089992604298721839 0.009410707890439211 0 0.00075311242451581498 0.0093719804336039117 0 0.00082089030932448476 0.0092222901217121466 0 0.00082089030932448476 0.0092222901217121466 0 0.00077995840858372119 0.0089608915612144277 0 0.00068580374544435557 0.0091678616912240305 0 0.00075311242451581498 0.0093719804336039117 0 0.00082089030932448476 0.0092222901217121466 0 0.00068580374544435557 0.0091678616912240305 0 0.00082089030932448476 0.0092222901217121466 0 0.00077995840858372119 0.0089608915612144277 0 0.0010230361783715681 0.0091772487415199919 0 0.00036438880747831083 0.010495087555587559 0 0.0003388203470725533 0.010192647487980679 0 -6.5348996198322129e-05 0.011933674234486252 0 -0.00038142697028230532 0.011764462143737216 0 -0.00043084466667132041 0.011999286685414962 0 0.00089992604298721839 0.009410707890439211 0 0.00082089030932448476 0.0092222901217121466 0 0.0010230361783715681 0.0091772487415199919 0 -1.2147713169447892e-05 0.012279631056003779 0 0.0003388203470725533 0.010192647487980679 0 -0.00068276113710749467 0.011596887167569814 0 -0.00038142697028230532 0.011764462143737216 0 -0.00063734163285592504 0.011839953368649478 0 -0.00045187459759256338 0.013425376635267999 0 -1.2147713169447892e-05 0.012279631056003779 0 -0.00090326904518852908 0.011801383046638364 0 -0.00068276113710749467 0.011596887167569814 0 -0.00063734163285592504 0.011839953368649478 0 -0.00090326904518852908 0.011801383046638364 0 -0.00063734163285592504 0.011839953368649478 0 -0.00072360037567327626 0.012080058946203233 0 -0.00063734163285592504 0.011839953368649478 0 -0.00043084466667132041 0.011999286685414962 0 -0.00072360037567327626 0.012080058946203233 0 -0.00038142697028230532 0.011764462143737216 0 -0.00063734163285592504 0.011839953368649478 0 -0.00043084466667132041 0.011999286685414962 0 -0.00043084466667132041 0.011999286685414962 0 -0.00050433312372313659 0.012197622141006293 0 -0.00072360037567327626 0.012080058946203233 0 -0.00050433312372313659 0.012197622141006293 0 -0.00072360037567327626 0.012080058946203233 0 -0.00068256733709330902 0.012370695111981793 0 -0.00085275668141793453 0.012295935158658722 0 -0.00072360037567327626 0.012080058946203233 0 -0.00068256733709330902 0.012370695111981793 0 -0.00050433312372313659 0.012197622141006293 0 -0.00068256733709330902 0.012370695111981793 0 -0.00042853881875705652 0.012412193878340324 0 -0.00025719991483961634 0.012181848657182083 0 -0.00018714385037156726 0.012430572932558141 0 -0.00042853881875705652 0.012412193878340324 0 -0.00050433312372313659 0.012197622141006293 0 -0.00025719991483961634 0.012181848657182083 0 -0.00042853881875705652 0.012412193878340324 0 -0.00025719991483961634 0.012181848657182083 0 4.2162640799017277e-05 0.012273711508174016 0 -0.00018714385037156726 0.012430572932558141 0 -6.5348996198322129e-05 0.011933674234486252 0 -0.00025719991483961634 0.012181848657182083 0 4.2162640799017277e-05 0.012273711508174016 0 -0.00043084466667132041 0.011999286685414962 0 -0.00050433312372313659 0.012197622141006293 0 -0.00025719991483961634 0.012181848657182083 0 -6.5348996198322129e-05 0.011933674234486252 0 -0.00043084466667132041 0.011999286685414962 0 -0.00025719991483961634 0.012181848657182083 0 -6.5348996198322129e-05 0.011933674234486252 0 0.00026572680223788234 0.012126864230311403 0 4.2162640799017277e-05 0.012273711508174016 0 0.00036438880747831083 0.010495087555587559 0 0.00038619371834087691 0.010373424180904664 0 4.2162640799017277e-05 0.012273711508174016 0 0.00023660236271085902 0.012279372549534848 0 0.00021351291447804969 0.012440771577891344 0 0.00026572680223788234 0.012126864230311403 0 0.00023660236271085902 0.012279372549534848 0 0.0003897039572357776 0.012275889599243927 0 0.00026572680223788234 0.012126864230311403 0 4.2162640799017277e-05 0.012273711508174016 0 0.00023660236271085902 0.012279372549534848 0 0.00023660236271085902 0.012279372549534848 0 0.0003897039572357776 0.012275889599243927 0 0.00021351291447804969 0.012440771577891344 0 0.00026572680223788234 0.012126864230311403 0 0.0003897039572357776 0.012275889599243927 0 0.00040911145698202642 0.01226775556983929 0 0.00038619371834087691 0.010373424180904664 0 0.00028423401689223757 0.010472050115664341 0 0.00021024674707757006 0.0083872060740734274 0 8.8937935257053151e-05 0.008592413560787401 0 -0.00011988365516408781 0.0083940050627569606 0 8.8937935257053151e-05 0.008592413560787401 0 0.00015994045200033857 0.0087991363232849326 0 -6.2402783465533745e-05 0.0088242120662902507 0 0.00021024674707757006 0.0083872060740734274 0 8.8937935257053151e-05 0.008592413560787401 0 0.00026846354141364697 0.0086611719911134522 0 8.8937935257053151e-05 0.008592413560787401 0 0.00026846354141364697 0.0086611719911134522 0 0.00015994045200033857 0.0087991363232849326 0 0.00053123246094476746 0.0086871970229809147 0 0.00026846354141364697 0.0086611719911134522 0 0.00035926270370730565 0.0088809220481571513 0 0.00026846354141364697 0.0086611719911134522 0 0.00035926270370730565 0.0088809220481571513 0 0.00015994045200033857 0.0087991363232849326 0 0.00053123246094476746 0.0086871970229809147 0 0.00021024674707757006 0.0083872060740734274 0 0.00026846354141364697 0.0086611719911134522 0 0.00035926270370730565 0.0088809220481571513 0 0.00015994045200033857 0.0087991363232849326 0 0.00019445030420108347 0.009036496853163033 0 0.00015994045200033857 0.0087991363232849326 0 0.00019445030420108347 0.009036496853163033 0 -6.2402783465533745e-05 0.0088242120662902507 0 0.00034238881896893792 0.0088925136222283221 0 0.00014012086207073913 0.0085856686681010357 0 0.00019445030420108347 0.009036496853163033 0 0.00029701945954701073 0.0092335224698311576 0 -3.15313542735399e-05 0.0091859833458267093 0 0.00019445030420108347 0.009036496853163033 0 -3.15313542735399e-05 0.0091859833458267093 0 -6.2402783465533745e-05 0.0088242120662902507 0 0.00019445030420108347 0.009036496853163033 0 0.00038956718456736612 0.009120294789670514 0 0.00029701945954701073 0.0092335224698311576 0 0.00035926270370730565 0.0088809220481571513 0 0.00019445030420108347 0.009036496853163033 0 0.00038956718456736612 0.009120294789670514 0 0.00029978709977456137 0.0091683058205249673 0 0.00034238881896893792 0.0088925136222283221 0 0.00038956718456736612 0.009120294789670514 0 0.00068580374544435557 0.0091678616912240305 0 0.0006002553608020336 0.0093196858699774367 0 0.00038956718456736612 0.009120294789670514 0 0.00055358405436975705 0.0089640142698791062 0 0.00068580374544435557 0.0091678616912240305 0 0.00053123246094476746 0.0086871970229809147 0 0.00035926270370730565 0.0088809220481571513 0 0.00055358405436975705 0.0089640142698791062 0 0.00035926270370730565 0.0088809220481571513 0 0.00038956718456736612 0.009120294789670514 0 0.00055358405436975705 0.0089640142698791062 0 0.00077995840858372119 0.0089608915612144277 0 0.00053123246094476746 0.0086871970229809147 0 0.00055358405436975705 0.0089640142698791062 0 0.00077995840858372119 0.0089608915612144277 0 0.00055358405436975705 0.0089640142698791062 0 0.00068580374544435557 0.0091678616912240305 0 0.00075311242451581498 0.0093719804336039117 0 0.00068580374544435557 0.0091678616912240305 0 0.0006002553608020336 0.0093196858699774367 0 0.00075311242451581498 0.0093719804336039117 0 0.0006002553608020336 0.0093196858699774367 0 0.00063994403554317185 0.0094517690042154393 0 0.00038956718456736612 0.009120294789670514 0 0.0006002553608020336 0.0093196858699774367 0 0.0002907408606217851 0.009241211830367347 0 0.00060468243742086141 0.0094074853641934655 0 0.00034238881896893792 0.0088925136222283221 0 0.0006002553608020336 0.0093196858699774367 0 0.00048871052544214688 0.0094164284906893825 0 0.00041176899118125292 0.0092921063386397877 0 0.0006002553608020336 0.0093196858699774367 0 0.00048871052544214688 0.0094164284906893825 0 0.00063994403554317185 0.0094517690042154393 0 0.00048871052544214688 0.0094164284906893825 0 0.00063994403554317185 0.0094517690042154393 0 0.00054679683503924435 0.0095725126834520415 0 0.00075311242451581498 0.0093719804336039117 0 0.00063994403554317185 0.0094517690042154393 0 0.00073129201350768459 0.0094892997766684063 0 0.00063994403554317185 0.0094517690042154393 0 0.00073129201350768459 0.0094892997766684063 0 0.00067853515815111001 0.0095473994543787705 0 0.0007566139978433925 0.0095988731172230481 0 0.00073129201350768459 0.0094892997766684063 0 0.00067853515815111001 0.0095473994543787705 0 0.00067853515815111001 0.0095473994543787705 0 0.00069869516456841016 0.0096227920081581771 0 0.00054679683503924435 0.0095725126834520415 0 0.00068705340452618509 0.0096422415523997589 0 0.00064535322381843014 0.0089772721972383868 0 0.00063994403554317185 0.0094517690042154393 0 0.00067853515815111001 0.0095473994543787705 0 0.00054679683503924435 0.0095725126834520415 0 0.0007566139978433925 0.0095988731172230481 0 0.00067853515815111001 0.0095473994543787705 0 0.00069869516456841016 0.0096227920081581771 0 0.00060764540875564953 0.009951708024214077 0 0.00068705340452618509 0.0096422415523997589 0 0.00050428181586761531 0.010400616159114459 0 0.00068705340452618509 0.0096422415523997589 0 0.00077625011145520783 0.0084539700677822849 0 0.00078368060830271791 0.008430051383559652 0 0.00079143184413510393 0.0084383702961043361 0 0.0007445971788186031 0.008460772998609244 0 0.00077625011145520783 0.0084539700677822849 0 0.00078368060830271791 0.008430051383559652 0 0.00061815743653991146 0.010924857613278249 0 0.00061093435179038495 0.010810467688794637 0 0.0006741180802161186 0.010863967461043548 0 0.00068705340452618509 0.0096422415523997589 0 0.00067338628168919833 0.0096756342410991968 0 0.00061093435179038495 0.010810467688794637 0 0.0006741180802161186 0.010863967461043548 0 0.00074072499650238257 0.010803924115965785 0 0.00078971036870659542 0.010717786572582563 0 0.00061093435179038495 0.010810467688794637 0 0.00074072499650238257 0.010803924115965785 0 0.00059736350168311449 0.011288374418487606 0 0.00050428181586761531 0.010400616159114459 0 0.00074707703226970944 0.010902240639532098 0 0.0006741180802161186 0.010863967461043548 0 0.00074072499650238257 0.010803924115965785 0 0.0004822012929812968 0.011443704337637197 0 0.00044726088633575847 0.01140792605398383 0 0.00045596524863770126 0.011420544649572428 0 0.00074707703226970944 0.010902240639532098 0 0.00083024324160167133 0.010729033036737013 0 0.00074072499650238257 0.010803924115965785 0 0.00083024324160167133 0.010729033036737013 0 0.00078971036870659542 0.010717786572582563 0 0.00074072499650238257 0.010803924115965785 0 0.00087831495851855939 0.0083828255646000716 0 0.00085616282229364674 0.0083575463244115276 0 0.00085375129841087818 0.0083485935607883754 0 0.00081593307369067696 0.0084201226116154496 0 0.00080435859579780413 0.0084261142120299719 0 0.00081361511120112433 0.0084229866975976848 0 0.00078097328290507786 0.0092019397642123038 0 0.00077761236630480973 0.0083028241500351686 0 0.00081054577145973916 0.0084176872361800444 0 0.00081593307369067696 0.0084201226116154496 0 0.00080435859579780413 0.0084261142120299719 0 0.00078368060830271791 0.008430051383559652 0 0.00080435859579780413 0.0084261142120299719 0 0.00079143184413510393 0.0084383702961043361 0 0.00078097328290507786 0.0092019397642123038 0 0.00067338628168919833 0.0096756342410991968 0 0.00081054577145973916 0.0084176872361800444 0 0.00078368060830271791 0.008430051383559652 0 0.00080435859579780413 0.0084261142120299719 0 0.00064535322381843014 0.0089772721972383868 0 0.00060320884459992661 0.0090005924511176363 0 0.00079984325050192113 0.0084405154400213206 0 0.00079143184413510393 0.0084383702961043361 0 0.00081361511120112433 0.0084229866975976848 0 0.00080435859579780413 0.0084261142120299719 0 0.00079143184413510393 0.0084383702961043361 0 0.00081361511120112433 0.0084229866975976848 0 0.00077625011145520783 0.0084539700677822849 0 0.00079984325050192113 0.0084405154400213206 0 0.00079143184413510393 0.0084383702961043361 0 0.00079984325050192113 0.0084405154400213206 0 0.00081361511120112433 0.0084229866975976848 0 0.00082630218883081611 0.0084351552469460848 0 0.00081593307369067696 0.0084201226116154496 0 0.00081361511120112433 0.0084229866975976848 0 0.00083657671548440144 0.0084035756668858191 0 0.00081361511120112433 0.0084229866975976848 0 0.00082630218883081611 0.0084351552469460848 0 0.00083657671548440144 0.0084035756668858191 0 0.00040149383626566994 0.0095184735055049742 0 0.0003390317361823062 0.0093849637624209923 0 0.00026930428296487532 0.0094715513065352416 0 0.00060320884459992661 0.0090005924511176363 0 0.00062443159719905187 0.0086047686627290145 0 0.00040519357030262683 0.0081494753317317911 0 0.00027496449037596492 0.008118411221278753 0 0.00033910411275968501 0.0082346223139213963 0 0.00035643101370011259 0.0087894290399562931 0 0.00062443159719905187 0.0086047686627290145 0 0.00048871052544214688 0.0094164284906893825 0 0.00040149383626566994 0.0095184735055049742 0 0.0003390317361823062 0.0093849637624209923 0 0.00048871052544214688 0.0094164284906893825 0 0.00054679683503924435 0.0095725126834520415 0 0.00040149383626566994 0.0095184735055049742 0 0.00048871052544214688 0.0094164284906893825 0 0.00041176899118125292 0.0092921063386397877 0 0.0003390317361823062 0.0093849637624209923 0 0.00034238881896893792 0.0088925136222283221 0 0.00035643101370011259 0.0087894290399562931 0 0.00047063751000633207 0.0080709670471916725 0 0.00040519357030262683 0.0081494753317317911 0 0.0003124435354341724 0.0080323053346195526 0 0.00040519357030262683 0.0081494753317317911 0 0.00027496449037596492 0.008118411221278753 0 0.0003124435354341724 0.0080323053346195526 0 0.00027496449037596492 0.008118411221278753 0 0.00014129209624250632 0.0079855970139490733 0 0.0003124435354341724 0.0080323053346195526 0 0.00027496449037596492 0.008118411221278753 0 0.00016523234995730895 0.0081828856703247861 0 0.00014129209624250632 0.0079855970139490733 0 0.00080735469788736599 0.0080649127509894204 0 0.00080664726263465281 0.0082044305525638163 0 0.00072495828985967548 0.0081403041518658403 0 0.00048141092871430071 0.0080515101196346629 0 0.00062443159719905187 0.0086047686627290145 0 0.00027496449037596492 0.008118411221278753 0 0.00016523234995730895 0.0081828856703247861 0 0.00033910411275968501 0.0082346223139213963 0 0.00080735469788736599 0.0080649127509894204 0 0.00099750644077309576 0.0081247944451271863 0 0.00092623333024908811 0.0082149619628630686 0 0.00062443159719905187 0.0086047686627290145 0 0.00092795116492940357 0.0082489485503454314 0 0.00082630218883081611 0.0084351552469460848 0 0.00083657671548440144 0.0084035756668858191 0 0.00085645334191314598 0.008386878876740016 0 0.00085616282229364674 0.0083575463244115276 0 0.00083657671548440144 0.0084035756668858191 0 0.00085375129841087818 0.0083485935607883754 0 0.00077761236630480973 0.0083028241500351686 0 0.00085225637817135666 0.0084349943465590865 0 0.00083657671548440144 0.0084035756668858191 0 0.00085645334191314598 0.008386878876740016 0 0.00085375129841087818 0.0083485935607883754 0 0.00092795116492940357 0.0082489485503454314 0 0.00083607195804488417 0.0083456542083888505 0 0.00080735469788736599 0.0080649127509894204 0 0.00092623333024908811 0.0082149619628630686 0 0.00080664726263465281 0.0082044305525638163 0 0.00080664726263465281 0.0082044305525638163 0 0.00084070312596974445 0.0083263375223002079 0 0.00073887945126174261 0.0082610619588313235 0 0.00092623333024908811 0.0082149619628630686 0 0.00080664726263465281 0.0082044305525638163 0 0.00084070312596974445 0.0083263375223002079 0 0.00084070312596974445 0.0083263375223002079 0 0.00076958213341848177 0.0083587963183925033 0 0.00073887945126174261 0.0082610619588313235 0 0.00085008220496716482 0.0084200263393386671 0 0.00084070312596974445 0.0083263375223002079 0 0.00085375129841087818 0.0083485935607883754 0 0.00085645334191314598 0.008386878876740016 0 0.00084070312596974445 0.0083263375223002079 0 0.00085375129841087818 0.0083485935607883754 0 0.00061595186759445396 0.0082594950679676128 0 0.00067934601394530904 0.0083388052810312793 0 0.0006739232054218244 0.0082668887649253245 0 0.00061595186759445396 0.0082594950679676128 0 0.00055891695213644132 0.0082369861224989935 0 0.00057738651144248671 0.0083411211190348306 0 0.00061595186759445396 0.0082594950679676128 0 0.00057738651144248671 0.0083411211190348306 0 0.00067934601394530904 0.0083388052810312793 0 0.00067934601394530904 0.0083388052810312793 0 0.00076958213341848177 0.0083587963183925033 0 0.00073887945126174261 0.0082610619588313235 0 0.00067934601394530904 0.0083388052810312793 0 0.00073887945126174261 0.0082610619588313235 0 0.0006739232054218244 0.0082668887649253245 0 0.00073887945126174261 0.0082610619588313235 0 0.0006739232054218244 0.0082668887649253245 0 0.0006436721626715999 0.0081728985489804701 0 0.00080664726263465281 0.0082044305525638163 0 0.00073887945126174261 0.0082610619588313235 0 0.00072495828985967548 0.0081403041518658403 0 0.00073887945126174261 0.0082610619588313235 0 0.00072495828985967548 0.0081403041518658403 0 0.0006436721626715999 0.0081728985489804701 0 0.00061595186759445396 0.0082594950679676128 0 0.0006739232054218244 0.0082668887649253245 0 0.0006436721626715999 0.0081728985489804701 0 0.00054586907127299254 0.008184057899310938 0 0.00061595186759445396 0.0082594950679676128 0 0.00055891695213644132 0.0082369861224989935 0 0.00054586907127299254 0.008184057899310938 0 0.00061595186759445396 0.0082594950679676128 0 0.0006436721626715999 0.0081728985489804701 0 0.00054586907127299254 0.008184057899310938 0 0.0006436721626715999 0.0081728985489804701 0 0.00055136554375717097 0.0080735903379844775 0 0.0006436721626715999 0.0081728985489804701 0 0.00055136554375717097 0.0080735903379844775 0 0.00062893926803540552 0.0079986873437700914 0 0.00080735469788736599 0.0080649127509894204 0 0.00072495828985967548 0.0081403041518658403 0 0.00062893926803540552 0.0079986873437700914 0 0.00072495828985967548 0.0081403041518658403 0 0.0006436721626715999 0.0081728985489804701 0 0.00062893926803540552 0.0079986873437700914 0 0.00048141092871430071 0.0080515101196346629 0 0.00030246500576417578 0.008222742581200251 0 0.00016523234995730895 0.0081828856703247861 0 -2.1448424310609267e-05 0.0081217315904746779 0 0.00014129209624250632 0.0079855970139490733 0 -0.00021739898272991101 0.0080523553466716469 0 -2.1448424310609267e-05 0.0081217315904746779 0 -4.3286035848009001e-05 0.0079350482139327362 0 -0.00092563164663222444 0.0091207471689150801 0 -0.00069646829926058539 0.0088158329875172164 0 -0.001110241125482532 0.0086250761810030552 0 -0.00069646829926058539 0.0088158329875172164 0 -0.00041360011000856007 0.0091463780320825069 0 -0.00038921099365083975 0.0086816799530094729 0 -0.00092563164663222444 0.0091207471689150801 0 -0.00069646829926058539 0.0088158329875172164 0 -0.00041360011000856007 0.0091463780320825069 0 -0.0005859623550779643 0.0087566362124359143 0 -0.00012469806906573806 0.0085458327271085554 0 -2.1448424310609267e-05 0.0081217315904746779 0 -4.3286035848009001e-05 0.0079350482139327362 0 0.00014129209624250632 0.0079855970139490733 0 -0.00012469806906573806 0.0085458327271085554 0 0.00014012086207073913 0.0085856686681010357 0 -0.00041360011000856007 0.0091463780320825069 0 -3.15313542735399e-05 0.0091859833458267093 0 -6.2402783465533745e-05 0.0088242120662902507 0 -0.00041360011000856007 0.0091463780320825069 0 -6.2402783465533745e-05 0.0088242120662902507 0 -0.00038921099365083975 0.0086816799530094729 0 -0.00038921099365083975 0.0086816799530094729 0 -0.00011988365516408781 0.0083940050627569606 0 -0.00040003385363252556 0.008354869550932658 0 -6.2402783465533745e-05 0.0088242120662902507 0 -0.00038921099365083975 0.0086816799530094729 0 -0.00011988365516408781 0.0083940050627569606 0 8.8937935257053151e-05 0.008592413560787401 0 -6.2402783465533745e-05 0.0088242120662902507 0 -0.00011988365516408781 0.0083940050627569606 0 0.00021024674707757006 0.0083872060740734274 0 -0.00011988365516408781 0.0083940050627569606 0 -0.00010767957199585388 0.0081665020096552306 0 -0.00011988365516408781 0.0083940050627569606 0 -0.00040003385363252556 0.008354869550932658 0 -0.00042439625474096249 0.0081521893589087974 0 -0.00063965203311728712 0.0082265440784805612 0 -0.0002101086271322069 0.0078826848612008095 0 -0.00065920924939359693 0.0082176140522187725 0 -0.00074593980282738816 0.0077846925282461042 0 -6.7880606009028651e-05 0.0077667658856712691 0 -0.00040003385363252556 0.008354869550932658 0 -0.00065920924939359693 0.0082176140522187725 0 -0.00042439625474096249 0.0081521893589087974 0 -0.0011863792365113641 0.0080400259039166092 0 -0.00065920924939359693 0.0082176140522187725 0 -0.00074593980282738816 0.0077846925282461042 0 -0.0011863792365113641 0.0080400259039166092 0 -0.00065920924939359693 0.0082176140522187725 0 -0.001110241125482532 0.0086250761810030552 0 -0.00069646829926058539 0.0088158329875172164 0 -0.00065920924939359693 0.0082176140522187725 0 -0.001110241125482532 0.0086250761810030552 0 -0.00038921099365083975 0.0086816799530094729 0 -0.00040003385363252556 0.008354869550932658 0 -0.00065920924939359693 0.0082176140522187725 0 -0.00069646829926058539 0.0088158329875172164 0 -0.00038921099365083975 0.0086816799530094729 0 -0.00065920924939359693 0.0082176140522187725 0 -0.00050338988432009461 0.0070496322535041483 0 -0.000875167093012732 0.0070938557488385108 0 -0.0005581213721028099 0.0074110462108026628 0 -0.00050338988432009461 0.0070496322535041483 0 -0.0005581213721028099 0.0074110462108026628 0 -0.0002186807417775669 0.0072715561825523025 0 -0.00050338988432009461 0.0070496322535041483 0 -0.00042088372815035131 0.0067867231498674636 0 -0.0002186807417775669 0.0072715561825523025 0 -0.00047102584673078035 0.0068150797149651651 0 -0.00041906033319196167 0.0067879822446159149 0 -0.00084619642252030597 0.006797845019576032 0 -0.00033695614044638002 0.0068074867971912876 0 -0.00032502031926402589 0.0068029756543198875 0 -0.00050338988432009461 0.0070496322535041483 0 -0.00047102584673078035 0.0068150797149651651 0 -0.00042088372815035131 0.0067867231498674636 0 -0.00050338988432009461 0.0070496322535041483 0 -0.00047102584673078035 0.0068150797149651651 0 -0.00071867007994614847 0.0069166903990993235 0 -0.00084619642252030597 0.006797845019576032 0 -0.00071867007994614847 0.0069166903990993235 0 -0.000875167093012732 0.0070938557488385108 0 -0.0013882841452356476 0.0069333982208779378 0 -0.00084619642252030597 0.006797845019576032 0 -0.000875167093012732 0.0070938557488385108 0 -0.00047102584673078035 0.0068150797149651651 0 -0.00084619642252030597 0.006797845019576032 0 -0.00071867007994614847 0.0069166903990993235 0 -0.0013882841452356476 0.0069333982208779378 0 -0.000875167093012732 0.0070938557488385108 0 -0.0010944829100095598 0.0074832470163572118 0 -0.00050338988432009461 0.0070496322535041483 0 -0.00071867007994614847 0.0069166903990993235 0 -0.000875167093012732 0.0070938557488385108 0 -0.0011863792365113641 0.0080400259039166092 0 -0.00074593980282738816 0.0077846925282461042 0 -0.0010944829100095598 0.0074832470163572118 0 -0.00074593980282738816 0.0077846925282461042 0 -0.0010944829100095598 0.0074832470163572118 0 -0.0005581213721028099 0.0074110462108026628 0 -0.000875167093012732 0.0070938557488385108 0 -0.0010944829100095598 0.0074832470163572118 0 -0.0005581213721028099 0.0074110462108026628 0 -0.00074593980282738816 0.0077846925282461042 0 -0.0005581213721028099 0.0074110462108026628 0 -6.7880606009028651e-05 0.0077667658856712691 0 -0.0005581213721028099 0.0074110462108026628 0 -0.0002186807417775669 0.0072715561825523025 0 -6.7880606009028651e-05 0.0077667658856712691 0 -0.00011988365516408781 0.0083940050627569606 0 -0.00042439625474096249 0.0081521893589087974 0 -0.00010515240874188158 0.0079988476016632972 0 -0.00042439625474096249 0.0081521893589087974 0 -0.00016226678796505824 0.0079628697945026018 0 -0.00010515240874188158 0.0079988476016632972 0 -0.0002186807417775669 0.0072715561825523025 0 -6.7880606009028651e-05 0.0077667658856712691 0 0.00045445524815380451 0.0073491051674645274 0 -0.0002101086271322069 0.0078826848612008095 0 0.00032324611352303132 0.0085910000527264496 0 0.00016290846547732649 0.012123987345022763 0 0.00016419059289897879 0.012082419922079375 0 0.00031746305608476181 0.012121580534269562 0 -0.00017010857277627165 0.007930148185696994 0 0.00029501561697034421 0.009217469937651962 0 0.00027568054142798561 0.0090189742107487977 0 0.00027532145874447912 0.0090191048150926965 0 0.00027467860061214692 0.0090207005208195815 0 0.00032324611352303132 0.0085910000527264496 0 0.00017269429173829255 0.009683412320887862 0 0.00032324611352303132 0.0085910000527264496 0 0.00029501561697034421 0.009217469937651962 0 0.00029501561697034421 0.009217469937651962 0 0.00017269429173829255 0.009683412320887862 0 0.00065652957372518746 0.0085131681877975342 0 0.0003724087360386497 0.0082549609801704851 0 0.00063384262940086023 0.0076862420699105125 0 0.00052677336247699278 0.010035566194861531 0 0.00051600894782836948 0.0095591752971143293 0 0.00084249049328429632 0.0097881092683967212 0 0.00017269429173829255 0.009683412320887862 0 0.0011351426646662121 0.0086134264242898693 0 0.00017269429173829255 0.009683412320887862 0 0.00060517999297575497 0.011189364557726761 0 0.00055709921018852948 0.0085923740024813015 0 0.00065652957372518746 0.0085131681877975342 0 0.0003724087360386497 0.0082549609801704851 0 -0.00042088372815035131 0.0067867231498674636 0 -0.0002186807417775669 0.0072715561825523025 0 0.00045445524815380451 0.0073491051674645274 0 -0.00032502031926402589 0.0068029756543198875 0 0.00032324611352303132 0.0085910000527264496 0 -0.00018511480782205014 0.0081155375209947759 0 0.0003724087360386497 0.0082549609801704851 0 0.00022468561469239108 0.007901036158189054 0 -0.00018511480782205014 0.0081155375209947759 0 0.00055709921018852948 0.0085923740024813015 0 0.0003724087360386497 0.0082549609801704851 0 0.0003724087360386497 0.0082549609801704851 0 0.00022468561469239108 0.007901036158189054 0 0.00063384262940086023 0.0076862420699105125 0 0.00010818727612204819 0.0049015074583368193 0 0.00048811523486922006 0.004702374053351035 0 0.00024749631699340406 0.0045289988739463417 0 0.00030952400985467983 0.0064068136383034352 0 0.0011351426646662121 0.0086134264242898693 0 0.00010818727612204819 0.0049015074583368193 0 1.5219635540613928e-05 0.0046102910444081749 0 0.00024749631699340406 0.0045289988739463417 0 0.00010818727612204819 0.0049015074583368193 0 1.5219635540613928e-05 0.0046102910444081749 0 -0.00019648014725156206 0.0047093203533261916 0 0.0011754001398201217 0.011439209422366222 0 0.00092666822650207606 0.011448993037151294 0 0.00081198807627240379 0.011216452915274797 0 0.0011351426646662121 0.0086134264242898693 0 0.00060517999297575497 0.011189364557726761 0 0.0025284680710495099 0.011478133689808727 0 0.0024687315781676059 0.013055037458712004 0 0.0019305089341831968 0.012476711149342472 0 0.0011351426646662121 0.0086134264242898693 0 0.00095679200283872994 0.0072979839658922716 0 0.0011754001398201217 0.011439209422366222 0 0.00079615040574123057 0.011665717822470745 0 0.00092666822650207606 0.011448993037151294 0 0.0011351426646662121 0.0086134264242898693 0 0.0011580085957595169 0.012131490532922068 0 0.00041227087991070995 0.0046533329404541152 0 0.00024749631699340406 0.0045289988739463417 0 0.00043549172537289606 0.0040785349997109616 0 0.0025284680710495099 0.011478133689808727 0 0.0019305089341831968 0.012476711149342472 0 0.0014804801143354857 0.012107337925141883 0 0.00024749631699340406 0.0045289988739463417 0 5.2528844387792159e-05 0.0043807138245547435 0 0.00043549172537289606 0.0040785349997109616 0 1.5219635540613928e-05 0.0046102910444081749 0 0.00024749631699340406 0.0045289988739463417 0 5.2528844387792159e-05 0.0043807138245547435 0 0.0011351426646662121 0.0086134264242898693 0 -0.00055169352527753611 0.0053756202981492026 0 5.2528844387792159e-05 0.0043807138245547435 0 -0.00026878576283804713 0.0043980680195366004 0 -0.0002291687327342949 0.0040431839593493557 0 -0.00026878576283804713 0.0043980680195366004 0 -0.00066717217680535524 0.004128246792949616 0 -0.0002291687327342949 0.0040431839593493557 0 -0.00026878576283804713 0.0043980680195366004 0 -0.0005141016900790257 0.00457710413243734 0 -0.00066717217680535524 0.004128246792949616 0 -0.00026878576283804713 0.0043980680195366004 0 -0.00019648014725156206 0.0047093203533261916 0 -0.0005141016900790257 0.00457710413243734 0 1.5219635540613928e-05 0.0046102910444081749 0 -0.00026878576283804713 0.0043980680195366004 0 -0.00019648014725156206 0.0047093203533261916 0 1.5219635540613928e-05 0.0046102910444081749 0 5.2528844387792159e-05 0.0043807138245547435 0 -0.00026878576283804713 0.0043980680195366004 0 -0.00029306220021016867 0.0051320175445668803 0 -0.00019648014725156206 0.0047093203533261916 0 -0.0005141016900790257 0.00457710413243734 0 -0.00029306220021016867 0.0051320175445668803 0 0.00010818727612204819 0.0049015074583368193 0 -0.00019648014725156206 0.0047093203533261916 0 -0.00032502031926402589 0.0068029756543198875 0 0.00030952400985467983 0.0064068136383034352 0 -0.0010008174836568962 0.004672324988466597 0 -0.00029306220021016867 0.0051320175445668803 0 -0.0005141016900790257 0.00457710413243734 0 -0.0011582995879008237 0.0054603108190792978 0 -0.00032502031926402589 0.0068029756543198875 0 -0.001206483892457845 0.0062405740704649841 0 -0.00041906033319196167 0.0067879822446159149 0 -0.00084619642252030597 0.006797845019576032 0 -0.0013882841452356476 0.0069333982208779378 0 -0.001206483892457845 0.0062405740704649841 0 -0.00084619642252030597 0.006797845019576032 0 -0.0010008174836568962 0.004672324988466597 0 -0.0005141016900790257 0.00457710413243734 0 -0.00066717217680535524 0.004128246792949616 0 -0.0012637759449138591 0.003915260764713123 0 -0.00066717217680535524 0.004128246792949616 0 -0.00086498933135491544 0.0036255131737743321 0 -0.00066717217680535524 0.004128246792949616 0 -0.00086498933135491544 0.0036255131737743321 0 -0.00047318071323446332 0.0036971874293373354 0 -0.0002291687327342949 0.0040431839593493557 0 -0.0001328423439580015 0.0037102870107042249 0 7.2947705650302383e-05 0.0038549705393439364 0 -0.00066717217680535524 0.004128246792949616 0 -0.0002291687327342949 0.0040431839593493557 0 -0.00047318071323446332 0.0036971874293373354 0 -0.0002291687327342949 0.0040431839593493557 0 -0.00047318071323446332 0.0036971874293373354 0 -0.0001328423439580015 0.0037102870107042249 0 -0.0001328423439580015 0.0037102870107042249 0 -0.00030519626050497169 0.0033525830251335607 0 0.00013449362101013846 0.0034284721099340125 0 -0.00047318071323446332 0.0036971874293373354 0 -0.00030519626050497169 0.0033525830251335607 0 -0.00064235105709486734 0.0033054307056714608 0 -0.00047318071323446332 0.0036971874293373354 0 -0.0001328423439580015 0.0037102870107042249 0 -0.00030519626050497169 0.0033525830251335607 0 -0.00030519626050497169 0.0033525830251335607 0 -0.00064235105709486734 0.0033054307056714608 0 -0.0005445491517965601 0.0029034292375426014 0 -0.00030519626050497169 0.0033525830251335607 0 -0.00015749626591411259 0.0030541831451935666 0 0.00013449362101013846 0.0034284721099340125 0 -0.00095426477195484415 0.0031070847754137904 0 -0.00086498933135491544 0.0036255131737743321 0 -0.00064235105709486734 0.0033054307056714608 0 -0.00086498933135491544 0.0036255131737743321 0 -0.00047318071323446332 0.0036971874293373354 0 -0.00064235105709486734 0.0033054307056714608 0 -0.00095426477195484415 0.0031070847754137904 0 -0.00064235105709486734 0.0033054307056714608 0 -0.0005445491517965601 0.0029034292375426014 0 -0.00095426477195484415 0.0031070847754137904 0 -0.0010318200229685998 0.0026317229722355381 0 -0.0005445491517965601 0.0029034292375426014 0 -0.00030519626050497169 0.0033525830251335607 0 -0.0005445491517965601 0.0029034292375426014 0 -0.00015749626591411259 0.0030541831451935666 0 -0.0005445491517965601 0.0029034292375426014 0 -0.00015749626591411259 0.0030541831451935666 0 -0.00015591566046041749 0.0026011261517689226 0 -0.00015591566046041749 0.0026011261517689226 0 -0.00058924067242084317 0.0023611244906009588 0 -0.0001566022518900556 0.0022797846538685426 0 -0.0005445491517965601 0.0029034292375426014 0 -0.00015591566046041749 0.0026011261517689226 0 -0.00058924067242084317 0.0023611244906009588 0 -0.0010318200229685998 0.0026317229722355381 0 -0.00058924067242084317 0.0023611244906009588 0 -0.0011343630544627006 0.0021876414314807853 0 -0.0010318200229685998 0.0026317229722355381 0 -0.0005445491517965601 0.0029034292375426014 0 -0.00058924067242084317 0.0023611244906009588 0 -0.00019831168961852573 0.0098240328940233379 0 -0.0002923221980518956 0.0074451568434517395 0 -0.00052256983027024195 0.014430246781795502 0 -0.00054532417660730313 0.014454918679785026 0 -0.00060869470418992112 0.014440621310860911 0 -0.00052256983027024195 0.014430246781795502 0 -0.00052395721143497123 0.014443750636358608 0 -0.00054532417660730313 0.014454918679785026 0 -0.00019831168961852573 0.0098240328940233379 0 -0.00073116134899142335 0.014702941444806696 0 -0.00078688349348016889 0.012547919765681584 0 -0.00052972355673138989 0.013655653416838618 0 -0.00083469383094099913 0.013552355565924263 0 0.00044134607211467102 0.0027528299490847444 0 8.1743614738969344e-05 0.0025380538490146747 0 0.000161469950088584 0.0021889952388258267 0 -0.00015591566046041749 0.0026011261517689226 0 8.1743614738969344e-05 0.0025380538490146747 0 -0.0001566022518900556 0.0022797846538685426 0 -0.00015591566046041749 0.0026011261517689226 0 8.1743614738969344e-05 0.0025380538490146747 0 0.00012768053358080036 0.0028967903659336451 0 0.00044134607211467102 0.0027528299490847444 0 8.1743614738969344e-05 0.0025380538490146747 0 0.00012768053358080036 0.0028967903659336451 0 -0.00015749626591411259 0.0030541831451935666 0 0.00012768053358080036 0.0028967903659336451 0 0.00013449362101013846 0.0034284721099340125 0 -0.00015749626591411259 0.0030541831451935666 0 -0.00015591566046041749 0.0026011261517689226 0 0.00012768053358080036 0.0028967903659336451 0 0.00044134607211467102 0.0027528299490847444 0 0.00012768053358080036 0.0028967903659336451 0 0.00049232293265703906 0.0032252752504703694 0 -0.00052256983027024195 0.014430246781795502 0 -0.00049568659808882885 0.014340810648533623 0 -0.00051735250814386932 0.014402459273629892 0 0.00045350642352052258 0.0094480373356876039 0 0.0004724710943958192 0.0089248946635968364 0 0.00021418282422167167 0.0087086592953323719 0 -0.00019831168961852573 0.0098240328940233379 0 0.00048754187488752107 0.0052322221274913152 0 -0.00019831168961852573 0.0098240328940233379 0 0.00053111562954831829 0.012381954974550724 0 -0.00052256983027024195 0.014430246781795502 0 -0.00051735250814386932 0.014402459273629892 0 -0.00052395721143497123 0.014443750636358608 0 0.00048754187488752107 0.0052322221274913152 0 0.00095679200283872994 0.0072979839658922716 0 0.00049232293265703906 0.0032252752504703694 0 0.00013449362101013846 0.0034284721099340125 0 0.00054001484094595373 0.0037406691876233369 0 0.0004724710943958192 0.0089248946635968364 0 0.00021418282422167167 0.0087086592953323719 0 0.00049080401445797221 0.0083997272071360506 0 0.0019492283194873267 0.013500960366085314 0 0.0019817676124891433 0.013595535848968934 0 0.0024687315781676059 0.013055037458712004 0 0.00053111562954831829 0.012381954974550724 0 0.00095679200283872994 0.0072979839658922716 0 0.00063631910321760004 0.012572640239571867 0 0.00053111562954831829 0.012381954974550724 0 0.00012768053358080036 0.0028967903659336451 0 0.00049232293265703906 0.0032252752504703694 0 0.00013449362101013846 0.0034284721099340125 0 0.0002376714827571803 0.0032621709793906866 0 0.00095679200283872994 0.0072979839658922716 0 0.00013449362101013846 0.0034284721099340125 0 7.2947705650302383e-05 0.0038549705393439364 0 0.00054001484094595373 0.0037406691876233369 0 5.2528844387792159e-05 0.0043807138245547435 0 7.2947705650302383e-05 0.0038549705393439364 0 0.00054001484094595373 0.0037406691876233369 0 5.2528844387792159e-05 0.0043807138245547435 0 -0.0002291687327342949 0.0040431839593493557 0 7.2947705650302383e-05 0.0038549705393439364 0 -0.0001328423439580015 0.0037102870107042249 0 0.00013449362101013846 0.0034284721099340125 0 7.2947705650302383e-05 0.0038549705393439364 0 0.0024687315781676059 0.013055037458712004 0 0.0019305089341831968 0.012476711149342472 0 0.0018769918035956761 0.013041340593149851 0 0.0019492283194873267 0.013500960366085314 0 0.0024687315781676059 0.013055037458712004 0 0.0018769918035956761 0.013041340593149851 0 0.0019305089341831968 0.012476711149342472 0 0.0014321089033121025 0.012813282278499462 0 0.0018769918035956761 0.013041340593149851 0 0.0014321089033121025 0.012813282278499462 0 0.0011574779586871738 0.013188108873248765 0 0.0015597983262422015 0.013337576321496911 0 0.0014321089033121025 0.012813282278499462 0 0.0018769918035956761 0.013041340593149851 0 0.0015597983262422015 0.013337576321496911 0 0.0014321089033121025 0.012813282278499462 0 0.00052798442159629304 0.012704784707628643 0 0.0014804801143354857 0.012107337925141883 0 0.0014321089033121025 0.012813282278499462 0 0.00052798442159629304 0.012704784707628643 0 0.0011574779586871738 0.013188108873248765 0 0.00052798442159629304 0.012704784707628643 0 0.000582443113111382 0.013705668903152422 0 0.00088670621150681089 0.013440712694832369 0 0.00050177740148937529 0.012806136766125967 0 0.00057167830501687888 0.013695696265901848 0 0.00052798442159629304 0.012704784707628643 0 0.0011574779586871738 0.013188108873248765 0 0.00088670621150681089 0.013440712694832369 0 0.000582443113111382 0.013705668903152422 0 0.00088670621150681089 0.013440712694832369 0 0.00091913336382416517 0.013753451955750966 0 0.0011574779586871738 0.013188108873248765 0 0.00088670621150681089 0.013440712694832369 0 0.0012403770795676354 0.013588072612954654 0 0.00088670621150681089 0.013440712694832369 0 0.00091913336382416517 0.013753451955750966 0 0.0012403770795676354 0.013588072612954654 0 0.00091913336382416517 0.013753451955750966 0 0.0012097546845787992 0.013919762836034532 0 0.00069970134654572522 0.014047340883866425 0 0.00091913336382416517 0.013753451955750966 0 0.0012403770795676354 0.013588072612954654 0 0.0012097546845787992 0.013919762836034532 0 0.000582443113111382 0.013705668903152422 0 0.00091913336382416517 0.013753451955750966 0 0.00069970134654572522 0.014047340883866425 0 0.0019747029758993852 0.013594271058942663 0 0.0012097546845787992 0.013919762836034532 0 0.0012136542304791967 0.014337563401514255 0 0.00053111562954831829 0.012381954974550724 0 0.00028130885048082246 0.014584445364538996 0 0.0019492283194873267 0.013500960366085314 0 0.0019747029758993852 0.013594271058942663 0 0.0015597983262422015 0.013337576321496911 0 0.0019747029758993852 0.013594271058942663 0 0.0015597983262422015 0.013337576321496911 0 0.0012403770795676354 0.013588072612954654 0 0.0019492283194873267 0.013500960366085314 0 0.0018769918035956761 0.013041340593149851 0 0.0015597983262422015 0.013337576321496911 0 0.0011574779586871738 0.013188108873248765 0 0.0015597983262422015 0.013337576321496911 0 0.0012403770795676354 0.013588072612954654 0 0.0019747029758993852 0.013594271058942663 0 0.0012403770795676354 0.013588072612954654 0 0.0012097546845787992 0.013919762836034532 0 -0.00049568659808882885 0.014340810648533623 0 -0.00051735250814386932 0.014402459273629892 0 -0.00054167768571883551 0.014412260247727746 0 -0.00051735250814386932 0.014402459273629892 0 -0.00054167768571883551 0.014412260247727746 0 -0.00052395721143497123 0.014443750636358608 0 0.0012097546845787992 0.013919762836034532 0 0.0012136542304791967 0.014337563401514255 0 0.00069970134654572522 0.014047340883866425 0 0.0012136542304791967 0.014337563401514255 0 0.00069970134654572522 0.014047340883866425 0 0.00072198649768329462 0.014432133614368126 0 0.0012136542304791967 0.014337563401514255 0 0.00072198649768329462 0.014432133614368126 0 0.00063814040966853958 0.014802246801601915 0 0.00069970134654572522 0.014047340883866425 0 0.00072198649768329462 0.014432133614368126 0 0.00041466954828555947 0.014347376067626042 0 -0.00041042354708689373 0.014555293273436024 0 -0.00051831901963441914 0.014483155181740058 0 -0.00044367425743816423 0.014487932910713418 0 -0.00054167768571883551 0.014412260247727746 0 -0.00057411961188170546 0.014477610321329418 0 -0.00051831901963441914 0.014483155181740058 0 -7.6970552604881955e-05 0.014522702722434947 0 -0.00063392993340045478 0.014482769814033736 0 0.00028130885048082246 0.014584445364538996 0 -7.6970552604881955e-05 0.014522702722434947 0 0.00072198649768329462 0.014432133614368126 0 0.00063814040966853958 0.014802246801601915 0 0.00043140016312932165 0.014560971967083157 0 -0.00041042354708689373 0.014555293273436024 0 -0.00037541265691400338 0.014548899144861288 0 -0.00044367425743816423 0.014487932910713418 0 -7.6970552604881955e-05 0.014522702722434947 0 -0.00030413587586663868 0.014622011127461384 0 -0.00051831901963441914 0.014483155181740058 0 -0.00052395721143497123 0.014443750636358608 0 -0.00054532417660730313 0.014454918679785026 0 -0.00054167768571883551 0.014412260247727746 0 -0.00051831901963441914 0.014483155181740058 0 -0.00052395721143497123 0.014443750636358608 0 -0.00026732983675150219 0.014632423133690934 0 -0.00037541265691400338 0.014548899144861288 0 -0.00029942368742617539 0.0145534919186919 0 -0.00040369997410338697 0.014578633035703002 0 -0.00026732983675150219 0.014632423133690934 0 -0.00037541265691400338 0.014548899144861288 0 0.00063814040966853958 0.014802246801601915 0 4.2403742563273668e-05 0.014663047924262112 0 0.00043140016312932165 0.014560971967083157 0 -7.6970552604881955e-05 0.014522702722434947 0 -5.7754509882809222e-05 0.014674339170004823 0 0.00069970134654572522 0.014047340883866425 0 0.00041466954828555947 0.014347376067626042 0 4.4441968979430151e-05 0.014343750225550057 0 0.0002759390503836094 0.014469622249049581 0 0.00041466954828555947 0.014347376067626042 0 4.4441968979430151e-05 0.014343750225550057 0 0.0002759390503836094 0.014469622249049581 0 0.00043140016312932165 0.014560971967083157 0 0.00041466954828555947 0.014347376067626042 0 4.2403742563273668e-05 0.014663047924262112 0 0.0002759390503836094 0.014469622249049581 0 0.00043140016312932165 0.014560971967083157 0 0.00072198649768329462 0.014432133614368126 0 0.00043140016312932165 0.014560971967083157 0 0.00041466954828555947 0.014347376067626042 0 4.2403742563273668e-05 0.014663047924262112 0 4.4441968979430151e-05 0.014343750225550057 0 -7.1681087268957354e-05 0.014546068333376903 0 4.2403742563273668e-05 0.014663047924262112 0 0.0002759390503836094 0.014469622249049581 0 4.4441968979430151e-05 0.014343750225550057 0 2.2678663718822441e-05 0.013779584279099722 0 0.00015398277160124494 0.01353487383791597 0 -0.00015091554337017516 0.013526421262360562 0 0.0006913341437661492 0.014059517568156229 0 6.5229620680478241e-05 0.014063669212517947 0 0.000582443113111382 0.013705668903152422 0 0.00069970134654572522 0.014047340883866425 0 2.2678663718822441e-05 0.013779584279099722 0 0.000582443113111382 0.013705668903152422 0 2.2678663718822441e-05 0.013779584279099722 0 0.00015398277160124494 0.01353487383791597 0 0.00060555344260757602 0.01328722122572349 0 0.000582443113111382 0.013705668903152422 0 0.00015398277160124494 0.01353487383791597 0 0.00047507223443647934 0.01335357616847309 0 0.00015398277160124494 0.01353487383791597 0 0.00019730162389600895 0.013210887827370534 0 0.00050177740148937529 0.012806136766125967 0 0.0001434642955038608 0.013639419645952795 0 0.00015398277160124494 0.01353487383791597 0 2.7428447307215789e-05 0.013360280564731592 0 0.00019730162389600895 0.013210887827370534 0 0.00015398277160124494 0.01353487383791597 0 2.7428447307215789e-05 0.013360280564731592 0 -0.00015091554337017516 0.013526421262360562 0 0.00016387984865798486 0.012844213370640482 0 0.00019730162389600895 0.013210887827370534 0 -9.1997411649364166e-05 0.013172825145698659 0 2.7428447307215789e-05 0.013360280564731592 0 0.00019730162389600895 0.013210887827370534 0 -9.1997411649364166e-05 0.013172825145698659 0 0.00016387984865798486 0.012844213370640482 0 -0.00012486479346768799 0.012866794231217284 0 -9.1997411649364166e-05 0.013172825145698659 0 0.00016387984865798486 0.012844213370640482 0 0.00019730162389600895 0.013210887827370534 0 0.000492854611509096 0.012992032219643339 0 0.00016387984865798486 0.012844213370640482 0 0.000492854611509096 0.012992032219643339 0 0.00050943685158564244 0.012629939642049084 0 0.00047507223443647934 0.01335357616847309 0 0.00019730162389600895 0.013210887827370534 0 0.000492854611509096 0.012992032219643339 0 0.0004508001870051753 0.011854215518665161 0 0.00048950837689277224 0.011460416607358177 0 0.00051637118850701279 0.011484039229689689 0 0.00050177740148937529 0.012806136766125967 0 0.0011580085957595169 0.012131490532922068 0 0.00050177740148937529 0.012806136766125967 0 0.00049111427935137099 0.012150770137302824 0 0.0004508001870051753 0.011854215518665161 0 0.00079615040574123057 0.011665717822470745 0 0.00051637118850701279 0.011484039229689689 0 0.00079615040574123057 0.011665717822470745 0 0.00074872174802839806 0.0114626228720825 0 0.00051637118850701279 0.011484039229689689 0 0.0019305089341831968 0.012476711149342472 0 0.0014321089033121025 0.012813282278499462 0 0.0014804801143354857 0.012107337925141883 0 0.00079615040574123057 0.011665717822470745 0 0.00092666822650207606 0.011448993037151294 0 0.00074872174802839806 0.0114626228720825 0 0.00074872174802839806 0.0114626228720825 0 0.00051637118850701279 0.011484039229689689 0 0.00081198807627240379 0.011216452915274797 0 0.00092666822650207606 0.011448993037151294 0 0.00074872174802839806 0.0114626228720825 0 0.00081198807627240379 0.011216452915274797 0 0.00054622995508253451 0.011481959846347024 0 0.00060517999297575497 0.011189364557726761 0 0.00048950837689277224 0.011460416607358177 0 0.00051637118850701279 0.011484039229689689 0 0.00061123870177914863 0.011396746803244179 0 0.00049111427935137099 0.012150770137302824 0 0.00048621226938629872 0.012180962765997607 0 0.00048950837689277224 0.011460416607358177 0 0.00050445770724684522 0.011336048540552949 0 0.00061123870177914863 0.011396746803244179 0 0.00048621226938629872 0.012180962765997607 0 0.00060517999297575497 0.011189364557726761 0 0.00016419059289897879 0.012082419922079375 0 0.00032927211561576178 0.011967329158087929 0 0.00031746305608476181 0.012121580534269562 0 0.00047076140514298046 0.012089158680702032 0 0.00032927211561576178 0.011967329158087929 0 0.00031746305608476181 0.012121580534269562 0 0.00040911145698202642 0.01226775556983929 0 0.00016290846547732649 0.012123987345022763 0 0.00031746305608476181 0.012121580534269562 0 0.00028423401689223757 0.010472050115664341 0 0.00029501561697034421 0.009217469937651962 0 0.00040911145698202642 0.01226775556983929 0 0.00031746305608476181 0.012121580534269562 0 0.00039566259959406349 0.012188406219740917 0 0.0003897039572357776 0.012275889599243927 0 0.00047076140514298046 0.012089158680702032 0 0.00039566259959406349 0.012188406219740917 0 0.00047076140514298046 0.012089158680702032 0 0.00031746305608476181 0.012121580534269562 0 0.00039566259959406349 0.012188406219740917 0 0.00039050065611943933 0.012326717300601531 0 0.00048621226938629872 0.012180962765997607 0 0.0003897039572357776 0.012275889599243927 0 0.00040911145698202642 0.01226775556983929 0 0.00039566259959406349 0.012188406219740917 0 0.0003897039572357776 0.012275889599243927 0 0.00039209400448363211 0.012535674164837569 0 0.00021351291447804969 0.012440771577891344 0 0.00048621226938629872 0.012180962765997607 0 0.00026629594718854797 0.012531969870008155 0 4.2162640799017277e-05 0.012273711508174016 0 0.00021351291447804969 0.012440771577891344 0 -2.5293707063115275e-05 0.012595443321727693 0 0.00016387984865798486 0.012844213370640482 0 -2.5293707063115275e-05 0.012595443321727693 0 -0.00012486479346768799 0.012866794231217284 0 0.00016387984865798486 0.012844213370640482 0 0.00021351291447804969 0.012440771577891344 0 -2.5293707063115275e-05 0.012595443321727693 0 0.00016387984865798486 0.012844213370640482 0 0.00050943685158564244 0.012629939642049084 0 0.00021351291447804969 0.012440771577891344 0 -2.5293707063115275e-05 0.012595443321727693 0 -0.00035742113670002204 0.012753838462727575 0 -0.00012486479346768799 0.012866794231217284 0 4.2162640799017277e-05 0.012273711508174016 0 -2.5293707063115275e-05 0.012595443321727693 0 -0.00018714385037156726 0.012430572932558141 0 -2.5293707063115275e-05 0.012595443321727693 0 -0.00035742113670002204 0.012753838462727575 0 -0.00018714385037156726 0.012430572932558141 0 -0.00035742113670002204 0.012753838462727575 0 -0.00018714385037156726 0.012430572932558141 0 -0.00042853881875705652 0.012412193878340324 0 -0.00035742113670002204 0.012753838462727575 0 -0.00042853881875705652 0.012412193878340324 0 -0.000620808528873654 0.012577201215009352 0 -0.00068256733709330902 0.012370695111981793 0 -0.00042853881875705652 0.012412193878340324 0 -0.000620808528873654 0.012577201215009352 0 -0.00068256733709330902 0.012370695111981793 0 -0.000620808528873654 0.012577201215009352 0 -0.00087703362862315054 0.012434409183988471 0 -0.00072812037850165468 0.012507205047226294 0 -0.00068057198093054625 0.013076412691628982 0 -0.00068543704756600442 0.012625374939815097 0 -0.0008866982985080334 0.012697695726716314 0 -0.00098996716128055837 0.012482307074005355 0 -0.00068543704756600442 0.012625374939815097 0 -0.00081570776283810588 0.012844880992488589 0 -0.00060964991142542643 0.012961447662329428 0 -0.00068543704756600442 0.012625374939815097 0 -0.0008866982985080334 0.012697695726716314 0 -0.00081570776283810588 0.012844880992488589 0 -0.00035742113670002204 0.012753838462727575 0 -0.00068543704756600442 0.012625374939815097 0 -0.00060964991142542643 0.012961447662329428 0 -0.00033305574024277996 0.01277886002360412 0 -0.00072812037850165468 0.012507205047226294 0 -0.00060964991142542643 0.012961447662329428 0 -0.00051686245809102723 0.013194990310874019 0 -0.00034397680301944154 0.01305560478115631 0 -0.00060964991142542643 0.012961447662329428 0 -0.0008175644929310945 0.013062923986856571 0 -0.00070780809165056039 0.013226094696527324 0 -0.00081570776283810588 0.012844880992488589 0 -0.0008175644929310945 0.013062923986856571 0 -0.00091509528104929537 0.012967839317992537 0 -0.00081570776283810588 0.012844880992488589 0 -0.00060964991142542643 0.012961447662329428 0 -0.0008175644929310945 0.013062923986856571 0 -0.0008175644929310945 0.013062923986856571 0 -0.00097292975012664828 0.013123637087459833 0 -0.00091509528104929537 0.012967839317992537 0 -0.0008175644929310945 0.013062923986856571 0 -0.00084685225522100778 0.013249395258514903 0 -0.00097292975012664828 0.013123637087459833 0 -0.0008175644929310945 0.013062923986856571 0 -0.00070780809165056039 0.013226094696527324 0 -0.00084685225522100778 0.013249395258514903 0 -0.00070780809165056039 0.013226094696527324 0 -0.00084685225522100778 0.013249395258514903 0 -0.00072182799644897723 0.013390632071310119 0 -0.00084685225522100778 0.013249395258514903 0 -0.00085371242098432505 0.013391639113768517 0 -0.00097334700362776666 0.013303182150136098 0 -0.00060964991142542643 0.012961447662329428 0 -0.00070780809165056039 0.013226094696527324 0 -0.00051686245809102723 0.013194990310874019 0 -0.00070780809165056039 0.013226094696527324 0 -0.00051686245809102723 0.013194990310874019 0 -0.00059342677577996867 0.013376612009635885 0 -0.00051686245809102723 0.013194990310874019 0 -0.00034397680301944154 0.01305560478115631 0 -0.00036579880261636733 0.013392619205125432 0 -0.00034397680301944154 0.01305560478115631 0 -9.1997411649364166e-05 0.013172825145698659 0 -0.00036579880261636733 0.013392619205125432 0 -0.00035742113670002204 0.012753838462727575 0 -0.00060964991142542643 0.012961447662329428 0 -0.00034397680301944154 0.01305560478115631 0 -0.00035742113670002204 0.012753838462727575 0 -0.00034397680301944154 0.01305560478115631 0 -0.00012486479346768799 0.012866794231217284 0 -0.00034397680301944154 0.01305560478115631 0 -0.00012486479346768799 0.012866794231217284 0 -9.1997411649364166e-05 0.013172825145698659 0 2.7428447307215789e-05 0.013360280564731592 0 -9.1997411649364166e-05 0.013172825145698659 0 -0.00015091554337017516 0.013526421262360562 0 -9.1997411649364166e-05 0.013172825145698659 0 -0.00015091554337017516 0.013526421262360562 0 -0.00036579880261636733 0.013392619205125432 0 -0.00036579880261636733 0.013392619205125432 0 -0.00037349255121703134 0.013677201131009785 0 -0.00055707110932617162 0.013536572773429938 0 -0.00015091554337017516 0.013526421262360562 0 -0.00036579880261636733 0.013392619205125432 0 -0.00037349255121703134 0.013677201131009785 0 6.5229620680478241e-05 0.014063669212517947 0 -0.00025430444574304535 0.01412976175301848 0 2.2678663718822441e-05 0.013779584279099722 0 -0.00015091554337017516 0.013526421262360562 0 -0.00037349255121703134 0.013677201131009785 0 4.4441968979430151e-05 0.014343750225550057 0 -0.00016624356931765357 0.014574150179513004 0 -7.1681087268957354e-05 0.014546068333376903 0 -0.00016624356931765357 0.014574150179513004 0 -7.1681087268957354e-05 0.014546068333376903 0 -0.00015684923547603377 0.014621238016328707 0 -0.00016624356931765357 0.014574150179513004 0 -0.00015684923547603377 0.014621238016328707 0 -0.00014251924168740796 0.014651058098837011 0 -0.00017691741487201919 0.0146688912753709 0 -0.0001469590235290169 0.014651761177460429 0 -0.00020684746836726421 0.014609218225314906 0 -5.7754509882809222e-05 0.014674339170004823 0 -0.00017625815313773821 0.014642236531211232 0 4.2403742563273668e-05 0.014663047924262112 0 -7.1681087268957354e-05 0.014546068333376903 0 -0.00015684923547603377 0.014621238016328707 0 -0.00026732983675150219 0.014632423133690934 0 -0.00017691741487201919 0.0146688912753709 0 -0.00020684746836726421 0.014609218225314906 0 -0.00012058231262161226 0.014659627756620662 0 -0.00010550346767459161 0.014646937516072447 0 -0.00011657110590718686 0.014661709353304318 0 -0.00017691741487201919 0.0146688912753709 0 -0.00012058231262161226 0.014659627756620662 0 -0.0001469590235290169 0.014651761177460429 0 -0.00012058231262161226 0.014659627756620662 0 -0.0001469590235290169 0.014651761177460429 0 -0.00011657110590718686 0.014661709353304318 0 -0.00017625815313773821 0.014642236531211232 0 -0.00012163621964079189 0.014658373346079759 0 -0.00012058231262161226 0.014659627756620662 0 -0.00014251924168740796 0.014651058098837011 0 -0.00011610106174055439 0.01468364925209664 0 -0.00015684923547603377 0.014621238016328707 0 -0.00012058231262161226 0.014659627756620662 0 -0.00014251924168740796 0.014651058098837011 0 -0.00014251924168740796 0.014651058098837011 0 -0.00011610106174055439 0.01468364925209664 0 -0.0001143061133258517 0.014708667567258282 0 -0.00011610106174055439 0.01468364925209664 0 -0.00010429792928103379 0.014707246455999891 0 -0.0001143061133258517 0.014708667567258282 0 -7.9698050810043125e-05 0.014798082126552793 0 -8.0756069011609182e-05 0.0147883936565846 0 -0.00010550346767459161 0.014646937516072447 0 -0.00010429792928103379 0.014707246455999891 0 -7.9652285663372788e-05 0.014778685545486739 0 -4.5359283280757227e-05 0.014944145069407616 0 -6.7278438001862605e-05 0.01486809737090871 0 -7.9652285663372788e-05 0.014778685545486739 0 -0.00010550346767459161 0.014646937516072447 0 -0.00011610106174055439 0.01468364925209664 0 -0.00010429792928103379 0.014707246455999891 0 -0.00012058231262161226 0.014659627756620662 0 -0.00010550346767459161 0.014646937516072447 0 -0.00011610106174055439 0.01468364925209664 0 -6.7278438001862605e-05 0.01486809737090871 0 -7.4008355135094035e-05 0.014837515044305494 0 -7.1890737281616758e-05 0.014862325613993073 0 -7.4379474042996047e-05 0.014838943758152316 0 -7.5652139975555086e-05 0.014816552786832443 0 -8.1058063350415512e-05 0.01479127532081306 0 -6.7278438001862605e-05 0.01486809737090871 0 -7.4008355135094035e-05 0.014837515044305494 0 -7.5652139975555086e-05 0.014816552786832443 0 -6.7278438001862605e-05 0.01486809737090871 0 -7.5652139975555086e-05 0.014816552786832443 0 -7.9652285663372788e-05 0.014778685545486739 0 -7.4008355135094035e-05 0.014837515044305494 0 -7.4379474042996047e-05 0.014838943758152316 0 -7.2736180162862754e-05 0.014857890111063929 0 -7.4008355135094035e-05 0.014837515044305494 0 -7.4379474042996047e-05 0.014838943758152316 0 -7.5652139975555086e-05 0.014816552786832443 0 -0.00010429792928103379 0.014707246455999891 0 -7.9652285663372788e-05 0.014778685545486739 0 -0.0001143061133258517 0.014708667567258282 0 -7.9652285663372788e-05 0.014778685545486739 0 -8.1058063350415512e-05 0.01479127532081306 0 -0.0001143061133258517 0.014708667567258282 0 -7.5652139975555086e-05 0.014816552786832443 0 -7.9652285663372788e-05 0.014778685545486739 0 -8.1058063350415512e-05 0.01479127532081306 0 -0.00076952114103964644 0.013625299878566456 0 -0.00076668517237058061 0.013543215115509313 0 -0.00068848540073421975 0.013514707747518227 0 -0.00076952114103964644 0.013625299878566456 0 -0.00079608116758010639 0.013571136341302813 0 -0.00083284404204542531 0.013574660651765821 0 -0.00076952114103964644 0.013625299878566456 0 -0.00079608116758010639 0.013571136341302813 0 -0.00076668517237058061 0.013543215115509313 0 -0.00079608116758010639 0.013571136341302813 0 -0.00076668517237058061 0.013543215115509313 0 -0.00081705087563502287 0.013542432580433863 0 -0.00079608116758010639 0.013571136341302813 0 -0.00081705087563502287 0.013542432580433863 0 -0.00083284404204542531 0.013574660651765821 0 -0.00076952114103964644 0.013625299878566456 0 -0.00083284404204542531 0.013574660651765821 0 -0.00089137414787995156 0.013569793063019522 0 -7.4379474042996047e-05 0.014838943758152316 0 -8.1058063350415512e-05 0.01479127532081306 0 -7.1368694009412112e-05 0.014871928676204987 0 -0.00076952114103964644 0.013625299878566456 0 -0.00089137414787995156 0.013569793063019522 0 -0.00097703957357068777 0.01357446848523302 0 -0.00081705087563502287 0.013542432580433863 0 -0.00083284404204542531 0.013574660651765821 0 -0.00086517647652862423 0.013531747573819176 0 -0.00083284404204542531 0.013574660651765821 0 -0.00089137414787995156 0.013569793063019522 0 -0.00086517647652862423 0.013531747573819176 0 -0.00037349255121703134 0.013677201131009785 0 -0.00076952114103964644 0.013625299878566456 0 -0.00055707110932617162 0.013536572773429938 0 -0.00076952114103964644 0.013625299878566456 0 -0.00055707110932617162 0.013536572773429938 0 -0.00068848540073421975 0.013514707747518227 0 -0.00016624356931765357 0.014574150179513004 0 -0.00014251924168740796 0.014651058098837011 0 -0.0001143061133258517 0.014708667567258282 0 -0.00025430444574304535 0.01412976175301848 0 -0.00044182616890950713 0.014192367258570218 0 -0.00016624356931765357 0.014574150179513004 0 -8.1058063350415512e-05 0.01479127532081306 0 -0.0001143061133258517 0.014708667567258282 0 -0.00036579880261636733 0.013392619205125432 0 -0.00055707110932617162 0.013536572773429938 0 -0.00059342677577996867 0.013376612009635885 0 -0.00051686245809102723 0.013194990310874019 0 -0.00036579880261636733 0.013392619205125432 0 -0.00059342677577996867 0.013376612009635885 0 -0.00055707110932617162 0.013536572773429938 0 -0.00068848540073421975 0.013514707747518227 0 -0.00059342677577996867 0.013376612009635885 0 -0.00070780809165056039 0.013226094696527324 0 -0.00059342677577996867 0.013376612009635885 0 -0.00072182799644897723 0.013390632071310119 0 -0.00068848540073421975 0.013514707747518227 0 -0.00059342677577996867 0.013376612009635885 0 -0.00072182799644897723 0.013390632071310119 0 -0.00082457133264903231 0.013491259180415901 0 -0.00075778511267474873 0.013465864002409783 0 -0.00085371242098432505 0.013391639113768517 0 -0.00088630545573661239 0.013461800400676932 0 -0.00082457133264903231 0.013491259180415901 0 -0.00085371242098432505 0.013391639113768517 0 -0.00088630545573661239 0.013461800400676932 0 -0.00086517647652862423 0.013531747573819176 0 -0.00082457133264903231 0.013491259180415901 0 -0.00089137414787995156 0.013569793063019522 0 -0.00086517647652862423 0.013531747573819176 0 -0.00092271625994318662 0.013513279740916146 0 -0.00088630545573661239 0.013461800400676932 0 -0.00086517647652862423 0.013531747573819176 0 -0.00092271625994318662 0.013513279740916146 0 -0.00076668517237058061 0.013543215115509313 0 -0.00081705087563502287 0.013542432580433863 0 -0.00082457133264903231 0.013491259180415901 0 -0.00081705087563502287 0.013542432580433863 0 -0.00086517647652862423 0.013531747573819176 0 -0.00082457133264903231 0.013491259180415901 0 -0.00068848540073421975 0.013514707747518227 0 -0.00075778511267474873 0.013465864002409783 0 -0.00072182799644897723 0.013390632071310119 0 -0.00076668517237058061 0.013543215115509313 0 -0.00082457133264903231 0.013491259180415901 0 -0.00075778511267474873 0.013465864002409783 0 -0.00076668517237058061 0.013543215115509313 0 -0.00068848540073421975 0.013514707747518227 0 -0.00075778511267474873 0.013465864002409783 0 -0.00075778511267474873 0.013465864002409783 0 -0.00072182799644897723 0.013390632071310119 0 -0.00085371242098432505 0.013391639113768517 0 -0.00088630545573661239 0.013461800400676932 0 -0.00085371242098432505 0.013391639113768517 0 -0.00096514790462208131 0.013430797075853471 0 -0.00084685225522100778 0.013249395258514903 0 -0.00072182799644897723 0.013390632071310119 0 -0.00085371242098432505 0.013391639113768517 0 -0.00085371242098432505 0.013391639113768517 0 -0.00096514790462208131 0.013430797075853471 0 -0.00097334700362776666 0.013303182150136098 0 -0.00096514790462208131 0.013430797075853471 0 -0.0010753932942713124 0.013398859136244067 0 -0.00097334700362776666 0.013303182150136098 0 -0.0010753932942713124 0.013398859136244067 0 -0.0011708305758007136 0.013589409963327633 0 -0.0011181305266613028 0.013216549908876534 0 -0.00096514790462208131 0.013430797075853471 0 -0.0010753932942713124 0.013398859136244067 0 -0.0010192263269913598 0.013463495401558083 0 -0.0010753932942713124 0.013398859136244067 0 -0.001051370540723777 0.013526299091353004 0 -0.0011708305758007136 0.013589409963327633 0 -0.0010753932942713124 0.013398859136244067 0 -0.0010192263269913598 0.013463495401558083 0 -0.001051370540723777 0.013526299091353004 0 -0.0010192263269913598 0.013463495401558083 0 -0.001051370540723777 0.013526299091353004 0 -0.00098501979254281128 0.013497929342898219 0 -0.001051370540723777 0.013526299091353004 0 -0.00099247513298272665 0.013534570680926006 0 -0.00098501979254281128 0.013497929342898219 0 -0.00099247513298272665 0.013534570680926006 0 -0.00098501979254281128 0.013497929342898219 0 -0.00095645027650338764 0.013539567930800996 0 -0.00098501979254281128 0.013497929342898219 0 -0.00095645027650338764 0.013539567930800996 0 -0.00092271625994318662 0.013513279740916146 0 -0.00088630545573661239 0.013461800400676932 0 -0.00096514790462208131 0.013430797075853471 0 -0.00092271625994318662 0.013513279740916146 0 -0.00096514790462208131 0.013430797075853471 0 -0.00098501979254281128 0.013497929342898219 0 -0.00092271625994318662 0.013513279740916146 0 -0.00096514790462208131 0.013430797075853471 0 -0.0010192263269913598 0.013463495401558083 0 -0.00098501979254281128 0.013497929342898219 0 -0.0005144708155721781 0.0143654355947564 0 -0.00056828650276650777 0.014068449922018297 0 -1.9986043727511407e-05 0.014985029756371879 0 -4.0953666869753198e-05 0.014970580280443188 0 3.5433260266652861e-06 0.014996214274918412 0 -1.9986043727511407e-05 0.014985029756371879 0 -2.2908595471475424e-05 0.014982047062704644 0 -1.9825941524757461e-05 0.014985436268979652 0 -1.9986043727511407e-05 0.014985029756371879 0 -2.880933710949867e-05 0.014977467763938577 0 -4.0953666869753198e-05 0.014970580280443188 0 -1.9986043727511407e-05 0.014985029756371879 0 -2.880933710949867e-05 0.014977467763938577 0 -2.2908595471475424e-05 0.014982047062704644 0 -2.880933710949867e-05 0.014977467763938577 0 -3.3276225111268816e-05 0.014968519311760586 0 -2.2908595471475424e-05 0.014982047062704644 0 -3.3276225111268816e-05 0.014968519311760586 0 -4.3279839433384853e-05 0.014945150948150616 0 -2.4726939046088542e-05 0.014969415126809422 0 -3.3276225111268816e-05 0.014968519311760586 0 -2.4726939046088542e-05 0.014969415126809422 0 -2.2908595471475424e-05 0.014982047062704644 0 -2.880933710949867e-05 0.014977467763938577 0 -3.3276225111268816e-05 0.014968519311760586 0 -4.0953666869753198e-05 0.014970580280443188 0 -3.3276225111268816e-05 0.014968519311760586 0 -5.729656935203404e-05 0.014940860424168322 0 -5.5246080923463649e-05 0.014933939942804007 0 -3.3276225111268816e-05 0.014968519311760586 0 -5.729656935203404e-05 0.014940860424168322 0 -6.0944901212141701e-05 0.014956030473608724 0 -0.00049049089602088629 0.014523544971323339 0 -0.0005144708155721781 0.0143654355947564 0 -9.2590752457149492e-05 0.014604292646433249 0 -0.0005144708155721781 0.0143654355947564 0 -5.729656935203404e-05 0.014940860424168322 0 -6.2664678298116915e-05 0.014944736489715236 0 -6.1861583915525018e-05 0.014934047086537066 0 -6.2664678298116915e-05 0.014944736489715236 0 -6.4701046817087536e-05 0.014923275773493425 0 -6.1861583915525018e-05 0.014934047086537066 0 -5.729656935203404e-05 0.014940860424168322 0 -6.1861583915525018e-05 0.014934047086537066 0 -6.2270847894811489e-05 0.014926991748888119 0 -6.4701046817087536e-05 0.014923275773493425 0 -6.1861583915525018e-05 0.014934047086537066 0 -6.2270847894811489e-05 0.014926991748888119 0 -6.1715645556245316e-05 0.014920109699910703 0 -5.5246080923463649e-05 0.014933939942804007 0 -4.3279839433384853e-05 0.014945150948150616 0 -6.2270847894811489e-05 0.014926991748888119 0 -6.2396277842831306e-05 0.014920578598212513 0 -5.5246080923463649e-05 0.014933939942804007 0 -6.2270847894811489e-05 0.014926991748888119 0 -6.2396277842831306e-05 0.014920578598212513 0 -6.6187830319138012e-05 0.014911514353887129 0 -5.729656935203404e-05 0.014940860424168322 0 -6.2270847894811489e-05 0.014926991748888119 0 -5.5246080923463649e-05 0.014933939942804007 0 -6.2396277842831306e-05 0.014920578598212513 0 -6.1715645556245316e-05 0.014920109699910703 0 -5.5246080923463649e-05 0.014933939942804007 0 -3.3276225111268816e-05 0.014968519311760586 0 -5.5246080923463649e-05 0.014933939942804007 0 -4.3279839433384853e-05 0.014945150948150616 0 -4.3279839433384853e-05 0.014945150948150616 0 -3.5913362061725788e-05 0.014956018454605893 0 -2.4726939046088542e-05 0.014969415126809422 0 -8.1058063350415512e-05 0.01479127532081306 0 -6.2664678298116915e-05 0.014944736489715236 0 -7.1368694009412112e-05 0.014871928676204987 0 -0.00076952114103964644 0.013625299878566456 0 -0.0011708305758007136 0.013589409963327633 0 -0.00097703957357068777 0.01357446848523302 0 -0.00044182616890950713 0.014192367258570218 0 -0.0005144708155721781 0.0143654355947564 0 -0.00089137414787995156 0.013569793063019522 0 -0.00095645027650338764 0.013539567930800996 0 -0.00097703957357068777 0.01357446848523302 0 -0.00089137414787995156 0.013569793063019522 0 -0.00095645027650338764 0.013539567930800996 0 -0.00092271625994318662 0.013513279740916146 0 -0.001051370540723777 0.013526299091353004 0 -0.00099247513298272665 0.013534570680926006 0 -0.00097703957357068777 0.01357446848523302 0 -0.00099247513298272665 0.013534570680926006 0 -0.00095645027650338764 0.013539567930800996 0 -0.00097703957357068777 0.01357446848523302 0 -6.2664678298116915e-05 0.014944736489715236 0 -7.1368694009412112e-05 0.014871928676204987 0 -6.7963630032414612e-05 0.014900749860227314 0 -6.2664678298116915e-05 0.014944736489715236 0 -6.4701046817087536e-05 0.014923275773493425 0 -6.7963630032414612e-05 0.014900749860227314 0 -0.001051370540723777 0.013526299091353004 0 -0.0011708305758007136 0.013589409963327633 0 -0.00097703957357068777 0.01357446848523302 0 -6.4701046817087536e-05 0.014923275773493425 0 -6.7963630032414612e-05 0.014900749860227314 0 -6.6187830319138012e-05 0.014911514353887129 0 -6.4701046817087536e-05 0.014923275773493425 0 -6.2270847894811489e-05 0.014926991748888119 0 -6.6187830319138012e-05 0.014911514353887129 0 -7.1368694009412112e-05 0.014871928676204987 0 -6.7963630032414612e-05 0.014900749860227314 0 -7.0440284355589405e-05 0.01488476336779067 0 -6.8216354015228833e-05 0.014900580982780338 0 -7.1400127990791753e-05 0.014876100956271289 0 -7.0440284355589405e-05 0.01488476336779067 0 -6.7963630032414612e-05 0.014900749860227314 0 -6.8304327136656972e-05 0.014898534378640903 0 -7.0440284355589405e-05 0.01488476336779067 0 -6.8304327136656972e-05 0.014898534378640903 0 -6.8216354015228833e-05 0.014900580982780338 0 -7.0440284355589405e-05 0.01488476336779067 0 -6.2396277842831306e-05 0.014920578598212513 0 -6.6187830319138012e-05 0.014911514353887129 0 -6.8216354015228833e-05 0.014900580982780338 0 -6.7963630032414612e-05 0.014900749860227314 0 -6.8304327136656972e-05 0.014898534378640903 0 -6.6187830319138012e-05 0.014911514353887129 0 -6.8304327136656972e-05 0.014898534378640903 0 -6.6187830319138012e-05 0.014911514353887129 0 -6.8216354015228833e-05 0.014900580982780338 0 -6.2396277842831306e-05 0.014920578598212513 0 -6.1715645556245316e-05 0.014920109699910703 0 -6.8216354015228833e-05 0.014900580982780338 0 -6.1715645556245316e-05 0.014920109699910703 0 -6.8216354015228833e-05 0.014900580982780338 0 -6.8490295514121504e-05 0.014899562688756628 0 -6.8216354015228833e-05 0.014900580982780338 0 -7.1400127990791753e-05 0.014876100956271289 0 -6.8490295514121504e-05 0.014899562688756628 0 -7.1400127990791753e-05 0.014876100956271289 0 -7.1668508815973667e-05 0.014870558736137083 0 -7.0440284355589405e-05 0.01488476336779067 0 -7.1368694009412112e-05 0.014871928676204987 0 -7.1668508815973667e-05 0.014870558736137083 0 -7.2591664995847556e-05 0.014859538962398604 0 -7.1368694009412112e-05 0.014871928676204987 0 -7.1668508815973667e-05 0.014870558736137083 0 -7.0440284355589405e-05 0.01488476336779067 0 -7.4379474042996047e-05 0.014838943758152316 0 -7.2591664995847556e-05 0.014859538962398604 0 -7.2736180162862754e-05 0.014857890111063929 0 -7.4379474042996047e-05 0.014838943758152316 0 -7.1368694009412112e-05 0.014871928676204987 0 -7.2591664995847556e-05 0.014859538962398604 0 -7.1668508815973667e-05 0.014870558736137083 0 -7.2591664995847556e-05 0.014859538962398604 0 -7.2736180162862754e-05 0.014857890111063929 0 -7.1400127990791753e-05 0.014876100956271289 0 -7.1668508815973667e-05 0.014870558736137083 0 -7.2736180162862754e-05 0.014857890111063929 0 -7.1400127990791753e-05 0.014876100956271289 0 -7.1890737281616758e-05 0.014862325613993073 0 -6.9647115006672729e-05 0.014881417370543651 0 -7.4008355135094035e-05 0.014837515044305494 0 -7.2736180162862754e-05 0.014857890111063929 0 -7.1890737281616758e-05 0.014862325613993073 0 -7.1400127990791753e-05 0.014876100956271289 0 -7.2736180162862754e-05 0.014857890111063929 0 -7.1890737281616758e-05 0.014862325613993073 0 -6.7278438001862605e-05 0.01486809737090871 0 -7.1890737281616758e-05 0.014862325613993073 0 -6.9647115006672729e-05 0.014881417370543651 0 -7.1400127990791753e-05 0.014876100956271289 0 -6.9647115006672729e-05 0.014881417370543651 0 -6.8490295514121504e-05 0.014899562688756628 0 -6.9647115006672729e-05 0.014881417370543651 0 -6.6101767349897853e-05 0.014907772250263818 0 -6.8490295514121504e-05 0.014899562688756628 0 -6.7278438001862605e-05 0.01486809737090871 0 -6.9647115006672729e-05 0.014881417370543651 0 -6.6101767349897853e-05 0.014907772250263818 0 -4.5359283280757227e-05 0.014944145069407616 0 -6.6101767349897853e-05 0.014907772250263818 0 -5.9660299026303313e-05 0.014945100209599882 0 -4.5359283280757227e-05 0.014944145069407616 0 -6.7278438001862605e-05 0.01486809737090871 0 -6.6101767349897853e-05 0.014907772250263818 0 -6.6101767349897853e-05 0.014907772250263818 0 -6.1877279132225665e-05 0.014924156904358081 0 -5.9660299026303313e-05 0.014945100209599882 0 -6.1715645556245316e-05 0.014920109699910703 0 -6.1877279132225665e-05 0.014924156904358081 0 -6.8490295514121504e-05 0.014899562688756628 0 -6.6101767349897853e-05 0.014907772250263818 0 -6.1877279132225665e-05 0.014924156904358081 0 -6.8490295514121504e-05 0.014899562688756628 0 -6.1715645556245316e-05 0.014920109699910703 0 -6.1877279132225665e-05 0.014924156904358081 0 -5.1593918334244151e-05 0.014937018235916626 0 -6.1715645556245316e-05 0.014920109699910703 0 -4.3279839433384853e-05 0.014945150948150616 0 -5.1593918334244151e-05 0.014937018235916626 0 -5.1593918334244151e-05 0.014937018235916626 0 -5.1503771369684603e-05 0.014945427246162941 0 -3.5913362061725788e-05 0.014956018454605893 0 -4.3279839433384853e-05 0.014945150948150616 0 -5.1593918334244151e-05 0.014937018235916626 0 -3.5913362061725788e-05 0.014956018454605893 0 -5.1503771369684603e-05 0.014945427246162941 0 -2.8143373834479853e-05 0.014967943757303752 0 -3.5913362061725788e-05 0.014956018454605893 0 -6.1877279132225665e-05 0.014924156904358081 0 -5.1593918334244151e-05 0.014937018235916626 0 -5.1503771369684603e-05 0.014945427246162941 0 -6.1877279132225665e-05 0.014924156904358081 0 -5.1503771369684603e-05 0.014945427246162941 0 -5.9660299026303313e-05 0.014945100209599882 0 -5.1503771369684603e-05 0.014945427246162941 0 -4.8575199480500255e-05 0.014956058343039865 0 -5.9660299026303313e-05 0.014945100209599882 0 -5.1503771369684603e-05 0.014945427246162941 0 -4.8575199480500255e-05 0.014956058343039865 0 -2.8143373834479853e-05 0.014967943757303752 0 -4.5359283280757227e-05 0.014944145069407616 0 -5.9660299026303313e-05 0.014945100209599882 0 -7.6561674174755235e-05 0.014944792864963948 0 -7.9698050810043125e-05 0.014798082126552793 0 -9.5264103033284081e-05 0.014813184746779477 0 -4.8575199480500255e-05 0.014956058343039865 0 -5.9660299026303313e-05 0.014945100209599882 0 -7.6561674174755235e-05 0.014944792864963948 0 -1.9837181018302694e-08 0.014999968621152623 0 -2.8143373834479853e-05 0.014967943757303752 0 -1.6358243773846976e-05 0.014978843260164706 0 -1.9837181018302694e-08 0.014999968621152623 0 -2.8143373834479853e-05 0.014967943757303752 0 -2.2279564934507352e-05 0.014965918833609669 0 -4.8575199480500255e-05 0.014956058343039865 0 -2.8143373834479853e-05 0.014967943757303752 0 -2.2279564934507352e-05 0.014965918833609669 0 -2.8143373834479853e-05 0.014967943757303752 0 -3.5913362061725788e-05 0.014956018454605893 0 -1.6358243773846976e-05 0.014978843260164706 0 -3.5913362061725788e-05 0.014956018454605893 0 -1.6358243773846976e-05 0.014978843260164706 0 -2.4726939046088542e-05 0.014969415126809422 0 -1.9837181018302694e-08 0.014999968621152623 0 -1.6358243773846976e-05 0.014978843260164706 0 -8.2342311545707498e-09 0.014999966503570328 0 -1.6358243773846976e-05 0.014978843260164706 0 -8.2342311545707498e-09 0.014999966503570328 0 -1.2128329846179075e-05 0.014988034843836524 0 -1.6358243773846976e-05 0.014978843260164706 0 -2.4726939046088542e-05 0.014969415126809422 0 -1.2128329846179075e-05 0.014988034843836524 0 -2.4726939046088542e-05 0.014969415126809422 0 -2.2908595471475424e-05 0.014982047062704644 0 -1.2128329846179075e-05 0.014988034843836524 0 -1.2128329846179075e-05 0.014988034843836524 0 -1.4230147559578444e-05 0.01498750951399132 0 -1.9825941524757461e-05 0.014985436268979652 0 -2.2908595471475424e-05 0.014982047062704644 0 -1.2128329846179075e-05 0.014988034843836524 0 -1.9825941524757461e-05 0.014985436268979652 0 -8.2342311545707498e-09 0.014999966503570328 0 -1.2128329846179075e-05 0.014988034843836524 0 -1.218281458296056e-08 0.01499998339479708 0 -1.2128329846179075e-05 0.014988034843836524 0 -1.218281458296056e-08 0.01499998339479708 0 -1.4230147559578444e-05 0.01498750951399132 0 -1.218281458296056e-08 0.01499998339479708 0 -1.1752541441196381e-05 0.014987593468865041 0 -1.4230147559578444e-05 0.01498750951399132 0 -1.431159824328994e-08 0.014999968988160667 0 -1.1752541441196381e-05 0.014987593468865041 0 -1.361875785338902e-05 0.014989906388743011 0 -1.218281458296056e-08 0.01499998339479708 0 -1.431159824328994e-08 0.014999968988160667 0 -1.1752541441196381e-05 0.014987593468865041 0 -1.1752541441196381e-05 0.014987593468865041 0 -1.361875785338902e-05 0.014989906388743011 0 -1.6512958815261573e-05 0.014975704138551258 0 -1.1752541441196381e-05 0.014987593468865041 0 -2.2188537646514167e-05 0.014973692032120123 0 -1.6512958815261573e-05 0.014975704138551258 0 -1.1752541441196381e-05 0.014987593468865041 0 -2.2188537646514167e-05 0.014973692032120123 0 -1.4230147559578444e-05 0.01498750951399132 0 -2.2188537646514167e-05 0.014973692032120123 0 -1.4230147559578444e-05 0.01498750951399132 0 -1.9825941524757461e-05 0.014985436268979652 0 -2.2188537646514167e-05 0.014973692032120123 0 -1.9825941524757461e-05 0.014985436268979652 0 -2.1119078383100075e-05 0.014983408431401885 0 -1.9986043727511407e-05 0.014985029756371879 0 -1.9825941524757461e-05 0.014985436268979652 0 -2.1119078383100075e-05 0.014983408431401885 0 -1.9986043727511407e-05 0.014985029756371879 0 -2.1119078383100075e-05 0.014983408431401885 0 3.5433260266652861e-06 0.014996214274918412 0 -2.1119078383100075e-05 0.014983408431401885 0 3.5433260266652861e-06 0.014996214274918412 0 -3.2880587793374131e-05 0.014948033426054965 0 -2.2188537646514167e-05 0.014973692032120123 0 -2.1119078383100075e-05 0.014983408431401885 0 -3.2880587793374131e-05 0.014948033426054965 0 -0.00084685225522100778 0.013249395258514903 0 -0.00097334700362776666 0.013303182150136098 0 -0.00097292975012664828 0.013123637087459833 0 -0.0010753932942713124 0.013398859136244067 0 -0.00097334700362776666 0.013303182150136098 0 -0.0011181305266613028 0.013216549908876534 0 -0.00097334700362776666 0.013303182150136098 0 -0.0011181305266613028 0.013216549908876534 0 -0.00097292975012664828 0.013123637087459833 0 -0.0011181305266613028 0.013216549908876534 0 -0.00097292975012664828 0.013123637087459833 0 -0.0010545526210030225 0.012840014381698746 0 -0.00056828650276650777 0.014068449922018297 0 -0.00045685543976376207 0.013885123584849845 0 -0.00097292975012664828 0.013123637087459833 0 -0.00091509528104929537 0.012967839317992537 0 -0.0010545526210030225 0.012840014381698746 0 -0.00081570776283810588 0.012844880992488589 0 -0.00091509528104929537 0.012967839317992537 0 -0.0010545526210030225 0.012840014381698746 0 -2.2188537646514167e-05 0.014973692032120123 0 -3.2880587793374131e-05 0.014948033426054965 0 -1.6512958815261573e-05 0.014975704138551258 0 -3.1050995368488176e-05 0.014867762457704457 0 -1.778002638426058e-05 0.014987824001564462 0 -3.2880587793374131e-05 0.014948033426054965 0 -1.3305922502854529e-05 0.014979099918971206 0 -1.6512958815261573e-05 0.014975704138551258 0 3.5433260266652861e-06 0.014996214274918412 0 -3.2880587793374131e-05 0.014948033426054965 0 8.5459027365202656e-05 0.014783592987252318 0 -3.2880587793374131e-05 0.014948033426054965 0 -4.8022920394827812e-05 0.014665965600226472 0 8.5459027365202656e-05 0.014783592987252318 0 -1.3305922502854529e-05 0.014979099918971206 0 -1.6512958815261573e-05 0.014975704138551258 0 -1.6200919550649791e-05 0.014978202257139424 0 -1.3305922502854529e-05 0.014979099918971206 0 -1.5562948432296401e-05 0.014965549357014505 0 -1.6200919550649791e-05 0.014978202257139424 0 -4.8022920394827812e-05 0.014665965600226472 0 8.5459027365202656e-05 0.014783592987252318 0 0.00016106117030332602 0.014367032184557789 0 -0.0008866982985080334 0.012697695726716314 0 -0.0010545526210030225 0.012840014381698746 0 -0.00098996716128055837 0.012482307074005355 0 -0.0008866982985080334 0.012697695726716314 0 -0.00081570776283810588 0.012844880992488589 0 -0.0010545526210030225 0.012840014381698746 0 -2.7724699963652967e-06 0.014280066435104105 0 -4.8022920394827812e-05 0.014665965600226472 0 0.00016106117030332602 0.014367032184557789 0 -0.00045685543976376207 0.013885123584849845 0 -0.00068057198093054625 0.013076412691628982 0 2.9045574646569227e-06 0.014941029376753642 0 -1.3305922502854529e-05 0.014979099918971206 0 -1.0465129242052303e-05 0.014950748683580031 0 -1.3305922502854529e-05 0.014979099918971206 0 -1.0465129242052303e-05 0.014950748683580031 0 -1.5562948432296401e-05 0.014965549357014505 0 -0.00026817234539024083 0.013811609746155272 0 -1.778002638426058e-05 0.014987824001564462 0 -2.3892609256294166e-05 0.014948062512189577 0 -1.5562948432296401e-05 0.014965549357014505 0 -2.0295454194255944e-05 0.014972701745386173 0 -2.3892609256294166e-05 0.014948062512189577 0 -1.0465129242052303e-05 0.014950748683580031 0 -1.5562948432296401e-05 0.014965549357014505 0 -2.0295454194255944e-05 0.014972701745386173 0 -3.6694118148439435e-05 0.01496169256945664 0 -1.361875785338902e-05 0.014989906388743011 0 -1.5562948432296401e-05 0.014965549357014505 0 -2.0295454194255944e-05 0.014972701745386173 0 -1.6200919550649791e-05 0.014978202257139424 0 -2.3892609256294166e-05 0.014948062512189577 0 -2.0295454194255944e-05 0.014972701745386173 0 -3.6694118148439435e-05 0.01496169256945664 0 -1.9317382772826159e-05 0.014990666256811431 0 -1.7035898638553919e-05 0.014983042729293907 0 -7.5728504373902811e-06 0.014997627281315503 0 -1.2210243740972223e-09 0.015000007529843928 0 -1.361875785338902e-05 0.014989906388743011 0 -9.3174360183250177e-07 0.015000343587526751 0 -7.5728504373902811e-06 0.014997627281315503 0 -1.2210243740972223e-09 0.015000007529843928 0 -1.431159824328994e-08 0.014999968988160667 0 -1.2210243740972223e-09 0.015000007529843928 0 -1.361875785338902e-05 0.014989906388743011 0 -1.361875785338902e-05 0.014989906388743011 0 -1.6512958815261573e-05 0.014975704138551258 0 -1.6200919550649791e-05 0.014978202257139424 0 -2.0295454194255944e-05 0.014972701745386173 0 -1.361875785338902e-05 0.014989906388743011 0 -1.6200919550649791e-05 0.014978202257139424 0 1.1932758906124944e-05 0.014848978600066485 0 1.3531274493247545e-05 0.014722698636973739 0 1.0923017494729608e-05 0.014783583488093119 0 1.8660883075863421e-05 0.014690883779314679 0 -8.0949570419660071e-06 0.014757419986572524 0 1.4119949059143172e-05 0.014924693309634945 0 6.2443415191260207e-08 0.014999824269541721 0 -2.4982636374824853e-08 0.015000011719254171 0 1.4119949059143172e-05 0.014924693309634945 0 6.2443415191260207e-08 0.014999824269541721 0 3.7744221407623914e-05 0.014803270664912533 0 6.2443415191260207e-08 0.014999824269541721 0 3.7744221407623914e-05 0.014803270664912533 0 3.1472400029905352e-08 0.014999716009061076 0 1.4119949059143172e-05 0.014924693309634945 0 3.7744221407623914e-05 0.014803270664912533 0 1.8660883075863421e-05 0.014690883779314679 0 1.8660883075863421e-05 0.014690883779314679 0 8.166085923962328e-06 0.014555163194625459 0 4.3734334331337963e-05 0.014557796110655531 0 3.7744221407623914e-05 0.014803270664912533 0 1.8660883075863421e-05 0.014690883779314679 0 4.3734334331337963e-05 0.014557796110655531 0 8.166085923962328e-06 0.014555163194625459 0 1.1734743159031797e-05 0.01440722572551993 0 4.3734334331337963e-05 0.014557796110655531 0 8.166085923962328e-06 0.014555163194625459 0 -2.0261637841747811e-05 0.014428305229690724 0 1.1734743159031797e-05 0.01440722572551993 0 8.166085923962328e-06 0.014555163194625459 0 -1.5474393989754648e-05 0.014672284636439452 0 -4.2349283796612442e-05 0.014545872923011741 0 1.8660883075863421e-05 0.014690883779314679 0 8.166085923962328e-06 0.014555163194625459 0 -1.5474393989754648e-05 0.014672284636439452 0 1.8660883075863421e-05 0.014690883779314679 0 -8.0949570419660071e-06 0.014757419986572524 0 -1.5474393989754648e-05 0.014672284636439452 0 -8.0949570419660071e-06 0.014757419986572524 0 -1.5474393989754648e-05 0.014672284636439452 0 -3.0913753217590791e-05 0.01479641981361576 0 -1.5474393989754648e-05 0.014672284636439452 0 -8.5098521931793511e-05 0.014653228439769692 0 -4.2349283796612442e-05 0.014545872923011741 0 -1.5474393989754648e-05 0.014672284636439452 0 -3.0913753217590791e-05 0.01479641981361576 0 -8.5098521931793511e-05 0.014653228439769692 0 -3.0913753217590791e-05 0.01479641981361576 0 -0.00010082344025134666 0.014722882321216234 0 -8.5098521931793511e-05 0.014653228439769692 0 -8.0949570419660071e-06 0.014757419986572524 0 -3.0913753217590791e-05 0.01479641981361576 0 -9.4716187947380408e-07 0.014887336410890222 0 -3.0913753217590791e-05 0.01479641981361576 0 -9.4716187947380408e-07 0.014887336410890222 0 -1.8358178677315764e-05 0.014890103471554164 0 1.0923017494729608e-05 0.014783583488093119 0 -8.0949570419660071e-06 0.014757419986572524 0 -9.4716187947380408e-07 0.014887336410890222 0 1.0923017494729608e-05 0.014783583488093119 0 -9.4716187947380408e-07 0.014887336410890222 0 8.5167749083331513e-08 0.014999577584703473 0 1.1932758906124944e-05 0.014848978600066485 0 -3.8091742957068984e-10 0.014999936238479552 0 -9.4716187947380408e-07 0.014887336410890222 0 8.5167749083331513e-08 0.014999577584703473 0 -9.9515543794338719e-09 0.014999915068551513 0 -9.4716187947380408e-07 0.014887336410890222 0 -9.9515543794338719e-09 0.014999915068551513 0 -1.8358178677315764e-05 0.014890103471554164 0 -9.9515543794338719e-09 0.014999915068551513 0 -1.8358178677315764e-05 0.014890103471554164 0 -1.6123521311098372e-05 0.014927807048623428 0 -1.8358178677315764e-05 0.014890103471554164 0 -1.6123521311098372e-05 0.014927807048623428 0 -7.797210775813765e-05 0.014827152061433391 0 -9.9515543794338719e-09 0.014999915068551513 0 4.4859560658004232e-09 0.014999915480835783 0 -1.6123521311098372e-05 0.014927807048623428 0 4.4859560658004232e-09 0.014999915480835783 0 -1.6123521311098372e-05 0.014927807048623428 0 -2.2279564934507352e-05 0.014965918833609669 0 -1.9837181018302694e-08 0.014999968621152623 0 4.4859560658004232e-09 0.014999915480835783 0 -2.2279564934507352e-05 0.014965918833609669 0 -4.8575199480500255e-05 0.014956058343039865 0 -2.2279564934507352e-05 0.014965918833609669 0 -7.6561674174755235e-05 0.014944792864963948 0 -1.6123521311098372e-05 0.014927807048623428 0 -2.2279564934507352e-05 0.014965918833609669 0 -7.6561674174755235e-05 0.014944792864963948 0 -1.6123521311098372e-05 0.014927807048623428 0 -7.6561674174755235e-05 0.014944792864963948 0 -7.797210775813765e-05 0.014827152061433391 0 -0.00012625012371465967 0.014688172098555014 0 -7.797210775813765e-05 0.014827152061433391 0 -0.0001106437720715773 0.014703910944375814 0 -9.5264103033284081e-05 0.014813184746779477 0 -8.0618565568015671e-05 0.01481895775267 0 -7.797210775813765e-05 0.014827152061433391 0 -0.00010082344025134666 0.014722882321216234 0 -0.0001106437720715773 0.014703910944375814 0 -3.0913753217590791e-05 0.01479641981361576 0 -1.8358178677315764e-05 0.014890103471554164 0 -7.797210775813765e-05 0.014827152061433391 0 -3.0913753217590791e-05 0.01479641981361576 0 -7.797210775813765e-05 0.014827152061433391 0 -0.00010082344025134666 0.014722882321216234 0 -0.00010082344025134666 0.014722882321216234 0 -0.00015580520544575461 0.014635851851251687 0 -0.00015254026426368607 0.014647132914796367 0 -0.00010082344025134666 0.014722882321216234 0 -0.00015254026426368607 0.014647132914796367 0 -0.0001106437720715773 0.014703910944375814 0 -0.00015254026426368607 0.014647132914796367 0 -0.0001106437720715773 0.014703910944375814 0 -0.00014735972073640096 0.014646913705651283 0 -0.00014735972073640096 0.014646913705651283 0 -0.0001469590235290169 0.014651761177460429 0 -0.00011657110590718686 0.014661709353304318 0 -0.00010550346767459161 0.014646937516072447 0 -0.00012625012371465967 0.014688172098555014 0 -0.00011657110590718686 0.014661709353304318 0 -0.00012625012371465967 0.014688172098555014 0 -0.0001106437720715773 0.014703910944375814 0 -0.00011657110590718686 0.014661709353304318 0 -0.0001106437720715773 0.014703910944375814 0 -0.00014735972073640096 0.014646913705651283 0 -0.00011657110590718686 0.014661709353304318 0 -0.00014735972073640096 0.014646913705651283 0 -0.0001469590235290169 0.014651761177460429 0 -0.00020684746836726421 0.014609218225314906 0 -0.00015254026426368607 0.014647132914796367 0 -0.00014735972073640096 0.014646913705651283 0 -0.00020366018393090215 0.014590851339930053 0 -0.00014735972073640096 0.014646913705651283 0 -0.00020684746836726421 0.014609218225314906 0 -0.00020366018393090215 0.014590851339930053 0 -0.00020684746836726421 0.014609218225314906 0 -0.00020366018393090215 0.014590851339930053 0 -0.00026950329897098923 0.01452627794722673 0 -0.00020366018393090215 0.014590851339930053 0 -0.00023581506111675454 0.014554666363028304 0 -0.00026950329897098923 0.01452627794722673 0 -0.00015254026426368607 0.014647132914796367 0 -0.00020366018393090215 0.014590851339930053 0 -0.00023581506111675454 0.014554666363028304 0 -0.00015580520544575461 0.014635851851251687 0 -0.00015254026426368607 0.014647132914796367 0 -0.00023581506111675454 0.014554666363028304 0 -0.00023581506111675454 0.014554666363028304 0 -0.00027175803899125839 0.014511773547079528 0 -0.00019576861676066253 0.014572741131390569 0 -0.00027534451938396087 0.014241548192453546 0 -0.0002285243818028472 0.014243505822412411 0 -0.00027175803899125839 0.014511773547079528 0 -0.00019576861676066253 0.014572741131390569 0 -0.00025411913942458442 0.014475964342082297 0 -0.00019576861676066253 0.014572741131390569 0 -0.00012381707962268187 0.014514004501328512 0 -0.00025411913942458442 0.014475964342082297 0 -0.00015580520544575461 0.014635851851251687 0 -0.00023581506111675454 0.014554666363028304 0 -0.00019576861676066253 0.014572741131390569 0 -0.00015580520544575461 0.014635851851251687 0 -0.00019576861676066253 0.014572741131390569 0 -8.5098521931793511e-05 0.014653228439769692 0 -0.00010082344025134666 0.014722882321216234 0 -0.00015580520544575461 0.014635851851251687 0 -8.5098521931793511e-05 0.014653228439769692 0 -8.5098521931793511e-05 0.014653228439769692 0 -0.00012381707962268187 0.014514004501328512 0 -4.2349283796612442e-05 0.014545872923011741 0 -0.00019576861676066253 0.014572741131390569 0 -8.5098521931793511e-05 0.014653228439769692 0 -0.00012381707962268187 0.014514004501328512 0 -0.00012381707962268187 0.014514004501328512 0 -0.00013763363962663311 0.014256732593869314 0 -0.00025411913942458442 0.014475964342082297 0 -0.00012381707962268187 0.014514004501328512 0 -4.2349283796612442e-05 0.014545872923011741 0 -6.5944744881931517e-05 0.014405774781449479 0 8.166085923962328e-06 0.014555163194625459 0 -4.2349283796612442e-05 0.014545872923011741 0 -2.0261637841747811e-05 0.014428305229690724 0 -4.2349283796612442e-05 0.014545872923011741 0 -6.5944744881931517e-05 0.014405774781449479 0 -2.0261637841747811e-05 0.014428305229690724 0 -6.5944744881931517e-05 0.014405774781449479 0 -2.0261637841747811e-05 0.014428305229690724 0 -4.4842298678651366e-05 0.01428798940692254 0 -2.0261637841747811e-05 0.014428305229690724 0 -4.4842298678651366e-05 0.01428798940692254 0 1.1734743159031797e-05 0.01440722572551993 0 -0.00012381707962268187 0.014514004501328512 0 -6.5944744881931517e-05 0.014405774781449479 0 -0.00013763363962663311 0.014256732593869314 0 -0.00013763363962663311 0.014256732593869314 0 -0.00011089147980132251 0.014151121195055271 0 -4.4842298678651366e-05 0.01428798940692254 0 -6.5944744881931517e-05 0.014405774781449479 0 -0.00013763363962663311 0.014256732593869314 0 -4.4842298678651366e-05 0.01428798940692254 0 -0.00013763363962663311 0.014256732593869314 0 -0.00020552321442506022 0.014075060982905932 0 -0.00023235782075161574 0.014018272877832676 0 -0.00013936527016842462 0.014234836252247397 0 -0.0002285243818028472 0.014243505822412411 0 -0.00013763363962663311 0.014256732593869314 0 -0.00020552321442506022 0.014075060982905932 0 -0.00011089147980132251 0.014151121195055271 0 -0.00020552321442506022 0.014075060982905932 0 -0.00026114756461642863 0.013973665986970796 0 -0.00023235782075161574 0.014018272877832676 0 -0.00020552321442506022 0.014075060982905932 0 -0.00026114756461642863 0.013973665986970796 0 -0.00026495575895017504 0.01392454827519916 0 -0.00027612183359250573 0.013972826354434397 0 -0.00026114756461642863 0.013973665986970796 0 -0.00023235782075161574 0.014018272877832676 0 -0.00027612183359250573 0.013972826354434397 0 -0.00033154842754994399 0.013894624979490223 0 -0.00040390987958731345 0.013896991031680572 0 -0.00033154842754994399 0.013894624979490223 0 -0.00044597257076201739 0.013806775371397026 0 -0.00040390987958731345 0.013896991031680572 0 -0.00027612183359250573 0.013972826354434397 0 -0.00026114756461642863 0.013973665986970796 0 -0.00033154842754994399 0.013894624979490223 0 -0.00026114756461642863 0.013973665986970796 0 -0.00033154842754994399 0.013894624979490223 0 -0.00026495575895017504 0.01392454827519916 0 -0.00033154842754994399 0.013894624979490223 0 -0.00039275775844465309 0.013762016608508201 0 -0.00026495575895017504 0.01392454827519916 0 -0.00033154842754994399 0.013894624979490223 0 -0.00044597257076201739 0.013806775371397026 0 -0.00039275775844465309 0.013762016608508201 0 -0.00051886207648941065 0.013731550369717585 0 -0.00044597257076201739 0.013806775371397026 0 -0.00039275775844465309 0.013762016608508201 0 -0.00071849693751430729 0.012956480403577228 0 -0.00082829482046002775 0.012726179991987422 0 -0.00073238328155513519 0.012638604563949963 0 -0.00051886207648941065 0.013731550369717585 0 -0.00061534998341259187 0.013685189828384157 0 -0.00054359032567433 0.013669955530165836 0 -0.00065770207205356236 0.013312392277576341 0 -0.00084505585698054213 0.013271335697099668 0 -0.00051886207648941065 0.013731550369717585 0 -0.0005583507165608792 0.013753912813434188 0 -0.00061534998341259187 0.013685189828384157 0 -0.00051886207648941065 0.013731550369717585 0 -0.0005583507165608792 0.013753912813434188 0 -0.00044597257076201739 0.013806775371397026 0 -0.0005583507165608792 0.013753912813434188 0 -0.00044597257076201739 0.013806775371397026 0 -0.00040390987958731345 0.013896991031680572 0 -0.0005583507165608792 0.013753912813434188 0 -0.00040390987958731345 0.013896991031680572 0 -0.00052926363480948653 0.013942682453592488 0 -0.0005583507165608792 0.013753912813434188 0 -0.00052926363480948653 0.013942682453592488 0 -0.00068853908789999918 0.013834936889435611 0 -0.00052926363480948653 0.013942682453592488 0 -0.00057448257721540326 0.014112261540200986 0 -0.00063228308371865514 0.014001180353485946 0 -0.00052926363480948653 0.013942682453592488 0 -0.00063228308371865514 0.014001180353485946 0 -0.00068853908789999918 0.013834936889435611 0 -0.00052926363480948653 0.013942682453592488 0 -0.00041584151210652832 0.013985784932662308 0 -0.00040990225131320865 0.014114523080006387 0 -0.00040390987958731345 0.013896991031680572 0 -0.00052926363480948653 0.013942682453592488 0 -0.00041584151210652832 0.013985784932662308 0 -0.00041584151210652832 0.013985784932662308 0 -0.00033547946174854556 0.014002898297790143 0 -0.00040990225131320865 0.014114523080006387 0 -0.00027612183359250573 0.013972826354434397 0 -0.00040390987958731345 0.013896991031680572 0 -0.00033547946174854556 0.014002898297790143 0 -0.00040390987958731345 0.013896991031680572 0 -0.00041584151210652832 0.013985784932662308 0 -0.00033547946174854556 0.014002898297790143 0 -0.00023581506111675454 0.014554666363028304 0 -0.00027175803899125839 0.014511773547079528 0 -0.0003035425791710686 0.014480329897172782 0 -0.00027534451938396087 0.014241548192453546 0 -0.00032178982965399639 0.014244679158206567 0 -0.00023581506111675454 0.014554666363028304 0 -0.0003035425791710686 0.014480329897172782 0 -0.00030846944187116446 0.014472308240816786 0 -0.00032178982965399639 0.014244679158206567 0 -0.00040065353435122749 0.014263689777157239 0 -0.0003035425791710686 0.014480329897172782 0 -0.00030846944187116446 0.014472308240816786 0 -0.00036419202135862358 0.014405474430109469 0 -0.00030846944187116446 0.014472308240816786 0 -0.00039407542648038814 0.014394628293970339 0 -0.00036419202135862358 0.014405474430109469 0 -0.00030846944187116446 0.014472308240816786 0 -0.0003281300749588778 0.014479522503925125 0 -0.00039407542648038814 0.014394628293970339 0 -0.00023581506111675454 0.014554666363028304 0 -0.00030846944187116446 0.014472308240816786 0 -0.00026950329897098923 0.01452627794722673 0 -0.00030846944187116446 0.014472308240816786 0 -0.00026950329897098923 0.01452627794722673 0 -0.0003281300749588778 0.014479522503925125 0 -0.00026950329897098923 0.01452627794722673 0 -0.0003281300749588778 0.014479522503925125 0 -0.00029942368742617539 0.0145534919186919 0 -0.0003281300749588778 0.014479522503925125 0 -0.0003822189339663084 0.014474244999570573 0 -0.00039407542648038814 0.014394628293970339 0 -0.0003281300749588778 0.014479522503925125 0 -0.0003822189339663084 0.014474244999570573 0 -0.00029942368742617539 0.0145534919186919 0 -0.00037541265691400338 0.014548899144861288 0 -0.0003822189339663084 0.014474244999570573 0 -0.00029942368742617539 0.0145534919186919 0 -0.00020684746836726421 0.014609218225314906 0 -0.00026950329897098923 0.01452627794722673 0 -0.00029942368742617539 0.0145534919186919 0 -0.00026732983675150219 0.014632423133690934 0 -0.00020684746836726421 0.014609218225314906 0 -0.00029942368742617539 0.0145534919186919 0 -0.00054619409963323011 0.014374705162494233 0 -0.0005024798770285687 0.014446869804035336 0 -0.00046882963929832796 0.014398379511972106 0 -0.00054619409963323011 0.014374705162494233 0 -0.00054532417660730313 0.014454918679785026 0 -0.00058807506357806824 0.014380572742177753 0 -0.00054619409963323011 0.014374705162494233 0 -0.00054532417660730313 0.014454918679785026 0 -0.0005024798770285687 0.014446869804035336 0 -0.00051831901963441914 0.014483155181740058 0 -0.0005024798770285687 0.014446869804035336 0 -0.00044367425743816423 0.014487932910713418 0 -0.00051831901963441914 0.014483155181740058 0 -0.00054532417660730313 0.014454918679785026 0 -0.0005024798770285687 0.014446869804035336 0 -0.0003822189339663084 0.014474244999570573 0 -0.00044367425743816423 0.014487932910713418 0 -0.00046882963929832796 0.014398379511972106 0 -0.00037541265691400338 0.014548899144861288 0 -0.0003822189339663084 0.014474244999570573 0 -0.00044367425743816423 0.014487932910713418 0 -0.0005024798770285687 0.014446869804035336 0 -0.00044367425743816423 0.014487932910713418 0 -0.00046882963929832796 0.014398379511972106 0 -0.00046882963929832796 0.014398379511972106 0 -0.00051540173534168746 0.014270438702607377 0 -0.00039407542648038814 0.014394628293970339 0 -0.0003822189339663084 0.014474244999570573 0 -0.00046882963929832796 0.014398379511972106 0 -0.00039407542648038814 0.014394628293970339 0 -0.00046882963929832796 0.014398379511972106 0 -0.00057802016043050032 0.014270256987381651 0 -0.00051540173534168746 0.014270438702607377 0 -0.00054619409963323011 0.014374705162494233 0 -0.00046882963929832796 0.014398379511972106 0 -0.00057802016043050032 0.014270256987381651 0 -0.00057802016043050032 0.014270256987381651 0 -0.00051540173534168746 0.014270438702607377 0 -0.00062074884433459721 0.014202462833078029 0 -0.00051540173534168746 0.014270438702607377 0 -0.00057448257721540326 0.014112261540200986 0 -0.00062074884433459721 0.014202462833078029 0 -0.00051540173534168746 0.014270438702607377 0 -0.00040990225131320865 0.014114523080006387 0 -0.00057448257721540326 0.014112261540200986 0 -0.00050851872076724375 0.014287551970277434 0 -0.00040065353435122749 0.014263689777157239 0 -0.00051540173534168746 0.014270438702607377 0 -0.00039407542648038814 0.014394628293970339 0 -0.00036419202135862358 0.014405474430109469 0 -0.00052926363480948653 0.013942682453592488 0 -0.00040990225131320865 0.014114523080006387 0 -0.00057448257721540326 0.014112261540200986 0 -0.00057448257721540326 0.014112261540200986 0 -0.00064893111273556096 0.014087622908095314 0 -0.00063228308371865514 0.014001180353485946 0 -0.00064893111273556096 0.014087622908095314 0 -0.00069530604859632794 0.014101727618681408 0 -0.00069891391234458108 0.014049003409264016 0 -0.00064893111273556096 0.014087622908095314 0 -0.00069530604859632794 0.014101727618681408 0 -0.00065193728859029804 0.014136370070125331 0 -0.00069530604859632794 0.014101727618681408 0 -0.00082930454030689645 0.014068025156423192 0 -0.00081200034439963458 0.014055812661614552 0 -0.00030556471457967313 0.01351139071387286 0 -0.0010525056901853718 0.011963442684153175 0 -0.00069530604859632794 0.014101727618681408 0 -0.00081200034439963458 0.014055812661614552 0 -0.00069891391234458108 0.014049003409264016 0 -0.00069530604859632794 0.014101727618681408 0 -0.00065193728859029804 0.014136370070125331 0 -0.00066845268322557317 0.014115663921921831 0 -0.00057448257721540326 0.014112261540200986 0 -0.00064893111273556096 0.014087622908095314 0 -0.00065193728859029804 0.014136370070125331 0 -0.00066845268322557317 0.014115663921921831 0 -0.00068764782363201502 0.014078165431449798 0 -0.00068133316339813183 0.0140894644801518 0 -0.0012114093666577542 0.0068681160105451772 0 -0.0010525056901853718 0.011963442684153175 0 -0.0013257806495155693 0.0088657037684183246 0 -0.0012295261937696163 0.0083666893062099811 0 -0.00080971095625650285 0.0085016008643985144 0 -0.00069530604859632794 0.014101727618681408 0 -0.00066845268322557317 0.014115663921921831 0 -0.00068133316339813183 0.0140894644801518 0 -0.00066845268322557317 0.014115663921921831 0 -0.00057604091667282792 0.01415561480795118 0 -0.00068764782363201502 0.014078165431449798 0 -0.00066845268322557317 0.014115663921921831 0 -0.00065372444328806094 0.01417194033280089 0 -0.00057604091667282792 0.01415561480795118 0 -0.00020428691679805157 0.0081988877839915299 0 -0.0012114093666577542 0.0068681160105451772 0 -0.00057448257721540326 0.014112261540200986 0 -0.00065193728859029804 0.014136370070125331 0 -0.00062074884433459721 0.014202462833078029 0 -0.00065193728859029804 0.014136370070125331 0 -0.00066845268322557317 0.014115663921921831 0 -0.00065372444328806094 0.01417194033280089 0 -0.00065193728859029804 0.014136370070125331 0 -0.00065372444328806094 0.01417194033280089 0 -0.00062074884433459721 0.014202462833078029 0 -0.00065372444328806094 0.01417194033280089 0 -0.00062074884433459721 0.014202462833078029 0 -0.00069887718181970261 0.014183808314058017 0 -0.00057802016043050032 0.014270256987381651 0 -0.00062074884433459721 0.014202462833078029 0 -0.00069887718181970261 0.014183808314058017 0 -0.00054619409963323011 0.014374705162494233 0 -0.00069887718181970261 0.014183808314058017 0 -0.00058807506357806824 0.014380572742177753 0 -0.00054619409963323011 0.014374705162494233 0 -0.00057802016043050032 0.014270256987381651 0 -0.00069887718181970261 0.014183808314058017 0 -0.00069887718181970261 0.014183808314058017 0 -0.00057604091667282792 0.01415561480795118 0 -0.00052972355673138989 0.013655653416838618 0 -0.00065372444328806094 0.01417194033280089 0 -0.00069887718181970261 0.014183808314058017 0 -0.00057604091667282792 0.01415561480795118 0 -0.00010191163851753489 0.0017196563677179505 0 0.000161469950088584 0.0021889952388258267 0 -0.00018622100177948585 0.0019903880576946239 0 -0.00020428691679805157 0.0081988877839915299 0 -0.0002923221980518956 0.0074451568434517395 0 0.000161469950088584 0.0021889952388258267 0 -0.0001566022518900556 0.0022797846538685426 0 -0.00018622100177948585 0.0019903880576946239 0 8.1743614738969344e-05 0.0025380538490146747 0 0.000161469950088584 0.0021889952388258267 0 -0.0001566022518900556 0.0022797846538685426 0 -0.00069887718181970261 0.014183808314058017 0 -0.00052972355673138989 0.013655653416838618 0 -0.00083469383094099913 0.013552355565924263 0 -0.00069887718181970261 0.014183808314058017 0 -0.00060869470418992112 0.014440621310860911 0 -0.00058807506357806824 0.014380572742177753 0 -0.00070357594384030096 0.013886665868384154 0 -0.00073116134899142335 0.014702941444806696 0 -0.00054532417660730313 0.014454918679785026 0 -0.00060869470418992112 0.014440621310860911 0 -0.00058807506357806824 0.014380572742177753 0 -0.00058924067242084317 0.0023611244906009588 0 -0.00039953421124092709 0.0020699718077290229 0 -0.00071504720836541716 0.001919400806749634 0 -0.00058924067242084317 0.0023611244906009588 0 -0.00071504720836541716 0.001919400806749634 0 -0.0011343630544627006 0.0021876414314807853 0 -0.00058924067242084317 0.0023611244906009588 0 -0.0001566022518900556 0.0022797846538685426 0 -0.00039953421124092709 0.0020699718077290229 0 -0.0001566022518900556 0.0022797846538685426 0 -0.00018622100177948585 0.0019903880576946239 0 -0.00039953421124092709 0.0020699718077290229 0 -0.00039953421124092709 0.0020699718077290229 0 -0.00042000278662125256 0.0017268870403050788 0 -0.00071504720836541716 0.001919400806749634 0 -0.00018622100177948585 0.0019903880576946239 0 -0.00039953421124092709 0.0020699718077290229 0 -0.00042000278662125256 0.0017268870403050788 0 -0.00010191163851753489 0.0017196563677179505 0 -0.00018622100177948585 0.0019903880576946239 0 -0.00042000278662125256 0.0017268870403050788 0 -0.0010732166798810808 0.0012059267667307392 0 -0.0015541675467880612 0.0019720929590355254 0 -0.00042000278662125256 0.0017268870403050788 0 -0.00071504720836541716 0.001919400806749634 0 -0.00065001642936547851 0.0015107498470135418 0 -0.00071504720836541716 0.001919400806749634 0 -0.00065001642936547851 0.0015107498470135418 0 -0.001089412540802141 0.0017273162075429292 0 -0.0020908212903731332 0.0021229331693109759 0 -0.0018268055962873742 0.0019892315549575575 0 -0.0019348564533526562 0.0022185510669853236 0 -0.0010732166798810808 0.0012059267667307392 0 -0.0012114093666577542 0.0068681160105451772 0 -0.00010191163851753489 0.0017196563677179505 0 -0.00042000278662125256 0.0017268870403050788 0 -0.00029185935611938918 0.0013209464571705451 0 -0.00042000278662125256 0.0017268870403050788 0 -0.00065001642936547851 0.0015107498470135418 0 -0.00029185935611938918 0.0013209464571705451 0 -0.0023174819748934591 0.0023137564799341303 0 -0.002097226615590652 0.0023744129706033765 0 -0.0022453546155423673 0.0025661720722719964 0 -0.0020908212903731332 0.0021229331693109759 0 -0.0023174819748934591 0.0023137564799341303 0 -0.002097226615590652 0.0023744129706033765 0 -0.0020908212903731332 0.0021229331693109759 0 -0.002097226615590652 0.0023744129706033765 0 -0.0019348564533526562 0.0022185510669853236 0 -0.002097226615590652 0.0023744129706033765 0 -0.0020808218693529686 0.0026105936998057373 0 -0.0022453546155423673 0.0025661720722719964 0 -0.002097226615590652 0.0023744129706033765 0 -0.0020808218693529686 0.0026105936998057373 0 -0.0019126924472972501 0.0024305451486717851 0 -0.0020808218693529686 0.0026105936998057373 0 -0.0022453546155423673 0.0025661720722719964 0 -0.0021973339432537296 0.0028401549804330248 0 -0.0020808218693529686 0.0026105936998057373 0 -0.0021973339432537296 0.0028401549804330248 0 -0.0019830489890625977 0.0028667815336077458 0 -0.0013230700495015081 0.0079497432945665487 0 -0.0015917453330685399 0.0081424053650766791 0 -0.0018704542684017103 0.0073816745719925787 0 -0.0012332293145003179 0.013822022980567058 0 -0.0017160802215261933 0.013409130323923312 0 -0.0012351581301938829 0.013325635872189535 0 -0.0010815071554209365 0.011316871882617612 0 -0.0017829027586604776 0.0067519532956070065 0 -0.0021116892667273914 0.0047666932161165871 0 -0.0017829027586604776 0.0067519532956070065 0 -0.0013230700495015081 0.0079497432945665487 0 -0.0015917453330685399 0.0081424053650766791 0 -0.0012295261937696163 0.0083666893062099811 0 -0.0013257806495155693 0.0088657037684183246 0 -0.0015917453330685399 0.0081424053650766791 0 -0.0012295261937696163 0.0083666893062099811 0 -0.0012114093666577542 0.0068681160105451772 0 -0.0021116892667273914 0.0047666932161165871 0 -0.0012332293145003179 0.013822022980567058 0 -0.00075590826340031438 0.013960760623439259 0 -0.00068853908789999918 0.013834936889435611 0 -0.0013230700495015081 0.0079497432945665487 0 -0.0012295261937696163 0.0083666893062099811 0 -0.00080971095625650285 0.0085016008643985144 0 -0.0012332293145003179 0.013822022980567058 0 -0.00081200034439963458 0.014055812661614552 0 -0.00075590826340031438 0.013960760623439259 0 -0.0012332293145003179 0.013822022980567058 0 -0.00084816807132296452 0.014081562504348758 0 -0.00081200034439963458 0.014055812661614552 0 -0.0010815071554209365 0.011316871882617612 0 -0.0010525056901853718 0.011963442684153175 0 -0.0010525056901853718 0.011963442684153175 0 -0.0011469507693609333 0.012138865866429654 0 -0.00063228308371865514 0.014001180353485946 0 -0.00069891391234458108 0.014049003409264016 0 -0.00075590826340031438 0.013960760623439259 0 -0.00064893111273556096 0.014087622908095314 0 -0.00063228308371865514 0.014001180353485946 0 -0.00069891391234458108 0.014049003409264016 0 -0.00081200034439963458 0.014055812661614552 0 -0.00069891391234458108 0.014049003409264016 0 -0.00075590826340031438 0.013960760623439259 0 -0.00063228308371865514 0.014001180353485946 0 -0.00075590826340031438 0.013960760623439259 0 -0.00068853908789999918 0.013834936889435611 0 -0.0005583507165608792 0.013753912813434188 0 -0.00068853908789999918 0.013834936889435611 0 -0.00079584934132817021 0.013577377554016081 0 -0.0012332293145003179 0.013822022980567058 0 -0.00068853908789999918 0.013834936889435611 0 -0.00079584934132817021 0.013577377554016081 0 -0.0012332293145003179 0.013822022980567058 0 -0.00079584934132817021 0.013577377554016081 0 -0.0012351581301938829 0.013325635872189535 0 -0.00096597244522046396 0.01311411251016668 0 -0.00079584934132817021 0.013577377554016081 0 -0.0012351581301938829 0.013325635872189535 0 -0.00096597244522046396 0.01311411251016668 0 -0.0012245166303659451 0.01293162858264587 0 -0.0012351581301938829 0.013325635872189535 0 -0.0008102147580556357 0.013592253347839464 0 -0.00065770207205356236 0.013312392277576341 0 -0.00096597244522046396 0.01311411251016668 0 -0.00079584934132817021 0.013577377554016081 0 -0.00071849693751430729 0.012956480403577228 0 -0.0005583507165608792 0.013753912813434188 0 -0.00079584934132817021 0.013577377554016081 0 -0.00061534998341259187 0.013685189828384157 0 -0.00096597244522046396 0.01311411251016668 0 -0.00071849693751430729 0.012956480403577228 0 -0.00091027304301991192 0.01283333325534561 0 -0.00071849693751430729 0.012956480403577228 0 -0.00091027304301991192 0.01283333325534561 0 -0.00082829482046002775 0.012726179991987422 0 -0.00096597244522046396 0.01311411251016668 0 -0.0012245166303659451 0.01293162858264587 0 -0.0010771472272114162 0.012835604394223508 0 -0.00096597244522046396 0.01311411251016668 0 -0.00091027304301991192 0.01283333325534561 0 -0.0010771472272114162 0.012835604394223508 0 -0.00091027304301991192 0.01283333325534561 0 -0.0010771472272114162 0.012835604394223508 0 -0.0010367534560640581 0.012709409255824399 0 -0.0010771472272114162 0.012835604394223508 0 -0.0011602964785013064 0.012695291627146674 0 -0.0010367534560640581 0.012709409255824399 0 -0.0010771472272114162 0.012835604394223508 0 -0.0012073006479305279 0.012763961994467684 0 -0.0011602964785013064 0.012695291627146674 0 -0.0012245166303659451 0.01293162858264587 0 -0.0010771472272114162 0.012835604394223508 0 -0.0012073006479305279 0.012763961994467684 0 -0.0012073006479305279 0.012763961994467684 0 -0.0012613811186488661 0.012662548535378708 0 -0.0011602964785013064 0.012695291627146674 0 -0.0012245166303659451 0.01293162858264587 0 -0.0012073006479305279 0.012763961994467684 0 -0.0013325439532263267 0.01269105079525959 0 -0.0012073006479305279 0.012763961994467684 0 -0.0013325439532263267 0.01269105079525959 0 -0.0012613811186488661 0.012662548535378708 0 -0.0012245166303659451 0.01293162858264587 0 -0.0013325439532263267 0.01269105079525959 0 -0.0014598361628428351 0.012764345676655799 0 -0.0012245166303659451 0.01293162858264587 0 -0.0014598361628428351 0.012764345676655799 0 -0.0015182177156781217 0.013067294087387831 0 -0.0014547823076998798 0.012577970502422516 0 -0.0015852124837481482 0.01248613955318394 0 -0.0014679882350011704 0.012529686161549446 0 -0.0013325439532263267 0.01269105079525959 0 -0.0014598361628428351 0.012764345676655799 0 -0.0014547823076998798 0.012577970502422516 0 -0.0014598361628428351 0.012764345676655799 0 -0.0014547823076998798 0.012577970502422516 0 -0.0015852124837481482 0.01248613955318394 0 -0.0018741843607939859 0.01190481995985623 0 -0.0015852124837481482 0.01248613955318394 0 -0.0021649162339360695 0.012821611479817434 0 -0.0014598361628428351 0.012764345676655799 0 -0.0015852124837481482 0.01248613955318394 0 -0.0021649162339360695 0.012821611479817434 0 -0.0018876934240390638 0.0032209529009663454 0 -0.0018216338224742393 0.0035248155450670611 0 -0.0019711542382718542 0.0031606345834944631 0 -0.0018741843607939859 0.01190481995985623 0 -0.0021649162339360695 0.012821611479817434 0 -0.0027548468052360272 0.010678314582042537 0 -0.0014598361628428351 0.012764345676655799 0 -0.0021649162339360695 0.012821611479817434 0 -0.0015182177156781217 0.013067294087387831 0 -0.0017829027586604776 0.0067519532956070065 0 -0.0023367502034914557 0.001879759815308017 0 -0.0021649162339360695 0.012821611479817434 0 -0.0017160802215261933 0.013409130323923312 0 -0.0015182177156781217 0.013067294087387831 0 -0.001959590167710881 0.0082986456565075396 0 -0.0017829027586604776 0.0067519532956070065 0 -0.0017160802215261933 0.013409130323923312 0 -0.0012351581301938829 0.013325635872189535 0 -0.0015182177156781217 0.013067294087387831 0 -0.0012245166303659451 0.01293162858264587 0 -0.0012351581301938829 0.013325635872189535 0 -0.0015182177156781217 0.013067294087387831 0 -0.0014218456300521549 0.012488063362505989 0 -0.0013660698685697451 0.012481281953260063 0 -0.0014463357128232561 0.012418359719071731 0 -0.0014218456300521549 0.012488063362505989 0 -0.0013660698685697451 0.012481281953260063 0 -0.0014160196265041607 0.01251634951523461 0 -0.0013660698685697451 0.012481281953260063 0 -0.0013152532763566968 0.012533509020843948 0 -0.001257863320046296 0.012491879425274306 0 -0.0013660698685697451 0.012481281953260063 0 -0.0013299246257995599 0.012425156204774605 0 -0.001257863320046296 0.012491879425274306 0 -0.0013299246257995599 0.012425156204774605 0 -0.001257863320046296 0.012491879425274306 0 -0.0012159486200832091 0.012431292741762419 0 -0.0013299246257995599 0.012425156204774605 0 -0.0012159486200832091 0.012431292741762419 0 -0.0013442985735599028 0.012338584366040781 0 -0.0013660698685697451 0.012481281953260063 0 -0.0013299246257995599 0.012425156204774605 0 -0.0014463357128232561 0.012418359719071731 0 -0.0013299246257995599 0.012425156204774605 0 -0.0014463357128232561 0.012418359719071731 0 -0.0013442985735599028 0.012338584366040781 0 -0.0015585018657909247 0.011457921879928876 0 -0.0014461207785178641 0.010628655319625029 0 -0.0014463357128232561 0.012418359719071731 0 -0.0014553598528075191 0.012518106464126218 0 -0.001542852775271295 0.012331823374764453 0 -0.0015916340341334387 0.010422922052940143 0 -0.0023366270488754857 0.010711554925308515 0 -0.0017267154923215336 0.0086624848924315885 0 -0.0016214226478869713 0.010928320279694956 0 -0.0016106932139349367 0.011183011631173146 0 -0.0018019255977952046 0.010778870828676757 0 -0.0016214226478869713 0.010928320279694956 0 -0.0016106932139349367 0.011183011631173146 0 -0.0014624098746218834 0.010740722128292159 0 -0.002145628923598035 0.010410919771498942 0 -0.0014461207785178641 0.010628655319625029 0 -0.0016214226478869713 0.010928320279694956 0 -0.0016556079642218217 0.010809680072277752 0 -0.0014624098746218834 0.010740722128292159 0 -0.0014218456300521549 0.012488063362505989 0 -0.0014463357128232561 0.012418359719071731 0 -0.0014553598528075191 0.012518106464126218 0 -0.0015494501455333002 0.012398356937809666 0 -0.0015585018657909247 0.011457921879928876 0 -0.0015852124837481482 0.01248613955318394 0 -0.0014553598528075191 0.012518106464126218 0 -0.0014679882350011704 0.012529686161549446 0 -0.0018741843607939859 0.01190481995985623 0 -0.0015916340341334387 0.010422922052940143 0 -0.0023366270488754857 0.010711554925308515 0 -0.001959590167710881 0.0082986456565075396 0 -0.0029682279917669519 0.006540926955691773 0 -0.0021649162339360695 0.012821611479817434 0 -0.0027548468052360272 0.010678314582042537 0 -0.0034218171046662702 0.0098470758979241034 0 -0.0018741843607939859 0.01190481995985623 0 -0.0015852124837481482 0.01248613955318394 0 -0.0015916340341334387 0.010422922052940143 0 -0.0025487170114756215 0.00981803344896536 0 -0.0027548468052360272 0.010678314582042537 0 -0.0031507075935141705 0.0096300043629552034 0 -0.002145628923598035 0.010410919771498942 0 -0.0022860635297492107 0.010467508547114387 0 -0.0027548468052360272 0.010678314582042537 0 -0.0034218171046662702 0.0098470758979241034 0 -0.0031507075935141705 0.0096300043629552034 0 -0.0018741843607939859 0.01190481995985623 0 -0.0024997665973122444 0.0098659087961159991 0 -0.0027548468052360272 0.010678314582042537 0 -0.0019232031858974436 0.01151694669862963 0 -0.002145628923598035 0.010410919771498942 0 -0.0014547823076998798 0.012577970502422516 0 -0.0014679882350011704 0.012529686161549446 0 -0.0013741503674943559 0.012570181361967959 0 -0.0014679882350011704 0.012529686161549446 0 -0.0014160196265041607 0.01251634951523461 0 -0.0013741503674943559 0.012570181361967959 0 -0.0014218456300521549 0.012488063362505989 0 -0.0014553598528075191 0.012518106464126218 0 -0.0014160196265041607 0.01251634951523461 0 -0.0014553598528075191 0.012518106464126218 0 -0.0014679882350011704 0.012529686161549446 0 -0.0014160196265041607 0.01251634951523461 0 -0.0014160196265041607 0.01251634951523461 0 -0.0013152532763566968 0.012533509020843948 0 -0.0013741503674943559 0.012570181361967959 0 -0.0013660698685697451 0.012481281953260063 0 -0.0014160196265041607 0.01251634951523461 0 -0.0013152532763566968 0.012533509020843948 0 -0.0013152532763566968 0.012533509020843948 0 -0.0013741503674943559 0.012570181361967959 0 -0.0012469587986785437 0.012597711938968076 0 -0.0013325439532263267 0.01269105079525959 0 -0.0013741503674943559 0.012570181361967959 0 -0.0012613811186488661 0.012662548535378708 0 -0.0013325439532263267 0.01269105079525959 0 -0.0014547823076998798 0.012577970502422516 0 -0.0013741503674943559 0.012570181361967959 0 -0.0013741503674943559 0.012570181361967959 0 -0.0012613811186488661 0.012662548535378708 0 -0.0012469587986785437 0.012597711938968076 0 -0.0012613811186488661 0.012662548535378708 0 -0.0012469587986785437 0.012597711938968076 0 -0.0011602964785013064 0.012695291627146674 0 -0.0012469587986785437 0.012597711938968076 0 -0.0011327563830437863 0.012624903159417883 0 -0.0011602964785013064 0.012695291627146674 0 -0.0010367534560640581 0.012709409255824399 0 -0.0010403659071129515 0.012600322904521202 0 -0.00094008310710425394 0.012688433926813819 0 -0.0011327563830437863 0.012624903159417883 0 -0.0010367534560640581 0.012709409255824399 0 -0.0010403659071129515 0.012600322904521202 0 -0.0011327563830437863 0.012624903159417883 0 -0.0011602964785013064 0.012695291627146674 0 -0.0010367534560640581 0.012709409255824399 0 -0.0010403659071129515 0.012600322904521202 0 -0.00098061393675346123 0.012548116747944075 0 -0.0011221066324234657 0.012512928012967167 0 -0.0011327563830437863 0.012624903159417883 0 -0.0010403659071129515 0.012600322904521202 0 -0.0011887506761357545 0.012552541652787774 0 -0.0010403659071129515 0.012600322904521202 0 -0.0011887506761357545 0.012552541652787774 0 -0.0011221066324234657 0.012512928012967167 0 -0.0013152532763566968 0.012533509020843948 0 -0.0012469587986785437 0.012597711938968076 0 -0.0011887506761357545 0.012552541652787774 0 -0.0013152532763566968 0.012533509020843948 0 -0.0011887506761357545 0.012552541652787774 0 -0.001257863320046296 0.012491879425274306 0 -0.0012469587986785437 0.012597711938968076 0 -0.0011327563830437863 0.012624903159417883 0 -0.0011887506761357545 0.012552541652787774 0 -0.00082829482046002775 0.012726179991987422 0 -0.00089641961726730668 0.012618093871401831 0 -0.00080165018152723302 0.012640477457972376 0 -0.00082829482046002775 0.012726179991987422 0 -0.00094008310710425394 0.012688433926813819 0 -0.00089641961726730668 0.012618093871401831 0 -0.00091027304301991192 0.01283333325534561 0 -0.00082829482046002775 0.012726179991987422 0 -0.00094008310710425394 0.012688433926813819 0 -0.00091027304301991192 0.01283333325534561 0 -0.0010367534560640581 0.012709409255824399 0 -0.00094008310710425394 0.012688433926813819 0 -0.0010403659071129515 0.012600322904521202 0 -0.00089641961726730668 0.012618093871401831 0 -0.00098061393675346123 0.012548116747944075 0 -0.0010403659071129515 0.012600322904521202 0 -0.00094008310710425394 0.012688433926813819 0 -0.00089641961726730668 0.012618093871401831 0 -0.00089641961726730668 0.012618093871401831 0 -0.00089423867582227943 0.012559040076999624 0 -0.00098061393675346123 0.012548116747944075 0 -0.00089641961726730668 0.012618093871401831 0 -0.00085513755085837558 0.01259987048932631 0 -0.00080165018152723302 0.012640477457972376 0 -0.00089641961726730668 0.012618093871401831 0 -0.00085513755085837558 0.01259987048932631 0 -0.00089423867582227943 0.012559040076999624 0 -0.00089423867582227943 0.012559040076999624 0 -0.00094977393431960118 0.012494072652552471 0 -0.00087080275683622146 0.012534603337271615 0 -0.00089423867582227943 0.012559040076999624 0 -0.00098061393675346123 0.012548116747944075 0 -0.00094977393431960118 0.012494072652552471 0 -0.00098061393675346123 0.012548116747944075 0 -0.00094977393431960118 0.012494072652552471 0 -0.0010755153196728134 0.012451587038396113 0 -0.00094977393431960118 0.012494072652552471 0 -0.0010755153196728134 0.012451587038396113 0 -0.001029715959296485 0.012372921158377712 0 -0.00094977393431960118 0.012494072652552471 0 -0.00089755636156383593 0.012479884039471445 0 -0.00087080275683622146 0.012534603337271615 0 -0.001257863320046296 0.012491879425274306 0 -0.0011221066324234657 0.012512928012967167 0 -0.0012159486200832091 0.012431292741762419 0 -0.0011887506761357545 0.012552541652787774 0 -0.001257863320046296 0.012491879425274306 0 -0.0011221066324234657 0.012512928012967167 0 -0.00098061393675346123 0.012548116747944075 0 -0.0011221066324234657 0.012512928012967167 0 -0.0010755153196728134 0.012451587038396113 0 -0.0010755153196728134 0.012451587038396113 0 -0.0012159486200832091 0.012431292741762419 0 -0.0011710041348703033 0.012342844806537868 0 -0.0011221066324234657 0.012512928012967167 0 -0.0010755153196728134 0.012451587038396113 0 -0.0012159486200832091 0.012431292741762419 0 -0.0011710041348703033 0.012342844806537868 0 -0.001259481790744953 0.012197927398370959 0 -0.0013442985735599028 0.012338584366040781 0 -0.0012159486200832091 0.012431292741762419 0 -0.0011710041348703033 0.012342844806537868 0 -0.0013442985735599028 0.012338584366040781 0 -0.0010755153196728134 0.012451587038396113 0 -0.0011710041348703033 0.012342844806537868 0 -0.001029715959296485 0.012372921158377712 0 -0.0011371534337029621 0.012241350772530682 0 -0.001029715959296485 0.012372921158377712 0 -0.0010734815308317037 0.012198990820633167 0 -0.0011710041348703033 0.012342844806537868 0 -0.0011371534337029621 0.012241350772530682 0 -0.001029715959296485 0.012372921158377712 0 -0.0011710041348703033 0.012342844806537868 0 -0.0011371534337029621 0.012241350772530682 0 -0.001259481790744953 0.012197927398370959 0 -0.00094977393431960118 0.012494072652552471 0 -0.001029715959296485 0.012372921158377712 0 -0.00089755636156383593 0.012479884039471445 0 -0.001029715959296485 0.012372921158377712 0 -0.00095693813319395614 0.012346737531099833 0 -0.0010734815308317037 0.012198990820633167 0 -0.001029715959296485 0.012372921158377712 0 -0.00095693813319395614 0.012346737531099833 0 -0.00089755636156383593 0.012479884039471445 0 -0.00095693813319395614 0.012346737531099833 0 -0.0010734815308317037 0.012198990820633167 0 -0.001020405660796677 0.012116353674134163 0 -0.0010734815308317037 0.012198990820633167 0 -0.0011158782002103392 0.011968506861892748 0 -0.001020405660796677 0.012116353674134163 0 -0.0011371534337029621 0.012241350772530682 0 -0.001259481790744953 0.012197927398370959 0 -0.0011703234848770246 0.012078001724248149 0 -0.001259481790744953 0.012197927398370959 0 -0.0011703234848770246 0.012078001724248149 0 -0.0013173938998966178 0.01201618834008595 0 -0.0011371534337029621 0.012241350772530682 0 -0.0010734815308317037 0.012198990820633167 0 -0.0011703234848770246 0.012078001724248149 0 -0.0010734815308317037 0.012198990820633167 0 -0.0011703234848770246 0.012078001724248149 0 -0.0011158782002103392 0.011968506861892748 0 -0.0011703234848770246 0.012078001724248149 0 -0.0013173938998966178 0.01201618834008595 0 -0.0011985691113345805 0.011819525333058148 0 -0.0011703234848770246 0.012078001724248149 0 -0.0011158782002103392 0.011968506861892748 0 -0.0011985691113345805 0.011819525333058148 0 -0.0013250562874465531 0.011847418210962803 0 -0.0013173938998966178 0.01201618834008595 0 -0.0011985691113345805 0.011819525333058148 0 -0.0013250562874465531 0.011847418210962803 0 -0.0016004739041214503 0.011982701936970926 0 -0.001287179974671299 0.011593770661893328 0 -0.0013250562874465531 0.011847418210962803 0 -0.0013173938998966178 0.01201618834008595 0 -0.0016004739041214503 0.011982701936970926 0 -0.0013173938998966178 0.01201618834008595 0 -0.0016004739041214503 0.011982701936970926 0 -0.0014255045295683798 0.012189513364181514 0 -0.001259481790744953 0.012197927398370959 0 -0.0013173938998966178 0.01201618834008595 0 -0.0014255045295683798 0.012189513364181514 0 -0.0014463357128232561 0.012418359719071731 0 -0.0013442985735599028 0.012338584366040781 0 -0.001542852775271295 0.012331823374764453 0 -0.0016004739041214503 0.011982701936970926 0 -0.0014255045295683798 0.012189513364181514 0 -0.001542852775271295 0.012331823374764453 0 -0.0014255045295683798 0.012189513364181514 0 -0.0013442985735599028 0.012338584366040781 0 -0.001542852775271295 0.012331823374764453 0 -0.001259481790744953 0.012197927398370959 0 -0.0014255045295683798 0.012189513364181514 0 -0.0013442985735599028 0.012338584366040781 0 -0.0014461207785178641 0.010628655319625029 0 -0.0012264492468525893 0.01018173450341477 0 -0.0012879393731276231 0.011215196647930727 0 -0.0014461207785178641 0.010628655319625029 0 -0.0016575412865015671 0.010714728354131103 0 -0.0014624098746218834 0.010740722128292159 0 -0.0017136969227405186 0.010532700668585649 0 -0.0016575412865015671 0.010714728354131103 0 -0.0016556079642218217 0.010809680072277752 0 -0.0014624098746218834 0.010740722128292159 0 -0.0014624098746218834 0.010740722128292159 0 -0.0015931155386638477 0.010366580836899741 0 -0.0017136969227405186 0.010532700668585649 0 -0.0014624098746218834 0.010740722128292159 0 -0.0015931155386638477 0.010366580836899741 0 -0.0014658024010484362 0.010211033809366804 0 -0.0010152119743467793 0.01016020378436744 0 -0.0010025874326872546 0.010280962221125458 0 -0.00099865427958781435 0.010237218291010149 0 -0.0010152119743467793 0.01016020378436744 0 -0.00099865427958781435 0.010237218291010149 0 -0.000963871759645038 0.010379293946378501 0 -0.0015931155386638477 0.010366580836899741 0 -0.0015797307223220382 0.010067735069743644 0 -0.00174039831546879 0.010266186922264602 0 -0.0015931155386638477 0.010366580836899741 0 -0.0014658024010484362 0.010211033809366804 0 -0.0015797307223220382 0.010067735069743644 0 -0.0014658024010484362 0.010211033809366804 0 -0.0015797307223220382 0.010067735069743644 0 -0.0012799289542818983 0.0098949623479514595 0 -0.0012264492468525893 0.01018173450341477 0 -0.0012759054167431833 0.0098983415046864139 0 -0.00099865427958781435 0.010237218291010149 0 -0.000963871759645038 0.010379293946378501 0 -0.0012799289542818983 0.0098949623479514595 0 -0.000963871759645038 0.010379293946378501 0 -0.0012799289542818983 0.0098949623479514595 0 -0.00099435935008096465 0.0097863345399330122 0 -0.0015797307223220382 0.010067735069743644 0 -0.0012799289542818983 0.0098949623479514595 0 -0.001695025813493112 0.0097324720932016936 0 -0.0016004739041214503 0.011982701936970926 0 -0.001287179974671299 0.011593770661893328 0 -0.0011622689092328324 0.010979140187511211 0 -0.0010152119743467793 0.01016020378436744 0 -0.000963871759645038 0.010379293946378501 0 -0.0011622689092328324 0.010979140187511211 0 -0.0012879393731276231 0.011215196647930727 0 -0.0011854239209152884 0.010931323160432974 0 -0.001287179974671299 0.011593770661893328 0 -0.0011980529251897306 0.011498968853152193 0 -0.0011985691113345805 0.011819525333058148 0 -0.0013250562874465531 0.011847418210962803 0 -0.001287179974671299 0.011593770661893328 0 -0.0011985691113345805 0.011819525333058148 0 -0.001287179974671299 0.011593770661893328 0 -0.0011622689092328324 0.010979140187511211 0 -0.0011980529251897306 0.011498968853152193 0 -0.00093395908489721474 0.010491076286012606 0 -0.00066382050843896679 0.010124552040306989 0 -0.000963871759645038 0.010379293946378501 0 -0.00063855796325615246 0.0094501810867487993 0 0.00015243124349799698 0.0090290932619241909 0 -0.000963871759645038 0.010379293946378501 0 -0.0011622689092328324 0.010979140187511211 0 -0.0012733517328693217 0.011634866814946489 0 -0.001239732261101444 0.01129268136916965 0 -0.0011622689092328324 0.010979140187511211 0 -0.0012733517328693217 0.011634866814946489 0 -0.001239732261101444 0.01129268136916965 0 -0.0011622689092328324 0.010979140187511211 0 -0.0011980529251897306 0.011498968853152193 0 -0.001239732261101444 0.01129268136916965 0 -0.0012654723711599146 0.011480343505515049 0 -0.0012661136692644409 0.011513101502070204 0 -0.00063855796325615246 0.0094501810867487993 0 -0.00033640300544450535 0.009027217542929537 0 -0.00082767802471789742 0.0089716107034795833 0 -0.00063855796325615246 0.0094501810867487993 0 -0.00033640300544450535 0.009027217542929537 0 0.00015243124349799698 0.0090290932619241909 0 -0.00033640300544450535 0.009027217542929537 0 0.00015243124349799698 0.0090290932619241909 0 -0.00010524105138353884 0.0088045530535377156 0 -0.0012733517328693217 0.011634866814946489 0 -0.0012654723711599146 0.011480343505515049 0 -0.0012733844342208477 0.01156564867878666 0 -0.001239732261101444 0.01129268136916965 0 -0.0012733517328693217 0.011634866814946489 0 -0.0012654723711599146 0.011480343505515049 0 -0.0012799289542818983 0.0098949623479514595 0 -0.0010532925249290258 0.0094386198915644374 0 -0.0014963261032242665 0.0092558302607634729 0 -0.0012799289542818983 0.0098949623479514595 0 -0.0014963261032242665 0.0092558302607634729 0 -0.001695025813493112 0.0097324720932016936 0 -0.000963871759645038 0.010379293946378501 0 -0.00063855796325615246 0.0094501810867487993 0 -0.00099435935008096465 0.0097863345399330122 0 -0.00063855796325615246 0.0094501810867487993 0 -0.00099435935008096465 0.0097863345399330122 0 -0.0010532925249290258 0.0094386198915644374 0 -0.0012799289542818983 0.0098949623479514595 0 -0.00099435935008096465 0.0097863345399330122 0 -0.0010532925249290258 0.0094386198915644374 0 -0.00063855796325615246 0.0094501810867487993 0 -0.0010532925249290258 0.0094386198915644374 0 -0.00082767802471789742 0.0089716107034795833 0 -0.0010532925249290258 0.0094386198915644374 0 -0.00082767802471789742 0.0089716107034795833 0 -0.0014963261032242665 0.0092558302607634729 0 -0.00082767802471789742 0.0089716107034795833 0 -0.0003716784551166687 0.0084290203747754543 0 -0.0019040663093615434 0.0085794206975683719 0 -0.0003716784551166687 0.0084290203747754543 0 -0.000240018990166603 0.0077836717944152183 0 -0.0019040663093615434 0.0085794206975683719 0 -0.00082767802471789742 0.0089716107034795833 0 -0.0014963261032242665 0.0092558302607634729 0 -0.0019040663093615434 0.0085794206975683719 0 -0.0003204791044260284 0.0076883799205231069 0 -0.00096106546725076487 0.0076200792045029832 0 -0.000309781846417062 0.0087541518161212157 0 -0.00013523634341144243 0.0086168257755956379 0 -0.0003716784551166687 0.0084290203747754543 0 -0.00082767802471789742 0.0089716107034795833 0 -0.000309781846417062 0.0087541518161212157 0 -0.0003716784551166687 0.0084290203747754543 0 -0.00033640300544450535 0.009027217542929537 0 -0.00082767802471789742 0.0089716107034795833 0 -0.000309781846417062 0.0087541518161212157 0 -0.00033640300544450535 0.009027217542929537 0 -0.000309781846417062 0.0087541518161212157 0 -0.00010524105138353884 0.0088045530535377156 0 -0.000309781846417062 0.0087541518161212157 0 -0.00010524105138353884 0.0088045530535377156 0 -0.00013523634341144243 0.0086168257755956379 0 0.00015243124349799698 0.0090290932619241909 0 -0.00010524105138353884 0.0088045530535377156 0 4.3308438511368391e-05 0.0087021446651114366 0 -0.00010524105138353884 0.0088045530535377156 0 -0.00013523634341144243 0.0086168257755956379 0 4.3308438511368391e-05 0.0087021446651114366 0 4.3308438511368391e-05 0.0087021446651114366 0 -2.402325578054117e-05 0.0084406077979249945 0 4.9426096890664976e-05 0.0084932655538565958 0 -0.00013523634341144243 0.0086168257755956379 0 4.3308438511368391e-05 0.0087021446651114366 0 -2.402325578054117e-05 0.0084406077979249945 0 -2.402325578054117e-05 0.0084406077979249945 0 -0.0003716784551166687 0.0084290203747754543 0 -6.0172567496619751e-05 0.0082287663649450952 0 -0.00013523634341144243 0.0086168257755956379 0 -2.402325578054117e-05 0.0084406077979249945 0 -0.0003716784551166687 0.0084290203747754543 0 -0.0003716784551166687 0.0084290203747754543 0 -6.0172567496619751e-05 0.0082287663649450952 0 -0.000240018990166603 0.0077836717944152183 0 1.8966745129787112e-07 0.0084193666015381814 0 -8.604180994178537e-07 0.0076104415522088324 0 -0.000240018990166603 0.0077836717944152183 0 -6.0172567496619751e-05 0.0082287663649450952 0 1.8966745129787112e-07 0.0084193666015381814 0 -0.000240018990166603 0.0077836717944152183 0 -2.402325578054117e-05 0.0084406077979249945 0 -6.0172567496619751e-05 0.0082287663649450952 0 6.5946520435453056e-05 0.0084766787003194965 0 -6.0172567496619751e-05 0.0082287663649450952 0 1.8966745129787112e-07 0.0084193666015381814 0 6.5946520435453056e-05 0.0084766787003194965 0 -8.604180994178537e-07 0.0076104415522088324 0 -0.000240018990166603 0.0077836717944152183 0 -0.00014424853845017508 0.0066296128908004751 0 -2.8245647089287194e-07 0.0092291503283712332 0 -7.2970165863168375e-05 0.0095114737786052197 0 -0.00029072755840172629 0.0095566351946318184 0 -1.2197520744151094e-07 0.0092281662778144098 0 1.3228289747734289e-05 0.0089227165849025993 0 1.8966745129787112e-07 0.0084193666015381814 0 -2.1783715096922622e-07 0.0092273335829450003 0 6.5946520435453056e-05 0.0084766787003194965 0 -2.1783715096922622e-07 0.0092273335829450003 0 6.5946520435453056e-05 0.0084766787003194965 0 7.482295372158586e-05 0.0084592283593298741 0 6.5946520435453056e-05 0.0084766787003194965 0 7.482295372158586e-05 0.0084592283593298741 0 4.9426096890664976e-05 0.0084932655538565958 0 -2.402325578054117e-05 0.0084406077979249945 0 6.5946520435453056e-05 0.0084766787003194965 0 4.9426096890664976e-05 0.0084932655538565958 0 -0.00066382050843896679 0.010124552040306989 0 1.3228289747734289e-05 0.0089227165849025993 0 -0.0012733517328693217 0.011634866814946489 0 -0.0012288560519392918 0.011588367111620382 0 -0.0012573823387311681 0.011617203393287178 0 -0.00052368701232950027 0.0098649823133126428 0 -0.00029072755840172629 0.0095566351946318184 0 -0.00013717981967202204 0.0096350025240345381 0 -0.00066382050843896679 0.010124552040306989 0 -0.00076144040522617721 0.01069637223456827 0 0.00015243124349799698 0.0090290932619241909 0 4.3308438511368391e-05 0.0087021446651114366 0 7.482295372158586e-05 0.0084592283593298741 0 4.3308438511368391e-05 0.0087021446651114366 0 7.482295372158586e-05 0.0084592283593298741 0 4.9426096890664976e-05 0.0084932655538565958 0 -7.2970165863168375e-05 0.0095114737786052197 0 -0.00013717981967202204 0.0096350025240345381 0 4.7019204283536381e-05 0.0096093781728286247 0 -0.0012288560519392918 0.011588367111620382 0 -0.0012157263792595327 0.011643789658605005 0 -0.0012573823387311681 0.011617203393287178 0 -0.0012288560519392918 0.011588367111620382 0 -0.0011399192650702675 0.011717700321824088 0 -0.0012157263792595327 0.011643789658605005 0 -7.2970165863168375e-05 0.0095114737786052197 0 -0.00029072755840172629 0.0095566351946318184 0 -0.00013717981967202204 0.0096350025240345381 0 -0.0012288560519392918 0.011588367111620382 0 -0.0011399192650702675 0.011717700321824088 0 -0.001077470417078002 0.011599040409713433 0 -0.0011399192650702675 0.011717700321824088 0 -0.0012157263792595327 0.011643789658605005 0 -0.0011789527549182029 0.011726135215127725 0 -0.0011399192650702675 0.011717700321824088 0 -0.0011789527549182029 0.011726135215127725 0 -0.0010570183077877897 0.011928566855986937 0 -0.0012733517328693217 0.011634866814946489 0 -0.0012733844342208477 0.01156564867878666 0 -0.0012573823387311681 0.011617203393287178 0 -0.0012654723711599146 0.011480343505515049 0 -0.0012733844342208477 0.01156564867878666 0 -0.0012661136692644409 0.011513101502070204 0 -0.0012733844342208477 0.01156564867878666 0 -0.0012573823387311681 0.011617203393287178 0 -0.0012661136692644409 0.011513101502070204 0 -0.0012378268863754024 0.011623773340736424 0 -0.0012573823387311681 0.011617203393287178 0 -0.0012661136692644409 0.011513101502070204 0 -0.0012157263792595327 0.011643789658605005 0 -0.0011789527549182029 0.011726135215127725 0 -0.0012378268863754024 0.011623773340736424 0 -0.0012157263792595327 0.011643789658605005 0 -0.0012378268863754024 0.011623773340736424 0 -0.0012573823387311681 0.011617203393287178 0 -0.0011789527549182029 0.011726135215127725 0 -0.0012141214955401212 0.011628668671985823 0 -0.0011599124706408921 0.011745492311508843 0 -0.0011789527549182029 0.011726135215127725 0 -0.0012378268863754024 0.011623773340736424 0 -0.0012141214955401212 0.011628668671985823 0 -0.001239732261101444 0.01129268136916965 0 -0.0012124936112786692 0.01154337001951517 0 -0.0011980529251897306 0.011498968853152193 0 -0.0012378268863754024 0.011623773340736424 0 -0.0012141214955401212 0.011628668671985823 0 -0.0012661136692644409 0.011513101502070204 0 -0.0012141214955401212 0.011628668671985823 0 -0.0012124936112786692 0.01154337001951517 0 -0.0012661136692644409 0.011513101502070204 0 -0.001239732261101444 0.01129268136916965 0 -0.0012124936112786692 0.01154337001951517 0 -0.0012661136692644409 0.011513101502070204 0 -0.0012124936112786692 0.01154337001951517 0 -0.0011980529251897306 0.011498968853152193 0 -0.0011599124706408921 0.011745492311508843 0 -0.0012141214955401212 0.011628668671985823 0 -0.0012124936112786692 0.01154337001951517 0 -0.0011599124706408921 0.011745492311508843 0 -0.0011599124706408921 0.011745492311508843 0 -0.0011158782002103392 0.011968506861892748 0 -0.0011985691113345805 0.011819525333058148 0 -0.0011599124706408921 0.011745492311508843 0 -0.0011158782002103392 0.011968506861892748 0 -0.0011076279952348966 0.011889777133690833 0 -0.0011980529251897306 0.011498968853152193 0 -0.0011599124706408921 0.011745492311508843 0 -0.0011985691113345805 0.011819525333058148 0 -0.0010570183077877897 0.011928566855986937 0 -0.0011076279952348966 0.011889777133690833 0 -0.001020405660796677 0.012116353674134163 0 -0.0011789527549182029 0.011726135215127725 0 -0.0010570183077877897 0.011928566855986937 0 -0.0011076279952348966 0.011889777133690833 0 -0.0011789527549182029 0.011726135215127725 0 -0.0011599124706408921 0.011745492311508843 0 -0.0011076279952348966 0.011889777133690833 0 -0.0011158782002103392 0.011968506861892748 0 -0.0011076279952348966 0.011889777133690833 0 -0.001020405660796677 0.012116353674134163 0 -0.001020405660796677 0.012116353674134163 0 -0.00092096984361949522 0.012130249649823807 0 -0.00091097267838685843 0.01232731235605816 0 -0.00092096984361949522 0.012130249649823807 0 -0.00078075620434186609 0.01241694150692467 0 -0.00091097267838685843 0.01232731235605816 0 -0.0010570183077877897 0.011928566855986937 0 -0.001020405660796677 0.012116353674134163 0 -0.00092096984361949522 0.012130249649823807 0 -0.00078075620434186609 0.01241694150692467 0 -0.0007009366920605768 0.012154058227344149 0 -0.00052577018084762654 0.012626090804348421 0 -0.00092096984361949522 0.012130249649823807 0 -0.00078075620434186609 0.01241694150692467 0 -0.0007009366920605768 0.012154058227344149 0 -0.00092096984361949522 0.012130249649823807 0 -0.0007009366920605768 0.012154058227344149 0 -0.00095316859608700225 0.011835078718668858 0 -0.0007009366920605768 0.012154058227344149 0 -0.00095316859608700225 0.011835078718668858 0 -0.00061721504960957681 0.011754887599787966 0 -0.0010570183077877897 0.011928566855986937 0 -0.00092096984361949522 0.012130249649823807 0 -0.00095316859608700225 0.011835078718668858 0 -0.0011399192650702675 0.011717700321824088 0 -0.0010570183077877897 0.011928566855986937 0 -0.00095316859608700225 0.011835078718668858 0 -0.0011399192650702675 0.011717700321824088 0 -0.00095316859608700225 0.011835078718668858 0 -0.001077470417078002 0.011599040409713433 0 -0.00076144040522617721 0.01069637223456827 0 -0.00043531162673082443 0.010414940300250712 0 -0.0012288560519392918 0.011588367111620382 0 -0.001077470417078002 0.011599040409713433 0 -0.0010665665742333108 0.011246202663271612 0 -0.001077470417078002 0.011599040409713433 0 -0.00089174355403457155 0.011553342401476412 0 -0.0010665665742333108 0.011246202663271612 0 -0.00095316859608700225 0.011835078718668858 0 -0.001077470417078002 0.011599040409713433 0 -0.00089174355403457155 0.011553342401476412 0 -0.00095316859608700225 0.011835078718668858 0 -0.00089174355403457155 0.011553342401476412 0 -0.00061721504960957681 0.011754887599787966 0 -0.00089174355403457155 0.011553342401476412 0 -0.00061721504960957681 0.011754887599787966 0 -0.00055290673448671411 0.011341395429873537 0 -0.00089174355403457155 0.011553342401476412 0 -0.00055290673448671411 0.011341395429873537 0 -0.0010665665742333108 0.011246202663271612 0 2.4278686269022149e-07 0.0098068455083430168 0 4.7019204283536381e-05 0.0096093781728286247 0 -2.25870251521974e-07 0.010385718124742123 0 -0.00055290673448671411 0.011341395429873537 0 -0.0010665665742333108 0.011246202663271612 0 -1.8401421036693359e-06 0.0103881266486496 0 -0.00043531162673082443 0.010414940300250712 0 -1.6751461239130792e-08 0.010385983204933471 0 -2.8245647089287194e-07 0.0092291503283712332 0 2.4278686269022149e-07 0.0098068455083430168 0 4.7019204283536381e-05 0.0096093781728286247 0 -2.8245647089287194e-07 0.0092291503283712332 0 -7.2970165863168375e-05 0.0095114737786052197 0 4.7019204283536381e-05 0.0096093781728286247 0 -0.00055290673448671411 0.011341395429873537 0 -1.8401421036693359e-06 0.0103881266486496 0 -0.00020336260774159846 0.011464843384719375 0 4.3491493776627231e-07 0.011106301101062704 0 -1.8401421036693359e-06 0.0103881266486496 0 -0.00020336260774159846 0.011464843384719375 0 -0.00061721504960957681 0.011754887599787966 0 -0.00020336260774159846 0.011464843384719375 0 -0.00037639152125658912 0.012115861456376898 0 -0.00061721504960957681 0.011754887599787966 0 -0.00055290673448671411 0.011341395429873537 0 -0.00020336260774159846 0.011464843384719375 0 4.3491493776627231e-07 0.011106301101062704 0 -0.00020336260774159846 0.011464843384719375 0 -0.00012873284393317727 0.012128537545302343 0 -0.00020336260774159846 0.011464843384719375 0 -0.00037639152125658912 0.012115861456376898 0 -0.00012873284393317727 0.012128537545302343 0 -0.00037639152125658912 0.012115861456376898 0 -0.00030358042262685784 0.012547053700933036 0 -0.00012873284393317727 0.012128537545302343 0 -0.00030358042262685784 0.012547053700933036 0 -0.00010839493484554865 0.012793245438332707 0 -0.00012873284393317727 0.012128537545302343 0 -0.0007009366920605768 0.012154058227344149 0 -0.00061721504960957681 0.011754887599787966 0 -0.00037639152125658912 0.012115861456376898 0 -0.0007009366920605768 0.012154058227344149 0 -0.00037639152125658912 0.012115861456376898 0 -0.00052577018084762654 0.012626090804348421 0 -0.00037639152125658912 0.012115861456376898 0 -0.00052577018084762654 0.012626090804348421 0 -0.00030358042262685784 0.012547053700933036 0 -0.00052577018084762654 0.012626090804348421 0 -0.00030358042262685784 0.012547053700933036 0 -0.00023023004400956251 0.013035823955092037 0 -0.00052577018084762654 0.012626090804348421 0 -0.00043608993239868362 0.013077545578150334 0 -0.00023023004400956251 0.013035823955092037 0 -0.00043608993239868362 0.013077545578150334 0 -0.00024184867247516105 0.013426246989135972 0 -0.00023023004400956251 0.013035823955092037 0 -0.00043608993239868362 0.013077545578150334 0 -0.00045861341763629731 0.013532460810945758 0 -0.00024184867247516105 0.013426246989135972 0 -0.00078359605865879528 0.012828997758035813 0 -0.001113829828414717 0.013457919924206295 0 -0.00045861341763629731 0.013532460810945758 0 -0.00043608993239868362 0.013077545578150334 0 -0.00078359605865879528 0.012828997758035813 0 -0.00045861341763629731 0.013532460810945758 0 -0.00078075620434186609 0.01241694150692467 0 -0.00052577018084762654 0.012626090804348421 0 -0.00078359605865879528 0.012828997758035813 0 -0.00052577018084762654 0.012626090804348421 0 -0.00043608993239868362 0.013077545578150334 0 -0.00078359605865879528 0.012828997758035813 0 -0.00091097267838685843 0.01232731235605816 0 -0.00085730582263732896 0.012531785691633865 0 -0.00078359605865879528 0.012828997758035813 0 -0.00078075620434186609 0.01241694150692467 0 -0.00091097267838685843 0.01232731235605816 0 -0.00078359605865879528 0.012828997758035813 0 -0.00095693813319395614 0.012346737531099833 0 -0.00091097267838685843 0.01232731235605816 0 -0.00085730582263732896 0.012531785691633865 0 -0.00095693813319395614 0.012346737531099833 0 -0.001020405660796677 0.012116353674134163 0 -0.00091097267838685843 0.01232731235605816 0 -0.00085730582263732896 0.012531785691633865 0 -0.00089755636156383593 0.012479884039471445 0 -0.00082530581204004775 0.01255413044431818 0 -0.00095693813319395614 0.012346737531099833 0 -0.00085730582263732896 0.012531785691633865 0 -0.00089755636156383593 0.012479884039471445 0 -0.00085730582263732896 0.012531785691633865 0 -0.00078359605865879528 0.012828997758035813 0 -0.00082530581204004775 0.01255413044431818 0 -0.00079343799996316005 0.01281575347587092 0 -0.00098341210428821318 0.013019038189012837 0 -0.00098341210428821318 0.013019038189012837 0 -0.00084505585698054213 0.013271335697099668 0 -0.00089755636156383593 0.012479884039471445 0 -0.00082530581204004775 0.01255413044431818 0 -0.00087080275683622146 0.012534603337271615 0 -0.00082530581204004775 0.01255413044431818 0 -0.00083994731793127881 0.012585550670852713 0 -0.00081378111006789519 0.012624811069078392 0 -0.00082530581204004775 0.01255413044431818 0 -0.00087080275683622146 0.012534603337271615 0 -0.00083994731793127881 0.012585550670852713 0 -0.00089423867582227943 0.012559040076999624 0 -0.00087080275683622146 0.012534603337271615 0 -0.00083994731793127881 0.012585550670852713 0 -0.00085513755085837558 0.01259987048932631 0 -0.00083994731793127881 0.012585550670852713 0 -0.00080165018152723302 0.012640477457972376 0 -0.00083994731793127881 0.012585550670852713 0 -0.00081378111006789519 0.012624811069078392 0 -0.00080165018152723302 0.012640477457972376 0 -0.00085513755085837558 0.01259987048932631 0 -0.00089423867582227943 0.012559040076999624 0 -0.00083994731793127881 0.012585550670852713 0 -0.00082829482046002775 0.012726179991987422 0 -0.00073238328155513519 0.012638604563949963 0 -0.00080165018152723302 0.012640477457972376 0 -0.00084505585698054213 0.013271335697099668 0 -0.00082017292176075928 0.013103466768034753 0 -0.00084505585698054213 0.013271335697099668 0 -0.00057732235660054294 0.013920336492904488 0 -0.001113829828414717 0.013457919924206295 0 -0.0013624030315853245 0.013892835157561087 0 -0.00070051733037338295 0.013930638324607251 0 -0.00051886207648941065 0.013731550369717585 0 -0.00054359032567433 0.013669955530165836 0 -0.00039275775844465309 0.013762016608508201 0 -0.00070051733037338295 0.013930638324607251 0 -0.00045861341763629731 0.013532460810945758 0 -0.00023882053421484182 0.013971716178609357 0 -0.00057732235660054294 0.013920336492904488 0 -0.00025244509182344616 0.01394942958997283 0 -0.001113829828414717 0.013457919924206295 0 -0.00070051733037338295 0.013930638324607251 0 -0.00045861341763629731 0.013532460810945758 0 -9.2388729726186768e-05 0.013866747709502374 0 -0.00015104301978766983 0.01383225613047607 0 -7.927030883621915e-05 0.014020661863229547 0 -9.2388729726186768e-05 0.013866747709502374 0 -3.1057127330287696e-05 0.013885081077314168 0 -9.7906499742292098e-05 0.013681379373853313 0 -9.2388729726186768e-05 0.013866747709502374 0 -7.927030883621915e-05 0.014020661863229547 0 -3.1057127330287696e-05 0.013885081077314168 0 -9.2388729726186768e-05 0.013866747709502374 0 -0.00015104301978766983 0.01383225613047607 0 -9.7906499742292098e-05 0.013681379373853313 0 -0.00045861341763629731 0.013532460810945758 0 -0.00015104301978766983 0.01383225613047607 0 -0.00024184867247516105 0.013426246989135972 0 -0.00045861341763629731 0.013532460810945758 0 -0.00015104301978766983 0.01383225613047607 0 -0.00023882053421484182 0.013971716178609357 0 -0.00020552321442506022 0.014075060982905932 0 -0.00026495575895017504 0.01392454827519916 0 -0.00011089147980132251 0.014151121195055271 0 -0.00015104301978766983 0.01383225613047607 0 -0.00011089147980132251 0.014151121195055271 0 -7.927030883621915e-05 0.014020661863229547 0 -0.00015104301978766983 0.01383225613047607 0 -0.00023882053421484182 0.013971716178609357 0 -0.00011089147980132251 0.014151121195055271 0 -0.00025244509182344616 0.01394942958997283 0 -0.00011844071489911972 0.01412166546038668 0 -0.00011089147980132251 0.014151121195055271 0 -4.4021787196359032e-05 0.014162661421060993 0 -4.4842298678651366e-05 0.01428798940692254 0 -0.00011089147980132251 0.014151121195055271 0 -4.4021787196359032e-05 0.014162661421060993 0 -7.927030883621915e-05 0.014020661863229547 0 1.7908264870526602e-06 0.0142475369773455 0 4.2110468418192087e-05 0.014310200442332119 0 1.1734743159031797e-05 0.01440722572551993 0 -4.4842298678651366e-05 0.01428798940692254 0 1.7908264870526602e-06 0.0142475369773455 0 1.1734743159031797e-05 0.01440722572551993 0 -4.4021787196359032e-05 0.014162661421060993 0 -4.4842298678651366e-05 0.01428798940692254 0 1.7908264870526602e-06 0.0142475369773455 0 1.7908264870526602e-06 0.0142475369773455 0 2.3405503421665616e-06 0.014089590901490007 0 4.2110468418192087e-05 0.014310200442332119 0 2.3405503421665616e-06 0.014089590901490007 0 4.5226460941518899e-05 0.014120979665001736 0 4.2110468418192087e-05 0.014310200442332119 0 -4.4021787196359032e-05 0.014162661421060993 0 1.7908264870526602e-06 0.0142475369773455 0 2.3405503421665616e-06 0.014089590901490007 0 -4.4021787196359032e-05 0.014162661421060993 0 2.3405503421665616e-06 0.014089590901490007 0 -7.927030883621915e-05 0.014020661863229547 0 2.3405503421665616e-06 0.014089590901490007 0 -7.927030883621915e-05 0.014020661863229547 0 -3.1057127330287696e-05 0.013885081077314168 0 2.3405503421665616e-06 0.014089590901490007 0 -3.1057127330287696e-05 0.013885081077314168 0 3.1135959212669992e-05 0.013884529183210844 0 -3.1057127330287696e-05 0.013885081077314168 0 3.1135959212669992e-05 0.013884529183210844 0 -2.9015859764629908e-05 0.013650244789465615 0 3.1135959212669992e-05 0.013884529183210844 0 4.5226460941518899e-05 0.014120979665001736 0 7.3029549342883271e-05 0.01405685072026073 0 2.3405503421665616e-06 0.014089590901490007 0 3.1135959212669992e-05 0.013884529183210844 0 4.5226460941518899e-05 0.014120979665001736 0 4.5839838714796805e-05 0.01377892951705984 0 5.277973233854099e-05 0.013811013508406767 0 7.3029549342883271e-05 0.01405685072026073 0 3.1135959212669992e-05 0.013884529183210844 0 4.5839838714796805e-05 0.01377892951705984 0 7.3029549342883271e-05 0.01405685072026073 0 3.1135959212669992e-05 0.013884529183210844 0 2.5099047466845743e-05 0.013501298968060122 0 -2.9015859764629908e-05 0.013650244789465615 0 3.1135959212669992e-05 0.013884529183210844 0 4.5839838714796805e-05 0.01377892951705984 0 2.5099047466845743e-05 0.013501298968060122 0 -4.4989503370392683e-05 0.013244578256290673 0 -2.9015859764629908e-05 0.013650244789465615 0 -0.00011541715810831462 0.013415575906594163 0 2.5099047466845743e-05 0.013501298968060122 0 -4.4989503370392683e-05 0.013244578256290673 0 -2.9015859764629908e-05 0.013650244789465615 0 -2.9015859764629908e-05 0.013650244789465615 0 -9.7906499742292098e-05 0.013681379373853313 0 -0.00011541715810831462 0.013415575906594163 0 -3.1057127330287696e-05 0.013885081077314168 0 -2.9015859764629908e-05 0.013650244789465615 0 -9.7906499742292098e-05 0.013681379373853313 0 -0.00015104301978766983 0.01383225613047607 0 -9.7906499742292098e-05 0.013681379373853313 0 -0.00024184867247516105 0.013426246989135972 0 -9.7906499742292098e-05 0.013681379373853313 0 -0.00024184867247516105 0.013426246989135972 0 -0.00011541715810831462 0.013415575906594163 0 -4.4989503370392683e-05 0.013244578256290673 0 -0.00023023004400956251 0.013035823955092037 0 -0.00011541715810831462 0.013415575906594163 0 -0.00024184867247516105 0.013426246989135972 0 -0.00023023004400956251 0.013035823955092037 0 -0.00011541715810831462 0.013415575906594163 0 -0.00030358042262685784 0.012547053700933036 0 -0.00023023004400956251 0.013035823955092037 0 -0.00010839493484554865 0.012793245438332707 0 -4.4989503370392683e-05 0.013244578256290673 0 -0.00023023004400956251 0.013035823955092037 0 -0.00010839493484554865 0.012793245438332707 0 2.5099047466845743e-05 0.013501298968060122 0 -4.4989503370392683e-05 0.013244578256290673 0 8.4953033011464152e-05 0.012977272644016718 0 -4.4989503370392683e-05 0.013244578256290673 0 -0.00010839493484554865 0.012793245438332707 0 8.4953033011464152e-05 0.012977272644016718 0 -0.00010839493484554865 0.012793245438332707 0 8.4953033011464152e-05 0.012977272644016718 0 -0.00012873284393317727 0.012128537545302343 0 8.4953033011464152e-05 0.012977272644016718 0 -0.00012873284393317727 0.012128537545302343 0 4.5157045118911064e-05 0.011969618882228769 0 4.3491493776627231e-07 0.011106301101062704 0 -0.00012873284393317727 0.012128537545302343 0 4.5157045118911064e-05 0.011969618882228769 0 8.4953033011464152e-05 0.012977272644016718 0 4.5157045118911064e-05 0.011969618882228769 0 0.00025247404582067542 0.012148358121472086 0 5.8569906297039885e-05 0.012952365874910754 0 3.9318974508173293e-05 0.012734052381858063 0 4.5157045118911064e-05 0.011969618882228769 0 1.8849652143417197e-07 0.011827229877761579 0 0.00025247404582067542 0.012148358121472086 0 4.3491493776627231e-07 0.011106301101062704 0 4.5157045118911064e-05 0.011969618882228769 0 1.8849652143417197e-07 0.011827229877761579 0 -2.0863315992888246e-07 0.012550072267876921 0 -0.00018419390599864221 0.013305002539586021 0 -2.165020031825545e-05 0.013483907247335933 0 1.8849652143417197e-07 0.011827229877761579 0 8.0589104580691988e-08 0.012545885884139768 0 0.00025247404582067542 0.012148358121472086 0 3.2525942650168274e-08 0.012547153304346007 0 3.9318974508173293e-05 0.012734052381858063 0 -0.00018419390599864221 0.013305002539586021 0 -2.165020031825545e-05 0.013483907247335933 0 2.7253238656019914e-06 0.013459583597287014 0 -2.0863315992888246e-07 0.012550072267876921 0 -2.165020031825545e-05 0.013483907247335933 0 5.9995262355902618e-05 0.013673042043063008 0 -2.165020031825545e-05 0.013483907247335933 0 3.7422323854687142e-05 0.01373253529730196 0 5.9995262355902618e-05 0.013673042043063008 0 3.7422323854687142e-05 0.01373253529730196 0 2.7253238656019914e-06 0.013459583597287014 0 5.277973233854099e-05 0.013811013508406767 0 -2.165020031825545e-05 0.013483907247335933 0 3.7422323854687142e-05 0.01373253529730196 0 2.7253238656019914e-06 0.013459583597287014 0 8.4953033011464152e-05 0.012977272644016718 0 -0.00018419390599864221 0.013305002539586021 0 2.7253238656019914e-06 0.013459583597287014 0 4.5839838714796805e-05 0.01377892951705984 0 2.5099047466845743e-05 0.013501298968060122 0 2.7253238656019914e-06 0.013459583597287014 0 2.5099047466845743e-05 0.013501298968060122 0 8.4953033011464152e-05 0.012977272644016718 0 2.7253238656019914e-06 0.013459583597287014 0 4.5839838714796805e-05 0.01377892951705984 0 2.7253238656019914e-06 0.013459583597287014 0 5.277973233854099e-05 0.013811013508406767 0 5.277973233854099e-05 0.013811013508406767 0 8.9825181378784294e-05 0.014114020545194903 0 7.3029549342883271e-05 0.01405685072026073 0 3.7422323854687142e-05 0.01373253529730196 0 5.277973233854099e-05 0.013811013508406767 0 8.9825181378784294e-05 0.014114020545194903 0 -2.0863315992888246e-07 0.012550072267876921 0 7.7503714243870895e-05 0.014241573890916889 0 2.9558634315929697e-07 0.014998869726725613 0 8.9825181378784294e-05 0.014114020545194903 0 8.8601824861527878e-05 0.014432863229567501 0 9.7665651735301422e-05 0.014199166148919978 0 8.9825181378784294e-05 0.014114020545194903 0 8.8601824861527878e-05 0.014432863229567501 0 8.6177616059911755e-05 0.014471553514621325 0 8.7174095363731142e-05 0.01408219071731656 0 7.7503714243870895e-05 0.014241573890916889 0 5.3270938976082695e-05 0.014514381418399853 0 8.8601824861527878e-05 0.014432863229567501 0 9.7665651735301422e-05 0.014199166148919978 0 6.9321426059718507e-05 0.014628999267496388 0 8.3737124069213414e-05 0.014137262768733398 0 6.6546775062649975e-05 0.014571839705596609 0 3.7422323854687142e-05 0.01373253529730196 0 8.9825181378784294e-05 0.014114020545194903 0 9.7665651735301422e-05 0.014199166148919978 0 3.2431397990020797e-05 0.013834060888831741 0 8.3737124069213414e-05 0.014137262768733398 0 3.7422323854687142e-05 0.01373253529730196 0 8.7174095363731142e-05 0.01408219071731656 0 5.9995262355902618e-05 0.013673042043063008 0 -2.0863315992888246e-07 0.012550072267876921 0 5.9995262355902618e-05 0.013673042043063008 0 7.7503714243870895e-05 0.014241573890916889 0 8.7174095363731142e-05 0.01408219071731656 0 5.9995262355902618e-05 0.013673042043063008 0 7.7503714243870895e-05 0.014241573890916889 0 7.7503714243870895e-05 0.014241573890916889 0 2.9558634315929697e-07 0.014998869726725613 0 -5.3689890967047587e-08 0.014999183747140345 0 4.1108829493214668e-08 0.014999798241326414 0 6.6546775062649975e-05 0.014571839705596609 0 4.7320755797071862e-08 0.01499957967421656 0 6.9321426059718507e-05 0.014628999267496388 0 5.7350659295448576e-05 0.014707489012821593 0 7.7503714243870895e-05 0.014241573890916889 0 -5.3689890967047587e-08 0.014999183747140345 0 5.3270938976082695e-05 0.014514381418399853 0 8.8601824861527878e-05 0.014432863229567501 0 5.7350659295448576e-05 0.014707489012821593 0 8.6177616059911755e-05 0.014471553514621325 0 8.8601824861527878e-05 0.014432863229567501 0 6.9321426059718507e-05 0.014628999267496388 0 5.7350659295448576e-05 0.014707489012821593 0 4.7320755797071862e-08 0.01499957967421656 0 5.7350659295448576e-05 0.014707489012821593 0 5.1570397384094669e-08 0.014999576549496829 0 5.1570397384094669e-08 0.014999576549496829 0 5.2389813362544446e-08 0.014999663246429861 0 5.533208075054177e-05 0.014746596975279001 0 5.7350659295448576e-05 0.014707489012821593 0 5.1570397384094669e-08 0.014999576549496829 0 5.533208075054177e-05 0.014746596975279001 0 5.2389813362544446e-08 0.014999663246429861 0 5.533208075054177e-05 0.014746596975279001 0 4.7828245961722123e-05 0.014785112260067592 0 5.533208075054177e-05 0.014746596975279001 0 7.7867502714159273e-05 0.014524562122888132 0 4.7828245961722123e-05 0.014785112260067592 0 5.7350659295448576e-05 0.014707489012821593 0 5.533208075054177e-05 0.014746596975279001 0 8.6177616059911755e-05 0.014471553514621325 0 5.533208075054177e-05 0.014746596975279001 0 8.6177616059911755e-05 0.014471553514621325 0 7.7867502714159273e-05 0.014524562122888132 0 8.6177616059911755e-05 0.014471553514621325 0 8.5373120922180266e-05 0.014290823902857026 0 7.7867502714159273e-05 0.014524562122888132 0 8.9825181378784294e-05 0.014114020545194903 0 8.6177616059911755e-05 0.014471553514621325 0 8.5373120922180266e-05 0.014290823902857026 0 8.9825181378784294e-05 0.014114020545194903 0 8.5373120922180266e-05 0.014290823902857026 0 7.3029549342883271e-05 0.01405685072026073 0 8.5373120922180266e-05 0.014290823902857026 0 7.3029549342883271e-05 0.01405685072026073 0 7.1729520692742101e-05 0.014276042686044941 0 4.5226460941518899e-05 0.014120979665001736 0 7.3029549342883271e-05 0.01405685072026073 0 7.1729520692742101e-05 0.014276042686044941 0 7.1729520692742101e-05 0.014276042686044941 0 7.7867502714159273e-05 0.014524562122888132 0 6.4787932652341792e-05 0.014452055302682985 0 8.5373120922180266e-05 0.014290823902857026 0 7.1729520692742101e-05 0.014276042686044941 0 7.7867502714159273e-05 0.014524562122888132 0 6.0359320176630172e-05 0.014621661016181007 0 6.4787932652341792e-05 0.014452055302682985 0 4.3734334331337963e-05 0.014557796110655531 0 7.7867502714159273e-05 0.014524562122888132 0 6.0359320176630172e-05 0.014621661016181007 0 6.4787932652341792e-05 0.014452055302682985 0 7.1729520692742101e-05 0.014276042686044941 0 6.4787932652341792e-05 0.014452055302682985 0 4.2110468418192087e-05 0.014310200442332119 0 4.5226460941518899e-05 0.014120979665001736 0 7.1729520692742101e-05 0.014276042686044941 0 4.2110468418192087e-05 0.014310200442332119 0 6.4787932652341792e-05 0.014452055302682985 0 4.2110468418192087e-05 0.014310200442332119 0 4.3734334331337963e-05 0.014557796110655531 0 4.2110468418192087e-05 0.014310200442332119 0 1.1734743159031797e-05 0.01440722572551993 0 4.3734334331337963e-05 0.014557796110655531 0 3.7744221407623914e-05 0.014803270664912533 0 6.0359320176630172e-05 0.014621661016181007 0 4.3734334331337963e-05 0.014557796110655531 0 3.7744221407623914e-05 0.014803270664912533 0 6.0359320176630172e-05 0.014621661016181007 0 4.7828245961722123e-05 0.014785112260067592 0 3.7744221407623914e-05 0.014803270664912533 0 3.1472400029905352e-08 0.014999716009061076 0 4.7828245961722123e-05 0.014785112260067592 0 5.2389813362544446e-08 0.014999663246429861 0 3.1472400029905352e-08 0.014999716009061076 0 4.7828245961722123e-05 0.014785112260067592 0 7.7867502714159273e-05 0.014524562122888132 0 6.0359320176630172e-05 0.014621661016181007 0 4.7828245961722123e-05 0.014785112260067592 0 -0.0011021431234092926 0.0016334707270267098 0 -0.0013268729236109011 0.0016433131154404701 0 -0.001278485923324771 0.0018758212700719235 0 -0.0011929083738350266 0.001225885994764345 0 -0.0011436800198167552 0.0011035250143659357 0 -0.0011021431234092926 0.0016334707270267098 0 -0.0012784563361412109 0.0013252921869336652 0 -0.0011359615566508092 0.001093889132528123 0 -0.0011021431234092926 0.0016334707270267098 0 -0.0013268729236109011 0.0016433131154404701 0 -0.0012784563361412109 0.0013252921869336652 0 -0.0013268729236109011 0.0016433131154404701 0 -0.0012784563361412109 0.0013252921869336652 0 -0.0013761176050603595 0.00152344898466863 0 -0.0013268729236109011 0.0016433131154404701 0 -0.0014078015404797616 0.001697284522797415 0 -0.0013761176050603595 0.00152344898466863 0 -0.0014078015404797616 0.001697284522797415 0 -0.0013761176050603595 0.00152344898466863 0 -0.0014699615912232031 0.0016600686224446598 0 -0.0014078015404797616 0.001697284522797415 0 -0.0013795488614723227 0.001870551618842492 0 -0.0015076061060943888 0.0018385740863653178 0 -0.0013268729236109011 0.0016433131154404701 0 -0.0014078015404797616 0.001697284522797415 0 -0.0013795488614723227 0.001870551618842492 0 -0.0013268729236109011 0.0016433131154404701 0 -0.0013795488614723227 0.001870551618842492 0 -0.001278485923324771 0.0018758212700719235 0 -0.0013795488614723227 0.001870551618842492 0 -0.0013633083959879468 0.0019941913902138254 0 -0.001278485923324771 0.0018758212700719235 0 -0.0013795488614723227 0.001870551618842492 0 -0.0015076061060943888 0.0018385740863653178 0 -0.0014956735974089184 0.0021397787763416777 0 -0.0013795488614723227 0.001870551618842492 0 -0.0013633083959879468 0.0019941913902138254 0 -0.0014956735974089184 0.0021397787763416777 0 -0.0013368966568021732 0.0021965102981365216 0 -0.0015024154247545859 0.0021357063872871674 0 -0.0012797115116331274 0.0024143447807457963 0 -0.0014956735974089184 0.0021397787763416777 0 -0.0014408936346123064 0.0025650556874934807 0 -0.0013633083959879468 0.0019941913902138254 0 -0.001278485923324771 0.0018758212700719235 0 -0.0012857420367700181 0.0019419150223150324 0 -0.0013368966568021732 0.0021965102981365216 0 -0.0012282092982227278 0.0022227643445800332 0 -0.001278485923324771 0.0018758212700719235 0 -0.0012823393884292293 0.0019162859413059392 0 -0.0012857420367700181 0.0019419150223150324 0 -0.0011929083738350266 0.001225885994764345 0 -0.0013023012080190936 0.001529404388304792 0 -0.0011021431234092926 0.0016334707270267098 0 -0.001278485923324771 0.0018758212700719235 0 -0.0011923768689087787 0.0018758291000041355 0 -0.001278485923324771 0.0018758212700719235 0 -0.0011923768689087787 0.0018758291000041355 0 -0.0012823393884292293 0.0019162859413059392 0 -0.0011923768689087787 0.0018758291000041355 0 -0.0012823393884292293 0.0019162859413059392 0 -0.0013295358677337383 0.0019108217634408431 0 -0.0014306637221388383 0.0011756946943679402 0 -0.0011030576111381387 0.0013881014725359074 0 -0.0012284586249695665 0.0016365514946187912 0 -0.0014306637221388383 0.0011756946943679402 0 -0.0012284586249695665 0.0016365514946187912 0 -0.0013295358677337383 0.0019108217634408431 0 -0.0011030576111381387 0.0013881014725359074 0 -0.0012284586249695665 0.0016365514946187912 0 -0.0010527969263899577 0.0018721298617625569 0 -0.0013023012080190936 0.001529404388304792 0 -0.0013255187052524863 0.0018777691503580848 0 -0.00087538157753805487 0.001391366570665262 0 -0.0011030576111381387 0.0013881014725359074 0 -0.00088040581624700988 0.0017207700583200063 0 -0.00087538157753805487 0.001391366570665262 0 -0.00048978079226917278 0.0014640818338975069 0 -0.00088040581624700988 0.0017207700583200063 0 -0.00087538157753805487 0.001391366570665262 0 -0.0011030576111381387 0.0013881014725359074 0 -0.0009827070148010627 0.00099825780475349779 0 -0.0011030576111381387 0.0013881014725359074 0 -0.0009827070148010627 0.00099825780475349779 0 -0.0012113163417680531 0.00094372963976737095 0 -0.0009827070148010627 0.00099825780475349779 0 -0.0012113163417680531 0.00094372963976737095 0 -0.0011997448991906572 0.00078896242172402553 0 -0.0012689367499360243 0.00080216951349454293 0 -0.0014306637221388383 0.0011756946943679402 0 -0.0012113163417680531 0.00094372963976737095 0 -0.0014306637221388383 0.0011756946943679402 0 -0.0011030576111381387 0.0013881014725359074 0 -0.0012113163417680531 0.00094372963976737095 0 -0.00061955473594206166 0.0011900537360609517 0 -0.00069981233699587203 0.0012479456678152652 0 -0.00057547542247726421 0.0013813198613865315 0 -0.00061955473594206166 0.0011900537360609517 0 -0.00057547542247726421 0.0013813198613865315 0 -0.00056365351264374051 0.0012330379475271971 0 -0.00061955473594206166 0.0011900537360609517 0 -0.00069981233699587203 0.0012479456678152652 0 -0.00065847948468216919 0.0010544774527789576 0 -0.00087538157753805487 0.001391366570665262 0 -0.0009827070148010627 0.00099825780475349779 0 -0.00048978079226917278 0.0014640818338975069 0 -0.0009827070148010627 0.00099825780475349779 0 -0.00048978079226917278 0.0014640818338975069 0 -8.5044678816336089e-05 0.00078629839337405322 0 -0.00054434827012133768 0.0013424161844196071 0 -0.00073583849278444676 0.00087834895421418536 0 -0.0009827070148010627 0.00099825780475349779 0 -0.0010967619722747652 0.00076218422455543453 0 -0.0010987258086567373 0.00076769594406646963 0 -0.00091808381264886539 0.00094282524061697329 0 -0.00073583849278444676 0.00087834895421418536 0 -0.00061955473594206166 0.0011900537360609517 0 -0.00065847948468216919 0.0010544774527789576 0 -0.00059399837409622523 0.001080786667847273 0 -0.0011211359671118356 0.00077161068900390237 0 -0.0010999761261962064 0.00072981249326989166 0 -0.00098414992229683951 0.00070041657885810894 0 -0.00073583849278444676 0.00087834895421418536 0 -0.00090571088319514798 0.00085752968357403992 0 -0.0010999761261962064 0.00072981249326989166 0 -0.0011253999746509893 0.00068908975903847697 0 -0.0010574984215835359 0.00059578676962571424 0 -0.0010999761261962064 0.00072981249326989166 0 -0.0011253999746509893 0.00068908975903847697 0 -0.0010987258086567373 0.00076769594406646963 0 -0.0010967619722747652 0.00076218422455543453 0 -0.0010999761261962064 0.00072981249326989166 0 -0.0010987258086567373 0.00076769594406646963 0 -0.0009827070148010627 0.00099825780475349779 0 -0.0010987258086567373 0.00076769594406646963 0 -0.0011289619497784112 0.00075844034731104872 0 -0.0011253999746509893 0.00068908975903847697 0 -0.0010987258086567373 0.00076769594406646963 0 -0.0011289619497784112 0.00075844034731104872 0 -0.0011253999746509893 0.00068908975903847697 0 -0.0011289619497784112 0.00075844034731104872 0 -0.0011686186956802022 0.00064838065073437908 0 -0.0011289619497784112 0.00075844034731104872 0 -0.0012213308246669984 0.000694972561378517 0 -0.0011686186956802022 0.00064838065073437908 0 -0.0012213308246669984 0.000694972561378517 0 -0.0011686186956802022 0.00064838065073437908 0 -0.0012052463967732001 0.00049999137562347458 0 -0.0011253999746509893 0.00068908975903847697 0 -0.0011318125641358819 0.00057333263717731066 0 -0.0010574984215835359 0.00059578676962571424 0 -0.0011318125641358819 0.00057333263717731066 0 -0.0012052463967732001 0.00049999137562347458 0 -0.0010608150592068223 0.00040851283648246173 0 -0.0011253999746509893 0.00068908975903847697 0 -0.0011686186956802022 0.00064838065073437908 0 -0.0011318125641358819 0.00057333263717731066 0 -0.0011686186956802022 0.00064838065073437908 0 -0.0011318125641358819 0.00057333263717731066 0 -0.0012052463967732001 0.00049999137562347458 0 -0.0012689367499360243 0.00080216951349454293 0 -0.0012113163417680531 0.00094372963976737095 0 -0.0011997448991906572 0.00078896242172402553 0 -0.0009827070148010627 0.00099825780475349779 0 -0.0011289619497784112 0.00075844034731104872 0 -0.0011997448991906572 0.00078896242172402553 0 -0.0011289619497784112 0.00075844034731104872 0 -0.0012213308246669984 0.000694972561378517 0 -0.0011997448991906572 0.00078896242172402553 0 -0.0012213308246669984 0.000694972561378517 0 -0.0011997448991906572 0.00078896242172402553 0 -0.0012367309036106007 0.00083402371676014671 0 -0.0012689367499360243 0.00080216951349454293 0 -0.0012367309036106007 0.00083402371676014671 0 -0.0011359615566508092 0.001093889132528123 0 -0.0012689367499360243 0.00080216951349454293 0 -0.0011997448991906572 0.00078896242172402553 0 -0.0012367309036106007 0.00083402371676014671 0 -0.0012367309036106007 0.00083402371676014671 0 -0.0011891751474991169 0.00095312949616730368 0 -0.0011359615566508092 0.001093889132528123 0 -0.0012213308246669984 0.000694972561378517 0 -0.0012367309036106007 0.00083402371676014671 0 -0.0012541538419140684 0.00060380280271350761 0 -0.0012367309036106007 0.00083402371676014671 0 -0.0012375122760134856 0.00072819068381789172 0 -0.0012541538419140684 0.00060380280271350761 0 -0.0012367309036106007 0.00083402371676014671 0 -0.0012375122760134856 0.00072819068381789172 0 -0.0011891751474991169 0.00095312949616730368 0 -0.0012375122760134856 0.00072819068381789172 0 -0.0011891751474991169 0.00095312949616730368 0 -0.0011934176189343458 0.00096801568832002177 0 -0.0012052463967732001 0.00049999137562347458 0 -0.0012541538419140684 0.00060380280271350761 0 -0.0013164595391475624 0.00026273918854909968 0 -0.0012213308246669984 0.000694972561378517 0 -0.0012052463967732001 0.00049999137562347458 0 -0.0012541538419140684 0.00060380280271350761 0 -0.0012375122760134856 0.00072819068381789172 0 -0.0012541538419140684 0.00060380280271350761 0 -0.0013164595391475624 0.00026273918854909968 0 -0.0012052463967732001 0.00049999137562347458 0 -0.0013164595391475624 0.00026273918854909968 0 -0.0010647204828752241 0.00021997014218163704 0 -0.0013164595391475624 0.00026273918854909968 0 -0.0014351159202795419 0.00066402045688543181 0 -0.0016363537825826633 0.00022299240272551359 0 -0.0013164595391475624 0.00026273918854909968 0 -0.0014351159202795419 0.00066402045688543181 0 -0.0012626435220564108 0.00075871602605111763 0 -0.0012375122760134856 0.00072819068381789172 0 -0.0013164595391475624 0.00026273918854909968 0 -0.0012626435220564108 0.00075871602605111763 0 -0.0012823394755314451 0.00098462322471017929 0 -0.0014351159202795419 0.00066402045688543181 0 -0.0012626435220564108 0.00075871602605111763 0 -0.0014351159202795419 0.00066402045688543181 0 -0.0016834240949187538 0.00049213164506630141 0 -0.0016363537825826633 0.00022299240272551359 0 -0.0012375122760134856 0.00072819068381789172 0 -0.0011934176189343458 0.00096801568832002177 0 -0.0012626435220564108 0.00075871602605111763 0 -0.0012823394755314451 0.00098462322471017929 0 -0.0012626435220564108 0.00075871602605111763 0 -0.0012121617588233484 0.00097734446974203173 0 -0.0011934176189343458 0.00096801568832002177 0 -0.0012626435220564108 0.00075871602605111763 0 -0.0012121617588233484 0.00097734446974203173 0 -0.0011934176189343458 0.00096801568832002177 0 -0.0011910129590286275 0.0010870678140374444 0 -0.0012149954686985552 0.0011442523792230637 0 -0.0011934176189343458 0.00096801568832002177 0 -0.0012121617588233484 0.00097734446974203173 0 -0.0011910129590286275 0.0010870678140374444 0 -0.0011910129590286275 0.0010870678140374444 0 -0.0012149954686985552 0.0011442523792230637 0 -0.0012618962402806701 0.0012632096640318345 0 -0.0012149954686985552 0.0011442523792230637 0 -0.0012834384443792086 0.0013117800454785023 0 -0.0012618962402806701 0.0012632096640318345 0 -0.0012149954686985552 0.0011442523792230637 0 -0.0012030864668009188 0.0011201886059327899 0 -0.0012834384443792086 0.0013117800454785023 0 -0.0011934176189343458 0.00096801568832002177 0 -0.0012149954686985552 0.0011442523792230637 0 -0.0012030864668009188 0.0011201886059327899 0 -0.0011891751474991169 0.00095312949616730368 0 -0.0012030864668009188 0.0011201886059327899 0 -0.0011359615566508092 0.001093889132528123 0 -0.0011891751474991169 0.00095312949616730368 0 -0.0011934176189343458 0.00096801568832002177 0 -0.0012030864668009188 0.0011201886059327899 0 -0.0012030864668009188 0.0011201886059327899 0 -0.0012784563361412109 0.0013252921869336652 0 -0.0012834384443792086 0.0013117800454785023 0 -0.0012030864668009188 0.0011201886059327899 0 -0.0012784563361412109 0.0013252921869336652 0 -0.0011359615566508092 0.001093889132528123 0 -0.0013761176050603595 0.00152344898466863 0 -0.0013891146551918514 0.0016276891439543331 0 -0.0014699615912232031 0.0016600686224446598 0 -0.0013761176050603595 0.00152344898466863 0 -0.0013629836171863924 0.0015198848373480876 0 -0.0013891146551918514 0.0016276891439543331 0 -0.0012784563361412109 0.0013252921869336652 0 -0.0013761176050603595 0.00152344898466863 0 -0.0012834384443792086 0.0013117800454785023 0 -0.0013761176050603595 0.00152344898466863 0 -0.0012834384443792086 0.0013117800454785023 0 -0.0013629836171863924 0.0015198848373480876 0 -0.0013629836171863924 0.0015198848373480876 0 -0.0013615865691253891 0.0015512475369700363 0 -0.0012618962402806701 0.0012632096640318345 0 -0.0012834384443792086 0.0013117800454785023 0 -0.0013629836171863924 0.0015198848373480876 0 -0.0012618962402806701 0.0012632096640318345 0 -0.0012712197565111355 0.0013863387422171731 0 -0.0012519667659711038 0.0012942274062618757 0 -0.0013765184549351247 0.0016163275194992525 0 -0.0013615865691253891 0.0015512475369700363 0 -0.0012618962402806701 0.0012632096640318345 0 -0.0013765184549351247 0.0016163275194992525 0 -0.0013615865691253891 0.0015512475369700363 0 -0.0013771490877777124 0.0017256982717543821 0 -0.0014030630376245469 0.0017925550646864499 0 -0.0013765184549351247 0.0016163275194992525 0 -0.0013771490877777124 0.0017256982717543821 0 -0.0013615865691253891 0.0015512475369700363 0 -0.0013771490877777124 0.0017256982717543821 0 -0.0013602753554725368 0.0016807364433059932 0 -0.0013771490877777124 0.0017256982717543821 0 -0.0013602753554725368 0.0016807364433059932 0 -0.0013640160450260315 0.0018245791000579203 0 -0.0013771490877777124 0.0017256982717543821 0 -0.0013934059933088402 0.0018172057424598338 0 -0.0013640160450260315 0.0018245791000579203 0 -0.0014030630376245469 0.0017925550646864499 0 -0.0013771490877777124 0.0017256982717543821 0 -0.001419364723727312 0.0018595430207267473 0 -0.0014794559476320587 0.0019643951565661033 0 -0.001419364723727312 0.0018595430207267473 0 -0.0014613802549804024 0.0019329966833765777 0 -0.001419364723727312 0.0018595430207267473 0 -0.0014613802549804024 0.0019329966833765777 0 -0.0014144526991668816 0.0018876773011932079 0 -0.0014613802549804024 0.0019329966833765777 0 -0.0014144526991668816 0.0018876773011932079 0 -0.0014490860363694155 0.0019697869895674725 0 -0.0013934059933088402 0.0018172057424598338 0 -0.0014144526991668816 0.0018876773011932079 0 -0.0013640160450260315 0.0018245791000579203 0 -0.001419364723727312 0.0018595430207267473 0 -0.0013934059933088402 0.0018172057424598338 0 -0.0014144526991668816 0.0018876773011932079 0 -0.0013771490877777124 0.0017256982717543821 0 -0.001419364723727312 0.0018595430207267473 0 -0.0013934059933088402 0.0018172057424598338 0 -0.0014002085848589395 0.0019431161941089322 0 -0.0013603130678346504 0.0019440804901293416 0 -0.0013640160450260315 0.0018245791000579203 0 -0.0014144526991668816 0.0018876773011932079 0 -0.0014002085848589395 0.0019431161941089322 0 -0.0013640160450260315 0.0018245791000579203 0 -0.0013603130678346504 0.0019440804901293416 0 -0.0013411062807100593 0.0018791865817964905 0 -0.0013640160450260315 0.0018245791000579203 0 -0.0014144526991668816 0.0018876773011932079 0 -0.0014002085848589395 0.0019431161941089322 0 -0.0014490860363694155 0.0019697869895674725 0 -0.0014002085848589395 0.0019431161941089322 0 -0.001449618276828315 0.0020419780130234359 0 -0.001392244008386989 0.0020453412376754249 0 -0.0014002085848589395 0.0019431161941089322 0 -0.0014490860363694155 0.0019697869895674725 0 -0.001449618276828315 0.0020419780130234359 0 -0.001449618276828315 0.0020419780130234359 0 -0.001392244008386989 0.0020453412376754249 0 -0.0014452037731984685 0.0021448119179269184 0 -0.001392244008386989 0.0020453412376754249 0 -0.0013931237247749907 0.0021522984433920756 0 -0.0013573410480561788 0.0021052737951454334 0 -0.001392244008386989 0.0020453412376754249 0 -0.0013931237247749907 0.0021522984433920756 0 -0.0014452037731984685 0.0021448119179269184 0 -0.0013603130678346504 0.0019440804901293416 0 -0.0013532835661940643 0.0020225739963541448 0 -0.0013320010644298074 0.0019691598851871673 0 -0.0013603130678346504 0.0019440804901293416 0 -0.0013320010644298074 0.0019691598851871673 0 -0.0013411062807100593 0.0018791865817964905 0 -0.0014002085848589395 0.0019431161941089322 0 -0.001392244008386989 0.0020453412376754249 0 -0.0013603130678346504 0.0019440804901293416 0 -0.001392244008386989 0.0020453412376754249 0 -0.0013603130678346504 0.0019440804901293416 0 -0.0013532835661940643 0.0020225739963541448 0 -0.001392244008386989 0.0020453412376754249 0 -0.0013532835661940643 0.0020225739963541448 0 -0.0013573410480561788 0.0021052737951454334 0 -0.0013532835661940643 0.0020225739963541448 0 -0.0013573410480561788 0.0021052737951454334 0 -0.0013324314482390644 0.0020531041298712917 0 -0.0013532835661940643 0.0020225739963541448 0 -0.0013324314482390644 0.0020531041298712917 0 -0.0013320010644298074 0.0019691598851871673 0 -0.0013324314482390644 0.0020531041298712917 0 -0.0013320010644298074 0.0019691598851871673 0 -0.0013187324676570335 0.00202086963014113 0 -0.0013320010644298074 0.0019691598851871673 0 -0.0013187324676570335 0.00202086963014113 0 -0.0013139753110090195 0.0019759179250299374 0 -0.0013150848962458354 0.001888733794927341 0 -0.0012819840558969465 0.0019814589134303294 0 -0.0013003810256727454 0.0019704822299831792 0 -0.0013150848962458354 0.001888733794927341 0 -0.0013891146551918514 0.0016276891439543331 0 -0.0012819840558969465 0.0019814589134303294 0 -0.0013320010644298074 0.0019691598851871673 0 -0.0013139753110090195 0.0019759179250299374 0 -0.0013150848962458354 0.001888733794927341 0 -0.0013139753110090195 0.0019759179250299374 0 -0.0013150848962458354 0.001888733794927341 0 -0.0013003810256727454 0.0019704822299831792 0 -0.0013139753110090195 0.0019759179250299374 0 -0.0013003810256727454 0.0019704822299831792 0 -0.0013023724262487229 0.0019937692512923804 0 -0.0013411062807100593 0.0018791865817964905 0 -0.0013380838445277517 0.00179532549294332 0 -0.0013150848962458354 0.001888733794927341 0 -0.0013320010644298074 0.0019691598851871673 0 -0.0013411062807100593 0.0018791865817964905 0 -0.0013150848962458354 0.001888733794927341 0 -0.0013380838445277517 0.00179532549294332 0 -0.0013150848962458354 0.001888733794927341 0 -0.0013891146551918514 0.0016276891439543331 0 -0.0014731981699826204 0.0016103610723497443 0 -0.0011483140996233431 0.0021889895589141737 0 -0.0013629836171863924 0.0015198848373480876 0 -0.0013615865691253891 0.0015512475369700363 0 -0.0013602753554725368 0.0016807364433059932 0 -0.0013380838445277517 0.00179532549294332 0 -0.0013891146551918514 0.0016276891439543331 0 -0.0013602753554725368 0.0016807364433059932 0 -0.0013629836171863924 0.0015198848373480876 0 -0.0013891146551918514 0.0016276891439543331 0 -0.0013602753554725368 0.0016807364433059932 0 -0.0013380838445277517 0.00179532549294332 0 -0.0013602753554725368 0.0016807364433059932 0 -0.0013640160450260315 0.0018245791000579203 0 -0.0013411062807100593 0.0018791865817964905 0 -0.0013380838445277517 0.00179532549294332 0 -0.0013640160450260315 0.0018245791000579203 0 -0.0015541675467880612 0.0019720929590355254 0 -0.0015067179527470435 0.0019384073518260508 0 -0.00071504720836541716 0.001919400806749634 0 -0.001089412540802141 0.0017273162075429292 0 -0.0011343630544627006 0.0021876414314807853 0 -0.001089412540802141 0.0017273162075429292 0 -0.0011343630544627006 0.0021876414314807853 0 -0.0015350071015141193 0.0019810510368946529 0 -0.0018268055962873742 0.0019892315549575575 0 -0.0015350071015141193 0.0019810510368946529 0 -0.0016471385476365249 0.0020330958823428242 0 -0.0015350071015141193 0.0019810510368946529 0 -0.0016471385476365249 0.0020330958823428242 0 -0.0015586256165627224 0.0019921372310446194 0 -0.0015586256165627224 0.0019921372310446194 0 -0.001513686348308393 0.0019743070143827305 0 -0.0015780535490151665 0.0020494414812635866 0 -0.0016471385476365249 0.0020330958823428242 0 -0.0015586256165627224 0.0019921372310446194 0 -0.0015780535490151665 0.0020494414812635866 0 -0.0015350071015141193 0.0019810510368946529 0 -0.0015586256165627224 0.0019921372310446194 0 -0.001555835663621353 0.0020515624866907422 0 -0.0015586256165627224 0.0019921372310446194 0 -0.001555835663621353 0.0020515624866907422 0 -0.001513686348308393 0.0019743070143827305 0 -0.0014794559476320587 0.0019643951565661033 0 -0.0014613802549804024 0.0019329966833765777 0 -0.001513686348308393 0.0019743070143827305 0 -0.0014794559476320587 0.0019643951565661033 0 -0.001555835663621353 0.0020515624866907422 0 -0.001513686348308393 0.0019743070143827305 0 -0.001513686348308393 0.0019743070143827305 0 -0.001503695157645078 0.0020231661806148354 0 -0.0015780535490151665 0.0020494414812635866 0 -0.0014613802549804024 0.0019329966833765777 0 -0.001513686348308393 0.0019743070143827305 0 -0.001503695157645078 0.0020231661806148354 0 -0.0014613802549804024 0.0019329966833765777 0 -0.0014490860363694155 0.0019697869895674725 0 -0.001503695157645078 0.0020231661806148354 0 -0.0014490860363694155 0.0019697869895674725 0 -0.001449618276828315 0.0020419780130234359 0 -0.001503695157645078 0.0020231661806148354 0 -0.001503695157645078 0.0020231661806148354 0 -0.0015114242830398961 0.002133818848418284 0 -0.0015987640100362404 0.0021668994190554786 0 -0.001449618276828315 0.0020419780130234359 0 -0.001503695157645078 0.0020231661806148354 0 -0.0015114242830398961 0.002133818848418284 0 -0.001449618276828315 0.0020419780130234359 0 -0.0014452037731984685 0.0021448119179269184 0 -0.0015114242830398961 0.002133818848418284 0 -0.0014452037731984685 0.0021448119179269184 0 -0.0015114242830398961 0.002133818848418284 0 -0.0015307840213782651 0.0023011428836259228 0 -0.0015114242830398961 0.002133818848418284 0 -0.0015987640100362404 0.0021668994190554786 0 -0.0015307840213782651 0.0023011428836259228 0 -0.0015987640100362404 0.0021668994190554786 0 -0.0017301398458215921 0.0021987147653351751 0 -0.001647414245641919 0.0023202575463730736 0 -0.0015987640100362404 0.0021668994190554786 0 -0.001647414245641919 0.0023202575463730736 0 -0.0015307840213782651 0.0023011428836259228 0 -0.0015987640100362404 0.0021668994190554786 0 -0.0015780535490151665 0.0020494414812635866 0 -0.0017301398458215921 0.0021987147653351751 0 -0.001503695157645078 0.0020231661806148354 0 -0.0015987640100362404 0.0021668994190554786 0 -0.0015780535490151665 0.0020494414812635866 0 -0.0016471385476365249 0.0020330958823428242 0 -0.0015780535490151665 0.0020494414812635866 0 -0.0017301398458215921 0.0021987147653351751 0 -0.0018268055962873742 0.0019892315549575575 0 -0.0016471385476365249 0.0020330958823428242 0 -0.0017301398458215921 0.0021987147653351751 0 -0.0017301398458215921 0.0021987147653351751 0 -0.0017704542849868044 0.0024224390230366826 0 -0.001647414245641919 0.0023202575463730736 0 -0.0017301398458215921 0.0021987147653351751 0 -0.0019126924472972501 0.0024305451486717851 0 -0.0017704542849868044 0.0024224390230366826 0 -0.002097226615590652 0.0023744129706033765 0 -0.0019348564533526562 0.0022185510669853236 0 -0.0019126924472972501 0.0024305451486717851 0 -0.0017301398458215921 0.0021987147653351751 0 -0.0019348564533526562 0.0022185510669853236 0 -0.0019126924472972501 0.0024305451486717851 0 -0.0018268055962873742 0.0019892315549575575 0 -0.0017301398458215921 0.0021987147653351751 0 -0.0019348564533526562 0.0022185510669853236 0 -0.0019222342619715288 0.0026539911529797683 0 -0.0017916037293750769 0.0027727626273944955 0 -0.0019830489890625977 0.0028667815336077458 0 -0.0020808218693529686 0.0026105936998057373 0 -0.0019222342619715288 0.0026539911529797683 0 -0.0019830489890625977 0.0028667815336077458 0 -0.0020808218693529686 0.0026105936998057373 0 -0.0019222342619715288 0.0026539911529797683 0 -0.0019126924472972501 0.0024305451486717851 0 -0.0019222342619715288 0.0026539911529797683 0 -0.0019126924472972501 0.0024305451486717851 0 -0.0018175347164898009 0.0025573863071343835 0 -0.0019126924472972501 0.0024305451486717851 0 -0.0017704542849868044 0.0024224390230366826 0 -0.0018175347164898009 0.0025573863071343835 0 -0.0017704542849868044 0.0024224390230366826 0 -0.0016893373613275958 0.0025295057736248751 0 -0.001647414245641919 0.0023202575463730736 0 -0.0017704542849868044 0.0024224390230366826 0 -0.0018175347164898009 0.0025573863071343835 0 -0.0016893373613275958 0.0025295057736248751 0 -0.0018175347164898009 0.0025573863071343835 0 -0.0016893373613275958 0.0025295057736248751 0 -0.0017916037293750769 0.0027727626273944955 0 -0.0019222342619715288 0.0026539911529797683 0 -0.0018175347164898009 0.0025573863071343835 0 -0.0017916037293750769 0.0027727626273944955 0 -0.0016159637874993968 0.0027188417231360888 0 -0.0016893373613275958 0.0025295057736248751 0 -0.0017916037293750769 0.0027727626273944955 0 -0.0016159637874993968 0.0027188417231360888 0 -0.0016893373613275958 0.0025295057736248751 0 -0.0015419958295315847 0.0025185586097731904 0 -0.0016893373613275958 0.0025295057736248751 0 -0.001647414245641919 0.0023202575463730736 0 -0.001603489771820908 0.0024147302535317658 0 -0.001647414245641919 0.0023202575463730736 0 -0.001603489771820908 0.0024147302535317658 0 -0.0015307840213782651 0.0023011428836259228 0 -0.0016893373613275958 0.0025295057736248751 0 -0.001603489771820908 0.0024147302535317658 0 -0.0015419958295315847 0.0025185586097731904 0 -0.001603489771820908 0.0024147302535317658 0 -0.0015307840213782651 0.0023011428836259228 0 -0.0015419958295315847 0.0025185586097731904 0 -0.0015307840213782651 0.0023011428836259228 0 -0.001454993334635902 0.0023990452684075521 0 -0.0015419958295315847 0.0025185586097731904 0 -0.0014452037731984685 0.0021448119179269184 0 -0.0015307840213782651 0.0023011428836259228 0 -0.0014198412692487191 0.0022636685622550749 0 -0.0015307840213782651 0.0023011428836259228 0 -0.001454993334635902 0.0023990452684075521 0 -0.0014198412692487191 0.0022636685622550749 0 -0.001454993334635902 0.0023990452684075521 0 -0.0014188675439665655 0.0025102247043035791 0 -0.0013811638213648281 0.0023725468910898444 0 -0.001454993334635902 0.0023990452684075521 0 -0.0014188675439665655 0.0025102247043035791 0 -0.0015419958295315847 0.0025185586097731904 0 -0.0016159637874993968 0.0027188417231360888 0 -0.0015419958295315847 0.0025185586097731904 0 -0.0014804640240096293 0.0026511265341622688 0 -0.0014188675439665655 0.0025102247043035791 0 -0.0015419958295315847 0.0025185586097731904 0 -0.0014804640240096293 0.0026511265341622688 0 -0.0014188675439665655 0.0025102247043035791 0 -0.0014804640240096293 0.0026511265341622688 0 -0.0013289804142713501 0.0025669894796922286 0 -0.0014804640240096293 0.0026511265341622688 0 -0.0015035472538416719 0.0029602780276703653 0 -0.0013289804142713501 0.0025669894796922286 0 -0.0020158101468111716 0.003695587803118456 0 -0.0015776148109227161 0.0034619330249184353 0 -0.0015035472538416719 0.0029602780276703653 0 -0.001564588890968799 0.0030194848351157034 0 -0.0014235552544525905 0.0030865650766406607 0 -0.0015130678385915166 0.0029783055340030415 0 -0.001381673751702896 0.0028951436732468816 0 -0.0015035472538416719 0.0029602780276703653 0 -0.0013739805945048684 0.0032162306397068088 0 -0.0014235552544525905 0.0030865650766406607 0 -0.0016159637874993968 0.0027188417231360888 0 -0.0014804640240096293 0.0026511265341622688 0 -0.0015035472538416719 0.0029602780276703653 0 -0.001995761939584471 0.0042336728024172515 0 -0.0024011857238211785 0.004277129104117719 0 -0.0017995832528534701 0.0038599140960033649 0 -0.001995761939584471 0.0042336728024172515 0 -0.0020397543193704788 0.004542963930442491 0 -0.0017057556475687748 0.004365177753935817 0 -0.0020397543193704788 0.004542963930442491 0 -0.0017057556475687748 0.004365177753935817 0 -0.0017661573790312475 0.0046279630846919355 0 -0.0020397543193704788 0.004542963930442491 0 -0.0024011857238211785 0.004277129104117719 0 -0.0022886995325631342 0.0048368382249840483 0 -0.001995761939584471 0.0042336728024172515 0 -0.0020397543193704788 0.004542963930442491 0 -0.0024011857238211785 0.004277129104117719 0 -0.0024011857238211785 0.004277129104117719 0 -0.0031509409583132574 0.0047430456543403974 0 -0.0026449938343301757 0.0047475316625456183 0 -0.0020158101468111716 0.003695587803118456 0 -0.0023872305989222982 0.0037065003046380432 0 -0.0024011857238211785 0.004277129104117719 0 -0.0026449938343301757 0.0047475316625456183 0 -0.0022886995325631342 0.0048368382249840483 0 -0.0016159637874993968 0.0027188417231360888 0 -0.001646960240863335 0.002909393375193059 0 -0.0017916037293750769 0.0027727626273944955 0 -0.001564588890968799 0.0030194848351157034 0 -0.001646960240863335 0.002909393375193059 0 -0.0017545698871435759 0.0029897490403972015 0 -0.0015035472538416719 0.0029602780276703653 0 -0.001564588890968799 0.0030194848351157034 0 -0.001646960240863335 0.002909393375193059 0 -0.0016159637874993968 0.0027188417231360888 0 -0.0015035472538416719 0.0029602780276703653 0 -0.001646960240863335 0.002909393375193059 0 -0.0017916037293750769 0.0027727626273944955 0 -0.0017545698871435759 0.0029897490403972015 0 -0.0018880358757391818 0.0029871282589357556 0 -0.001646960240863335 0.002909393375193059 0 -0.0017916037293750769 0.0027727626273944955 0 -0.0017545698871435759 0.0029897490403972015 0 -0.001564588890968799 0.0030194848351157034 0 -0.0017545698871435759 0.0029897490403972015 0 -0.0018178996970832806 0.0032248526088226237 0 -0.0017545698871435759 0.0029897490403972015 0 -0.0018880358757391818 0.0029871282589357556 0 -0.0018178996970832806 0.0032248526088226237 0 -0.0019711542382718542 0.0031606345834944631 0 -0.0018880358757391818 0.0029871282589357556 0 -0.0018178996970832806 0.0032248526088226237 0 -0.0019711542382718542 0.0031606345834944631 0 -0.0019257735409958367 0.0032245935510456462 0 -0.0018178996970832806 0.0032248526088226237 0 -0.0019480373508740799 0.0032194188983340295 0 -0.0019711542382718542 0.0031606345834944631 0 -0.0019257735409958367 0.0032245935510456462 0 -0.0018876934240390638 0.0032209529009663454 0 -0.0019480373508740799 0.0032194188983340295 0 -0.0019711542382718542 0.0031606345834944631 0 -0.0021973339432537296 0.0028401549804330248 0 -0.0019711542382718542 0.0031606345834944631 0 -0.0019830489890625977 0.0028667815336077458 0 -0.0017916037293750769 0.0027727626273944955 0 -0.0019830489890625977 0.0028667815336077458 0 -0.0018880358757391818 0.0029871282589357556 0 -0.0019711542382718542 0.0031606345834944631 0 -0.0019830489890625977 0.0028667815336077458 0 -0.0018880358757391818 0.0029871282589357556 0 -0.00093278138470875057 0.003155071263495617 0 -0.00070424401171148619 0.0027632385955793717 0 -0.00082912550862144975 0.0036204157948881029 0 -0.00162480229741842 0.0018873737027580834 0 -0.001583616213647778 0.0017358783332690813 0 -0.0017890410962786165 0.0019530686240346012 0 -0.00093278138470875057 0.003155071263495617 0 -0.0010476143670576762 0.0032919427191105189 0 -0.00082912550862144975 0.0036204157948881029 0 -0.0011483140996233431 0.0021889895589141737 0 -0.0013202967368438228 0.0027983893670255242 0 -0.001583616213647778 0.0017358783332690813 0 -0.001624688595231423 0.0016315276604338962 0 -0.0017890410962786165 0.0019530686240346012 0 -0.00162480229741842 0.0018873737027580834 0 -0.0015076061060943888 0.0018385740863653178 0 -0.0016282101134519149 0.0020452854005079965 0 -0.0015076061060943888 0.0018385740863653178 0 -0.001583616213647778 0.0017358783332690813 0 -0.0014699615912232031 0.0016600686224446598 0 -0.0014078015404797616 0.001697284522797415 0 -0.0015076061060943888 0.0018385740863653178 0 -0.0014699615912232031 0.0016600686224446598 0 -0.00162480229741842 0.0018873737027580834 0 -0.0015076061060943888 0.0018385740863653178 0 -0.001583616213647778 0.0017358783332690813 0 -0.0013891146551918514 0.0016276891439543331 0 -0.0014699615912232031 0.0016600686224446598 0 -0.001624688595231423 0.0016315276604338962 0 -0.001583616213647778 0.0017358783332690813 0 -0.0014699615912232031 0.0016600686224446598 0 -0.001624688595231423 0.0016315276604338962 0 -0.00093278138470875057 0.003155071263495617 0 -0.00070424401171148619 0.0027632385955793717 0 -0.0011866498969264876 0.0031645934778567275 0 -0.0011483140996233431 0.0021889895589141737 0 -0.0012321546447073785 0.0027254077821994953 0 -0.0012819840558969465 0.0019814589134303294 0 -0.0012904178062929331 0.0019966539855500159 0 -0.0012984235565305609 0.002085745995952115 0 -0.0012904178062929331 0.0019966539855500159 0 -0.0013045989978142714 0.0020323331557028095 0 -0.0012984235565305609 0.002085745995952115 0 -0.0012819840558969465 0.0019814589134303294 0 -0.0012904178062929331 0.0019966539855500159 0 -0.0013003810256727454 0.0019704822299831792 0 -0.0012904178062929331 0.0019966539855500159 0 -0.0013003810256727454 0.0019704822299831792 0 -0.0013023724262487229 0.0019937692512923804 0 -0.0013187324676570335 0.00202086963014113 0 -0.0013139753110090195 0.0019759179250299374 0 -0.0013045989978142714 0.0020323331557028095 0 -0.0012904178062929331 0.0019966539855500159 0 -0.0013045989978142714 0.0020323331557028095 0 -0.0013023724262487229 0.0019937692512923804 0 -0.0013139753110090195 0.0019759179250299374 0 -0.0013045989978142714 0.0020323331557028095 0 -0.0013023724262487229 0.0019937692512923804 0 -0.0012819840558969465 0.0019814589134303294 0 -0.0012984235565305609 0.002085745995952115 0 -0.0012855344971341503 0.0022695082970855436 0 -0.0013045989978142714 0.0020323331557028095 0 -0.0013150333553407138 0.0020695959645470169 0 -0.0012984235565305609 0.002085745995952115 0 -0.0013187324676570335 0.00202086963014113 0 -0.0013045989978142714 0.0020323331557028095 0 -0.0013150333553407138 0.0020695959645470169 0 -0.0013150333553407138 0.0020695959645470169 0 -0.0012984235565305609 0.002085745995952115 0 -0.0013218614898507525 0.0021566055752741931 0 -0.0013324314482390644 0.0020531041298712917 0 -0.0013187324676570335 0.00202086963014113 0 -0.0013150333553407138 0.0020695959645470169 0 -0.0013324314482390644 0.0020531041298712917 0 -0.0013150333553407138 0.0020695959645470169 0 -0.0013218614898507525 0.0021566055752741931 0 -0.0013573410480561788 0.0021052737951454334 0 -0.0013218614898507525 0.0021566055752741931 0 -0.0013576015846801842 0.0022150638657533594 0 -0.0013573410480561788 0.0021052737951454334 0 -0.0013324314482390644 0.0020531041298712917 0 -0.0013218614898507525 0.0021566055752741931 0 -0.0013218614898507525 0.0021566055752741931 0 -0.0013336356588043192 0.0023116823438127615 0 -0.0012855344971341503 0.0022695082970855436 0 -0.0013218614898507525 0.0021566055752741931 0 -0.0013576015846801842 0.0022150638657533594 0 -0.0013336356588043192 0.0023116823438127615 0 -0.0012984235565305609 0.002085745995952115 0 -0.0013218614898507525 0.0021566055752741931 0 -0.0012855344971341503 0.0022695082970855436 0 -0.0013931237247749907 0.0021522984433920756 0 -0.0014452037731984685 0.0021448119179269184 0 -0.0014198412692487191 0.0022636685622550749 0 -0.0013931237247749907 0.0021522984433920756 0 -0.0014198412692487191 0.0022636685622550749 0 -0.0013576015846801842 0.0022150638657533594 0 -0.0013931237247749907 0.0021522984433920756 0 -0.0013573410480561788 0.0021052737951454334 0 -0.0013576015846801842 0.0022150638657533594 0 -0.0013576015846801842 0.0022150638657533594 0 -0.0013336356588043192 0.0023116823438127615 0 -0.0013811638213648281 0.0023725468910898444 0 -0.001454993334635902 0.0023990452684075521 0 -0.0014198412692487191 0.0022636685622550749 0 -0.0013811638213648281 0.0023725468910898444 0 -0.0014198412692487191 0.0022636685622550749 0 -0.0013576015846801842 0.0022150638657533594 0 -0.0013811638213648281 0.0023725468910898444 0 -0.0013336356588043192 0.0023116823438127615 0 -0.0013289804142713501 0.0025669894796922286 0 -0.0012855344971341503 0.0022695082970855436 0 -0.001381673751702896 0.0028951436732468816 0 -0.0012321546447073785 0.0027254077821994953 0 -0.0013336356588043192 0.0023116823438127615 0 -0.0013811638213648281 0.0023725468910898444 0 -0.0013289804142713501 0.0025669894796922286 0 -0.0014188675439665655 0.0025102247043035791 0 -0.0013811638213648281 0.0023725468910898444 0 -0.0013289804142713501 0.0025669894796922286 0 -0.0013739805945048684 0.0032162306397068088 0 -0.0011866498969264876 0.0031645934778567275 0 -0.0012326324846600948 0.0033729600628985509 0 -0.0010476143670576762 0.0032919427191105189 0 -0.0011866498969264876 0.0031645934778567275 0 -0.0012326324846600948 0.0033729600628985509 0 -0.00093278138470875057 0.003155071263495617 0 -0.0010476143670576762 0.0032919427191105189 0 -0.0011866498969264876 0.0031645934778567275 0 -0.0010476143670576762 0.0032919427191105189 0 -0.0012326324846600948 0.0033729600628985509 0 -0.00082912550862144975 0.0036204157948881029 0 -0.0013070370522413441 0.0038273313993208908 0 -0.0010825612326124559 0.0039213752045551995 0 -0.00082912550862144975 0.0036204157948881029 0 -0.0012326324846600948 0.0033729600628985509 0 -0.0013070370522413441 0.0038273313993208908 0 -0.00082912550862144975 0.0036204157948881029 0 -0.0010825612326124559 0.0039213752045551995 0 -0.0012532828413566932 0.0044342468365458129 0 -0.00082912550862144975 0.0036204157948881029 0 -0.0013070370522413441 0.0038273313993208908 0 -0.0010825612326124559 0.0039213752045551995 0 -0.0013018010385929576 0.004100016646223649 0 -0.0013070370522413441 0.0038273313993208908 0 -0.0017995832528534701 0.0038599140960033649 0 -0.0015734228079522909 0.0040947386059045571 0 -0.0012326324846600948 0.0033729600628985509 0 -0.0013070370522413441 0.0038273313993208908 0 -0.0017995832528534701 0.0038599140960033649 0 -0.0013739805945048684 0.0032162306397068088 0 -0.0012326324846600948 0.0033729600628985509 0 -0.0014235552544525905 0.0030865650766406607 0 -0.0012462505682981604 0.0033539629773713373 0 -0.0015776148109227161 0.0034619330249184353 0 -0.0013070370522413441 0.0038273313993208908 0 -0.0015734228079522909 0.0040947386059045571 0 -0.0013018010385929576 0.004100016646223649 0 -0.001995761939584471 0.0042336728024172515 0 -0.0017995832528534701 0.0038599140960033649 0 -0.0015734228079522909 0.0040947386059045571 0 -0.001995761939584471 0.0042336728024172515 0 -0.0015734228079522909 0.0040947386059045571 0 -0.0017057556475687748 0.004365177753935817 0 -0.0015734228079522909 0.0040947386059045571 0 -0.0014477597062747894 0.0043195052452228546 0 -0.0017057556475687748 0.004365177753935817 0 -0.0015734228079522909 0.0040947386059045571 0 -0.0014477597062747894 0.0043195052452228546 0 -0.0013018010385929576 0.004100016646223649 0 -0.0013576874702225235 0.0044772715272880436 0 -0.0014477597062747894 0.0043195052452228546 0 -0.00126108900897933 0.0043168756373744739 0 -0.0013576874702225235 0.0044772715272880436 0 -0.0014477597062747894 0.0043195052452228546 0 -0.0015573671772826344 0.0045698696082833497 0 -0.0014477597062747894 0.0043195052452228546 0 -0.0015573671772826344 0.0045698696082833497 0 -0.0017057556475687748 0.004365177753935817 0 -0.0015573671772826344 0.0045698696082833497 0 -0.0017057556475687748 0.004365177753935817 0 -0.0017661573790312475 0.0046279630846919355 0 -0.0010825612326124559 0.0039213752045551995 0 -0.0011873131103622432 0.0041897806525310255 0 -0.0012532828413566932 0.0044342468365458129 0 -0.0010825612326124559 0.0039213752045551995 0 -0.0011873131103622432 0.0041897806525310255 0 -0.0013018010385929576 0.004100016646223649 0 -0.0011873131103622432 0.0041897806525310255 0 -0.0013018010385929576 0.004100016646223649 0 -0.00126108900897933 0.0043168756373744739 0 -0.0014477597062747894 0.0043195052452228546 0 -0.0013018010385929576 0.004100016646223649 0 -0.00126108900897933 0.0043168756373744739 0 -0.0013576874702225235 0.0044772715272880436 0 -0.00126108900897933 0.0043168756373744739 0 -0.0011616593574067546 0.0044138785519965166 0 -0.0011873131103622432 0.0041897806525310255 0 -0.00126108900897933 0.0043168756373744739 0 -0.001210064117222309 0.0043502115100579218 0 -0.00126108900897933 0.0043168756373744739 0 -0.001210064117222309 0.0043502115100579218 0 -0.0011616593574067546 0.0044138785519965166 0 -0.001210064117222309 0.0043502115100579218 0 -0.0012532828413566932 0.0044342468365458129 0 -0.0011616593574067546 0.0044138785519965166 0 -0.0011873131103622432 0.0041897806525310255 0 -0.001210064117222309 0.0043502115100579218 0 -0.0012532828413566932 0.0044342468365458129 0 -0.0015459384982752736 0.0034182255269192508 0 -0.0013202967368438228 0.0027983893670255242 0 -0.0018690916866619177 0.0025167417443371343 0 -0.0017095103844656462 0.0024580887471327725 0 -0.0017109644277150547 0.0022499975838642951 0 -0.0018690916866619177 0.0025167417443371343 0 -0.0017109644277150547 0.0022499975838642951 0 -0.0017890410962786165 0.0019530686240346012 0 -0.0017095103844656462 0.0024580887471327725 0 -0.0017109644277150547 0.0022499975838642951 0 -0.0016052936467940578 0.0024642307470201671 0 -0.0017109644277150547 0.0022499975838642951 0 -0.0016282101134519149 0.0020452854005079965 0 -0.0017890410962786165 0.0019530686240346012 0 -0.00162480229741842 0.0018873737027580834 0 -0.0016282101134519149 0.0020452854005079965 0 -0.0017890410962786165 0.0019530686240346012 0 -0.0017109644277150547 0.0022499975838642951 0 -0.0016282101134519149 0.0020452854005079965 0 -0.0014956735974089184 0.0021397787763416777 0 -0.0015076061060943888 0.0018385740863653178 0 -0.0016282101134519149 0.0020452854005079965 0 -0.0014956735974089184 0.0021397787763416777 0 -0.0014956735974089184 0.0021397787763416777 0 -0.0016052936467940578 0.0024642307470201671 0 -0.0014408936346123064 0.0025650556874934807 0 -0.0017109644277150547 0.0022499975838642951 0 -0.0014956735974089184 0.0021397787763416777 0 -0.0016052936467940578 0.0024642307470201671 0 -0.0016052936467940578 0.0024642307470201671 0 -0.0014408936346123064 0.0025650556874934807 0 -0.0015771897234841679 0.0026970187310144918 0 -0.0014408936346123064 0.0025650556874934807 0 -0.0015771897234841679 0.0026970187310144918 0 -0.0015078243161197721 0.0027770818166410398 0 -0.0015771897234841679 0.0026970187310144918 0 -0.0015078243161197721 0.0027770818166410398 0 -0.0015895786415183939 0.0028653402978646362 0 -0.0015078243161197721 0.0027770818166410398 0 -0.0015895786415183939 0.0028653402978646362 0 -0.0015547155619953887 0.0029159784364386002 0 -0.0015078243161197721 0.0027770818166410398 0 -0.0015547155619953887 0.0029159784364386002 0 -0.0014643938999851724 0.0028334533787584023 0 -0.0016126678252968243 0.0029371505639666671 0 -0.0016418324414129079 0.0028208969086009894 0 -0.0015499799487448478 0.0031093969208068552 0 -0.0016126678252968243 0.0029371505639666671 0 -0.0015895786415183939 0.0028653402978646362 0 -0.0016074876423141939 0.0029369746725612256 0 -0.0016126678252968243 0.0029371505639666671 0 -0.0015895786415183939 0.0028653402978646362 0 -0.0016418324414129079 0.0028208969086009894 0 -0.0015771897234841679 0.0026970187310144918 0 -0.0015895786415183939 0.0028653402978646362 0 -0.0016418324414129079 0.0028208969086009894 0 -0.0018690916866619177 0.0025167417443371343 0 -0.0016418324414129079 0.0028208969086009894 0 -0.001673227983157041 0.002602151462575785 0 -0.0015771897234841679 0.0026970187310144918 0 -0.0016418324414129079 0.0028208969086009894 0 -0.001673227983157041 0.002602151462575785 0 -0.0016052936467940578 0.0024642307470201671 0 -0.0015771897234841679 0.0026970187310144918 0 -0.001673227983157041 0.002602151462575785 0 -0.0017095103844656462 0.0024580887471327725 0 -0.0016052936467940578 0.0024642307470201671 0 -0.001673227983157041 0.002602151462575785 0 -0.0018690916866619177 0.0025167417443371343 0 -0.0017095103844656462 0.0024580887471327725 0 -0.001673227983157041 0.002602151462575785 0 -0.0012532828413566932 0.0044342468365458129 0 -0.0011616593574067546 0.0044138785519965166 0 -0.001250941181705381 0.0038227676788908892 0 -0.0011616593574067546 0.0044138785519965166 0 -0.001250941181705381 0.0038227676788908892 0 -0.00099048965824701917 0.0034025952561372499 0 -0.0018690916866619177 0.0025167417443371343 0 -0.0016418324414129079 0.0028208969086009894 0 -0.0015499799487448478 0.0031093969208068552 0 -0.0015459384982752736 0.0034182255269192508 0 -0.001538396279313648 0.0030924766897992072 0 -0.0012532828413566932 0.0044342468365458129 0 -0.001250941181705381 0.0038227676788908892 0 -0.0015499799487448478 0.0031093969208068552 0 -0.0013576874702225235 0.0044772715272880436 0 -0.0011616593574067546 0.0044138785519965166 0 -0.0014207574256740563 0.0047808778692309175 0 -0.0016679786648716014 0.0048940671398968417 0 -0.0014207574256740563 0.0047808778692309175 0 -0.0014108379334615995 0.0055216785408117985 0 -0.0011616593574067546 0.0044138785519965166 0 -0.0014207574256740563 0.0047808778692309175 0 -0.0014108379334615995 0.0055216785408117985 0 -0.0011995929352010995 0.0044957781051913137 0 -0.0012069388841959103 0.0043658113323687938 0 -0.0015573671772826344 0.0045698696082833497 0 -0.0016679786648716014 0.0048940671398968417 0 -0.0014207574256740563 0.0047808778692309175 0 -0.0015573671772826344 0.0045698696082833497 0 -0.0016679786648716014 0.0048940671398968417 0 -0.0017661573790312475 0.0046279630846919355 0 -0.0013576874702225235 0.0044772715272880436 0 -0.0015573671772826344 0.0045698696082833497 0 -0.0014207574256740563 0.0047808778692309175 0 -0.0016679786648716014 0.0048940671398968417 0 -0.0014108379334615995 0.0055216785408117985 0 -0.0018807053156507253 0.0051478422330542249 0 -0.00099048965824701917 0.0034025952561372499 0 -0.0015499799487448478 0.0031093969208068552 0 -0.0011041866673952914 0.0029542357335132917 0 -0.001250941181705381 0.0038227676788908892 0 -0.00099048965824701917 0.0034025952561372499 0 -0.0015499799487448478 0.0031093969208068552 0 -0.0016126678252968243 0.0029371505639666671 0 -0.0015499799487448478 0.0031093969208068552 0 -0.0016021631608541514 0.0029610111948175232 0 -0.0015499799487448478 0.0031093969208068552 0 -0.0015236775348569011 0.0029393483238082073 0 -0.0016021631608541514 0.0029610111948175232 0 -0.0015499799487448478 0.0031093969208068552 0 -0.0013997510522601956 0.0029231475031899511 0 -0.0011041866673952914 0.0029542357335132917 0 -0.0015499799487448478 0.0031093969208068552 0 -0.0013997510522601956 0.0029231475031899511 0 -0.0015236775348569011 0.0029393483238082073 0 -0.0013997510522601956 0.0029231475031899511 0 -0.0014746220374981366 0.0028733144975867765 0 -0.0015236775348569011 0.0029393483238082073 0 -0.0013997510522601956 0.0029231475031899511 0 -0.0014746220374981366 0.0028733144975867765 0 -0.0014426865545721724 0.002771952873211365 0 -0.0013997510522601956 0.0029231475031899511 0 -0.0011041866673952914 0.0029542357335132917 0 -0.0014426865545721724 0.002771952873211365 0 -0.0014746220374981366 0.0028733144975867765 0 -0.001526505824666971 0.0028814742879905908 0 -0.0015236775348569011 0.0029393483238082073 0 -0.0014746220374981366 0.0028733144975867765 0 -0.001526505824666971 0.0028814742879905908 0 -0.0014426865545721724 0.002771952873211365 0 -0.001526505824666971 0.0028814742879905908 0 -0.0015236775348569011 0.0029393483238082073 0 -0.0015783556423873046 0.0029280389665303601 0 -0.0011041866673952914 0.0029542357335132917 0 -0.0014426865545721724 0.002771952873211365 0 -0.00073425304218735911 0.0028019264709164314 0 -0.00099048965824701917 0.0034025952561372499 0 -0.0011041866673952914 0.0029542357335132917 0 -0.00073425304218735911 0.0028019264709164314 0 -0.0012069388841959103 0.0043658113323687938 0 -0.0011727870294864582 0.0052608497407140888 0 0.00014953031621563537 0.0055319581443118307 0 8.1415042519010928e-05 0.0056417398910517174 0 -0.00060010454489326339 0.0053318822462919942 0 0.00014953031621563537 0.0055319581443118307 0 0.00029774908205406188 0.0054496759932445796 0 -0.00060010454489326339 0.0053318822462919942 0 -0.00046286447875552205 0.0039312380145629508 0 -0.0011727870294864582 0.0052608497407140888 0 0.00014953031621563537 0.0055319581443118307 0 8.1415042519010928e-05 0.0056417398910517174 0 0.00010493467518987938 0.0053500391949472068 0 -0.001526505824666971 0.0028814742879905908 0 -0.0014426865545721724 0.002771952873211365 0 -0.0015899890578961529 0.0029288001504309538 0 0.00014953031621563537 0.0055319581443118307 0 0.00029774908205406188 0.0054496759932445796 0 0.00015679264241520366 0.0053296991852308483 0 0.00011654356533277649 0.0052145210846222968 0 0.00029774908205406188 0.0054496759932445796 0 0.00015679264241520366 0.0053296991852308483 0 0.00011654356533277649 0.0052145210846222968 0 0.00015679264241520366 0.0053296991852308483 0 8.8791634382197853e-05 0.0052126020273855229 0 0.00015679264241520366 0.0053296991852308483 0 8.8791634382197853e-05 0.0052126020273855229 0 0.00010493467518987938 0.0053500391949472068 0 0.00014953031621563537 0.0055319581443118307 0 0.00015679264241520366 0.0053296991852308483 0 0.00010493467518987938 0.0053500391949472068 0 0.00011654356533277649 0.0052145210846222968 0 -3.4027036023128963e-05 0.0050302209016490265 0 8.8791634382197853e-05 0.0052126020273855229 0 0.00011654356533277649 0.0052145210846222968 0 -0.00016073770246555322 0.0050062869161910601 0 -3.4027036023128963e-05 0.0050302209016490265 0 5.326269493138237e-05 0.0051132656048146537 0 -0.00057750960755372719 0.0045523495093329706 0 0.00011654356533277649 0.0052145210846222968 0 -0.00076408331925036696 0.0040671865639564358 0 -0.00062919728705476989 0.0043554780448287114 0 0.00011654356533277649 0.0052145210846222968 0 0.00029774908205406188 0.0054496759932445796 0 -0.00062919728705476989 0.0043554780448287114 0 0.00011654356533277649 0.0052145210846222968 0 -0.00033281676293071708 0.0050452505029870915 0 -0.00016073770246555322 0.0050062869161910601 0 -0.0014426865545721724 0.002771952873211365 0 -0.0015899890578961529 0.0029288001504309538 0 -0.0016543126564281157 0.002986623683973367 0 -0.00046286447875552205 0.0039312380145629508 0 -0.0010948313418389201 0.0037012274544020998 0 -0.0015899890578961529 0.0029288001504309538 0 -0.0016292297009443252 0.0029694410349525953 0 -0.00161908857807031 0.002961611470853141 0 -0.0015899890578961529 0.0029288001504309538 0 -0.0016292297009443252 0.0029694410349525953 0 -0.0016543126564281157 0.002986623683973367 0 -0.0010948313418389201 0.0037012274544020998 0 -0.0013363087533209731 0.0033699095231884105 0 -0.00033281676293071708 0.0050452505029870915 0 -0.0003445808562568807 0.0048582974668414077 0 -0.00016073770246555322 0.0050062869161910601 0 -0.0015871420129120347 0.0030154955035308997 0 -0.0016543126564281157 0.002986623683973367 0 -0.0015140243634072081 0.0031181218329728211 0 -0.0016543126564281157 0.002986623683973367 0 -0.0013956720816484553 0.0033152177806894407 0 -0.0015140243634072081 0.0031181218329728211 0 -0.00076408331925036696 0.0040671865639564358 0 -0.00062919728705476989 0.0043554780448287114 0 -0.0013956720816484553 0.0033152177806894407 0 -0.00033281676293071708 0.0050452505029870915 0 -0.00058262126678806632 0.0047103025619881058 0 -0.0003445808562568807 0.0048582974668414077 0 -0.0015871420129120347 0.0030154955035308997 0 -0.0015419340235158258 0.0030137150906539667 0 -0.0015140243634072081 0.0031181218329728211 0 -0.0015871420129120347 0.0030154955035308997 0 -0.0015419340235158258 0.0030137150906539667 0 -0.0015910972281372776 0.0029720662444106256 0 -0.0016292297009443252 0.0029694410349525953 0 -0.0016543126564281157 0.002986623683973367 0 -0.0016196940217402978 0.0029819538859629222 0 -0.0015871420129120347 0.0030154955035308997 0 -0.0016543126564281157 0.002986623683973367 0 -0.0016196940217402978 0.0029819538859629222 0 -0.0015871420129120347 0.0030154955035308997 0 -0.0016196940217402978 0.0029819538859629222 0 -0.0015910972281372776 0.0029720662444106256 0 -0.0016292297009443252 0.0029694410349525953 0 -0.0016196940217402978 0.0029819538859629222 0 -0.00161908857807031 0.002961611470853141 0 -0.0016196940217402978 0.0029819538859629222 0 -0.0015910972281372776 0.0029720662444106256 0 -0.00161908857807031 0.002961611470853141 0 -0.0015910972281372776 0.0029720662444106256 0 -0.0016074876423141939 0.0029369746725612256 0 -0.00161908857807031 0.002961611470853141 0 -0.0015910972281372776 0.0029720662444106256 0 -0.001548317908645526 0.0029612206960798336 0 -0.0015547155619953887 0.0029159784364386002 0 -0.001548317908645526 0.0029612206960798336 0 -0.0015547155619953887 0.0029159784364386002 0 -0.0014999040938237678 0.0029496427145013163 0 -0.0015419340235158258 0.0030137150906539667 0 -0.001548317908645526 0.0029612206960798336 0 -0.0014999040938237678 0.0029496427145013163 0 -0.0015419340235158258 0.0030137150906539667 0 -0.0015910972281372776 0.0029720662444106256 0 -0.001548317908645526 0.0029612206960798336 0 -0.0015547155619953887 0.0029159784364386002 0 -0.0014999040938237678 0.0029496427145013163 0 -0.0014643938999851724 0.0028334533787584023 0 -0.0015910972281372776 0.0029720662444106256 0 -0.0015547155619953887 0.0029159784364386002 0 -0.0016074876423141939 0.0029369746725612256 0 -0.0015895786415183939 0.0028653402978646362 0 -0.0015547155619953887 0.0029159784364386002 0 -0.0016074876423141939 0.0029369746725612256 0 -0.0016074876423141939 0.0029369746725612256 0 -0.0016021631608541514 0.0029610111948175232 0 -0.0016054252723841618 0.0029449404807223266 0 -0.0016126678252968243 0.0029371505639666671 0 -0.0016074876423141939 0.0029369746725612256 0 -0.0016021631608541514 0.0029610111948175232 0 -0.0015236775348569011 0.0029393483238082073 0 -0.0016021631608541514 0.0029610111948175232 0 -0.0015783556423873046 0.0029280389665303601 0 -0.001526505824666971 0.0028814742879905908 0 -0.0015899890578961529 0.0029288001504309538 0 -0.0015783556423873046 0.0029280389665303601 0 -0.0016021631608541514 0.0029610111948175232 0 -0.0015783556423873046 0.0029280389665303601 0 -0.0016054252723841618 0.0029449404807223266 0 -0.0015899890578961529 0.0029288001504309538 0 -0.0015783556423873046 0.0029280389665303601 0 -0.0016054252723841618 0.0029449404807223266 0 -0.0015899890578961529 0.0029288001504309538 0 -0.00161908857807031 0.002961611470853141 0 -0.0016054252723841618 0.0029449404807223266 0 -0.0016074876423141939 0.0029369746725612256 0 -0.00161908857807031 0.002961611470853141 0 -0.0016054252723841618 0.0029449404807223266 0 -0.0033733065663084545 0.0097282325745840399 0 -0.0036610610081400418 0.0065259652666879268 0 -0.0034681768940591738 0.0066574374721194898 0 -0.0029682279917669519 0.006540926955691773 0 -0.0038014227575469254 0.0069696800745334903 0 -0.0025487170114756215 0.00981803344896536 0 -0.0031507075935141705 0.0096300043629552034 0 -0.0034681768940591738 0.0066574374721194898 0 -0.003543981383781081 0.0059413089730545772 0 -0.0041248530656845268 0.0052563300583915651 0 -0.0036610610081400418 0.0065259652666879268 0 -0.002145628923598035 0.010410919771498942 0 -0.0026538094658103708 0.0088019940917277301 0 -0.0033733065663084545 0.0097282325745840399 0 -0.0031507075935141705 0.0096300043629552034 0 -0.0034681768940591738 0.0066574374721194898 0 -0.0016214226478869713 0.010928320279694956 0 -0.0016556079642218217 0.010809680072277752 0 -0.0018019255977952046 0.010778870828676757 0 -0.003543981383781081 0.0059413089730545772 0 -0.0032113947695305207 0.0061599842146026935 0 -0.0036610610081400418 0.0065259652666879268 0 -0.003543981383781081 0.0059413089730545772 0 -0.0035598986183596037 0.0054812668041771756 0 -0.0031932847701793103 0.0056033170748841909 0 -0.003543981383781081 0.0059413089730545772 0 -0.0035598986183596037 0.0054812668041771756 0 -0.0041248530656845268 0.0052563300583915651 0 -0.0018876934240390638 0.0032209529009663454 0 -0.0019480373508740799 0.0032194188983340295 0 -0.0019885964771648467 0.0032806388930472002 0 -0.0029682279917669519 0.006540926955691773 0 -0.0023872305989222982 0.0037065003046380432 0 -0.0035598986183596037 0.0054812668041771756 0 -0.0041248530656845268 0.0052563300583915651 0 -0.0033558151803144208 0.0052149253113888596 0 -0.0041248530656845268 0.0052563300583915651 0 -0.0033558151803144208 0.0052149253113888596 0 -0.0031509409583132574 0.0047430456543403974 0 -0.0019885964771648467 0.0032806388930472002 0 -0.0019257735409958367 0.0032245935510456462 0 -0.0018178996970832806 0.0032248526088226237 0 -0.0029682279917669519 0.006540926955691773 0 -0.0030873447447336911 0.0066901529073244842 0 -0.0019480373508740799 0.0032194188983340295 0 -0.0019885964771648467 0.0032806388930472002 0 -0.0019257735409958367 0.0032245935510456462 0 -0.0033558151803144208 0.0052149253113888596 0 -0.0031509409583132574 0.0047430456543403974 0 -0.0027590600799406013 0.0051413050831573192 0 -0.0031509409583132574 0.0047430456543403974 0 -0.0027590600799406013 0.0051413050831573192 0 -0.0026449938343301757 0.0047475316625456183 0 -0.0033558151803144208 0.0052149253113888596 0 -0.0031932847701793103 0.0056033170748841909 0 -0.0027590600799406013 0.0051413050831573192 0 -0.0031932847701793103 0.0056033170748841909 0 -0.0027402811678222949 0.0058032202339279746 0 -0.0027590600799406013 0.0051413050831573192 0 -0.0035598986183596037 0.0054812668041771756 0 -0.0033558151803144208 0.0052149253113888596 0 -0.0031932847701793103 0.0056033170748841909 0 -0.003543981383781081 0.0059413089730545772 0 -0.0031932847701793103 0.0056033170748841909 0 -0.0032113947695305207 0.0061599842146026935 0 -0.0031932847701793103 0.0056033170748841909 0 -0.0032113947695305207 0.0061599842146026935 0 -0.0027402811678222949 0.0058032202339279746 0 -0.0027402811678222949 0.0058032202339279746 0 -0.0022984783939406154 0.0054445824115828762 0 -0.0023288326026126307 0.0060022976731955073 0 -0.0027402811678222949 0.0058032202339279746 0 -0.0022984783939406154 0.0054445824115828762 0 -0.0027590600799406013 0.0051413050831573192 0 -0.0027590600799406013 0.0051413050831573192 0 -0.0026449938343301757 0.0047475316625456183 0 -0.0022886995325631342 0.0048368382249840483 0 -0.0022984783939406154 0.0054445824115828762 0 -0.0027590600799406013 0.0051413050831573192 0 -0.0022886995325631342 0.0048368382249840483 0 -0.0022984783939406154 0.0054445824115828762 0 -0.0022886995325631342 0.0048368382249840483 0 -0.0018807053156507253 0.0051478422330542249 0 -0.0020397543193704788 0.004542963930442491 0 -0.0022886995325631342 0.0048368382249840483 0 -0.0018807053156507253 0.0051478422330542249 0 -0.0020397543193704788 0.004542963930442491 0 -0.0017661573790312475 0.0046279630846919355 0 -0.0018807053156507253 0.0051478422330542249 0 -0.0016679786648716014 0.0048940671398968417 0 -0.0017661573790312475 0.0046279630846919355 0 -0.0018807053156507253 0.0051478422330542249 0 -0.0014108379334615995 0.0055216785408117985 0 -0.0018807053156507253 0.0051478422330542249 0 -0.0019634383560534247 0.0057245692911946193 0 -0.0022984783939406154 0.0054445824115828762 0 -0.0018807053156507253 0.0051478422330542249 0 -0.0019634383560534247 0.0057245692911946193 0 -0.0022984783939406154 0.0054445824115828762 0 -0.0019634383560534247 0.0057245692911946193 0 -0.0023288326026126307 0.0060022976731955073 0 -0.0014108379334615995 0.0055216785408117985 0 -0.0019634383560534247 0.0057245692911946193 0 -0.0018988733852422382 0.0064607039177383115 0 -0.0019634383560534247 0.0057245692911946193 0 -0.0018988733852422382 0.0064607039177383115 0 -0.0023288326026126307 0.0060022976731955073 0 8.1415042519010928e-05 0.0056417398910517174 0 -0.00060010454489326339 0.0053318822462919942 0 -0.00081938107574786978 0.0063050850446472219 0 8.1415042519010928e-05 0.0056417398910517174 0 -0.00081938107574786978 0.0063050850446472219 0 -0.0012570741167073182 0.0080623590210577231 0 -0.00081938107574786978 0.0063050850446472219 0 -0.0015410323030153304 0.0065029883064316434 0 -0.0012570741167073182 0.0080623590210577231 0 -0.00060010454489326339 0.0053318822462919942 0 -0.00081938107574786978 0.0063050850446472219 0 -0.0015410323030153304 0.0065029883064316434 0 -0.0011727870294864582 0.0052608497407140888 0 -0.001516225586613879 0.0071639075509576725 0 -0.00088417720147657434 0.0067596703410066064 0 -0.0014638373618114883 0.0076587542772843329 0 -0.0028418245134571771 0.0064986247083531085 0 -0.0014638373618114883 0.0076587542772843329 0 -0.0024292008694691575 0.0074918370606444204 0 -0.0028418245134571771 0.0064986247083531085 0 -0.0014638373618114883 0.0076587542772843329 0 -0.001963771747646486 0.0078798108119389008 0 -0.0024292008694691575 0.0074918370606444204 0 -0.001963771747646486 0.0078798108119389008 0 -0.0024292008694691575 0.0074918370606444204 0 -0.0024310937525402715 0.0081526231091379256 0 -0.0018988733852422382 0.0064607039177383115 0 -0.0023288326026126307 0.0060022976731955073 0 -0.0028418245134571771 0.0064986247083531085 0 -0.0011727870294864582 0.0052608497407140888 0 -0.0028388745400069791 0.0068438984362377102 0 -0.0027402811678222949 0.0058032202339279746 0 -0.0023288326026126307 0.0060022976731955073 0 -0.0028418245134571771 0.0064986247083531085 0 -0.0032113947695305207 0.0061599842146026935 0 -0.0027402811678222949 0.0058032202339279746 0 -0.0028418245134571771 0.0064986247083531085 0 -0.0032113947695305207 0.0061599842146026935 0 -0.0033366017186823339 0.0065951454151105034 0 -0.0036610610081400418 0.0065259652666879268 0 -0.0032113947695305207 0.0061599842146026935 0 -0.0033366017186823339 0.0065951454151105034 0 -0.0028418245134571771 0.0064986247083531085 0 -0.0033366017186823339 0.0065951454151105034 0 -0.0028418245134571771 0.0064986247083531085 0 -0.0035992838708566737 0.0071738176913149956 0 -0.0024292008694691575 0.0074918370606444204 0 -0.0035992838708566737 0.0071738176913149956 0 -0.0024310937525402715 0.0081526231091379256 0 -0.0024292008694691575 0.0074918370606444204 0 -0.0028418245134571771 0.0064986247083531085 0 -0.0035992838708566737 0.0071738176913149956 0 -0.0021370922613265122 0.010348079015257082 0 -0.00174039831546879 0.010266186922264602 0 -0.0018173403798617048 0.0099830159089567758 0 -0.0015797307223220382 0.010067735069743644 0 -0.00174039831546879 0.010266186922264602 0 -0.0018173403798617048 0.0099830159089567758 0 -0.0021370922613265122 0.010348079015257082 0 -0.00174039831546879 0.010266186922264602 0 -0.0017136969227405186 0.010532700668585649 0 -0.0015931155386638477 0.010366580836899741 0 -0.00174039831546879 0.010266186922264602 0 -0.0017136969227405186 0.010532700668585649 0 -0.0021370922613265122 0.010348079015257082 0 -0.0017136969227405186 0.010532700668585649 0 -0.0018019255977952046 0.010778870828676757 0 -0.0035992838708566737 0.0071738176913149956 0 -0.0036610610081400418 0.0065259652666879268 0 -0.0034681768940591738 0.0066574374721194898 0 -0.0028286925569047999 0.0087570191746809967 0 -0.0026538094658103708 0.0088019940917277301 0 -0.0033366017186823339 0.0065951454151105034 0 -0.0035992838708566737 0.0071738176913149956 0 -0.0036610610081400418 0.0065259652666879268 0 -0.0016575412865015671 0.010714728354131103 0 -0.0017136969227405186 0.010532700668585649 0 -0.0018019255977952046 0.010778870828676757 0 -0.0016575412865015671 0.010714728354131103 0 -0.0016556079642218217 0.010809680072277752 0 -0.0018019255977952046 0.010778870828676757 0 -0.0019504261470053112 0.009290308675507267 0 -0.0023252555257617436 0.0092247465303023721 0 -0.0019040663093615434 0.0085794206975683719 0 -0.0014963261032242665 0.0092558302607634729 0 -0.0019504261470053112 0.009290308675507267 0 -0.0019040663093615434 0.0085794206975683719 0 -0.0019504261470053112 0.009290308675507267 0 -0.0021080876030675076 0.0095235949153473776 0 -0.0023252555257617436 0.0092247465303023721 0 -0.0014963261032242665 0.0092558302607634729 0 -0.0019504261470053112 0.009290308675507267 0 -0.001695025813493112 0.0097324720932016936 0 -0.0021370922613265122 0.010348079015257082 0 -0.0018173403798617048 0.0099830159089567758 0 -0.0021080876030675076 0.0095235949153473776 0 -0.001695025813493112 0.0097324720932016936 0 -0.0018173403798617048 0.0099830159089567758 0 -0.0021080876030675076 0.0095235949153473776 0 -0.0015797307223220382 0.010067735069743644 0 -0.001695025813493112 0.0097324720932016936 0 -0.0018173403798617048 0.0099830159089567758 0 -0.0019504261470053112 0.009290308675507267 0 -0.001695025813493112 0.0097324720932016936 0 -0.0021080876030675076 0.0095235949153473776 0 -0.0021080876030675076 0.0095235949153473776 0 -0.0026707266196254425 0.0090621375955306505 0 -0.0023252555257617436 0.0092247465303023721 0 -0.0028286925569047999 0.0087570191746809967 0 -0.0027006487735895006 0.0090415405322834055 0 -0.0035992838708566737 0.0071738176913149956 0 -0.0024310937525402715 0.0081526231091379256 0 -0.0026707266196254425 0.0090621375955306505 0 -0.0021370922613265122 0.010348079015257082 0 -0.0021080876030675076 0.0095235949153473776 0 -0.0026707266196254425 0.0090621375955306505 0 -0.0024310937525402715 0.0081526231091379256 0 -0.0026707266196254425 0.0090621375955306505 0 -0.0019880494031997028 0.0083207862307430429 0 -0.0026707266196254425 0.0090621375955306505 0 -0.002602771047046838 0.0092680499791115527 0 -0.0019880494031997028 0.0083207862307430429 0 -0.0023252555257617436 0.0092247465303023721 0 -0.002602771047046838 0.0092680499791115527 0 -0.0019040663093615434 0.0085794206975683719 0 -0.0012841087421044154 0.0075257856297261706 0 -0.00096106546725076487 0.0076200792045029832 0 -0.0026707266196254425 0.0090621375955306505 0 -0.0023252555257617436 0.0092247465303023721 0 -0.002602771047046838 0.0092680499791115527 0 -6.2201727621855857e-05 0.0058496338183076958 0 9.7567361594379421e-05 0.0056854392896408344 0 3.8712017299451285e-05 0.0061328158347478835 0 -0.0012841087421044154 0.0075257856297261706 0 -0.00059574357836977702 0.0067310469586981348 0 -6.2201727621855857e-05 0.0058496338183076958 0 9.7567361594379421e-05 0.0056854392896408344 0 0.00015656496062962599 0.0054400222302193506 0 -0.002602771047046838 0.0092680499791115527 0 -0.0019880494031997028 0.0083207862307430429 0 -0.0012570741167073182 0.0080623590210577231 0 -0.001963771747646486 0.0078798108119389008 0 -0.0024310937525402715 0.0081526231091379256 0 -0.0019880494031997028 0.0083207862307430429 0 -0.0015410323030153304 0.0065029883064316434 0 -0.0019880494031997028 0.0083207862307430429 0 -0.0012570741167073182 0.0080623590210577231 0 -0.0014638373618114883 0.0076587542772843329 0 -0.001963771747646486 0.0078798108119389008 0 -0.0019880494031997028 0.0083207862307430429 0 -0.001516225586613879 0.0071639075509576725 0 -0.0019254343168555528 0.0080407352872050794 0 0.00015656496062962599 0.0054400222302193506 0 0.0001500932356234478 0.0054682520286918491 0 0.00012786732158555947 0.0054005464423699974 0 8.1415042519010928e-05 0.0056417398910517174 0 0.00015656496062962599 0.0054400222302193506 0 0.00012786732158555947 0.0054005464423699974 0 2.9913953670246773e-05 0.0058123068161544241 0 -0.00059574357836977702 0.0067310469586981348 0 9.7567361594379421e-05 0.0056854392896408344 0 0.00015656496062962599 0.0054400222302193506 0 0.0001500932356234478 0.0054682520286918491 0 9.7567361594379421e-05 0.0056854392896408344 0 0.0001500932356234478 0.0054682520286918491 0 9.8911491095702978e-05 0.0056753233189209022 0 9.8911491095702978e-05 0.0056753233189209022 0 1.4311054465801096e-07 0.0059928672527670172 0 0.00010334889429464726 0.0052603010301054678 0 0.0001500932356234478 0.0054682520286918491 0 9.8911491095702978e-05 0.0056753233189209022 0 0.00010334889429464726 0.0052603010301054678 0 1.4311054465801096e-07 0.0059928672527670172 0 3.8712017299451285e-05 0.0061328158347478835 0 2.2260124485946176e-07 0.0068015395755524968 0 9.7567361594379421e-05 0.0056854392896408344 0 9.8911491095702978e-05 0.0056753233189209022 0 3.8712017299451285e-05 0.0061328158347478835 0 9.8911491095702978e-05 0.0056753233189209022 0 1.4311054465801096e-07 0.0059928672527670172 0 3.8712017299451285e-05 0.0061328158347478835 0 -6.2201727621855857e-05 0.0058496338183076958 0 3.8712017299451285e-05 0.0061328158347478835 0 -0.00014424853845017508 0.0066296128908004751 0 3.8712017299451285e-05 0.0061328158347478835 0 2.2260124485946176e-07 0.0068015395755524968 0 -0.00014424853845017508 0.0066296128908004751 0 -8.604180994178537e-07 0.0076104415522088324 0 2.2260124485946176e-07 0.0068015395755524968 0 -0.00014424853845017508 0.0066296128908004751 0 3.5612881879011891e-05 0.0048191327372432086 0 -0.00044234879331508112 0.0044092134493306208 0 -0.00029350765698448014 0.0047424366069839336 0 4.3392755927766537e-05 0.0047345892470055688 0 -0.00030531106570866464 0.0042937241620176749 0 3.5612881879011891e-05 0.0048191327372432086 0 -0.00044234879331508112 0.0044092134493306208 0 -0.00053393248747982136 0.0039219804171906139 0 -0.00044234879331508112 0.0044092134493306208 0 -0.00053393248747982136 0.0039219804171906139 0 -0.00080380613118941199 0.0041233244672594961 0 -0.00044234879331508112 0.0044092134493306208 0 -0.00029350765698448014 0.0047424366069839336 0 -0.00060137283228266193 0.0044305661232585895 0 -0.00029350765698448014 0.0047424366069839336 0 -0.00060137283228266193 0.0044305661232585895 0 -0.00054246708105177936 0.0046453932169124978 0 -0.00054246708105177936 0.0046453932169124978 0 -0.00058262126678806632 0.0047103025619881058 0 -0.0003445808562568807 0.0048582974668414077 0 -0.00029350765698448014 0.0047424366069839336 0 -0.00054246708105177936 0.0046453932169124978 0 -0.0003445808562568807 0.0048582974668414077 0 -0.00029350765698448014 0.0047424366069839336 0 -0.0003445808562568807 0.0048582974668414077 0 -0.00016073770246555322 0.0050062869161910601 0 -0.00029350765698448014 0.0047424366069839336 0 -0.00016073770246555322 0.0050062869161910601 0 -3.4027036023128963e-05 0.0050302209016490265 0 3.5612881879011891e-05 0.0048191327372432086 0 -0.00029350765698448014 0.0047424366069839336 0 -3.4027036023128963e-05 0.0050302209016490265 0 3.5612881879011891e-05 0.0048191327372432086 0 -3.4027036023128963e-05 0.0050302209016490265 0 7.7136444019747173e-05 0.0051301224672346633 0 7.7136444019747173e-05 0.0051301224672346633 0 0.00010493467518987938 0.0053500391949472068 0 0.00011728134392298984 0.0052582393585278251 0 -3.4027036023128963e-05 0.0050302209016490265 0 8.8791634382197853e-05 0.0052126020273855229 0 7.7136444019747173e-05 0.0051301224672346633 0 8.8791634382197853e-05 0.0052126020273855229 0 7.7136444019747173e-05 0.0051301224672346633 0 0.00010493467518987938 0.0053500391949472068 0 0.00010493467518987938 0.0053500391949472068 0 0.00012786732158555947 0.0054005464423699974 0 0.00011728134392298984 0.0052582393585278251 0 8.1415042519010928e-05 0.0056417398910517174 0 0.00010493467518987938 0.0053500391949472068 0 0.00012786732158555947 0.0054005464423699974 0 0.0001500932356234478 0.0054682520286918491 0 0.00011728134392298984 0.0052582393585278251 0 0.00010334889429464726 0.0052603010301054678 0 0.0001500932356234478 0.0054682520286918491 0 0.00012786732158555947 0.0054005464423699974 0 0.00011728134392298984 0.0052582393585278251 0 3.5612881879011891e-05 0.0048191327372432086 0 7.7136444019747173e-05 0.0051301224672346633 0 0.00011728134392298984 0.0052582393585278251 0 3.5612881879011891e-05 0.0048191327372432086 0 0.00011728134392298984 0.0052582393585278251 0 0.00010334889429464726 0.0052603010301054678 0 3.5612881879011891e-05 0.0048191327372432086 0 0.00010334889429464726 0.0052603010301054678 0 6.9065336469314735e-05 0.0047135245514373118 0 1.4311054465801096e-07 0.0059928672527670172 0 0.00010334889429464726 0.0052603010301054678 0 1.8997337076080745e-07 0.0051841862313794472 0 1.8997337076080745e-07 0.0051841862313794472 0 1.5907128606910064e-07 0.0043756498549325056 0 6.9065336469314735e-05 0.0047135245514373118 0 0.00010334889429464726 0.0052603010301054678 0 1.8997337076080745e-07 0.0051841862313794472 0 6.9065336469314735e-05 0.0047135245514373118 0 1.5907128606910064e-07 0.0043756498549325056 0 6.9065336469314735e-05 0.0047135245514373118 0 2.4286171074170717e-05 0.0042161739789343651 0 3.5612881879011891e-05 0.0048191327372432086 0 6.9065336469314735e-05 0.0047135245514373118 0 8.5041520198110547e-06 0.004520270655608916 0 6.9065336469314735e-05 0.0047135245514373118 0 8.5041520198110547e-06 0.004520270655608916 0 2.4286171074170717e-05 0.0042161739789343651 0 8.5041520198110547e-06 0.004520270655608916 0 2.4286171074170717e-05 0.0042161739789343651 0 -8.4258872875513736e-05 0.0039025906926255646 0 1.5907128606910064e-07 0.0043756498549325056 0 2.4286171074170717e-05 0.0042161739789343651 0 -1.6839909720606817e-07 0.0035669112285734569 0 2.4286171074170717e-05 0.0042161739789343651 0 -1.6839909720606817e-07 0.0035669112285734569 0 -8.4258872875513736e-05 0.0039025906926255646 0 -2.775712415332155e-05 0.0037363496355061125 0 -0.0003880269712198981 0.0034175158289368487 0 -1.6839909720606817e-07 0.0035669112285734569 0 -8.4258872875513736e-05 0.0039025906926255646 0 -6.1302109562693069e-05 0.0034681776489903465 0 -1.6839909720606817e-07 0.0035669112285734569 0 -6.1302109562693069e-05 0.0034681776489903465 0 -2.1906931092053045e-07 0.0027583588064475895 0 -0.0003880269712198981 0.0034175158289368487 0 7.0605466606927786e-08 0.0027580582827717629 0 -0.00092788752170188716 0.0038905376380597941 0 -0.0010651298094430314 0.0038119254841087573 0 -0.0010367163864527709 0.0039249907013612076 0 -0.00097327929159242486 0.0037044905836367712 0 -0.00092788752170188716 0.0038905376380597941 0 -0.0010651298094430314 0.0038119254841087573 0 -0.00030531106570866464 0.0042937241620176749 0 -0.0003880269712198981 0.0034175158289368487 0 -0.00053393248747982136 0.0039219804171906139 0 -0.00097327929159242486 0.0037044905836367712 0 -0.00092788752170188716 0.0038905376380597941 0 8.5041520198110547e-06 0.004520270655608916 0 -8.4258872875513736e-05 0.0039025906926255646 0 -0.00039833188402045794 0.0038389980801519135 0 -0.00053393248747982136 0.0039219804171906139 0 -0.00092788752170188716 0.0038905376380597941 0 -0.00080380613118941199 0.0041233244672594961 0 -0.00051999161284233333 0.0030282189720839802 0 -0.00033623484183284002 0.0026732582384065623 0 4.5613993417329367e-05 0.0023296859247847516 0 -5.9655437768027995e-06 0.0014667152500430832 0 1.8107938550904136e-07 0.0018625467792253521 0 4.5613993417329367e-05 0.0023296859247847516 0 -2.5365671410507809e-07 0.0027568771324438294 0 1.8107938550904136e-07 0.0018625467792253521 0 -0.00097327929159242486 0.0037044905836367712 0 -0.0010701171952647583 0.0038322849294725359 0 -0.0010651298094430314 0.0038119254841087573 0 -0.0003880269712198981 0.0034175158289368487 0 -0.00051999161284233333 0.0030282189720839802 0 -0.00017239241361035349 0.0027010463214029372 0 4.5613993417329367e-05 0.0023296859247847516 0 -2.5365671410507809e-07 0.0027568771324438294 0 -0.0010701171952647583 0.0038322849294725359 0 -0.0010651298094430314 0.0038119254841087573 0 -0.0010897885537234039 0.003729286223548144 0 -0.0010701171952647583 0.0038322849294725359 0 -0.0010897885537234039 0.003729286223548144 0 -0.00083733329081751059 0.0036671749229616815 0 -0.0010897885537234039 0.003729286223548144 0 -0.00087606477653907476 0.0033885228085813045 0 -0.00083733329081751059 0.0036671749229616815 0 -0.0010897885537234039 0.003729286223548144 0 -0.0010367163864527709 0.0039249907013612076 0 -0.0010969365543409572 0.0039156534913938109 0 -0.0010651298094430314 0.0038119254841087573 0 -0.0010897885537234039 0.003729286223548144 0 -0.0010367163864527709 0.0039249907013612076 0 -0.0010897885537234039 0.003729286223548144 0 -0.0011548601113469349 0.0035341122964377462 0 -0.0010969365543409572 0.0039156534913938109 0 -0.0011548601113469349 0.0035341122964377462 0 -0.0010204182985410295 0.0032023649839439837 0 -0.00087606477653907476 0.0033885228085813045 0 -0.0010897885537234039 0.003729286223548144 0 -0.0011548601113469349 0.0035341122964377462 0 -0.00087606477653907476 0.0033885228085813045 0 -0.00080380613118941199 0.0041233244672594961 0 -0.00095372731756031488 0.0041231512936910231 0 -0.00079682603841174399 0.0042920205318244739 0 -0.00044234879331508112 0.0044092134493306208 0 -0.00060137283228266193 0.0044305661232585895 0 -0.00080380613118941199 0.0041233244672594961 0 -0.00060137283228266193 0.0044305661232585895 0 -0.00080380613118941199 0.0041233244672594961 0 -0.00079682603841174399 0.0042920205318244739 0 -0.00092788752170188716 0.0038905376380597941 0 -0.00080380613118941199 0.0041233244672594961 0 -0.0010367163864527709 0.0039249907013612076 0 -0.00080380613118941199 0.0041233244672594961 0 -0.0010367163864527709 0.0039249907013612076 0 -0.00095372731756031488 0.0041231512936910231 0 -0.0010367163864527709 0.0039249907013612076 0 -0.00095372731756031488 0.0041231512936910231 0 -0.0010969365543409572 0.0039156534913938109 0 -0.00095372731756031488 0.0041231512936910231 0 -0.00098560473527340483 0.0041982779344125554 0 -0.0010969365543409572 0.0039156534913938109 0 -0.0011100415981446868 0.0035886687803275384 0 -0.0011889338460806603 0.00384526257925457 0 -0.0011548601113469349 0.0035341122964377462 0 -0.0010969365543409572 0.0039156534913938109 0 -0.00097963458770287969 0.0044442763361188598 0 -0.00095372731756031488 0.0041231512936910231 0 -0.00098560473527340483 0.0041982779344125554 0 -0.00087742899354747962 0.0043325980802816485 0 -0.00098560473527340483 0.0041982779344125554 0 -0.00097963458770287969 0.0044442763361188598 0 -0.00087742899354747962 0.0043325980802816485 0 -0.00098560473527340483 0.0041982779344125554 0 -0.0010969365543409572 0.0039156534913938109 0 -0.00097963458770287969 0.0044442763361188598 0 -0.00058262126678806632 0.0047103025619881058 0 -0.00097963458770287969 0.0044442763361188598 0 -0.00071495442542868031 0.0045513190743825573 0 -0.00097963458770287969 0.0044442763361188598 0 -0.00087742899354747962 0.0043325980802816485 0 -0.00071495442542868031 0.0045513190743825573 0 -0.00087742899354747962 0.0043325980802816485 0 -0.00072511084451087405 0.0044619058902931105 0 -0.00071495442542868031 0.0045513190743825573 0 -0.00095372731756031488 0.0041231512936910231 0 -0.00087742899354747962 0.0043325980802816485 0 -0.00079682603841174399 0.0042920205318244739 0 -0.00087742899354747962 0.0043325980802816485 0 -0.00079682603841174399 0.0042920205318244739 0 -0.00072511084451087405 0.0044619058902931105 0 -0.00060137283228266193 0.0044305661232585895 0 -0.00054246708105177936 0.0046453932169124978 0 -0.00072511084451087405 0.0044619058902931105 0 -0.00060137283228266193 0.0044305661232585895 0 -0.00079682603841174399 0.0042920205318244739 0 -0.00072511084451087405 0.0044619058902931105 0 -0.00054246708105177936 0.0046453932169124978 0 -0.00058262126678806632 0.0047103025619881058 0 -0.00071495442542868031 0.0045513190743825573 0 -0.00054246708105177936 0.0046453932169124978 0 -0.00072511084451087405 0.0044619058902931105 0 -0.00071495442542868031 0.0045513190743825573 0 -0.00033281676293071708 0.0050452505029870915 0 -0.00058262126678806632 0.0047103025619881058 0 -0.00097963458770287969 0.0044442763361188598 0 -0.00057750960755372719 0.0045523495093329706 0 -0.0011889338460806603 0.00384526257925457 0 -0.00076408331925036696 0.0040671865639564358 0 -0.0014748145945839564 0.0031918117781948438 0 -0.0013956720816484553 0.0033152177806894407 0 -0.0014748145945839564 0.0031918117781948438 0 -0.0013956720816484553 0.0033152177806894407 0 -0.0013934449190176606 0.0031678228229342644 0 -0.0013956720816484553 0.0033152177806894407 0 -0.0014437193819854292 0.003111604140034769 0 -0.0015140243634072081 0.0031181218329728211 0 -0.0013956720816484553 0.0033152177806894407 0 -0.0014437193819854292 0.003111604140034769 0 -0.0013934449190176606 0.0031678228229342644 0 -0.0014437193819854292 0.003111604140034769 0 -0.001394931839417266 0.0030198909914894638 0 -0.0013934449190176606 0.0031678228229342644 0 -0.0014437193819854292 0.003111604140034769 0 -0.0015140243634072081 0.0031181218329728211 0 -0.001492046478701613 0.0030331929608183746 0 -0.0014437193819854292 0.003111604140034769 0 -0.001492046478701613 0.0030331929608183746 0 -0.0014513414559216052 0.0029976100282155037 0 -0.0015419340235158258 0.0030137150906539667 0 -0.0015140243634072081 0.0031181218329728211 0 -0.001492046478701613 0.0030331929608183746 0 -0.0015419340235158258 0.0030137150906539667 0 -0.001492046478701613 0.0030331929608183746 0 -0.0014999040938237678 0.0029496427145013163 0 -0.0014999040938237678 0.0029496427145013163 0 -0.0014513414559216052 0.0029976100282155037 0 -0.001420095593166693 0.0029041916462469574 0 -0.001492046478701613 0.0030331929608183746 0 -0.0014999040938237678 0.0029496427145013163 0 -0.0014513414559216052 0.0029976100282155037 0 -0.0014437193819854292 0.003111604140034769 0 -0.0014513414559216052 0.0029976100282155037 0 -0.001394931839417266 0.0030198909914894638 0 -0.0014513414559216052 0.0029976100282155037 0 -0.001420095593166693 0.0029041916462469574 0 -0.001394931839417266 0.0030198909914894638 0 -0.0014999040938237678 0.0029496427145013163 0 -0.001420095593166693 0.0029041916462469574 0 -0.0014643938999851724 0.0028334533787584023 0 -0.001420095593166693 0.0029041916462469574 0 -0.0013318730687922255 0.0028672735073019015 0 -0.0013634276347508343 0.002756850221069986 0 -0.001420095593166693 0.0029041916462469574 0 -0.0013318730687922255 0.0028672735073019015 0 -0.001394931839417266 0.0030198909914894638 0 -0.0013318730687922255 0.0028672735073019015 0 -0.001394931839417266 0.0030198909914894638 0 -0.0013408110318966894 0.0030697402215691611 0 -0.0013318730687922255 0.0028672735073019015 0 -0.0013408110318966894 0.0030697402215691611 0 -0.0012162119304263662 0.0028056879214882267 0 -0.0011548601113469349 0.0035341122964377462 0 -0.0014748145945839564 0.0031918117781948438 0 -0.0013408110318966894 0.0030697402215691611 0 -0.001394931839417266 0.0030198909914894638 0 -0.0013408110318966894 0.0030697402215691611 0 -0.0013934449190176606 0.0031678228229342644 0 -0.0014748145945839564 0.0031918117781948438 0 -0.0013408110318966894 0.0030697402215691611 0 -0.0013934449190176606 0.0031678228229342644 0 -0.0011548601113469349 0.0035341122964377462 0 -0.0013408110318966894 0.0030697402215691611 0 -0.0011338672130329721 0.0029987571148432277 0 -0.0011548601113469349 0.0035341122964377462 0 -0.0011338672130329721 0.0029987571148432277 0 -0.0010204182985410295 0.0032023649839439837 0 -0.0011338672130329721 0.0029987571148432277 0 -0.0010204182985410295 0.0032023649839439837 0 -0.00094910562523712813 0.0028936260259191078 0 -0.0011338672130329721 0.0029987571148432277 0 -0.0010736685925807508 0.0027102167821625609 0 -0.00094910562523712813 0.0028936260259191078 0 -0.0010736685925807508 0.0027102167821625609 0 -0.00098144749028219146 0.0026040300075662061 0 -0.00094910562523712813 0.0028936260259191078 0 -0.0013408110318966894 0.0030697402215691611 0 -0.0011338672130329721 0.0029987571148432277 0 -0.0012162119304263662 0.0028056879214882267 0 -0.0011338672130329721 0.0029987571148432277 0 -0.0010736685925807508 0.0027102167821625609 0 -0.0012162119304263662 0.0028056879214882267 0 -0.0012162119304263662 0.0028056879214882267 0 -0.0011202731469787416 0.0026078209537107543 0 -0.001244787716100967 0.0026794547206998019 0 -0.0010736685925807508 0.0027102167821625609 0 -0.0012162119304263662 0.0028056879214882267 0 -0.0011202731469787416 0.0026078209537107543 0 -0.0010736685925807508 0.0027102167821625609 0 -0.001037671874359125 0.0025495957642320921 0 -0.00098144749028219146 0.0026040300075662061 0 -0.0010736685925807508 0.0027102167821625609 0 -0.0011202731469787416 0.0026078209537107543 0 -0.001037671874359125 0.0025495957642320921 0 -0.0011202731469787416 0.0026078209537107543 0 -0.001037671874359125 0.0025495957642320921 0 -0.0010238760215615355 0.0025002488571667435 0 -0.001037671874359125 0.0025495957642320921 0 -0.0010238760215615355 0.0025002488571667435 0 -0.00098051206253382708 0.0024439630643163612 0 -0.0012823393884292293 0.0019162859413059392 0 -0.0013753769590409304 0.0019250464062762214 0 -0.0012857420367700181 0.0019419150223150324 0 -0.0011709571600225324 0.0022146222824992877 0 -0.0012282092982227278 0.0022227643445800332 0 -0.0011202731469787416 0.0026078209537107543 0 -0.0010238760215615355 0.0025002488571667435 0 -0.0011586226812853779 0.002506390847231935 0 -0.0012823393884292293 0.0019162859413059392 0 -0.0013753769590409304 0.0019250464062762214 0 -0.0013295358677337383 0.0019108217634408431 0 -0.0011202731469787416 0.0026078209537107543 0 -0.0011586226812853779 0.002506390847231935 0 -0.001244787716100967 0.0026794547206998019 0 -0.0011586226812853779 0.002506390847231935 0 -0.001303432937343895 0.0025939474193684801 0 -0.001244787716100967 0.0026794547206998019 0 -0.0012797115116331274 0.0024143447807457963 0 -0.0011586226812853779 0.002506390847231935 0 -0.001303432937343895 0.0025939474193684801 0 -0.0014408936346123064 0.0025650556874934807 0 -0.001303432937343895 0.0025939474193684801 0 -0.0014150179019173962 0.0027030446664380232 0 -0.0012797115116331274 0.0024143447807457963 0 -0.0014408936346123064 0.0025650556874934807 0 -0.001303432937343895 0.0025939474193684801 0 -0.0014408936346123064 0.0025650556874934807 0 -0.0015078243161197721 0.0027770818166410398 0 -0.0014150179019173962 0.0027030446664380232 0 -0.001303432937343895 0.0025939474193684801 0 -0.0014150179019173962 0.0027030446664380232 0 -0.0013634276347508343 0.002756850221069986 0 -0.0015078243161197721 0.0027770818166410398 0 -0.0014150179019173962 0.0027030446664380232 0 -0.0014643938999851724 0.0028334533787584023 0 -0.0014150179019173962 0.0027030446664380232 0 -0.0014643938999851724 0.0028334533787584023 0 -0.0013634276347508343 0.002756850221069986 0 -0.001420095593166693 0.0029041916462469574 0 -0.0014643938999851724 0.0028334533787584023 0 -0.0013634276347508343 0.002756850221069986 0 -0.0013318730687922255 0.0028672735073019015 0 -0.0013634276347508343 0.002756850221069986 0 -0.001244787716100967 0.0026794547206998019 0 -0.0013318730687922255 0.0028672735073019015 0 -0.0012162119304263662 0.0028056879214882267 0 -0.001244787716100967 0.0026794547206998019 0 -0.001303432937343895 0.0025939474193684801 0 -0.0013634276347508343 0.002756850221069986 0 -0.001244787716100967 0.0026794547206998019 0 -0.00054610379423259239 0.0015041384100041536 0 -0.0006021368121361195 0.0015459463198573943 0 -0.00063214918248422004 0.001961015174566004 0 0.00014491792230334928 0.001949147161243939 0 -0.00063214918248422004 0.001961015174566004 0 -0.00038803152174553073 0.0024128598997508717 0 -0.00021735451080703578 0.0017437463196290064 0 -0.00062994193764474295 0.0019141282399440576 0 -0.0006021368121361195 0.0015459463198573943 0 -0.00075948098931275952 0.0015694579085071929 0 -0.00063214918248422004 0.001961015174566004 0 -0.00054610379423259239 0.0015041384100041536 0 -0.00057547542247726421 0.0013813198613865315 0 -0.00052195478001849308 0.0013909986161042194 0 -0.00054610379423259239 0.0015041384100041536 0 -0.00057547542247726421 0.0013813198613865315 0 -0.0006021368121361195 0.0015459463198573943 0 -0.00069981233699587203 0.0012479456678152652 0 -0.0006021368121361195 0.0015459463198573943 0 -0.00075948098931275952 0.0015694579085071929 0 -0.00054434827012133768 0.0013424161844196071 0 -0.00076475145800199097 0.0018429965012236886 0 -0.00069981233699587203 0.0012479456678152652 0 -0.00057547542247726421 0.0013813198613865315 0 -0.0006021368121361195 0.0015459463198573943 0 -0.0011030576111381387 0.0013881014725359074 0 -0.00088040581624700988 0.0017207700583200063 0 -0.0010527969263899577 0.0018721298617625569 0 -0.00048978079226917278 0.0014640818338975069 0 -0.00088040581624700988 0.0017207700583200063 0 -0.00078174418610337708 0.0020771437818620643 0 -0.00088040581624700988 0.0017207700583200063 0 -0.00090353700565113857 0.0019836773365808163 0 -0.0010527969263899577 0.0018721298617625569 0 -0.00090353700565113857 0.0019836773365808163 0 -0.00078174418610337708 0.0020771437818620643 0 -0.00089139396856856995 0.0022446350551152657 0 -0.00090353700565113857 0.0019836773365808163 0 -0.0010527969263899577 0.0018721298617625569 0 -0.00089139396856856995 0.0022446350551152657 0 -0.00088040581624700988 0.0017207700583200063 0 -0.00090353700565113857 0.0019836773365808163 0 -0.00078174418610337708 0.0020771437818620643 0 -0.0013753769590409304 0.0019250464062762214 0 -0.0013295358677337383 0.0019108217634408431 0 -0.00089139396856856995 0.0022446350551152657 0 -0.0011482374849276702 0.0019007115482831921 0 -0.0013295358677337383 0.0019108217634408431 0 -0.00089139396856856995 0.0022446350551152657 0 -0.0012284586249695665 0.0016365514946187912 0 -0.0011482374849276702 0.0019007115482831921 0 -0.0013295358677337383 0.0019108217634408431 0 -0.0012284586249695665 0.0016365514946187912 0 -0.0011482374849276702 0.0019007115482831921 0 -0.0010527969263899577 0.0018721298617625569 0 -0.0011482374849276702 0.0019007115482831921 0 -0.0010527969263899577 0.0018721298617625569 0 -0.00089139396856856995 0.0022446350551152657 0 -0.0011709571600225324 0.0022146222824992877 0 -0.00089916351740697222 0.0022630508976876442 0 -0.0010238760215615355 0.0025002488571667435 0 -0.00098051206253382708 0.0024439630643163612 0 -0.00089139396856856995 0.0022446350551152657 0 -0.001037671874359125 0.0025495957642320921 0 -0.00098051206253382708 0.0024439630643163612 0 -0.00096383506215305594 0.0024713933600281207 0 -0.00098051206253382708 0.0024439630643163612 0 -0.00096383506215305594 0.0024713933600281207 0 -0.00089139396856856995 0.0022446350551152657 0 -0.00096383506215305594 0.0024713933600281207 0 -0.00089139396856856995 0.0022446350551152657 0 -0.00090090499498164157 0.0024720201905170419 0 -0.00096383506215305594 0.0024713933600281207 0 -0.00098144749028219146 0.0026040300075662061 0 -0.00090090499498164157 0.0024720201905170419 0 -0.001037671874359125 0.0025495957642320921 0 -0.00096383506215305594 0.0024713933600281207 0 -0.00098144749028219146 0.0026040300075662061 0 -0.00075948098931275952 0.0015694579085071929 0 -0.00063214918248422004 0.001961015174566004 0 -0.00090090499498164157 0.0024720201905170419 0 -0.00076475145800199097 0.0018429965012236886 0 -0.00091147827755826377 0.0023926044894241622 0 -0.00078174418610337708 0.0020771437818620643 0 -0.00089139396856856995 0.0022446350551152657 0 -0.00090090499498164157 0.0024720201905170419 0 -0.00063214918248422004 0.001961015174566004 0 -0.00066393133936273093 0.0023853701358528805 0 -0.00090090499498164157 0.0024720201905170419 0 -0.00063214918248422004 0.001961015174566004 0 -0.00066393133936273093 0.0023853701358528805 0 -0.00038803152174553073 0.0024128598997508717 0 -0.00066393133936273093 0.0023853701358528805 0 -0.00090090499498164157 0.0024720201905170419 0 -0.00071498924139719517 0.0028300292178045504 0 -0.00066393133936273093 0.0023853701358528805 0 -0.00071498924139719517 0.0028300292178045504 0 -0.00038803152174553073 0.0024128598997508717 0 -0.00090090499498164157 0.0024720201905170419 0 -0.00094910562523712813 0.0028936260259191078 0 -0.00071498924139719517 0.0028300292178045504 0 -0.00098144749028219146 0.0026040300075662061 0 -0.00090090499498164157 0.0024720201905170419 0 -0.00094910562523712813 0.0028936260259191078 0 -0.00094910562523712813 0.0028936260259191078 0 -0.00071498924139719517 0.0028300292178045504 0 -0.00070586486644317649 0.0031444718113321519 0 -0.0010204182985410295 0.0032023649839439837 0 -0.00094910562523712813 0.0028936260259191078 0 -0.00087606477653907476 0.0033885228085813045 0 -0.00094910562523712813 0.0028936260259191078 0 -0.00087606477653907476 0.0033885228085813045 0 -0.00070586486644317649 0.0031444718113321519 0 -0.00071498924139719517 0.0028300292178045504 0 -0.00047034132818389449 0.0031353035314192618 0 -0.00070586486644317649 0.0031444718113321519 0 -0.00070135763797694699 0.0028157483149221659 0 -0.00018364834265373626 0.0027250908746521826 0 -0.00071498924139719517 0.0028300292178045504 0 -0.00026132750345253395 0.0029276625142512403 0 -0.00047034132818389449 0.0031353035314192618 0 -0.00071498924139719517 0.0028300292178045504 0 -0.00038803152174553073 0.0024128598997508717 0 -4.8526386201523726e-05 0.0025451700677242618 0 0.00014491792230334928 0.001949147161243939 0 -4.8526386201523726e-05 0.0025451700677242618 0 0.00040872796453856675 0.0021184322997322659 0 0.00014491792230334928 0.001949147161243939 0 -0.00038803152174553073 0.0024128598997508717 0 -4.8526386201523726e-05 0.0025451700677242618 0 -0.00026132750345253395 0.0029276625142512403 0 -0.00021855527501922394 0.0032686330987375467 0 3.597780629876045e-05 0.0031610115426779503 0 -0.00021855527501922394 0.0032686330987375467 0 -0.00047034132818389449 0.0031353035314192618 0 -0.00051830803333244291 0.003404860890987248 0 -0.00026132750345253395 0.0029276625142512403 0 -0.00021855527501922394 0.0032686330987375467 0 -0.00047034132818389449 0.0031353035314192618 0 -0.00051830803333244291 0.003404860890987248 0 -0.00055154877744376986 0.0036674729442750485 0 -0.00024321263967147538 0.0035563591090612624 0 -0.00021855527501922394 0.0032686330987375467 0 -0.00051830803333244291 0.003404860890987248 0 -0.00024321263967147538 0.0035563591090612624 0 -0.00021855527501922394 0.0032686330987375467 0 -0.00024321263967147538 0.0035563591090612624 0 2.0946558942115996e-05 0.0034310128873034753 0 -0.00051830803333244291 0.003404860890987248 0 -0.00087606477653907476 0.0033885228085813045 0 -0.00070586486644317649 0.0031444718113321519 0 -0.00047034132818389449 0.0031353035314192618 0 -0.00051830803333244291 0.003404860890987248 0 -0.00070586486644317649 0.0031444718113321519 0 -0.00051830803333244291 0.003404860890987248 0 -0.00087606477653907476 0.0033885228085813045 0 -0.00083733329081751059 0.0036671749229616815 0 -0.00051830803333244291 0.003404860890987248 0 -0.00083733329081751059 0.0036671749229616815 0 -0.00055154877744376986 0.0036674729442750485 0 -0.0010701171952647583 0.0038322849294725359 0 -0.00083733329081751059 0.0036671749229616815 0 -0.0007683499958109917 0.0038594091199928146 0 -0.00083733329081751059 0.0036671749229616815 0 -0.00055154877744376986 0.0036674729442750485 0 -0.0007683499958109917 0.0038594091199928146 0 -1.0714078860472635e-07 0.00096683737641213346 0 -5.9655437768027995e-06 0.0014667152500430832 0 -4.1516079502349598e-06 0.00058074587432593416 0 -0.00033623484183284002 0.0026732582384065623 0 -0.00016037578664648196 0.0021736302647357626 0 -0.00055154877744376986 0.0036674729442750485 0 -0.0007683499958109917 0.0038594091199928146 0 -0.00036842697484344537 0.0038343453226233923 0 -1.0714078860472635e-07 0.00096683737641213346 0 -5.9655437768027995e-06 0.0014667152500430832 0 1.8107938550904136e-07 0.0018625467792253521 0 -0.00055154877744376986 0.0036674729442750485 0 -0.00024321263967147538 0.0035563591090612624 0 -0.00036842697484344537 0.0038343453226233923 0 -1.0714078860472635e-07 0.00096683737641213346 0 -4.1516079502349598e-06 0.00058074587432593416 0 1.4124443212359063e-07 7.1107600176909658e-05 0 -0.00016037578664648196 0.0021736302647357626 0 8.8888303406938144e-05 0.0019623217557214155 0 -4.1516079502349598e-06 0.00058074587432593416 0 1.4124443212359063e-07 7.1107600176909658e-05 0 2.5371719176747677e-05 -0.00031058106819329149 0 -0.00024321263967147538 0.0035563591090612624 0 -0.00036842697484344537 0.0038343453226233923 0 2.2971942475215029e-05 0.003775491097135823 0 1.4124443212359063e-07 7.1107600176909658e-05 0 2.5371719176747677e-05 -0.00031058106819329149 0 -2.0009611585644048e-07 -0.0008233365036129128 0 -0.00024321263967147538 0.0035563591090612624 0 2.2971942475215029e-05 0.003775491097135823 0 2.0946558942115996e-05 0.0034310128873034753 0 2.2971942475215029e-05 0.003775491097135823 0 0.00023259036964233854 0.0035329130860958244 0 2.0946558942115996e-05 0.0034310128873034753 0 8.8888303406938144e-05 0.0019623217557214155 0 1.7076073621965085e-05 -0.00011539646314093071 0 2.5371719176747677e-05 -0.00031058106819329149 0 -2.0009611585644048e-07 -0.0008233365036129128 0 -7.7831087172283451e-05 -0.00089157061886343039 0 2.2971942475215029e-05 0.003775491097135823 0 0.00023259036964233854 0.0035329130860958244 0 0.00037450583064461686 0.0037222939310012572 0 3.3710149084163494e-07 -0.00082439162217691465 0 1.7076073621965085e-05 -0.00011539646314093071 0 -2.2430753771106085e-07 -0.00082452289064259034 0 -8.5530173311468776e-06 -0.001288998837710378 0 2.5301127753186897e-07 -0.001636295709995328 0 1.7076073621965085e-05 -0.00011539646314093071 0 1.639449417544545e-05 -0.0018225680836972073 0 1.7076073621965085e-05 -0.00011539646314093071 0 0.000245856519080635 0.00090948600316343678 0 -8.5530173311468776e-06 -0.001288998837710378 0 2.5301127753186897e-07 -0.001636295709995328 0 3.0408381254516812e-05 -0.001805526614036701 0 -0.00016503229980078493 -0.0017876441421209243 0 3.0408381254516812e-05 -0.001805526614036701 0 2.31855380232557e-05 -0.0019172095178366635 0 3.0408381254516812e-05 -0.001805526614036701 0 2.31855380232557e-05 -0.0019172095178366635 0 4.3726582674758799e-05 -0.0019302262291507235 0 0.00055543566747811364 0.0035932723679144157 0 0.00041236438567094779 0.0035346164012800435 0 0.0005810886972268392 0.0034000989131810415 0 0.00055543566747811364 0.0035932723679144157 0 0.0005810886972268392 0.0034000989131810415 0 0.00072534207452654262 0.003469522290131785 0 0.00023259036964233854 0.0035329130860958244 0 0.00037450583064461686 0.0037222939310012572 0 0.00041236438567094779 0.0035346164012800435 0 0.00037450583064461686 0.0037222939310012572 0 0.00055543566747811364 0.0035932723679144157 0 0.00041236438567094779 0.0035346164012800435 0 0.00023259036964233854 0.0035329130860958244 0 0.00041236438567094779 0.0035346164012800435 0 0.00040983086988765775 0.0033900686194178447 0 0.00023259036964233854 0.0035329130860958244 0 0.00040983086988765775 0.0033900686194178447 0 0.00027039998112207296 0.00327918878716807 0 0.00040983086988765775 0.0033900686194178447 0 0.00044528263466724202 0.0032698491057377745 0 0.00027039998112207296 0.00327918878716807 0 0.00040983086988765775 0.0033900686194178447 0 0.00050252322617535356 0.0033227799336926871 0 0.00044528263466724202 0.0032698491057377745 0 0.0005810886972268392 0.0034000989131810415 0 0.00050252322617535356 0.0033227799336926871 0 0.00057137111801666219 0.0032320410172057166 0 0.00040983086988765775 0.0033900686194178447 0 0.0005810886972268392 0.0034000989131810415 0 0.00050252322617535356 0.0033227799336926871 0 0.00041236438567094779 0.0035346164012800435 0 0.00040983086988765775 0.0033900686194178447 0 0.0005810886972268392 0.0034000989131810415 0 0.00050252322617535356 0.0033227799336926871 0 0.00057137111801666219 0.0032320410172057166 0 0.00044528263466724202 0.0032698491057377745 0 0.00057137111801666219 0.0032320410172057166 0 0.00040312145076839049 0.0031579240943334546 0 0.00041226264839406158 0.0029614510957662386 0 0.00031688054505658983 0.00066970596691101527 0 0.00047208523401652677 0.0010200098911297233 0 0.00058353898775191399 0.0022943653963423166 0 0.00067858948183454205 0.0019591750398576537 0 0.00043487435876577427 0.0008279382375544123 0 0.00033479098459450213 0.00081165776814957555 0 0.00047353553621513433 0.0010545727945511531 0 0.00057137111801666219 0.0032320410172057166 0 0.00044528263466724202 0.0032698491057377745 0 0.00040312145076839049 0.0031579240943334546 0 0.00044528263466724202 0.0032698491057377745 0 0.00040312145076839049 0.0031579240943334546 0 0.00027039998112207296 0.00327918878716807 0 0.00040312145076839049 0.0031579240943334546 0 0.00025078777365870582 0.0031040672110004288 0 0.00027039998112207296 0.00327918878716807 0 0.00027039998112207296 0.00327918878716807 0 3.597780629876045e-05 0.0031610115426779503 0 2.0946558942115996e-05 0.0034310128873034753 0 0.00025078777365870582 0.0031040672110004288 0 0.00027039998112207296 0.00327918878716807 0 3.597780629876045e-05 0.0031610115426779503 0 -0.00021855527501922394 0.0032686330987375467 0 3.597780629876045e-05 0.0031610115426779503 0 2.0946558942115996e-05 0.0034310128873034753 0 0.00023259036964233854 0.0035329130860958244 0 0.00027039998112207296 0.00327918878716807 0 2.0946558942115996e-05 0.0034310128873034753 0 2.7293870743660017e-05 -0.0037125626804763233 0 5.0373449858510713e-05 -0.0038646410482202987 0 6.6066725465115296e-05 -0.003907286566617818 0 -0.00036607035001309432 -0.0018377412002169924 0 -0.0012552956462929196 -0.0031126326334067794 0 -0.0010937638605317383 -7.8137869411884351e-05 0 -0.00084504863521578464 -0.00028478725185539808 0 -0.0013487988000678514 5.7816653192260131e-05 0 -0.0010937638605317383 -7.8137869411884351e-05 0 -0.00084504863521578464 -0.00028478725185539808 0 -0.00081992433527634952 -6.0012947065886681e-06 0 2.7293870743660017e-05 -0.0037125626804763233 0 3.2872352819516066e-07 -0.0035958255176071043 0 6.6066725465115296e-05 -0.003907286566617818 0 2.7293870743660017e-05 -0.0037125626804763233 0 3.2872352819516066e-07 -0.0035958255176071043 0 -6.1694733641382351e-07 -0.0028406001387213486 0 2.7293870743660017e-05 -0.0037125626804763233 0 -6.1694733641382351e-07 -0.0028406001387213486 0 -0.00015731142499919213 -0.0030557601570695516 0 -0.00036607035001309432 -0.0018377412002169924 0 -0.00016441722247503157 -0.002027604569827886 0 -0.00084504863521578464 -0.00028478725185539808 0 -0.00059121109472349328 -3.856043172112981e-05 0 -0.00034137293001037448 -0.00015479623232317625 0 -0.00084504863521578464 -0.00028478725185539808 0 -0.00034137293001037448 -0.00015479623232317625 0 -0.00027990657846161602 -0.00072319977422986403 0 -0.00084504863521578464 -0.00028478725185539808 0 -0.00059121109472349328 -3.856043172112981e-05 0 -0.00081992433527634952 -6.0012947065886681e-06 0 -0.00059121109472349328 -3.856043172112981e-05 0 -0.00034137293001037448 -0.00015479623232317625 0 -0.00037540113810479158 7.4460041873014891e-05 0 -0.00034137293001037448 -0.00015479623232317625 0 -0.00027990657846161602 -0.00072319977422986403 0 0.0001149892719676894 -2.3869618944130348e-05 0 -0.00077355021936823822 -0.0016476731301015347 0 0.00076988348322872327 4.4469313662215996e-05 0 0.00036022269142266732 0.00029103720434653141 0 -0.00016441722247503157 -0.002027604569827886 0 0.00018713615683939059 0.00037515074878611328 0 -0.00034137293001037448 -0.00015479623232317625 0 -7.9689969034674933e-05 9.8192576598692997e-05 0 -0.00037540113810479158 7.4460041873014891e-05 0 -0.00034137293001037448 -0.00015479623232317625 0 0.0001149892719676894 -2.3869618944130348e-05 0 -7.9689969034674933e-05 9.8192576598692997e-05 0 -0.00013234228842702445 -0.0025251063335640835 0 0.00017276753200609819 0.00077113171807516594 0 -0.00077355021936823822 -0.0016476731301015347 0 -0.00044157671469708911 -0.0018974621784606238 0 0.00076988348322872327 4.4469313662215996e-05 0 -0.00016441722247503157 -0.002027604569827886 0 -0.00013234228842702445 -0.0025251063335640835 0 -6.7013317377230908e-07 -0.0026890166567829425 0 1.4367119873333794e-06 -0.0027314317264476628 0 9.6271994687260666e-06 -0.002734297428889297 0 1.4367119873333794e-06 -0.0027314317264476628 0 2.7806465060837281e-09 -0.0026722273214490498 0 9.6271994687260666e-06 -0.002734297428889297 0 -0.00013234228842702445 -0.0025251063335640835 0 -2.9912965522861872e-07 -0.0026715410024683666 0 -3.0404755274921137e-09 -0.002838846097204464 0 -6.7013317377230908e-07 -0.0026890166567829425 0 9.6271994687260666e-06 -0.002734297428889297 0 -4.687698773439578e-07 -0.0028389443681020705 0 -0.00016441722247503157 -0.002027604569827886 0 -3.0404755274921137e-09 -0.002838846097204464 0 2.7806465060837281e-09 -0.0026722273214490498 0 9.6271994687260666e-06 -0.002734297428889297 0 -0.00015164328197022898 -0.0022684311331340173 0 -2.8133647980917522e-07 -0.0024467427224991226 0 2.0351524860853356e-05 -0.0020551360520677073 0 -1.4592006135265831e-07 -0.0025994896765372888 0 -3.0443433450549461e-10 -0.0026714626622760993 0 -1.1993864342925251e-10 -0.002448104331667738 0 -0.00013234228842702445 -0.0025251063335640835 0 -1.2617451534343546e-07 -0.0024479182709757079 0 -0.00015164328197022898 -0.0022684311331340173 0 2.0351524860853356e-05 -0.0020551360520677073 0 1.5179950355745981e-05 -0.0018052639649512477 0 3.0408381254516812e-05 -0.001805526614036701 0 -2.8133647980917522e-07 -0.0024467427224991226 0 2.0351524860853356e-05 -0.0020551360520677073 0 2.5301127753186897e-07 -0.001636295709995328 0 3.0408381254516812e-05 -0.001805526614036701 0 -2.8133647980917522e-07 -0.0024467427224991226 0 3.0408381254516812e-05 -0.001805526614036701 0 2.0351524860853356e-05 -0.0020551360520677073 0 4.3726582674758799e-05 -0.0019302262291507235 0 2.31855380232557e-05 -0.0019172095178366635 0 4.3726582674758799e-05 -0.0019302262291507235 0 1.5179950355745981e-05 -0.0018052639649512477 0 2.0351524860853356e-05 -0.0020551360520677073 0 4.3726582674758799e-05 -0.0019302262291507235 0 1.5179950355745981e-05 -0.0018052639649512477 0 0.000245856519080635 0.00090948600316343678 0 0.00017276753200609819 0.00077113171807516594 0 0.00017276753200609819 0.00077113171807516594 0 0.00018713615683939059 0.00037515074878611328 0 0.0005810886972268392 0.0034000989131810415 0 0.00057137111801666219 0.0032320410172057166 0 0.00072534207452654262 0.003469522290131785 0 0.00058353898775191399 0.0022943653963423166 0 0.00017276753200609819 0.00077113171807516594 0 0.00025987984646520709 0.00057273831693622958 0 0.00020653655284556634 0.00060444751835846133 0 0.00033479098459450213 0.00081165776814957555 0 0.00043487435876577427 0.0008279382375544123 0 0.00025987984646520709 0.00057273831693622958 0 0.00033479098459450213 0.00081165776814957555 0 0.00018713615683939059 0.00037515074878611328 0 0.00031688054505658983 0.00066970596691101527 0 8.5463177253782159e-05 8.1182633635612203e-06 0 5.0146146273262346e-05 0.00036294266698725313 0 0.00032676133660385808 0.00055443212773294986 0 0.00032676133660385808 0.00055443212773294986 0 0.00018344146803780812 0.000924470613337445 0 0.00047353553621513433 0.0010545727945511531 0 0.00032676133660385808 0.00055443212773294986 0 9.454882565439711e-05 0.00064506194935119493 0 0.00018344146803780812 0.000924470613337445 0 9.454882565439711e-05 0.00064506194935119493 0 -7.3867670058409016e-05 0.00080236902966289436 0 0.00018344146803780812 0.000924470613337445 0 5.0146146273262346e-05 0.00036294266698725313 0 0.00032676133660385808 0.00055443212773294986 0 9.454882565439711e-05 0.00064506194935119493 0 -7.3867670058409016e-05 0.00080236902966289436 0 -0.00016376999886331224 0.00053812587928151238 0 -0.00055147727275951341 0.00078185095790927193 0 9.454882565439711e-05 0.00064506194935119493 0 -7.3867670058409016e-05 0.00080236902966289436 0 -0.00016376999886331224 0.00053812587928151238 0 5.0146146273262346e-05 0.00036294266698725313 0 9.454882565439711e-05 0.00064506194935119493 0 -0.00016376999886331224 0.00053812587928151238 0 -0.00016376999886331224 0.00053812587928151238 0 -0.00029376154579593034 0.00029907543475486155 0 -0.00012100766657617071 0.00032594658577760006 0 -0.00016376999886331224 0.00053812587928151238 0 -0.00029376154579593034 0.00029907543475486155 0 -0.00057305676305851639 0.00039842975217714094 0 5.0146146273262346e-05 0.00036294266698725313 0 -0.00012100766657617071 0.00032594658577760006 0 -7.9689969034674933e-05 9.8192576598692997e-05 0 5.0146146273262346e-05 0.00036294266698725313 0 -0.00016376999886331224 0.00053812587928151238 0 -0.00012100766657617071 0.00032594658577760006 0 8.5463177253782159e-05 8.1182633635612203e-06 0 5.0146146273262346e-05 0.00036294266698725313 0 -7.9689969034674933e-05 9.8192576598692997e-05 0 0.00018713615683939059 0.00037515074878611328 0 9.5527150249721324e-05 0.00025436700009678128 0 -0.00029376154579593034 0.00029907543475486155 0 -7.9689969034674933e-05 9.8192576598692997e-05 0 -0.00037540113810479158 7.4460041873014891e-05 0 -0.00029376154579593034 0.00029907543475486155 0 -0.00012100766657617071 0.00032594658577760006 0 -7.9689969034674933e-05 9.8192576598692997e-05 0 -0.00029376154579593034 0.00029907543475486155 0 -0.00056713848793904346 0.00018315809405886139 0 -0.00037540113810479158 7.4460041873014891e-05 0 -0.00059121109472349328 -3.856043172112981e-05 0 -0.00056713848793904346 0.00018315809405886139 0 -0.00037540113810479158 7.4460041873014891e-05 0 -0.00059121109472349328 -3.856043172112981e-05 0 -0.00056713848793904346 0.00018315809405886139 0 -0.00081992433527634952 -6.0012947065886681e-06 0 -0.00056713848793904346 0.00018315809405886139 0 -0.00082160081505465096 0.0002133781815737719 0 -0.00081992433527634952 -6.0012947065886681e-06 0 -0.00056713848793904346 0.00018315809405886139 0 -0.00057305676305851639 0.00039842975217714094 0 -0.00082160081505465096 0.0002133781815737719 0 -0.00029376154579593034 0.00029907543475486155 0 -0.00056713848793904346 0.00018315809405886139 0 -0.00057305676305851639 0.00039842975217714094 0 -0.00016376999886331224 0.00053812587928151238 0 -0.00057305676305851639 0.00039842975217714094 0 -0.00055147727275951341 0.00078185095790927193 0 -0.00057305676305851639 0.00039842975217714094 0 -0.00055147727275951341 0.00078185095790927193 0 -0.0010757098334023022 0.00037648330199837579 0 -0.00013699734336111274 0.0011022184710463556 0 -0.0012500404075596958 -0.0011410372621576846 0 -0.0012500404075596958 -0.0011410372621576846 0 -0.0015290996811870509 -0.0030102066740019225 0 -0.00011836188108830334 0.0009180392019311807 0 -0.00033899645451273777 0.00071281501863115326 0 -0.00027825761453488079 0.0010381634097519723 0 -0.0023840799844039614 -0.0049579806505062572 0 -0.0024736044678480818 -0.0059887116070827043 0 -0.0019578759886609751 -0.0055286501718501413 0 -0.0012500404075596958 -0.0011410372621576846 0 -0.0012552956462929196 -0.0031126326334067794 0 -0.00057305676305851639 0.00039842975217714094 0 -0.0010757098334023022 0.00037648330199837579 0 -0.00082160081505465096 0.0002133781815737719 0 -0.0010937638605317383 -7.8137869411884351e-05 0 -0.0010757098334023022 0.00037648330199837579 0 -0.00082160081505465096 0.0002133781815737719 0 -0.0010937638605317383 -7.8137869411884351e-05 0 -0.00082160081505465096 0.0002133781815737719 0 -0.00081992433527634952 -6.0012947065886681e-06 0 -0.0010661079940795528 0.00039055101434508393 0 -0.0012500404075596958 -0.0011410372621576846 0 -0.0010937638605317383 -7.8137869411884351e-05 0 -0.001076235828180942 0.00025098723627347511 0 -0.0013487988000678514 5.7816653192260131e-05 0 -0.0015290996811870509 -0.0030102066740019225 0 -0.00039137168486670198 -0.0013459252347354594 0 -0.00027825761453488079 0.0010381634097519723 0 -9.162774077979354e-05 0.0011898270774246301 0 -0.00022508934837065458 0.0013016962723773294 0 -0.0021574170221974462 -0.0066131909467128432 0 -0.0024736044678480818 -0.0059887116070827043 0 -0.0025401868777517062 -0.0069677999637659796 0 -0.00011836188108830334 0.0009180392019311807 0 -0.00027825761453488079 0.0010381634097519723 0 -9.162774077979354e-05 0.0011898270774246301 0 -0.00011836188108830334 0.0009180392019311807 0 -9.162774077979354e-05 0.0011898270774246301 0 -2.9672362305874785e-05 0.0011035899031532376 0 -0.00039678874157221544 0.0017301596761027883 0 -0.00039137168486670198 -0.0013459252347354594 0 -9.162774077979354e-05 0.0011898270774246301 0 -1.180095361610888e-05 0.0013363782335668664 0 -2.2470099550442024e-05 0.0012024176408388743 0 -9.162774077979354e-05 0.0011898270774246301 0 -2.9672362305874785e-05 0.0011035899031532376 0 -1.180095361610888e-05 0.0013363782335668664 0 -0.00013699734336111274 0.0011022184710463556 0 -0.00014911133283625024 0.00099185929332624664 0 -7.3867670058409016e-05 0.00080236902966289436 0 -0.00055147727275951341 0.00078185095790927193 0 -2.9672362305874785e-05 0.0011035899031532376 0 -7.3867670058409016e-05 0.00080236902966289436 0 -2.9672362305874785e-05 0.0011035899031532376 0 0.00018344146803780812 0.000924470613337445 0 -2.9672362305874785e-05 0.0011035899031532376 0 0.00018344146803780812 0.000924470613337445 0 0.00015322164576946168 0.0011963472837310813 0 0.00018344146803780812 0.000924470613337445 0 0.00015322164576946168 0.0011963472837310813 0 0.00047353553621513433 0.0010545727945511531 0 -2.9672362305874785e-05 0.0011035899031532376 0 0.00015322164576946168 0.0011963472837310813 0 -1.180095361610888e-05 0.0013363782335668664 0 0.00015322164576946168 0.0011963472837310813 0 -1.180095361610888e-05 0.0013363782335668664 0 0.00040419564574028063 0.0012991862347198821 0 -1.180095361610888e-05 0.0013363782335668664 0 -6.2832997193052576e-05 0.0011833702438890374 0 -0.00017726070113576383 0.0012475381871703624 0 4.0751243897335352e-06 0.0013635962885702446 0 0.00013924544245948891 0.0014907703545783146 0 -1.180095361610888e-05 0.0013363782335668664 0 -0.00030432968841072203 0.0013765809257057962 0 -0.00017726070113576383 0.0012475381871703624 0 -0.00013617479464085971 0.0011224700162536249 0 -6.2832997193052576e-05 0.0011833702438890374 0 -0.00017726070113576383 0.0012475381871703624 0 -0.00013617479464085971 0.0011224700162536249 0 -6.2832997193052576e-05 0.0011833702438890374 0 -3.5609594195716004e-05 0.001095222818486575 0 -6.2832997193052576e-05 0.0011833702438890374 0 -2.3094450687752651e-05 0.0011323944881107863 0 -3.5609594195716004e-05 0.001095222818486575 0 -2.3094450687752651e-05 0.0011323944881107863 0 -3.5609594195716004e-05 0.001095222818486575 0 5.8525936578415632e-05 0.0010488802133934514 0 -1.180095361610888e-05 0.0013363782335668664 0 -6.2832997193052576e-05 0.0011833702438890374 0 -2.3094450687752651e-05 0.0011323944881107863 0 -1.180095361610888e-05 0.0013363782335668664 0 -2.2470099550442024e-05 0.0012024176408388743 0 -2.3094450687752651e-05 0.0011323944881107863 0 -2.2470099550442024e-05 0.0012024176408388743 0 -2.3094450687752651e-05 0.0011323944881107863 0 0.00013968779962229358 0.0010616947020105811 0 -9.162774077979354e-05 0.0011898270774246301 0 -2.2470099550442024e-05 0.0012024176408388743 0 8.9191502189584832e-05 0.0011845478292603869 0 -2.2470099550442024e-05 0.0012024176408388743 0 0.00013968779962229358 0.0010616947020105811 0 8.9191502189584832e-05 0.0011845478292603869 0 5.9872234629027862e-05 0.0009557592111898933 0 -2.3094450687752651e-05 0.0011323944881107863 0 0.00013968779962229358 0.0010616947020105811 0 -1.6837171153934973e-05 0.0010576564659082271 0 -1.7530886185341837e-05 0.0010308999378188864 0 5.9872234629027862e-05 0.0009557592111898933 0 -2.3094450687752651e-05 0.0011323944881107863 0 -6.9816674958271251e-05 0.00078389497473807122 0 5.9872234629027862e-05 0.0009557592111898933 0 0.00013968779962229358 0.0010616947020105811 0 0.00017646257626870973 0.00081064696562716031 0 0.00013968779962229358 0.0010616947020105811 0 0.00017646257626870973 0.00081064696562716031 0 0.00041330136545710591 0.00094875483396424294 0 0.00013968779962229358 0.0010616947020105811 0 0.00014966227804463501 0.00123102490346897 0 0.00041330136545710591 0.00094875483396424294 0 -0.0021574170221974462 -0.0066131909467128432 0 -0.0025401868777517062 -0.0069677999637659796 0 -0.0019080307654855109 -0.0070163396217491391 0 -0.00039137168486670198 -0.0013459252347354594 0 -0.00088145768528122889 -0.0035265017797318486 0 0.00011025492961791336 0.0016574258351538316 0 -0.00039137168486670198 -0.0013459252347354594 0 0.00067822364905959875 0.0020444467853111556 0 0.00079177325564952017 0.0020938739858670035 0 0.00053532079344132289 0.0023123742697777117 0 0.00067822364905959875 0.0020444467853111556 0 0.00074632098659406574 0.0017836458987387869 0 0.00076041492141124445 0.0018676414135028439 0 0.00067822364905959875 0.0020444467853111556 0 0.00079177325564952017 0.0020938739858670035 0 0.00074632098659406574 0.0017836458987387869 0 0.00067822364905959875 0.0020444467853111556 0 0.00040872796453856675 0.0021184322997322659 0 0.00076041492141124445 0.0018676414135028439 0 -4.8526386201523726e-05 0.0025451700677242618 0 0.00040872796453856675 0.0021184322997322659 0 0.00053532079344132289 0.0023123742697777117 0 0.00067822364905959875 0.0020444467853111556 0 0.00040872796453856675 0.0021184322997322659 0 0.00053532079344132289 0.0023123742697777117 0 -0.00018364834265373626 0.0027250908746521826 0 0.00032165554836211755 0.0027248387841017421 0 -0.00026132750345253395 0.0029276625142512403 0 3.597780629876045e-05 0.0031610115426779503 0 8.4161253903462067e-05 0.0029525814928708306 0 0.00025078777365870582 0.0031040672110004288 0 3.597780629876045e-05 0.0031610115426779503 0 8.4161253903462067e-05 0.0029525814928708306 0 0.00079177325564952017 0.0020938739858670035 0 0.00053532079344132289 0.0023123742697777117 0 0.0010885094968242498 0.0022631044073483878 0 0.00025078777365870582 0.0031040672110004288 0 8.4161253903462067e-05 0.0029525814928708306 0 0.00041226264839406158 0.0029614510957662386 0 0.00032165554836211755 0.0027248387841017421 0 0.00067858948183454205 0.0019591750398576537 0 0.00040312145076839049 0.0031579240943334546 0 0.00025078777365870582 0.0031040672110004288 0 0.00041226264839406158 0.0029614510957662386 0 0.00067858948183454205 0.0019591750398576537 0 0.00066818330036258608 0.001923048165322748 0 0.00061732230318124 0.001162992808155741 0 0.0005253948689514518 0.0012427031593226188 0 0.00064493134442442145 0.0013597761682365497 0 0.00068350697491289278 0.0011679264456652167 0 0.00061732230318124 0.001162992808155741 0 0.00064493134442442145 0.0013597761682365497 0 0.00043487435876577427 0.0008279382375544123 0 0.00064917555945066287 0.0011606522818543188 0 0.00047353553621513433 0.0010545727945511531 0 0.00064917555945066287 0.0011606522818543188 0 0.00061732230318124 0.001162992808155741 0 0.00047353553621513433 0.0010545727945511531 0 0.00047353553621513433 0.0010545727945511531 0 0.0005253948689514518 0.0012427031593226188 0 0.00040419564574028063 0.0012991862347198821 0 0.00061732230318124 0.001162992808155741 0 0.00047353553621513433 0.0010545727945511531 0 0.0005253948689514518 0.0012427031593226188 0 0.00015322164576946168 0.0011963472837310813 0 0.00047353553621513433 0.0010545727945511531 0 0.00040419564574028063 0.0012991862347198821 0 -1.180095361610888e-05 0.0013363782335668664 0 0.00040419564574028063 0.0012991862347198821 0 0.0005692430502207002 0.0016134256848728899 0 0.0005253948689514518 0.0012427031593226188 0 0.00040419564574028063 0.0012991862347198821 0 0.00059435118835591942 0.0014474738516304555 0 0.00040419564574028063 0.0012991862347198821 0 0.00059435118835591942 0.0014474738516304555 0 0.0005692430502207002 0.0016134256848728899 0 0.00074632098659406574 0.0017836458987387869 0 0.00059435118835591942 0.0014474738516304555 0 0.0005692430502207002 0.0016134256848728899 0 0.00079177325564952017 0.0020938739858670035 0 0.00074632098659406574 0.0017836458987387869 0 0.0010885094968242498 0.0022631044073483878 0 0.00074632098659406574 0.0017836458987387869 0 0.00068350697491289278 0.0011679264456652167 0 0.00064493134442442145 0.0013597761682365497 0 0.00078797058107873746 0.0016917741341596268 0 0.00067858948183454205 0.0019591750398576537 0 0.0005253948689514518 0.0012427031593226188 0 0.00064493134442442145 0.0013597761682365497 0 0.00059435118835591942 0.0014474738516304555 0 0.00074632098659406574 0.0017836458987387869 0 0.00064493134442442145 0.0013597761682365497 0 0.00059435118835591942 0.0014474738516304555 0 -0.00030432968841072203 0.0013765809257057962 0 -0.00036920264807765459 0.0012756200158245772 0 -0.00043744066002959249 0.0013172469123757218 0 -0.00030432968841072203 0.0013765809257057962 0 -0.00043744066002959249 0.0013172469123757218 0 -0.00048234554476849406 0.001387367450096484 0 0.00013924544245948891 0.0014907703545783146 0 0.00013996584018662986 0.0016244682883150164 0 0.00074632098659406574 0.0017836458987387869 0 0.0005692430502207002 0.0016134256848728899 0 0.00076041492141124445 0.0018676414135028439 0 -0.00030432968841072203 0.0013765809257057962 0 -0.00028669249278987489 0.0012582702344465864 0 -0.00036920264807765459 0.0012756200158245772 0 -0.00030432968841072203 0.0013765809257057962 0 -0.00028669249278987489 0.0012582702344465864 0 -0.00017726070113576383 0.0012475381871703624 0 -0.00013617479464085971 0.0011224700162536249 0 -0.00017726070113576383 0.0012475381871703624 0 -0.00025518942249306453 0.0011612834312993414 0 -0.00028669249278987489 0.0012582702344465864 0 -0.00017726070113576383 0.0012475381871703624 0 -0.00025518942249306453 0.0011612834312993414 0 -0.00028669249278987489 0.0012582702344465864 0 -0.00025518942249306453 0.0011612834312993414 0 -0.00035190806902536974 0.0011919372678965002 0 -0.00025518942249306453 0.0011612834312993414 0 -0.00035190806902536974 0.0011919372678965002 0 -0.00033863970130243665 0.001084490523335933 0 -0.00036920264807765459 0.0012756200158245772 0 -0.00042928293076068989 0.0012290827533393389 0 -0.00043744066002959249 0.0013172469123757218 0 -0.00028669249278987489 0.0012582702344465864 0 -0.00036920264807765459 0.0012756200158245772 0 -0.00035190806902536974 0.0011919372678965002 0 -0.00036920264807765459 0.0012756200158245772 0 -0.00035190806902536974 0.0011919372678965002 0 -0.00042928293076068989 0.0012290827533393389 0 -0.00042928293076068989 0.0012290827533393389 0 -0.00047770593299094148 0.0011702911356172615 0 -0.00042590607075054039 0.0011284938805748298 0 -0.00035190806902536974 0.0011919372678965002 0 -0.00042928293076068989 0.0012290827533393389 0 -0.00042590607075054039 0.0011284938805748298 0 -0.00052306473927915737 0.0012183063923717457 0 -0.00048519250525215393 0.0012785803122547211 0 -0.00052195478001849308 0.0013909986161042194 0 -0.00042928293076068989 0.0012290827533393389 0 -0.00048519250525215393 0.0012785803122547211 0 -0.00047770593299094148 0.0011702911356172615 0 -0.00052306473927915737 0.0012183063923717457 0 -0.00048519250525215393 0.0012785803122547211 0 -0.00047770593299094148 0.0011702911356172615 0 -0.00042928293076068989 0.0012290827533393389 0 -0.00048519250525215393 0.0012785803122547211 0 -0.00043744066002959249 0.0013172469123757218 0 -0.00048519250525215393 0.0012785803122547211 0 -0.00043744066002959249 0.0013172469123757218 0 -0.00049275502983615513 0.0013527662147209605 0 -0.00043744066002959249 0.0013172469123757218 0 -0.00049275502983615513 0.0013527662147209605 0 -0.00048234554476849406 0.001387367450096484 0 -0.00049275502983615513 0.0013527662147209605 0 -0.00048234554476849406 0.001387367450096484 0 -0.00052195478001849308 0.0013909986161042194 0 -0.00048519250525215393 0.0012785803122547211 0 -0.00049275502983615513 0.0013527662147209605 0 -0.00052195478001849308 0.0013909986161042194 0 0.00014491792230334928 0.001949147161243939 0 0.00040872796453856675 0.0021184322997322659 0 0.00076041492141124445 0.0018676414135028439 0 -0.00054610379423259239 0.0015041384100041536 0 -0.00048234554476849406 0.001387367450096484 0 -0.00052195478001849308 0.0013909986161042194 0 -0.00021735451080703578 0.0017437463196290064 0 0.00013996584018662986 0.0016244682883150164 0 -0.00052306473927915737 0.0012183063923717457 0 -0.00052195478001849308 0.0013909986161042194 0 -0.00056365351264374051 0.0012330379475271971 0 -0.00057547542247726421 0.0013813198613865315 0 -0.00052195478001849308 0.0013909986161042194 0 -0.00056365351264374051 0.0012330379475271971 0 -0.00056365351264374051 0.0012330379475271971 0 -0.00055412691636273889 0.0011315468073460073 0 -0.00059399837409622523 0.001080786667847273 0 -0.00061955473594206166 0.0011900537360609517 0 -0.00056365351264374051 0.0012330379475271971 0 -0.00059399837409622523 0.001080786667847273 0 -0.00052306473927915737 0.0012183063923717457 0 -0.00056365351264374051 0.0012330379475271971 0 -0.00055412691636273889 0.0011315468073460073 0 -0.00055412691636273889 0.0011315468073460073 0 -0.00056042280935905697 0.001038842632547956 0 -0.00059399837409622523 0.001080786667847273 0 -0.00047770593299094148 0.0011702911356172615 0 -0.00052475856081123443 0.001096957864455652 0 -0.00048413141623152993 0.001071839109251181 0 -0.00052306473927915737 0.0012183063923717457 0 -0.00047770593299094148 0.0011702911356172615 0 -0.00052475856081123443 0.001096957864455652 0 -0.00052306473927915737 0.0012183063923717457 0 -0.00055412691636273889 0.0011315468073460073 0 -0.00052475856081123443 0.001096957864455652 0 -0.00055412691636273889 0.0011315468073460073 0 -0.00052475856081123443 0.001096957864455652 0 -0.00056042280935905697 0.001038842632547956 0 -0.00052475856081123443 0.001096957864455652 0 -0.00048413141623152993 0.001071839109251181 0 -0.00053854375177213515 0.00096654317052904124 0 -0.00053854375177213515 0.00096654317052904124 0 -0.00056104946043562516 0.0008444631488737363 0 -0.00058810213872973003 0.00095045218754170814 0 -0.00053854375177213515 0.00096654317052904124 0 -0.00056042280935905697 0.001038842632547956 0 -0.00058810213872973003 0.00095045218754170814 0 -0.00052475856081123443 0.001096957864455652 0 -0.00053854375177213515 0.00096654317052904124 0 -0.00056042280935905697 0.001038842632547956 0 -0.00065847948468216919 0.0010544774527789576 0 -0.00059399837409622523 0.001080786667847273 0 -0.00058810213872973003 0.00095045218754170814 0 -0.00073583849278444676 0.00087834895421418536 0 -0.00080760438989626834 0.00081841781280436114 0 -0.00056042280935905697 0.001038842632547956 0 -0.00059399837409622523 0.001080786667847273 0 -0.00058810213872973003 0.00095045218754170814 0 -0.0010574984215835359 0.00059578676962571424 0 -0.00098414992229683951 0.00070041657885810894 0 -0.00087771447087186616 0.00057796369476895181 0 -0.0010999761261962064 0.00072981249326989166 0 -0.0010574984215835359 0.00059578676962571424 0 -0.00098414992229683951 0.00070041657885810894 0 -0.0010574984215835359 0.00059578676962571424 0 -0.00087771447087186616 0.00057796369476895181 0 -0.00097266265561087939 0.00046603795840936796 0 -0.00056104946043562516 0.0008444631488737363 0 -0.00058810213872973003 0.00095045218754170814 0 -0.00058006223769828369 0.00062778912927612433 0 -0.00098414992229683951 0.00070041657885810894 0 -0.00087771447087186616 0.00057796369476895181 0 -0.00058006223769828369 0.00062778912927612433 0 -0.00080760438989626834 0.00081841781280436114 0 -0.00055613544326889959 0.00065453550979093845 0 -0.00076098884519190939 0.00044350011071788619 0 -0.00087771447087186616 0.00057796369476895181 0 -0.00087028593117211169 0.00041384791952198005 0 -0.00076098884519190939 0.00044350011071788619 0 -0.00087771447087186616 0.00057796369476895181 0 -0.00068694207558399269 0.00050963152719413392 0 -0.00087028593117211169 0.00041384791952198005 0 -0.00094870195309238294 0.00033894761679114689 0 -0.00097266265561087939 0.00046603795840936796 0 -0.00087771447087186616 0.00057796369476895181 0 -0.00087028593117211169 0.00041384791952198005 0 -0.00097266265561087939 0.00046603795840936796 0 -0.00087028593117211169 0.00041384791952198005 0 -0.00084890431582342301 0.0002853223931597339 0 -0.00076764938126967807 0.00031976123992201352 0 -0.00076098884519190939 0.00044350011071788619 0 -0.00087028593117211169 0.00041384791952198005 0 -0.00076764938126967807 0.00031976123992201352 0 -0.00084890431582342301 0.0002853223931597339 0 -0.00076790181609369249 0.00017591556287045487 0 -0.00076764938126967807 0.00031976123992201352 0 -0.00084890431582342301 0.0002853223931597339 0 -0.00076790181609369249 0.00017591556287045487 0 -0.00087770355019819654 0.00018730190078208688 0 -0.00084890431582342301 0.0002853223931597339 0 -0.00094870195309238294 0.00033894761679114689 0 -0.00087770355019819654 0.00018730190078208688 0 -0.00087028593117211169 0.00041384791952198005 0 -0.00084890431582342301 0.0002853223931597339 0 -0.00094870195309238294 0.00033894761679114689 0 -0.00094870195309238294 0.00033894761679114689 0 -0.0010608150592068223 0.00040851283648246173 0 -0.00097266265561087939 0.00046603795840936796 0 -0.0011318125641358819 0.00057333263717731066 0 -0.0010574984215835359 0.00059578676962571424 0 -0.0010608150592068223 0.00040851283648246173 0 -0.0010574984215835359 0.00059578676962571424 0 -0.0010608150592068223 0.00040851283648246173 0 -0.00097266265561087939 0.00046603795840936796 0 -0.00053003571444840678 7.7877704612104598e-05 0 -0.00033648740243339385 -3.08382824175316e-05 0 -0.00047979168948410249 -0.00030515059030189365 0 -0.00046198714559591702 0.00025103131791840094 0 -0.00053003571444840678 7.7877704612104598e-05 0 -0.00057196004235834485 0.00028507640973452235 0 -0.00046198714559591702 0.00025103131791840094 0 -0.00053003571444840678 7.7877704612104598e-05 0 -0.00033648740243339385 -3.08382824175316e-05 0 -0.00053003571444840678 7.7877704612104598e-05 0 -0.00065816280696223521 0.00021774648596114873 0 -0.00057196004235834485 0.00028507640973452235 0 -0.00053003571444840678 7.7877704612104598e-05 0 -0.00065816280696223521 0.00021774648596114873 0 -0.0006638076132310421 1.2829176134076847e-05 0 -0.00065816280696223521 0.00021774648596114873 0 -0.00076790181609369249 0.00017591556287045487 0 -0.0006638076132310421 1.2829176134076847e-05 0 -0.00065816280696223521 0.00021774648596114873 0 -0.00076790181609369249 0.00017591556287045487 0 -0.00076764938126967807 0.00031976123992201352 0 -0.00065816280696223521 0.00021774648596114873 0 -0.00076764938126967807 0.00031976123992201352 0 -0.00065595935229295003 0.00038218696632227509 0 -0.00076098884519190939 0.00044350011071788619 0 -0.00076764938126967807 0.00031976123992201352 0 -0.00065595935229295003 0.00038218696632227509 0 -0.00046198714559591702 0.00025103131791840094 0 -0.00057196004235834485 0.00028507640973452235 0 -0.00055829869791385858 0.00050700475884217641 0 -0.00065816280696223521 0.00021774648596114873 0 -0.00065595935229295003 0.00038218696632227509 0 -0.00057196004235834485 0.00028507640973452235 0 -0.00055829869791385858 0.00050700475884217641 0 -0.00058006223769828369 0.00062778912927612433 0 -0.00047765403735676177 0.00085486048415533869 0 -0.00087771447087186616 0.00057796369476895181 0 -0.00068694207558399269 0.00050963152719413392 0 -0.00058006223769828369 0.00062778912927612433 0 -0.00065595935229295003 0.00038218696632227509 0 -0.00057196004235834485 0.00028507640973452235 0 -0.00055829869791385858 0.00050700475884217641 0 -0.00076098884519190939 0.00044350011071788619 0 -0.00065595935229295003 0.00038218696632227509 0 -0.00068694207558399269 0.00050963152719413392 0 -0.00065595935229295003 0.00038218696632227509 0 -0.00055829869791385858 0.00050700475884217641 0 -0.00068694207558399269 0.00050963152719413392 0 -0.00055829869791385858 0.00050700475884217641 0 -0.00068694207558399269 0.00050963152719413392 0 -0.00058006223769828369 0.00062778912927612433 0 -0.00055829869791385858 0.00050700475884217641 0 -0.00031373793125023759 0.00094337222750722112 0 -9.7842765865921953e-05 0.00076364693221082913 0 -0.00046198714559591702 0.00025103131791840094 0 -0.00055829869791385858 0.00050700475884217641 0 -0.0002533634297938246 0.00044197249232492839 0 -0.00057492768920699348 0.00047192526003435277 0 -0.00014494405357508644 0.00070945158247649601 0 -0.00031373793125023759 0.00094337222750722112 0 -0.00020127431516709995 0.0010211795798810866 0 -9.7842765865921953e-05 0.00076364693221082913 0 -0.00055829869791385858 0.00050700475884217641 0 -0.00031373793125023759 0.00094337222750722112 0 -0.00047765403735676177 0.00085486048415533869 0 -0.00056104946043562516 0.0008444631488737363 0 -0.00058006223769828369 0.00062778912927612433 0 -0.00047765403735676177 0.00085486048415533869 0 -0.00053854375177213515 0.00096654317052904124 0 -0.00056104946043562516 0.0008444631488737363 0 -0.00047765403735676177 0.00085486048415533869 0 -0.00031373793125023759 0.00094337222750722112 0 -0.00047765403735676177 0.00085486048415533869 0 -0.00043858533742908583 0.0010129554545492017 0 -0.00053854375177213515 0.00096654317052904124 0 -0.00047765403735676177 0.00085486048415533869 0 -0.00043858533742908583 0.0010129554545492017 0 -0.00048413141623152993 0.001071839109251181 0 -0.00053854375177213515 0.00096654317052904124 0 -0.00043858533742908583 0.0010129554545492017 0 -0.00048413141623152993 0.001071839109251181 0 -0.00043858533742908583 0.0010129554545492017 0 -0.00042590607075054039 0.0011284938805748298 0 -0.00043858533742908583 0.0010129554545492017 0 -0.00042590607075054039 0.0011284938805748298 0 -0.00033863970130243665 0.001084490523335933 0 -0.00031373793125023759 0.00094337222750722112 0 -0.00043858533742908583 0.0010129554545492017 0 -0.00033863970130243665 0.001084490523335933 0 -0.00035190806902536974 0.0011919372678965002 0 -0.00042590607075054039 0.0011284938805748298 0 -0.00033863970130243665 0.001084490523335933 0 -0.00047770593299094148 0.0011702911356172615 0 -0.00048413141623152993 0.001071839109251181 0 -0.00042590607075054039 0.0011284938805748298 0 -0.00031373793125023759 0.00094337222750722112 0 -0.00020127431516709995 0.0010211795798810866 0 -0.00033863970130243665 0.001084490523335933 0 -0.00025518942249306453 0.0011612834312993414 0 -0.00020127431516709995 0.0010211795798810866 0 -0.00033863970130243665 0.001084490523335933 0 -0.00013617479464085971 0.0011224700162536249 0 -0.00025518942249306453 0.0011612834312993414 0 -0.00020127431516709995 0.0010211795798810866 0 -0.00013617479464085971 0.0011224700162536249 0 -0.00020127431516709995 0.0010211795798810866 0 -4.8036616469332408e-05 0.00097921963486103541 0 -0.00013617479464085971 0.0011224700162536249 0 -3.5609594195716004e-05 0.001095222818486575 0 -4.8036616469332408e-05 0.00097921963486103541 0 -4.8036616469332408e-05 0.00097921963486103541 0 5.8525936578415632e-05 0.0010488802133934514 0 0.00010333471758779334 0.00088561443870067709 0 -3.5609594195716004e-05 0.001095222818486575 0 -4.8036616469332408e-05 0.00097921963486103541 0 5.8525936578415632e-05 0.0010488802133934514 0 0.00019747991280733479 8.7283957557064698e-05 0 -0.00014494405357508644 0.00070945158247649601 0 -4.8036616469332408e-05 0.00097921963486103541 0 0.00010333471758779334 0.00088561443870067709 0 -9.7842765865921953e-05 0.00076364693221082913 0 -0.00020127431516709995 0.0010211795798810866 0 -4.8036616469332408e-05 0.00097921963486103541 0 -9.7842765865921953e-05 0.00076364693221082913 0 0.00017646257626870973 0.00081064696562716031 0 0.00030891344472873476 0.00058015802476155619 0 0.00044720310730034425 0.00072573125240880888 0 0.00017646257626870973 0.00081064696562716031 0 -4.5644339519298376e-05 0.00048371774922106289 0 0.00030891344472873476 0.00058015802476155619 0 5.9872234629027862e-05 0.0009557592111898933 0 0.00017646257626870973 0.00081064696562716031 0 -6.9816674958271251e-05 0.00078389497473807122 0 0.00017646257626870973 0.00081064696562716031 0 -6.9816674958271251e-05 0.00078389497473807122 0 -4.5644339519298376e-05 0.00048371774922106289 0 -1.7530886185341837e-05 0.0010308999378188864 0 0.00019747991280733479 8.7283957557064698e-05 0 0.00019747991280733479 8.7283957557064698e-05 0 0.00079777725864340764 -6.6493559260081281e-05 0 0.00075907411996587371 -0.0014194529704448047 0 0.00074361911516858923 -0.0014918800835519068 0 0.00080385506848259603 -0.0014842970985551669 0 0.00070875441809475415 -0.0014521729888618978 0 0.00075907411996587371 -0.0014194529704448047 0 0.00074361911516858923 -0.0014918800835519068 0 0.00074361911516858923 -0.0014918800835519068 0 0.00073736058725771224 -0.0014728879336137889 0 0.00072897391340093578 -0.001525008260521029 0 0.00070875441809475415 -0.0014521729888618978 0 0.00074361911516858923 -0.0014918800835519068 0 0.00073736058725771224 -0.0014728879336137889 0 0.00019747991280733479 8.7283957557064698e-05 0 0.00067301384518077018 -0.00086124881088539128 0 0.00067301384518077018 -0.00086124881088539128 0 0.00059023882509328307 -0.0010642804033842018 0 0.00054006691534330892 -3.7361971717211862e-06 0 -1.5310509344542764e-05 -0.00038630585888255073 0 0.00058285084586514495 -0.0011351878182161549 0 0.00073736058725771224 -0.0014728879336137889 0 0.00072897391340093578 -0.001525008260521029 0 0.00058285084586514495 -0.0011351878182161549 0 -0.00046198714559591702 0.00025103131791840094 0 -0.0002533634297938246 0.00044197249232492839 0 -0.00033648740243339385 -3.08382824175316e-05 0 0.00048262635254461752 0.00064231427426123867 0 0.00054006691534330892 -3.7361971717211862e-06 0 -0.0002533634297938246 0.00044197249232492839 0 0.00054006691534330892 -3.7361971717211862e-06 0 -0.0002533634297938246 0.00044197249232492839 0 -1.5310509344542764e-05 -0.00038630585888255073 0 -0.0002533634297938246 0.00044197249232492839 0 -0.00033648740243339385 -3.08382824175316e-05 0 -1.5310509344542764e-05 -0.00038630585888255073 0 -0.00033648740243339385 -3.08382824175316e-05 0 -1.5310509344542764e-05 -0.00038630585888255073 0 -0.00047979168948410249 -0.00030515059030189365 0 -1.5310509344542764e-05 -0.00038630585888255073 0 -0.00021299187677669329 -0.0010054762377314486 0 -0.00047979168948410249 -0.00030515059030189365 0 -1.5310509344542764e-05 -0.00038630585888255073 0 -0.00021299187677669329 -0.0010054762377314486 0 0.00058285084586514495 -0.0011351878182161549 0 -0.00021299187677669329 -0.0010054762377314486 0 0.00058285084586514495 -0.0011351878182161549 0 0.00032372296743162155 -0.0015820462005182551 0 -0.00024949435233150062 -0.00092717538211695778 0 -0.0010818874615309319 -0.00056771244783777213 0 -0.00021299187677669329 -0.0010054762377314486 0 -0.0010189984146851943 -0.0014975503085421788 0 -0.0016239018277055066 -0.00066533536355751425 0 0.00072897391340093578 -0.001525008260521029 0 0.00058285084586514495 -0.0011351878182161549 0 0.00084296432699228197 -0.0016667546652472972 0 0.00058285084586514495 -0.0011351878182161549 0 0.00085414313764099043 -0.0018151193252810998 0 0.00032372296743162155 -0.0015820462005182551 0 0.00058285084586514495 -0.0011351878182161549 0 0.00085414313764099043 -0.0018151193252810998 0 0.00084296432699228197 -0.0016667546652472972 0 0.00085414313764099043 -0.0018151193252810998 0 0.00038936308335997381 -0.0022790587907120085 0 0.0011371669093642569 -0.0026676528731037733 0 0.00032372296743162155 -0.0015820462005182551 0 0.00038936308335997381 -0.0022790587907120085 0 -0.00026028846704710901 -0.0019759949091901828 0 0.00085414313764099043 -0.0018151193252810998 0 0.00032372296743162155 -0.0015820462005182551 0 0.00038936308335997381 -0.0022790587907120085 0 -0.00021299187677669329 -0.0010054762377314486 0 -0.00026028846704710901 -0.0019759949091901828 0 -0.0010189984146851943 -0.0014975503085421788 0 -0.00021299187677669329 -0.0010054762377314486 0 0.00032372296743162155 -0.0015820462005182551 0 -0.00026028846704710901 -0.0019759949091901828 0 0.00038936308335997381 -0.0022790587907120085 0 -0.00026028846704710901 -0.0019759949091901828 0 -0.00020234012140178922 -0.0031569826789957945 0 -0.00026028846704710901 -0.0019759949091901828 0 -0.0010368379206100195 -0.0023830796131253129 0 -0.0010189984146851943 -0.0014975503085421788 0 -0.0010368379206100195 -0.0023830796131253129 0 -0.0016323349978046859 -0.001878445727617966 0 -0.0018692755605779654 -0.0026280378385517495 0 -0.0010368379206100195 -0.0023830796131253129 0 -0.0010189984146851943 -0.0014975503085421788 0 -0.0016323349978046859 -0.001878445727617966 0 -0.0010189984146851943 -0.0014975503085421788 0 -0.0016789784051780181 -0.0011492800836152613 0 -0.0016323349978046859 -0.001878445727617966 0 -0.0010189984146851943 -0.0014975503085421788 0 -0.0016789784051780181 -0.0011492800836152613 0 -0.0016239018277055066 -0.00066533536355751425 0 -0.0021451882496139264 -0.00065476395589075017 0 -0.0016789784051780181 -0.0011492800836152613 0 -0.0016239018277055066 -0.00066533536355751425 0 -0.0021451882496139264 -0.00065476395589075017 0 -0.0016789784051780181 -0.0011492800836152613 0 -0.0021745161528268116 -0.0015816602521771662 0 -0.0021745161528268116 -0.0015816602521771662 0 -0.0016323349978046859 -0.001878445727617966 0 -0.002045722909921143 -0.0020700247327246012 0 -0.0016323349978046859 -0.001878445727617966 0 -0.002045722909921143 -0.0020700247327246012 0 -0.0018692755605779654 -0.0026280378385517495 0 -0.0016789784051780181 -0.0011492800836152613 0 -0.0021745161528268116 -0.0015816602521771662 0 -0.0016323349978046859 -0.001878445727617966 0 -0.0021745161528268116 -0.0015816602521771662 0 -0.002045722909921143 -0.0020700247327246012 0 -0.0025550110512817937 -0.0021984561064694805 0 -0.0021745161528268116 -0.0015816602521771662 0 -0.0025550110512817937 -0.0021984561064694805 0 -0.0026750585680772555 -0.0021476360608547358 0 -0.0020240832985961828 0.00057641970203785396 0 -0.0018001846406477417 0.00029025462715076187 0 -0.0019424014486829231 -1.9444472127057998e-05 0 -0.0021451882496139264 -0.00065476395589075017 0 -0.0021745161528268116 -0.0015816602521771662 0 -0.0026750585680772555 -0.0021476360608547358 0 -0.0021591938968843921 -0.00062485563100688195 0 -0.0023086877804522829 -0.00076373014860410483 0 -0.0020240832985961828 0.00057641970203785396 0 -0.0018001846406477417 0.00029025462715076187 0 -0.0016834240949187538 0.00049213164506630141 0 -0.0018001846406477417 0.00029025462715076187 0 -0.0016834240949187538 0.00049213164506630141 0 -0.0016363537825826633 0.00022299240272551359 0 -0.0013164595391475624 0.00026273918854909968 0 -0.0016363537825826633 0.00022299240272551359 0 -0.0021347942410125595 -0.00040411202782234619 0 -0.0016363537825826633 0.00022299240272551359 0 -0.0019424014486829231 -1.9444472127057998e-05 0 -0.0021347942410125595 -0.00040411202782234619 0 -0.0018001846406477417 0.00029025462715076187 0 -0.0016363537825826633 0.00022299240272551359 0 -0.0019424014486829231 -1.9444472127057998e-05 0 -0.0021451882496139264 -0.00065476395589075017 0 -0.0020240832985961828 0.00057641970203785396 0 -0.0019424014486829231 -1.9444472127057998e-05 0 -0.0021451882496139264 -0.00065476395589075017 0 -0.0019424014486829231 -1.9444472127057998e-05 0 -0.0021347942410125595 -0.00040411202782234619 0 -0.00092685820863802517 -4.6955016613457843e-05 0 -0.0010647204828752241 0.00021997014218163704 0 -0.00089039342020736712 5.8991211610971853e-05 0 -0.00092685820863802517 -4.6955016613457843e-05 0 -0.00089039342020736712 5.8991211610971853e-05 0 -0.00074831406608124478 -0.00013346231469940325 0 -0.0013164595391475624 0.00026273918854909968 0 -0.00092685820863802517 -4.6955016613457843e-05 0 -0.0010647204828752241 0.00021997014218163704 0 -0.0013466954358158103 0.00018391624871385011 0 -0.0015232729625786927 -0.00019948490610913685 0 -0.0010608150592068223 0.00040851283648246173 0 -0.0010647204828752241 0.00021997014218163704 0 -0.00098383565177967772 0.00024466503870149945 0 -0.0012052463967732001 0.00049999137562347458 0 -0.0010608150592068223 0.00040851283648246173 0 -0.0010647204828752241 0.00021997014218163704 0 -0.00094870195309238294 0.00033894761679114689 0 -0.0010608150592068223 0.00040851283648246173 0 -0.00098383565177967772 0.00024466503870149945 0 -0.00089039342020736712 5.8991211610971853e-05 0 -0.0007869715356825746 4.5011004457212072e-05 0 -0.00074831406608124478 -0.00013346231469940325 0 -0.00089039342020736712 5.8991211610971853e-05 0 -0.00087770355019819654 0.00018730190078208688 0 -0.0007869715356825746 4.5011004457212072e-05 0 -0.00098383565177967772 0.00024466503870149945 0 -0.00089039342020736712 5.8991211610971853e-05 0 -0.00087770355019819654 0.00018730190078208688 0 -0.0010647204828752241 0.00021997014218163704 0 -0.00098383565177967772 0.00024466503870149945 0 -0.00089039342020736712 5.8991211610971853e-05 0 -0.00094870195309238294 0.00033894761679114689 0 -0.00098383565177967772 0.00024466503870149945 0 -0.00087770355019819654 0.00018730190078208688 0 -0.00076790181609369249 0.00017591556287045487 0 -0.00087770355019819654 0.00018730190078208688 0 -0.0007869715356825746 4.5011004457212072e-05 0 -0.0006638076132310421 1.2829176134076847e-05 0 -0.00047979168948410249 -0.00030515059030189365 0 -0.00074831406608124478 -0.00013346231469940325 0 -0.00076790181609369249 0.00017591556287045487 0 -0.0007869715356825746 4.5011004457212072e-05 0 -0.0006638076132310421 1.2829176134076847e-05 0 -0.0007869715356825746 4.5011004457212072e-05 0 -0.0006638076132310421 1.2829176134076847e-05 0 -0.00074831406608124478 -0.00013346231469940325 0 -0.00053003571444840678 7.7877704612104598e-05 0 -0.0006638076132310421 1.2829176134076847e-05 0 -0.00047979168948410249 -0.00030515059030189365 0 -0.00047979168948410249 -0.00030515059030189365 0 -0.00059150494308621358 -0.00041851438412125849 0 -0.00074831406608124478 -0.00013346231469940325 0 -0.00021299187677669329 -0.0010054762377314486 0 -0.00047979168948410249 -0.00030515059030189365 0 -0.00059150494308621358 -0.00041851438412125849 0 -0.00092685820863802517 -4.6955016613457843e-05 0 -0.00059150494308621358 -0.00041851438412125849 0 -0.00074831406608124478 -0.00013346231469940325 0 -0.0021451882496139264 -0.00065476395589075017 0 -0.0021347942410125595 -0.00040411202782234619 0 -0.0016239018277055066 -0.00066533536355751425 0 -0.0015232729625786927 -0.00019948490610913685 0 -0.0010818874615309319 -0.00056771244783777213 0 0.0019873742951808057 -0.0029583702675191371 0 0.0022408760168274276 -0.0033119081170655935 0 0.0019815623697533933 -0.0034039466651401571 0 0.0019873742951808057 -0.0029583702675191371 0 0.0022408760168274276 -0.0033119081170655935 0 0.0022225754047662215 -0.0029292935444135311 0 0.0019873742951808057 -0.0029583702675191371 0 0.0016474573389607626 -0.0027127610953810769 0 0.0019815623697533933 -0.0034039466651401571 0 0.0016474573389607626 -0.0027127610953810769 0 0.0019212404670257172 -0.0025456615633944182 0 0.0017143968773707316 -0.0023057772273080749 0 0.0019873742951808057 -0.0029583702675191371 0 0.0016474573389607626 -0.0027127610953810769 0 0.0019212404670257172 -0.0025456615633944182 0 0.0019212404670257172 -0.0025456615633944182 0 0.0022225754047662215 -0.0029292935444135311 0 0.0021352026200941263 -0.0024618013006742429 0 0.0019873742951808057 -0.0029583702675191371 0 0.0019212404670257172 -0.0025456615633944182 0 0.0022225754047662215 -0.0029292935444135311 0 0.0022225754047662215 -0.0029292935444135311 0 0.002563878912696241 -0.0029341802446281404 0 0.0024760413359746071 -0.0034278260791755317 0 0.0022225754047662215 -0.0029292935444135311 0 0.002563878912696241 -0.0029341802446281404 0 0.0021352026200941263 -0.0024618013006742429 0 0.0021129367695610665 -0.0076451970849417189 0 0.00072547399065663444 -0.0053846002610711896 0 0.0021129367695610665 -0.0076451970849417189 0 0.0026624962635757726 -0.0090403938842459914 0 0.0015848324451176786 -0.010708192976739039 0 0.0017559472674342337 -0.010658928174721412 0 0.0018601131057133359 -0.01070726363421047 0 0.0021129367695610665 -0.0076451970849417189 0 0.0030536965578902039 -0.0047761081215063053 0 0.0015848324451176786 -0.010708192976739039 0 0.0017559472674342337 -0.010658928174721412 0 0.0016711619165998655 -0.010556005326481349 0 0.0024760413359746071 -0.0034278260791755317 0 0.0025763069802441419 -0.0037522712075368672 0 0.0027364664011724623 -0.0037330176808696011 0 0.002563878912696241 -0.0029341802446281404 0 0.0024760413359746071 -0.0034278260791755317 0 0.0027364664011724623 -0.0037330176808696011 0 0.0044933680279769872 -0.0076611428570356084 0 0.0030006125512655911 -0.0069308734067400762 0 0.0033842114103359577 -0.006451958209845279 0 0.0022408760168274276 -0.0033119081170655935 0 0.0022225754047662215 -0.0029292935444135311 0 0.0024760413359746071 -0.0034278260791755317 0 0.0022408760168274276 -0.0033119081170655935 0 0.0024760413359746071 -0.0034278260791755317 0 0.0024757357577701042 -0.0037605828839263776 0 0.0024760413359746071 -0.0034278260791755317 0 0.0024757357577701042 -0.0037605828839263776 0 0.0025763069802441419 -0.0037522712075368672 0 0.0026348283755728359 -0.0040500628746968957 0 0.0025763069802441419 -0.0037522712075368672 0 0.0027364664011724623 -0.0037330176808696011 0 0.0024757357577701042 -0.0037605828839263776 0 0.0026348283755728359 -0.0040500628746968957 0 0.0025763069802441419 -0.0037522712075368672 0 0.0024757357577701042 -0.0037605828839263776 0 0.0026348283755728359 -0.0040500628746968957 0 0.0025925029569255319 -0.0038952090773563702 0 0.0024757357577701042 -0.0037605828839263776 0 0.0025925029569255319 -0.0038952090773563702 0 0.0024515036161731128 -0.0039703569128896445 0 0.0024757357577701042 -0.0037605828839263776 0 0.0021665035623824333 -0.0038831901806405619 0 0.0024515036161731128 -0.0039703569128896445 0 0.0024757357577701042 -0.0037605828839263776 0 0.0021665035623824333 -0.0038831901806405619 0 0.0019815623697533933 -0.0034039466651401571 0 0.0022408760168274276 -0.0033119081170655935 0 0.0024757357577701042 -0.0037605828839263776 0 0.0019815623697533933 -0.0034039466651401571 0 0.0019815623697533933 -0.0034039466651401571 0 0.0017155797980005173 -0.0037251837023386195 0 0.001433463546723824 -0.003313458100564293 0 0.0016474573389607626 -0.0027127610953810769 0 0.0019815623697533933 -0.0034039466651401571 0 0.001433463546723824 -0.003313458100564293 0 0.0021665035623824333 -0.0038831901806405619 0 0.0019815623697533933 -0.0034039466651401571 0 0.0017155797980005173 -0.0037251837023386195 0 0.0017155797980005173 -0.0037251837023386195 0 0.001433463546723824 -0.003313458100564293 0 0.0011971500856044984 -0.0038911583579401589 0 0.001433463546723824 -0.003313458100564293 0 0.00073323198470712572 -0.0033494177757157637 0 0.0011971500856044984 -0.0038911583579401589 0 0.001433463546723824 -0.003313458100564293 0 0.00073323198470712572 -0.0033494177757157637 0 0.0011057679491734015 -0.0023379017157306205 0 0.00073323198470712572 -0.0033494177757157637 0 0.00060370292599216404 -0.0039208105743927602 0 0.0011971500856044984 -0.0038911583579401589 0 0.00085414313764099043 -0.0018151193252810998 0 0.0011650174150823886 -0.0020462915456788224 0 0.0011371669093642569 -0.0026676528731037733 0 0.00096583015288678395 -0.0026990232346745524 0 0.00084937423501935539 -0.0033066565197945093 0 0.00085414313764099043 -0.0018151193252810998 0 0.0011650174150823886 -0.0020462915456788224 0 0.0010300126634440177 -0.0019931649040515298 0 0.00085414313764099043 -0.0018151193252810998 0 0.0010300126634440177 -0.0019931649040515298 0 0.00084296432699228197 -0.0016667546652472972 0 0.0011650174150823886 -0.0020462915456788224 0 0.0010300126634440177 -0.0019931649040515298 0 0.0011057679491734015 -0.0023379017157306205 0 0.00096583015288678395 -0.0026990232346745524 0 0.001109619619185479 -0.0023396739915968615 0 0.0010300126634440177 -0.0019931649040515298 0 0.0010150538782613225 -0.0019587116646304515 0 0.0011057679491734015 -0.0023379017157306205 0 0.0010300126634440177 -0.0019931649040515298 0 0.0010150538782613225 -0.0019587116646304515 0 0.00084296432699228197 -0.0016667546652472972 0 0.0016474573389607626 -0.0027127610953810769 0 0.001433463546723824 -0.003313458100564293 0 0.0011057679491734015 -0.0023379017157306205 0 0.0010150538782613225 -0.0019587116646304515 0 0.0011057679491734015 -0.0023379017157306205 0 0.0012954808796200375 -0.0020544157949156428 0 0.0016474573389607626 -0.0027127610953810769 0 0.0011057679491734015 -0.0023379017157306205 0 0.0014537752048025706 -0.0023421215421996623 0 0.0016474573389607626 -0.0027127610953810769 0 0.0014537752048025706 -0.0023421215421996623 0 0.0017143968773707316 -0.0023057772273080749 0 0.0011057679491734015 -0.0023379017157306205 0 0.0014537752048025706 -0.0023421215421996623 0 0.0012954808796200375 -0.0020544157949156428 0 0.0014537752048025706 -0.0023421215421996623 0 0.0012954808796200375 -0.0020544157949156428 0 0.0017143968773707316 -0.0023057772273080749 0 0.0014381490819148953 -0.0020418843973534907 0 0.0017263932483193637 -0.0021462656702550677 0 0.0017143968773707316 -0.0023057772273080749 0 0.0012954808796200375 -0.0020544157949156428 0 0.0012984015662473665 -0.0016129997301448373 0 0.0017143968773707316 -0.0023057772273080749 0 0.00091479648186167854 -0.0033985686474974882 0 0.0017231577400519005 -0.0017395230049058051 0 0.0012954808796200375 -0.0020544157949156428 0 0.0011025233481171 -0.0017456401510309745 0 0.0012984015662473665 -0.0016129997301448373 0 0.0010150538782613225 -0.0019587116646304515 0 0.0012954808796200375 -0.0020544157949156428 0 0.0011025233481171 -0.0017456401510309745 0 0.0011025233481171 -0.0017456401510309745 0 0.0011289642444941067 -0.0015658800521861516 0 0.0012984015662473665 -0.0016129997301448373 0 0.0011025233481171 -0.0017456401510309745 0 0.0011289642444941067 -0.0015658800521861516 0 0.00096597799970484389 -0.0015791530104796901 0 0.0011289642444941067 -0.0015658800521861516 0 0.0010327868757333341 -0.0015300442432360057 0 0.00096597799970484389 -0.0015791530104796901 0 0.0008168983899271402 -0.0022470720354001361 0 0.00091479648186167854 -0.0033985686474974882 0 0.0011289642444941067 -0.0015658800521861516 0 0.0012349476342408225 -0.0016131589097387186 0 0.0010584832315646978 -0.0014647902219800143 0 0.00091479648186167854 -0.0033985686474974882 0 0.00016906480664793155 -0.0052140290783070529 0 0.00091479648186167854 -0.0033985686474974882 0 0.00064961553583925457 -0.0056085076882286776 0 -0.00061070932789741318 -0.0085312614711067578 0 -0.00074780489497128406 -0.0085536476732922112 0 -0.00073016024966926442 -0.0084232210228870463 0 -0.00061070932789741318 -0.0085312614711067578 0 -0.00074780489497128406 -0.0085536476732922112 0 -0.00050620271829819249 -0.0086520530236910628 0 0.00072897391340093578 -0.001525008260521029 0 0.00088701941333718746 -0.0016887975082815522 0 0.00083089233917334703 -0.0015545172041830859 0 0.00072897391340093578 -0.001525008260521029 0 0.00084296432699228197 -0.0016667546652472972 0 0.00088701941333718746 -0.0016887975082815522 0 0.0010150538782613225 -0.0019587116646304515 0 0.0011025233481171 -0.0017456401510309745 0 0.00088701941333718746 -0.0016887975082815522 0 0.0010150538782613225 -0.0019587116646304515 0 0.00084296432699228197 -0.0016667546652472972 0 0.00088701941333718746 -0.0016887975082815522 0 0.0011025233481171 -0.0017456401510309745 0 0.00088701941333718746 -0.0016887975082815522 0 0.00096597799970484389 -0.0015791530104796901 0 0.0010327868757333341 -0.0015300442432360057 0 0.00096597799970484389 -0.0015791530104796901 0 0.00089944614148957237 -0.0014676702616882873 0 0.00096597799970484389 -0.0015791530104796901 0 0.00083089233917334703 -0.0015545172041830859 0 0.00089944614148957237 -0.0014676702616882873 0 0.00088701941333718746 -0.0016887975082815522 0 0.00096597799970484389 -0.0015791530104796901 0 0.00083089233917334703 -0.0015545172041830859 0 0.00074361911516858923 -0.0014918800835519068 0 0.00072897391340093578 -0.001525008260521029 0 0.00083089233917334703 -0.0015545172041830859 0 0.00074361911516858923 -0.0014918800835519068 0 0.00083089233917334703 -0.0015545172041830859 0 0.00080385506848259603 -0.0014842970985551669 0 0.00083089233917334703 -0.0015545172041830859 0 0.00080385506848259603 -0.0014842970985551669 0 0.00089944614148957237 -0.0014676702616882873 0 0.00075907411996587371 -0.0014194529704448047 0 0.00080385506848259603 -0.0014842970985551669 0 0.00089944614148957237 -0.0014676702616882873 0 0.00075907411996587371 -0.0014194529704448047 0 0.00089944614148957237 -0.0014676702616882873 0 0.00092026204382749115 -0.0013618718285668275 0 0.00089944614148957237 -0.0014676702616882873 0 0.00092026204382749115 -0.0013618718285668275 0 0.0010584832315646978 -0.0014647902219800143 0 0.0010327868757333341 -0.0015300442432360057 0 0.00089944614148957237 -0.0014676702616882873 0 0.0010584832315646978 -0.0014647902219800143 0 2.9968520434099518e-05 -0.0038120850551728301 0 0.00016906480664793155 -0.0052140290783070529 0 -0.0011788284185227473 -0.008227955569007463 0 -0.00092937073570655492 -0.0084458230988971646 0 -0.0010450048451193206 -0.0082053427212946707 0 -0.0014290579932444679 -0.008292147000402296 0 -0.001978620073218891 -0.0076349026330344762 0 -0.0013784087635259762 -0.0079182762198054726 0 2.9968520434099518e-05 -0.0038120850551728301 0 -0.0018335802307850166 -0.0071012823900938873 0 -0.0014290579932444679 -0.008292147000402296 0 -0.0010450048451193206 -0.0082053427212946707 0 -0.0013784087635259762 -0.0079182762198054726 0 -0.0010450048451193206 -0.0082053427212946707 0 -0.0013784087635259762 -0.0079182762198054726 0 -0.0010701337301072045 -0.0079049693420958078 0 0.00017646257626870973 0.00081064696562716031 0 0.00044720310730034425 0.00072573125240880888 0 0.00041330136545710591 0.00094875483396424294 0 0.00079777725864340764 -6.6493559260081281e-05 0 2.9968520434099518e-05 -0.0038120850551728301 0 0.00030891344472873476 0.00058015802476155619 0 0.00065633471114315452 0.00064070767340740787 0 0.00044720310730034425 0.00072573125240880888 0 0.00065633471114315452 0.00064070767340740787 0 0.00044720310730034425 0.00072573125240880888 0 0.00041330136545710591 0.00094875483396424294 0 2.9968520434099518e-05 -0.0038120850551728301 0 -0.00088145768528122889 -0.0035265017797318486 0 -0.00073016024966926442 -0.0084232210228870463 0 -0.00075553420969856795 -0.0082922848416414081 0 -0.00054760433677463643 -0.0084179192726991908 0 -0.00072563691160024992 -0.0083775018032765242 0 -0.00014430337962167844 -0.0089943940030106258 0 -0.00061070932789741318 -0.0085312614711067578 0 -0.00073016024966926442 -0.0084232210228870463 0 -0.00054760433677463643 -0.0084179192726991908 0 -0.00092937073570655492 -0.0084458230988971646 0 -0.00086042647408556255 -0.0083439996280164404 0 -0.0010450048451193206 -0.0082053427212946707 0 -0.00074780489497128406 -0.0085536476732922112 0 -0.00073016024966926442 -0.0084232210228870463 0 -0.00092937073570655492 -0.0084458230988971646 0 0.0011289642444941067 -0.0015658800521861516 0 0.0010327868757333341 -0.0015300442432360057 0 0.0010584832315646978 -0.0014647902219800143 0 -0.00073016024966926442 -0.0084232210228870463 0 -0.00092937073570655492 -0.0084458230988971646 0 -0.00086042647408556255 -0.0083439996280164404 0 -0.00073016024966926442 -0.0084232210228870463 0 -0.00086042647408556255 -0.0083439996280164404 0 -0.00075553420969856795 -0.0082922848416414081 0 -0.00086042647408556255 -0.0083439996280164404 0 -0.0010450048451193206 -0.0082053427212946707 0 -0.00075553420969856795 -0.0082922848416414081 0 -0.0010450048451193206 -0.0082053427212946707 0 -0.00075553420969856795 -0.0082922848416414081 0 -0.0010701337301072045 -0.0079049693420958078 0 -0.00075553420969856795 -0.0082922848416414081 0 0.00015716872528575592 -0.0082477842732297524 0 -0.00044205324946896998 -0.0078319220484799491 0 -0.00075553420969856795 -0.0082922848416414081 0 0.00015716872528575592 -0.0082477842732297524 0 0.00022031750464689611 -0.0097331063751262981 0 0.00015716872528575592 -0.0082477842732297524 0 0.00064573042324056007 -0.0091802335481177173 0 0.00022031750464689611 -0.0097331063751262981 0 6.0143702460615938e-05 -0.0088622297968675677 0 0.0010489097457517841 -0.0096374628104473475 0 -5.1766087474569816e-05 -0.0094834048776971797 0 0.00031684571255492398 -0.0094745974207122666 0 0.00091085169374511296 -0.0099979047687616535 0 0.00015716872528575592 -0.0082477842732297524 0 0.00064573042324056007 -0.0091802335481177173 0 0.0012610096806086237 -0.0092805689021062 0 -0.00018393456951032 -0.0075818802458854735 0 5.7424442144116517e-05 -0.0075889098689101275 0 -5.5169715915121422e-05 -0.0075018987089798322 0 7.6090680231787468e-05 -0.0085533760193843584 0 0.00048337636485894323 -0.0085631991368608322 0 0.00031684571255492398 -0.0094745974207122666 0 0.00091085169374511296 -0.0099979047687616535 0 0.0011132365535139847 -0.0097511096025062159 0 0.00097984470073046986 -0.009861079709333297 0 0.00022031750464689611 -0.0097331063751262981 0 0.00092917580235185983 -0.010055284310689156 0 0.0012610096806086237 -0.0092805689021062 0 0.00090229707359334727 -0.0095014040627660421 0 0.0012149677002922827 -0.0097257249876411839 0 0.00064573042324056007 -0.0091802335481177173 0 0.0012610096806086237 -0.0092805689021062 0 0.00090229707359334727 -0.0095014040627660421 0 0.00097984470073046986 -0.009861079709333297 0 0.0012149677002922827 -0.0097257249876411839 0 0.0013055278187499646 -0.010160570258022297 0 0.00090229707359334727 -0.0095014040627660421 0 0.00097984470073046986 -0.009861079709333297 0 0.0012149677002922827 -0.0097257249876411839 0 0.00090229707359334727 -0.0095014040627660421 0 0.00097984470073046986 -0.009861079709333297 0 0.00022031750464689611 -0.0097331063751262981 0 0.00064573042324056007 -0.0091802335481177173 0 0.00090229707359334727 -0.0095014040627660421 0 0.00022031750464689611 -0.0097331063751262981 0 -0.00054760433677463643 -0.0084179192726991908 0 -0.00022203981006837283 -0.0086208415520999688 0 -0.00050620271829819249 -0.0086520530236910628 0 -0.00061070932789741318 -0.0085312614711067578 0 -0.00054760433677463643 -0.0084179192726991908 0 -0.00050620271829819249 -0.0086520530236910628 0 -0.00014430337962167844 -0.0089943940030106258 0 0.00029887392736247691 -0.00989498027925278 0 0.00022031750464689611 -0.0097331063751262981 0 0.00092917580235185983 -0.010055284310689156 0 0.0011027947496086623 -0.010472589347729893 0 0.00097984470073046986 -0.009861079709333297 0 0.00092917580235185983 -0.010055284310689156 0 0.0013055278187499646 -0.010160570258022297 0 0.00092917580235185983 -0.010055284310689156 0 0.0011027947496086623 -0.010472589347729893 0 0.0013055278187499646 -0.010160570258022297 0 -0.00022203981006837283 -0.0086208415520999688 0 -0.00019832848366030533 -0.0087783235485333812 0 -0.00050620271829819249 -0.0086520530236910628 0 0.0019212404670257172 -0.0025456615633944182 0 0.0017263932483193637 -0.0021462656702550677 0 0.0017143968773707316 -0.0023057772273080749 0 0.00072547399065663444 -0.0053846002610711896 0 0.00064961553583925457 -0.0056085076882286776 0 0.0019212404670257172 -0.0025456615633944182 0 0.0021352026200941263 -0.0024618013006742429 0 0.0017263932483193637 -0.0021462656702550677 0 0.0016711619165998655 -0.010556005326481349 0 0.0015381967630588881 -0.010367722463149313 0 0.0017374631673627442 -0.010411858764117479 0 0.0016711619165998655 -0.010556005326481349 0 0.0017374631673627442 -0.010411858764117479 0 0.0018177253771651854 -0.01056029192974879 0 0.0017559472674342337 -0.010658928174721412 0 0.0016711619165998655 -0.010556005326481349 0 0.0018177253771651854 -0.01056029192974879 0 0.0015848324451176786 -0.010708192976739039 0 0.0016711619165998655 -0.010556005326481349 0 0.0014745657816721944 -0.010508224050811619 0 0.00017880202179569696 -0.0088965745763401032 0 -0.00022203981006837283 -0.0086208415520999688 0 -0.00019832848366030533 -0.0087783235485333812 0 0.0015848324451176786 -0.010708192976739039 0 0.0011027947496086623 -0.010472589347729893 0 0.0014745657816721944 -0.010508224050811619 0 0.0021129367695610665 -0.0076451970849417189 0 0.00029887392736247691 -0.00989498027925278 0 0.0011027947496086623 -0.010472589347729893 0 0.0014745657816721944 -0.010508224050811619 0 0.0013692302143247922 -0.010388156124334299 0 0.0014745657816721944 -0.010508224050811619 0 0.0015381967630588881 -0.010367722463149313 0 0.0013692302143247922 -0.010388156124334299 0 0.0016711619165998655 -0.010556005326481349 0 0.0014745657816721944 -0.010508224050811619 0 0.0015381967630588881 -0.010367722463149313 0 0.0015381967630588881 -0.010367722463149313 0 0.0013055278187499646 -0.010160570258022297 0 0.0014807165649002771 -0.010174077854751393 0 0.0015381967630588881 -0.010367722463149313 0 0.0014807165649002771 -0.010174077854751393 0 0.0016357243958739012 -0.010247281896254514 0 0.0011027947496086623 -0.010472589347729893 0 0.0013692302143247922 -0.010388156124334299 0 0.0013055278187499646 -0.010160570258022297 0 0.0015381967630588881 -0.010367722463149313 0 0.0013692302143247922 -0.010388156124334299 0 0.0013055278187499646 -0.010160570258022297 0 0.0013055278187499646 -0.010160570258022297 0 0.0014807165649002771 -0.010174077854751393 0 0.0014338486608060546 -0.0099082865986173871 0 0.0014807165649002771 -0.010174077854751393 0 0.0016357243958739012 -0.010247281896254514 0 0.0014338486608060546 -0.0099082865986173871 0 0.0016357243958739012 -0.010247281896254514 0 0.0017846871804227289 -0.010229075596608168 0 0.0014338486608060546 -0.0099082865986173871 0 0.0015381967630588881 -0.010367722463149313 0 0.0016357243958739012 -0.010247281896254514 0 0.0017374631673627442 -0.010411858764117479 0 0.0016357243958739012 -0.010247281896254514 0 0.0017374631673627442 -0.010411858764117479 0 0.0017846871804227289 -0.010229075596608168 0 0.0017277638619543581 -0.010487926781280505 0 0.0016440935405089149 -0.010276729403837946 0 0.0017110330573382709 -0.010363198973202516 0 0.0017277638619543581 -0.010487926781280505 0 0.0016440935405089149 -0.010276729403837946 0 0.0014338486608060546 -0.0099082865986173871 0 0.0017518281694299377 -0.010328977912627057 0 0.0014629154223761089 -0.0099999967521332816 0 0.0014650677891690728 -0.01007481675360395 0 0.0013517512309527339 -0.0097986321267914851 0 0.0015147074745201516 -0.010162419642307401 0 0.001645517723304275 -0.010259813823644954 0 0.0016571623495511521 -0.010215207355843648 0 0.0016440935405089149 -0.010276729403837946 0 0.0015147074745201516 -0.010162419642307401 0 0.001645517723304275 -0.010259813823644954 0 0.0016440935405089149 -0.010276729403837946 0 0.001645517723304275 -0.010259813823644954 0 0.0017110330573382709 -0.010363198973202516 0 0.001645517723304275 -0.010259813823644954 0 0.0016571623495511521 -0.010215207355843648 0 0.0017110330573382709 -0.010363198973202516 0 0.0010489097457517841 -0.0096374628104473475 0 0.0016063670818136429 -0.010198586969144302 0 0.0012610096806086237 -0.0092805689021062 0 0.0016440935405089149 -0.010276729403837946 0 0.0014338486608060546 -0.0099082865986173871 0 0.00091085169374511296 -0.0099979047687616535 0 0.0016440935405089149 -0.010276729403837946 0 0.0015147074745201516 -0.010162419642307401 0 0.0012149677002922827 -0.0097257249876411839 0 0.0013055278187499646 -0.010160570258022297 0 0.0014338486608060546 -0.0099082865986173871 0 0.0012610096806086237 -0.0092805689021062 0 0.0012149677002922827 -0.0097257249876411839 0 0.0014338486608060546 -0.0099082865986173871 0 0.00048337636485894323 -0.0085631991368608322 0 0.0013517512309527339 -0.0097986321267914851 0 0.00016122052260581342 -0.0075725623106197952 0 5.7424442144116517e-05 -0.0075889098689101275 0 0.00031300471100885262 -0.0076737059631368726 0 0.00091085169374511296 -0.0099979047687616535 0 0.0015147074745201516 -0.010162419642307401 0 0.0011132365535139847 -0.0097511096025062159 0 0.00016122052260581342 -0.0075725623106197952 0 5.7424442144116517e-05 -0.0075889098689101275 0 0.00014264908176117393 -0.0075009178526626603 0 0.0015147074745201516 -0.010162419642307401 0 0.0011132365535139847 -0.0097511096025062159 0 0.0017300404857582808 -0.0099291887005384279 0 0.00016122052260581342 -0.0075725623106197952 0 0.00031300471100885262 -0.0076737059631368726 0 0.00040380231608177602 -0.0075899728600950477 0 -4.433977782928582e-05 -0.0073980930932261895 0 0.00095466582859083954 -0.0093065676406774607 0 0.00016122052260581342 -0.0075725623106197952 0 0.0002264964482207351 -0.0074802214883168284 0 0.00026380730859307147 -0.0075201756346584912 0 0.0013517512309527339 -0.0097986321267914851 0 0.00095466582859083954 -0.0093065676406774607 0 0.00016122052260581342 -0.0075725623106197952 0 0.0002264964482207351 -0.0074802214883168284 0 0.00018849362007757116 -0.0074594881967317899 0 0.0002264964482207351 -0.0074802214883168284 0 0.00018849362007757116 -0.0074594881967317899 0 0.00020407688194904017 -0.0073977673916884009 0 0.00020407688194904017 -0.0073977673916884009 0 0.00014979067937847903 -0.0073588042952527468 0 0.00014711780692938935 -0.0074276972892659268 0 0.00018849362007757116 -0.0074594881967317899 0 0.00020407688194904017 -0.0073977673916884009 0 0.00014711780692938935 -0.0074276972892659268 0 0.0002264964482207351 -0.0074802214883168284 0 0.00020407688194904017 -0.0073977673916884009 0 0.00025103405115158343 -0.0074384524875610375 0 0.00020407688194904017 -0.0073977673916884009 0 0.00025103405115158343 -0.0074384524875610375 0 0.00023626830494210456 -0.0073610561155571259 0 0.00020407688194904017 -0.0073977673916884009 0 0.00020781108451756037 -0.0073312150240382326 0 0.00023626830494210456 -0.0073610561155571259 0 0.00020407688194904017 -0.0073977673916884009 0 0.00017165730145194807 -0.0073305087457908192 0 0.00014979067937847903 -0.0073588042952527468 0 0.00020407688194904017 -0.0073977673916884009 0 0.00017165730145194807 -0.0073305087457908192 0 0.00020781108451756037 -0.0073312150240382326 0 0.00017165730145194807 -0.0073305087457908192 0 0.00016197604708390026 -0.0072919772869695634 0 0.00020781108451756037 -0.0073312150240382326 0 0.00016197604708390026 -0.0072919772869695634 0 0.00020781108451756037 -0.0073312150240382326 0 0.00018066749567233783 -0.0072595814629081035 0 0.00020781108451756037 -0.0073312150240382326 0 0.00022730810469190102 -0.0073064212175309139 0 0.00023626830494210456 -0.0073610561155571259 0 0.00020781108451756037 -0.0073312150240382326 0 0.00022730810469190102 -0.0073064212175309139 0 0.00018066749567233783 -0.0072595814629081035 0 9.7763436825872328e-05 -0.0072934929442304919 0 8.91501509601052e-05 -0.0072919457358817429 0 0.00014979067937847903 -0.0073588042952527468 0 0.00034509840743152315 -0.0070457715354423781 0 0.00014733628517155347 -0.007313246834327305 0 0.00032452106982913057 -0.0070497558318876538 0 0.00034509840743152315 -0.0070457715354423781 0 9.7763436825872328e-05 -0.0072934929442304919 0 9.1539740819723524e-05 -0.0072915927142757657 0 0.00010429732776361023 -0.0072784502194584563 0 9.7763436825872328e-05 -0.0072934929442304919 0 0.00011618878404052939 -0.0072838533905751389 0 0.00012969272744412254 -0.007303297112402421 0 9.7763436825872328e-05 -0.0072934929442304919 0 0.00011618878404052939 -0.0072838533905751389 0 0.00010429732776361023 -0.0072784502194584563 0 0.00011618878404052939 -0.0072838533905751389 0 0.00012969272744412254 -0.007303297112402421 0 0.0001332982378905781 -0.0072747139177987974 0 9.7763436825872328e-05 -0.0072934929442304919 0 0.00012969272744412254 -0.007303297112402421 0 0.00014979067937847903 -0.0073588042952527468 0 0.00017165730145194807 -0.0073305087457908192 0 0.00016197604708390026 -0.0072919772869695634 0 0.00012969272744412254 -0.007303297112402421 0 0.00016197604708390026 -0.0072919772869695634 0 0.00012969272744412254 -0.007303297112402421 0 0.0001332982378905781 -0.0072747139177987974 0 0.00017165730145194807 -0.0073305087457908192 0 0.00012969272744412254 -0.007303297112402421 0 0.00014979067937847903 -0.0073588042952527468 0 7.1132661782897453e-05 -0.0072031696136122467 0 7.4738683746065952e-05 -0.0073173902612677791 0 4.7387916095664336e-06 -0.007313482498346101 0 7.1132661782897453e-05 -0.0072031696136122467 0 0.00014979067937847903 -0.0073588042952527468 0 7.4738683746065952e-05 -0.0073173902612677791 0 0.00014979067937847903 -0.0073588042952527468 0 7.4738683746065952e-05 -0.0073173902612677791 0 7.1085094274297395e-05 -0.0073982116202787112 0 7.4738683746065952e-05 -0.0073173902612677791 0 7.1085094274297395e-05 -0.0073982116202787112 0 4.7387916095664336e-06 -0.007313482498346101 0 7.1085094274297395e-05 -0.0073982116202787112 0 0.00014711780692938935 -0.0074276972892659268 0 8.7269193451463176e-05 -0.0074837939352804502 0 0.00014979067937847903 -0.0073588042952527468 0 7.1085094274297395e-05 -0.0073982116202787112 0 0.00014711780692938935 -0.0074276972892659268 0 0.00016122052260581342 -0.0075725623106197952 0 0.00018849362007757116 -0.0074594881967317899 0 0.00014264908176117393 -0.0075009178526626603 0 0.00018849362007757116 -0.0074594881967317899 0 0.00014711780692938935 -0.0074276972892659268 0 0.00014264908176117393 -0.0075009178526626603 0 0.00014711780692938935 -0.0074276972892659268 0 0.00014264908176117393 -0.0075009178526626603 0 8.7269193451463176e-05 -0.0074837939352804502 0 5.7424442144116517e-05 -0.0075889098689101275 0 8.7269193451463176e-05 -0.0074837939352804502 0 1.9886551951925319e-05 -0.0074798836359396773 0 5.7424442144116517e-05 -0.0075889098689101275 0 0.00014264908176117393 -0.0075009178526626603 0 8.7269193451463176e-05 -0.0074837939352804502 0 7.1085094274297395e-05 -0.0073982116202787112 0 8.7269193451463176e-05 -0.0074837939352804502 0 1.9886551951925319e-05 -0.0074798836359396773 0 5.7424442144116517e-05 -0.0075889098689101275 0 1.9886551951925319e-05 -0.0074798836359396773 0 -5.5169715915121422e-05 -0.0075018987089798322 0 1.9886551951925319e-05 -0.0074798836359396773 0 -5.5169715915121422e-05 -0.0075018987089798322 0 -2.7999562730566366e-05 -0.0074104206089946967 0 -0.00018393456951032 -0.0075818802458854735 0 -5.5169715915121422e-05 -0.0075018987089798322 0 -0.00015801959287232433 -0.0074247641670030897 0 -5.5169715915121422e-05 -0.0075018987089798322 0 -2.7999562730566366e-05 -0.0074104206089946967 0 -0.00015801959287232433 -0.0074247641670030897 0 -2.7999562730566366e-05 -0.0074104206089946967 0 -0.00015801959287232433 -0.0074247641670030897 0 -9.0028078228429525e-05 -0.0073357570538363521 0 7.1085094274297395e-05 -0.0073982116202787112 0 1.9886551951925319e-05 -0.0074798836359396773 0 -2.7999562730566366e-05 -0.0074104206089946967 0 7.1085094274297395e-05 -0.0073982116202787112 0 -2.7999562730566366e-05 -0.0074104206089946967 0 4.7387916095664336e-06 -0.007313482498346101 0 -0.00018393456951032 -0.0075818802458854735 0 -0.00033998562337989697 -0.0074537085575661745 0 -0.0005829596417538717 -0.0075750307189652068 0 -5.1766087474569816e-05 -0.0094834048776971797 0 0.00031684571255492398 -0.0094745974207122666 0 -0.00053276964643046525 -0.0092188756201955699 0 7.6090680231787468e-05 -0.0085533760193843584 0 -0.00053243220417696852 -0.008252227849265048 0 -0.00018393456951032 -0.0075818802458854735 0 -0.00015801959287232433 -0.0074247641670030897 0 -0.00033998562337989697 -0.0074537085575661745 0 -0.00033998562337989697 -0.0074537085575661745 0 -0.00031562431190475986 -0.0073112813187597133 0 -0.00050927746557940959 -0.0073862555147719382 0 -0.00015801959287232433 -0.0074247641670030897 0 -0.00033998562337989697 -0.0074537085575661745 0 -0.00031562431190475986 -0.0073112813187597133 0 -0.00015801959287232433 -0.0074247641670030897 0 -0.00031562431190475986 -0.0073112813187597133 0 -0.00018515173637401441 -0.007303925940349178 0 -0.00018515173637401441 -0.007303925940349178 0 -0.00011022002332774616 -0.0072195901923419901 0 -0.00027347523785505967 -0.0070453168734747763 0 -0.00031562431190475986 -0.0073112813187597133 0 -0.00018515173637401441 -0.007303925940349178 0 -0.00027347523785505967 -0.0070453168734747763 0 7.1132661782897453e-05 -0.0072031696136122467 0 -0.00011022002332774616 -0.0072195901923419901 0 -0.00027347523785505967 -0.0070453168734747763 0 -2.7999562730566366e-05 -0.0074104206089946967 0 4.7387916095664336e-06 -0.007313482498346101 0 -9.0028078228429525e-05 -0.0073357570538363521 0 4.7387916095664336e-06 -0.007313482498346101 0 -9.0028078228429525e-05 -0.0073357570538363521 0 -0.00011022002332774616 -0.0072195901923419901 0 -0.00015801959287232433 -0.0074247641670030897 0 -0.00018515173637401441 -0.007303925940349178 0 -9.0028078228429525e-05 -0.0073357570538363521 0 -0.00018515173637401441 -0.007303925940349178 0 -9.0028078228429525e-05 -0.0073357570538363521 0 -0.00011022002332774616 -0.0072195901923419901 0 7.1132661782897453e-05 -0.0072031696136122467 0 4.7387916095664336e-06 -0.007313482498346101 0 -0.00011022002332774616 -0.0072195901923419901 0 9.1539740819723524e-05 -0.0072915927142757657 0 7.1588760569411656e-05 -0.0072175330874425427 0 -1.3961486656713646e-05 -0.0071865695376062818 0 0.00034509840743152315 -0.0070457715354423781 0 -7.3746843716904496e-05 -0.0068348849096158959 0 0.00034509840743152315 -0.0070457715354423781 0 0.00017281048223945908 -0.0066826537983208549 0 0.00086162425760234187 -0.0067593780757482097 0 8.567817582397955e-05 -0.0066438848326740253 0 0.00033216976804488398 -0.0062016205517869839 0 8.567817582397955e-05 -0.0066438848326740253 0 0.00033216976804488398 -0.0062016205517869839 0 -0.00021905675090491152 -0.0061794987125546779 0 0.00017281048223945908 -0.0066826537983208549 0 -0.00021475953099316119 -0.0063903454584296167 0 -1.3961486656713646e-05 -0.0071865695376062818 0 -0.00022059504000347506 -0.0070267568328430093 0 -1.4743427157468792e-06 -0.0070683366173158544 0 0.00033216976804488398 -0.0062016205517869839 0 -0.00021905675090491152 -0.0061794987125546779 0 -0.00022151005997938451 -0.0056169184977557414 0 7.1588760569411656e-05 -0.0072175330874425427 0 6.4219761412826333e-05 -0.0071528563186165029 0 0.00011015056561466454 -0.007200947013691862 0 7.1588760569411656e-05 -0.0072175330874425427 0 -1.3961486656713646e-05 -0.0071865695376062818 0 6.4219761412826333e-05 -0.0071528563186165029 0 -1.3961486656713646e-05 -0.0071865695376062818 0 6.4219761412826333e-05 -0.0071528563186165029 0 -1.4743427157468792e-06 -0.0070683366173158544 0 6.4219761412826333e-05 -0.0071528563186165029 0 0.00012257885244040527 -0.0071340099568252989 0 9.7124096380675265e-05 -0.0070473652808618528 0 6.4219761412826333e-05 -0.0071528563186165029 0 9.7124096380675265e-05 -0.0070473652808618528 0 -1.4743427157468792e-06 -0.0070683366173158544 0 6.4219761412826333e-05 -0.0071528563186165029 0 0.00012257885244040527 -0.0071340099568252989 0 0.00011015056561466454 -0.007200947013691862 0 0.00012257885244040527 -0.0071340099568252989 0 0.00014490903655636233 -0.0071732303405252391 0 0.00011015056561466454 -0.007200947013691862 0 0.00012257885244040527 -0.0071340099568252989 0 0.00016278825302921406 -0.0071319228525355801 0 0.0001508039725329319 -0.0070890323195919305 0 0.00012257885244040527 -0.0071340099568252989 0 0.00014490903655636233 -0.0071732303405252391 0 0.00016278825302921406 -0.0071319228525355801 0 0.00016278825302921406 -0.0071319228525355801 0 0.0001849952803903331 -0.0071326956681557101 0 0.00017422926523850792 -0.0071842644350721538 0 0.00016278825302921406 -0.0071319228525355801 0 0.0001849952803903331 -0.0071326956681557101 0 0.00018152816590081284 -0.0071047752930110744 0 0.0001849952803903331 -0.0071326956681557101 0 0.00017422926523850792 -0.0071842644350721538 0 0.00019849448349370291 -0.0071740934522830447 0 0.00014490903655636233 -0.0071732303405252391 0 0.00016278825302921406 -0.0071319228525355801 0 0.00017422926523850792 -0.0071842644350721538 0 0.00014490903655636233 -0.0071732303405252391 0 0.00017422926523850792 -0.0071842644350721538 0 0.00014824726497424784 -0.007218233059163531 0 0.00017422926523850792 -0.0071842644350721538 0 0.00018066749567233783 -0.0072595814629081035 0 0.00014824726497424784 -0.007218233059163531 0 0.00017422926523850792 -0.0071842644350721538 0 0.00020945475016488562 -0.0072375477003523963 0 0.00018066749567233783 -0.0072595814629081035 0 0.00017422926523850792 -0.0071842644350721538 0 0.00020945475016488562 -0.0072375477003523963 0 0.00019849448349370291 -0.0071740934522830447 0 0.00022730810469190102 -0.0073064212175309139 0 0.00020945475016488562 -0.0072375477003523963 0 0.00018066749567233783 -0.0072595814629081035 0 0.00018066749567233783 -0.0072595814629081035 0 0.00015080027763427295 -0.0072561727608224094 0 0.00014824726497424784 -0.007218233059163531 0 0.00016197604708390026 -0.0072919772869695634 0 0.00018066749567233783 -0.0072595814629081035 0 0.00015080027763427295 -0.0072561727608224094 0 0.00016197604708390026 -0.0072919772869695634 0 0.00015080027763427295 -0.0072561727608224094 0 0.0001332982378905781 -0.0072747139177987974 0 0.00015080027763427295 -0.0072561727608224094 0 0.0001276535426298349 -0.0072444973534256498 0 0.0001332982378905781 -0.0072747139177987974 0 0.0001276535426298349 -0.0072444973534256498 0 0.0001332982378905781 -0.0072747139177987974 0 0.00011597842750255459 -0.0072683668553996756 0 0.00011618878404052939 -0.0072838533905751389 0 0.0001332982378905781 -0.0072747139177987974 0 0.00011597842750255459 -0.0072683668553996756 0 0.00010429732776361023 -0.0072784502194584563 0 0.00011597842750255459 -0.0072683668553996756 0 0.00010215278622210881 -0.0072518774805397611 0 0.00011618878404052939 -0.0072838533905751389 0 0.00010429732776361023 -0.0072784502194584563 0 0.00011597842750255459 -0.0072683668553996756 0 9.1539740819723524e-05 -0.0072915927142757657 0 7.1588760569411656e-05 -0.0072175330874425427 0 0.00010215278622210881 -0.0072518774805397611 0 9.1539740819723524e-05 -0.0072915927142757657 0 0.00010429732776361023 -0.0072784502194584563 0 0.00010215278622210881 -0.0072518774805397611 0 0.0001276535426298349 -0.0072444973534256498 0 0.00011597842750255459 -0.0072683668553996756 0 0.00010215278622210881 -0.0072518774805397611 0 0.0001276535426298349 -0.0072444973534256498 0 0.00010215278622210881 -0.0072518774805397611 0 0.00011015056561466454 -0.007200947013691862 0 7.1588760569411656e-05 -0.0072175330874425427 0 0.00010215278622210881 -0.0072518774805397611 0 0.00011015056561466454 -0.007200947013691862 0 0.00014490903655636233 -0.0071732303405252391 0 0.00011015056561466454 -0.007200947013691862 0 0.00014824726497424784 -0.007218233059163531 0 0.0001276535426298349 -0.0072444973534256498 0 0.00011015056561466454 -0.007200947013691862 0 0.00014824726497424784 -0.007218233059163531 0 0.00015080027763427295 -0.0072561727608224094 0 0.0001276535426298349 -0.0072444973534256498 0 0.00014824726497424784 -0.007218233059163531 0 -0.0019080307654855109 -0.0070163396217491391 0 -0.001305129342739959 -0.0070843873725656981 0 -0.0017094524264387528 -0.0064675456252030541 0 -0.0019080307654855109 -0.0070163396217491391 0 -0.0016366855962452031 -0.007325753049482955 0 -0.001978620073218891 -0.0076349026330344762 0 -0.0025401868777517062 -0.0069677999637659796 0 -0.0019080307654855109 -0.0070163396217491391 0 -0.001978620073218891 -0.0076349026330344762 0 -0.0016366855962452031 -0.007325753049482955 0 -0.001978620073218891 -0.0076349026330344762 0 -0.001361199236421106 -0.0075695872669996724 0 -0.001978620073218891 -0.0076349026330344762 0 -0.0013784087635259762 -0.0079182762198054726 0 -0.001361199236421106 -0.0075695872669996724 0 -0.0013784087635259762 -0.0079182762198054726 0 -0.001361199236421106 -0.0075695872669996724 0 -0.0010701337301072045 -0.0079049693420958078 0 -0.0019080307654855109 -0.0070163396217491391 0 -0.0016366855962452031 -0.007325753049482955 0 -0.001305129342739959 -0.0070843873725656981 0 -0.001361199236421106 -0.0075695872669996724 0 -0.001305129342739959 -0.0070843873725656981 0 -0.00088409561023696989 -0.0075186701995541864 0 -0.0016366855962452031 -0.007325753049482955 0 -0.001361199236421106 -0.0075695872669996724 0 -0.001305129342739959 -0.0070843873725656981 0 -0.001305129342739959 -0.0070843873725656981 0 -0.00089989852444612075 -0.0071377022408486059 0 -0.00085618606680194472 -0.006788086950194689 0 -0.00089989852444612075 -0.0071377022408486059 0 -0.0005926431448553545 -0.0071701382562320655 0 -0.00085618606680194472 -0.006788086950194689 0 -0.00089989852444612075 -0.0071377022408486059 0 -0.00088409561023696989 -0.0075186701995541864 0 -0.0005926431448553545 -0.0071701382562320655 0 -0.001305129342739959 -0.0070843873725656981 0 -0.00089989852444612075 -0.0071377022408486059 0 -0.00088409561023696989 -0.0075186701995541864 0 -0.00075553420969856795 -0.0082922848416414081 0 -0.00088409561023696989 -0.0075186701995541864 0 -0.00044205324946896998 -0.0078319220484799491 0 -0.001361199236421106 -0.0075695872669996724 0 -0.0010701337301072045 -0.0079049693420958078 0 -0.00088409561023696989 -0.0075186701995541864 0 -0.00075553420969856795 -0.0082922848416414081 0 -0.0010701337301072045 -0.0079049693420958078 0 -0.00088409561023696989 -0.0075186701995541864 0 -0.00092745914183058086 -0.0075628374523054138 0 -0.00053243220417696852 -0.008252227849265048 0 -0.00088409561023696989 -0.0075186701995541864 0 -0.0005829596417538717 -0.0075750307189652068 0 -0.00050927746557940959 -0.0073862555147719382 0 6.0143702460615938e-05 -0.0088622297968675677 0 -0.00053243220417696852 -0.008252227849265048 0 -0.00033998562337989697 -0.0074537085575661745 0 -0.0005829596417538717 -0.0075750307189652068 0 -0.00050927746557940959 -0.0073862555147719382 0 -0.00031562431190475986 -0.0073112813187597133 0 -0.00050927746557940959 -0.0073862555147719382 0 -0.0005926431448553545 -0.0071701382562320655 0 -0.00031562431190475986 -0.0073112813187597133 0 -0.00027347523785505967 -0.0070453168734747763 0 -0.0005926431448553545 -0.0071701382562320655 0 -0.00088409561023696989 -0.0075186701995541864 0 -0.00050927746557940959 -0.0073862555147719382 0 -0.0005926431448553545 -0.0071701382562320655 0 -0.00027347523785505967 -0.0070453168734747763 0 -0.0005926431448553545 -0.0071701382562320655 0 -0.00085618606680194472 -0.006788086950194689 0 -7.3746843716904496e-05 -0.0068348849096158959 0 -0.0008178080789111292 -0.0066639870235585498 0 8.567817582397955e-05 -0.0066438848326740253 0 -0.00021905675090491152 -0.0061794987125546779 0 -0.00071567803550646374 -0.0065467585406584691 0 -0.00021905675090491152 -0.0061794987125546779 0 -0.00059804626441600621 -0.0059129984868470141 0 -0.00071567803550646374 -0.0065467585406584691 0 -0.00021905675090491152 -0.0061794987125546779 0 -0.00059804626441600621 -0.0059129984868470141 0 -0.00022151005997938451 -0.0056169184977557414 0 -0.00059804626441600621 -0.0059129984868470141 0 -0.0010051998190467447 -0.0060637750798976948 0 -0.00088070499441365478 -0.0055646720822638317 0 -0.00059804626441600621 -0.0059129984868470141 0 -0.00071567803550646374 -0.0065467585406584691 0 -0.0010051998190467447 -0.0060637750798976948 0 -0.00099535013703377917 -0.0060350790083920445 0 -0.00086630552044816248 -0.0053822227534389483 0 -0.0008178080789111292 -0.0066639870235585498 0 -0.0016715713689077259 -0.0064832050547450563 0 -0.001305129342739959 -0.0070843873725656981 0 -0.00085618606680194472 -0.006788086950194689 0 -0.0017094524264387528 -0.0064675456252030541 0 -0.00071567803550646374 -0.0065467585406584691 0 -0.0010051998190467447 -0.0060637750798976948 0 -0.0017094524264387528 -0.0064675456252030541 0 -0.0010051998190467447 -0.0060637750798976948 0 -0.0017094524264387528 -0.0064675456252030541 0 -0.0013584798490447866 -0.0055453238723768353 0 -0.0017094524264387528 -0.0064675456252030541 0 -0.0019578759886609751 -0.0055286501718501413 0 -0.0013584798490447866 -0.0055453238723768353 0 -0.0024736044678480818 -0.0059887116070827043 0 -0.0017094524264387528 -0.0064675456252030541 0 -0.0019578759886609751 -0.0055286501718501413 0 -0.0021574170221974462 -0.0066131909467128432 0 -0.0024736044678480818 -0.0059887116070827043 0 -0.0017094524264387528 -0.0064675456252030541 0 -0.0021574170221974462 -0.0066131909467128432 0 -0.0019080307654855109 -0.0070163396217491391 0 -0.0017094524264387528 -0.0064675456252030541 0 -0.0018716643184770181 -0.0047025675349371583 0 -0.0015098452988910425 -0.0049972269935651291 0 -0.0012660670343251138 -0.0046167140570084605 0 -0.0012552956462929196 -0.0031126326334067794 0 -0.0013593343665401511 -0.0048523162660091355 0 -0.0019542788056915836 -0.0046306533677074385 0 -0.0019520975410910163 -0.0050300097851307003 0 -0.0015098452988910425 -0.0049972269935651291 0 -0.0023840799844039614 -0.0049579806505062572 0 -0.0019542788056915836 -0.0046306533677074385 0 -0.0019520975410910163 -0.0050300097851307003 0 -0.0019578759886609751 -0.0055286501718501413 0 -0.0013584798490447866 -0.0055453238723768353 0 -0.0015098452988910425 -0.0049972269935651291 0 -0.0023840799844039614 -0.0049579806505062572 0 -0.0019520975410910163 -0.0050300097851307003 0 -0.0019578759886609751 -0.0055286501718501413 0 -0.0019520975410910163 -0.0050300097851307003 0 -0.0019578759886609751 -0.0055286501718501413 0 -0.0015098452988910425 -0.0049972269935651291 0 -0.0010051998190467447 -0.0060637750798976948 0 -0.0013584798490447866 -0.0055453238723768353 0 -0.00086841011934739299 -0.0053630907726303434 0 -0.0013584798490447866 -0.0055453238723768353 0 -0.0011161581887974552 -0.0049098558869931806 0 -0.00086841011934739299 -0.0053630907726303434 0 -0.0013584798490447866 -0.0055453238723768353 0 -0.0011161581887974552 -0.0049098558869931806 0 -0.0015098452988910425 -0.0049972269935651291 0 -0.0011161581887974552 -0.0049098558869931806 0 -0.0015098452988910425 -0.0049972269935651291 0 -0.0012660670343251138 -0.0046167140570084605 0 -0.0011161581887974552 -0.0049098558869931806 0 -0.0012660670343251138 -0.0046167140570084605 0 -0.00093178764272666009 -0.0045756099863652824 0 -0.00067434170827373107 -0.005439807395051093 0 -0.00086630552044816248 -0.0053822227534389483 0 -0.0011161581887974552 -0.0049098558869931806 0 -0.000768247672463797 -0.0047283747956726567 0 -0.00086841011934739299 -0.0053630907726303434 0 -0.0011161581887974552 -0.0049098558869931806 0 -0.000768247672463797 -0.0047283747956726567 0 -0.00093178764272666009 -0.0045756099863652824 0 -0.00067434170827373107 -0.005439807395051093 0 -0.00098094683347192202 -0.0049229295619873581 0 -0.00059804626441600621 -0.0059129984868470141 0 -0.00088070499441365478 -0.0055646720822638317 0 -0.00022151005997938451 -0.0056169184977557414 0 -0.0007773750427024044 -0.0050536579151747255 0 -0.00088070499441365478 -0.0055646720822638317 0 -0.00022151005997938451 -0.0056169184977557414 0 -0.00067434170827373107 -0.005439807395051093 0 -0.00021475953099316119 -0.0063903454584296167 0 -0.00022059504000347506 -0.0070267568328430093 0 -0.00033613267980979841 -0.0066024338818524327 0 -0.00011953532548948263 -0.0066640319349543075 0 -0.00063508914299412514 -0.0066688413571431571 0 -0.00022059504000347506 -0.0070267568328430093 0 -0.00033613267980979841 -0.0066024338818524327 0 -0.00033613267980979841 -0.0066024338818524327 0 -9.1857974036158382e-05 -0.0061392827004802747 0 -0.00060295057162494778 -0.0062631740953013812 0 -0.00033613267980979841 -0.0066024338818524327 0 -9.1857974036158382e-05 -0.0061392827004802747 0 -0.00011953532548948263 -0.0066640319349543075 0 -9.1857974036158382e-05 -0.0061392827004802747 0 -0.00046861357379017292 -0.0056448116963408179 0 -0.00060295057162494778 -0.0062631740953013812 0 -9.1857974036158382e-05 -0.0061392827004802747 0 -1.3621637180048206e-06 -0.0053023331037005952 0 -0.00046861357379017292 -0.0056448116963408179 0 -5.577686397666243e-10 -0.0053002139210238785 0 -6.7395980906340976e-07 -0.0050749900423337794 0 -6.4174282388844604e-10 -0.0051102010118406751 0 -3.518266676637387e-07 -0.0053004561161104956 0 -0.00026394635066717096 -0.0048123114045295441 0 -0.00026394635066717096 -0.0048123114045295441 0 -0.00057884173067646082 -0.0042476212709599628 0 -4.0840445396846631e-05 -0.0048272234490793356 0 -5.5114894208110032e-07 -0.0051086008760766171 0 2.3020262132633973e-07 -0.0043529856509321764 0 -0.00026394635066717096 -0.0048123114045295441 0 -0.00064144350166604898 -0.0052832607111847505 0 -0.00026394635066717096 -0.0048123114045295441 0 -4.3584878890815185e-07 -0.0051094038709424659 0 -0.00060507646452009846 -0.0037936400877700786 0 -0.00094141339820847498 -0.004288144481333845 0 -0.0012177277807223922 -0.0042324006394169984 0 -0.00060507646452009846 -0.0037936400877700786 0 -0.00094141339820847498 -0.004288144481333845 0 -0.00070227183529589438 -0.0042494635945058232 0 -0.00067434170827373107 -0.005439807395051093 0 -0.00064144350166604898 -0.0052832607111847505 0 -0.00063508914299412514 -0.0066688413571431571 0 -0.00033613267980979841 -0.0066024338818524327 0 -0.00060295057162494778 -0.0062631740953013812 0 -0.00078942364334980608 -0.0047229980483547819 0 -0.00093178764272666009 -0.0045756099863652824 0 -0.00070227183529589438 -0.0042494635945058232 0 -0.00093178764272666009 -0.0045756099863652824 0 -0.00094141339820847498 -0.004288144481333845 0 -0.00070227183529589438 -0.0042494635945058232 0 -0.0018716643184770181 -0.0047025675349371583 0 -0.0012660670343251138 -0.0046167140570084605 0 -0.0012177277807223922 -0.0042324006394169984 0 -0.0012660670343251138 -0.0046167140570084605 0 -0.00093178764272666009 -0.0045756099863652824 0 -0.00094141339820847498 -0.004288144481333845 0 -0.0012660670343251138 -0.0046167140570084605 0 -0.00094141339820847498 -0.004288144481333845 0 -0.0012177277807223922 -0.0042324006394169984 0 -4.0840445396846631e-05 -0.0048272234490793356 0 -2.4928254685391645e-05 -0.0040894968397395676 0 2.3020262132633973e-07 -0.0043529856509321764 0 -2.4928254685391645e-05 -0.0040894968397395676 0 2.3020262132633973e-07 -0.0043529856509321764 0 6.6066725465115296e-05 -0.003907286566617818 0 3.2872352819516066e-07 -0.0035958255176071043 0 2.3020262132633973e-07 -0.0043529856509321764 0 6.6066725465115296e-05 -0.003907286566617818 0 5.0373449858510713e-05 -0.0038646410482202987 0 -2.4928254685391645e-05 -0.0040894968397395676 0 6.6066725465115296e-05 -0.003907286566617818 0 -0.0012552956462929196 -0.0031126326334067794 0 -0.00057884173067646082 -0.0042476212709599628 0 0.00017251411192954289 -0.0070321172745767832 0 0.00016612859897081886 -0.0070408236297357825 0 0.00011645857069157209 -0.0068881976817078191 0 0.00017251411192954289 -0.0070321172745767832 0 0.00017854903481332886 -0.0070866634576771141 0 0.00016082086823084287 -0.0071869498089283997 0 0.00017333298952941912 -0.0071218082768619703 0 0.00017854903481332886 -0.0070866634576771141 0 0.00016082086823084287 -0.0071869498089283997 0 0.00017251411192954289 -0.0070321172745767832 0 0.00017854903481332886 -0.0070866634576771141 0 0.00016612859897081886 -0.0070408236297357825 0 0.00017333298952941912 -0.0071218082768619703 0 0.00017854903481332886 -0.0070866634576771141 0 0.00018152816590081284 -0.0071047752930110744 0 0.00017854903481332886 -0.0070866634576771141 0 0.00018152816590081284 -0.0071047752930110744 0 0.00016612859897081886 -0.0070408236297357825 0 0.00017333298952941912 -0.0071218082768619703 0 0.00018152816590081284 -0.0071047752930110744 0 0.00016805215629124177 -0.0071200670486963593 0 0.0001849952803903331 -0.0071326956681557101 0 0.00018152816590081284 -0.0071047752930110744 0 0.00018170512237870984 -0.007117619338686678 0 0.00018152816590081284 -0.0071047752930110744 0 0.0001508039725329319 -0.0070890323195919305 0 0.00016612859897081886 -0.0070408236297357825 0 0.00016278825302921406 -0.0071319228525355801 0 0.00018152816590081284 -0.0071047752930110744 0 0.0001508039725329319 -0.0070890323195919305 0 0.00016612859897081886 -0.0070408236297357825 0 9.7124096380675265e-05 -0.0070473652808618528 0 0.00011645857069157209 -0.0068881976817078191 0 0.0001508039725329319 -0.0070890323195919305 0 0.00016612859897081886 -0.0070408236297357825 0 9.7124096380675265e-05 -0.0070473652808618528 0 0.00012257885244040527 -0.0071340099568252989 0 0.0001508039725329319 -0.0070890323195919305 0 9.7124096380675265e-05 -0.0070473652808618528 0 9.7124096380675265e-05 -0.0070473652808618528 0 -1.4743427157468792e-06 -0.0070683366173158544 0 1.6389130924465919e-06 -0.0068993216221022525 0 -0.00022059504000347506 -0.0070267568328430093 0 -1.4743427157468792e-06 -0.0070683366173158544 0 1.6389130924465919e-06 -0.0068993216221022525 0 -0.00022059504000347506 -0.0070267568328430093 0 -0.00011953532548948263 -0.0066640319349543075 0 1.6389130924465919e-06 -0.0068993216221022525 0 -0.00011953532548948263 -0.0066640319349543075 0 1.6389130924465919e-06 -0.0068993216221022525 0 2.8023492520668281e-05 -0.0066036082078458312 0 9.7124096380675265e-05 -0.0070473652808618528 0 1.6389130924465919e-06 -0.0068993216221022525 0 0.00011645857069157209 -0.0068881976817078191 0 1.6389130924465919e-06 -0.0068993216221022525 0 0.00011645857069157209 -0.0068881976817078191 0 2.8023492520668281e-05 -0.0066036082078458312 0 0.00011645857069157209 -0.0068881976817078191 0 2.8023492520668281e-05 -0.0066036082078458312 0 0.0001150677131413586 -0.0067985713990727711 0 -9.1857974036158382e-05 -0.0061392827004802747 0 -0.00011953532548948263 -0.0066640319349543075 0 2.8023492520668281e-05 -0.0066036082078458312 0 -9.1857974036158382e-05 -0.0061392827004802747 0 -1.3621637180048206e-06 -0.0053023331037005952 0 5.9505757349464296e-07 -0.0061656141267701879 0 -9.1857974036158382e-05 -0.0061392827004802747 0 2.8023492520668281e-05 -0.0066036082078458312 0 5.9505757349464296e-07 -0.0061656141267701879 0 2.8023492520668281e-05 -0.0066036082078458312 0 5.9505757349464296e-07 -0.0061656141267701879 0 0.0001150677131413586 -0.0067985713990727711 0 5.9505757349464296e-07 -0.0061656141267701879 0 1.3430957136249492e-07 -0.0070306094323009556 0 0.0001150677131413586 -0.0067985713990727711 0 0.00017251411192954289 -0.0070321172745767832 0 0.00011645857069157209 -0.0068881976817078191 0 0.0001150677131413586 -0.0067985713990727711 0 0.00017251411192954289 -0.0070321172745767832 0 0.00013050965855902709 -0.007279247862468685 0 0.00016082086823084287 -0.0071869498089283997 0 0.00017251411192954289 -0.0070321172745767832 0 0.0001150677131413586 -0.0067985713990727711 0 0.00013050965855902709 -0.007279247862468685 0 1.3430957136249492e-07 -0.0070306094323009556 0 0.0001150677131413586 -0.0067985713990727711 0 0.00013050965855902709 -0.007279247862468685 0 1.3430957136249492e-07 -0.0070306094323009556 0 0.00013050965855902709 -0.007279247862468685 0 4.7529705444652785e-07 -0.0078954463721410805 0 0.00013050965855902709 -0.007279247862468685 0 4.7529705444652785e-07 -0.0078954463721410805 0 3.2701689114071827e-05 -0.0077160345193647215 0 4.7529705444652785e-07 -0.0078954463721410805 0 3.2701689114071827e-05 -0.0077160345193647215 0 -9.8200253108488313e-07 -0.008759141040020707 0 3.2701689114071827e-05 -0.0077160345193647215 0 8.7309725294356567e-06 -0.0073976353329164206 0 -0.00022723487051854249 -0.0076429344724977932 0 3.2701689114071827e-05 -0.0077160345193647215 0 8.7309725294356567e-06 -0.0073976353329164206 0 0.00010723237744129807 -0.0073655131637807743 0 0.00013050965855902709 -0.007279247862468685 0 0.00010723237744129807 -0.0073655131637807743 0 0.00016082086823084287 -0.0071869498089283997 0 0.00013050965855902709 -0.007279247862468685 0 3.2701689114071827e-05 -0.0077160345193647215 0 0.00010723237744129807 -0.0073655131637807743 0 0.00016082086823084287 -0.0071869498089283997 0 0.00014414030074253858 -0.0071557465237746748 0 0.00010174492957886906 -0.0072204331489956822 0 0.00017333298952941912 -0.0071218082768619703 0 0.00016082086823084287 -0.0071869498089283997 0 0.00014414030074253858 -0.0071557465237746748 0 0.00014414030074253858 -0.0071557465237746748 0 0.00010174492957886906 -0.0072204331489956822 0 0.00012691822031209944 -0.0071268152128599474 0 0.00010723237744129807 -0.0073655131637807743 0 0.00016082086823084287 -0.0071869498089283997 0 0.00010174492957886906 -0.0072204331489956822 0 8.7309725294356567e-06 -0.0073976353329164206 0 0.00010723237744129807 -0.0073655131637807743 0 0.00010174492957886906 -0.0072204331489956822 0 8.7309725294356567e-06 -0.0073976353329164206 0 -1.9369093140199035e-05 -0.0071591472420013654 0 -0.00022723487051854249 -0.0076429344724977932 0 8.7309725294356567e-06 -0.0073976353329164206 0 0.00010174492957886906 -0.0072204331489956822 0 -1.9369093140199035e-05 -0.0071591472420013654 0 4.8758807442701767e-05 -0.007525551866218551 0 -0.0002288090109879348 -0.008667952247494835 0 6.5751354418829193e-05 -0.0080723767468119257 0 -3.7239533277294645e-05 -0.0080391638312413277 0 -0.00018423923277873143 -0.0086463288712938981 0 0.00010174492957886906 -0.0072204331489956822 0 -1.9369093140199035e-05 -0.0071591472420013654 0 0.00012691822031209944 -0.0071268152128599474 0 -1.9369093140199035e-05 -0.0071591472420013654 0 0.00012691822031209944 -0.0071268152128599474 0 0.00019353902994885324 -0.0071016511505830942 0 6.5751354418829193e-05 -0.0080723767468119257 0 9.204944760443736e-05 -0.0078147485827186457 0 0.00022106890291258069 -0.007600304898726349 0 -0.00020150621343228322 -0.0091681854653258912 0 -7.172217908998926e-05 -0.0089024565929506309 0 -3.7239533277294645e-05 -0.0080391638312413277 0 9.204944760443736e-05 -0.0078147485827186457 0 0.00011020173354582112 -0.007550265632148021 0 -0.00031743593849808439 -0.0101097708954289 0 -0.00024349123310668752 -0.010192307983178503 0 -0.00025640960546488193 -0.0102340380416304 0 4.8758807442701767e-05 -0.007525551866218551 0 0.00019134978159157946 -0.0073885850057638109 0 6.5751354418829193e-05 -0.0080723767468119257 0 -3.7239533277294645e-05 -0.0080391638312413277 0 9.204944760443736e-05 -0.0078147485827186457 0 0.00017530789640486758 -0.0071133156259447035 0 0.00016805215629124177 -0.0071200670486963593 0 0.00012691822031209944 -0.0071268152128599474 0 0.00017530789640486758 -0.0071133156259447035 0 0.00012691822031209944 -0.0071268152128599474 0 0.00019353902994885324 -0.0071016511505830942 0 0.00018152816590081284 -0.0071047752930110744 0 0.00018170512237870984 -0.007117619338686678 0 0.00016805215629124177 -0.0071200670486963593 0 0.00017530789640486758 -0.0071133156259447035 0 0.00018170512237870984 -0.007117619338686678 0 0.00016805215629124177 -0.0071200670486963593 0 0.00017333298952941912 -0.0071218082768619703 0 0.00014414030074253858 -0.0071557465237746748 0 0.00016805215629124177 -0.0071200670486963593 0 0.00014414030074253858 -0.0071557465237746748 0 0.00016805215629124177 -0.0071200670486963593 0 0.00012691822031209944 -0.0071268152128599474 0 -9.5489135260023512e-05 -0.010165044997452948 0 -0.00018401057265726085 -0.010111415920811653 0 -7.4315822052719227e-05 -0.010037426361775011 0 -9.5489135260023512e-05 -0.010165044997452948 0 5.5360381885995623e-05 -0.010169141299820132 0 -0.00013500659405584777 -0.010275810093459249 0 -9.5489135260023512e-05 -0.010165044997452948 0 -7.4315822052719227e-05 -0.010037426361775011 0 5.5360381885995623e-05 -0.010169141299820132 0 -0.00019296311931182275 -0.010199488671396225 0 -0.00024349123310668752 -0.010192307983178503 0 -0.00024576871626099729 -0.010147190268589941 0 -0.00031743593849808439 -0.0101097708954289 0 -0.00024349123310668752 -0.010192307983178503 0 -0.00024576871626099729 -0.010147190268589941 0 -0.00024576871626099729 -0.010147190268589941 0 -0.00018401057265726085 -0.010111415920811653 0 -0.00026373032110179982 -0.010098517665970934 0 -0.00031743593849808439 -0.0101097708954289 0 -0.00024576871626099729 -0.010147190268589941 0 -0.00026373032110179982 -0.010098517665970934 0 -9.5489135260023512e-05 -0.010165044997452948 0 -0.00019296311931182275 -0.010199488671396225 0 -0.00018401057265726085 -0.010111415920811653 0 -0.00019296311931182275 -0.010199488671396225 0 -0.00024576871626099729 -0.010147190268589941 0 -0.00018401057265726085 -0.010111415920811653 0 -0.00018401057265726085 -0.010111415920811653 0 -0.00024737092413817339 -0.010041532079142785 0 -0.00017994682563777622 -0.010025547571401309 0 -0.00030924597173541759 -0.010007242805537636 0 -0.00028723606941862711 -0.0099548195748477772 0 -0.0004576852632455259 -0.0097407061790133441 0 -0.00031743593849808439 -0.0101097708954289 0 -0.00030924597173541759 -0.010007242805537636 0 -0.0004576852632455259 -0.0097407061790133441 0 -0.00020150621343228322 -0.0091681854653258912 0 -0.0002288090109879348 -0.008667952247494835 0 -0.00018401057265726085 -0.010111415920811653 0 -0.00024737092413817339 -0.010041532079142785 0 -0.00026373032110179982 -0.010098517665970934 0 -0.00031743593849808439 -0.0101097708954289 0 -0.00026373032110179982 -0.010098517665970934 0 -0.00030924597173541759 -0.010007242805537636 0 -0.00024737092413817339 -0.010041532079142785 0 -0.00026373032110179982 -0.010098517665970934 0 -0.00030924597173541759 -0.010007242805537636 0 -0.00024737092413817339 -0.010041532079142785 0 -0.00030924597173541759 -0.010007242805537636 0 -0.00028723606941862711 -0.0099548195748477772 0 -0.00024737092413817339 -0.010041532079142785 0 -0.00017994682563777622 -0.010025547571401309 0 -0.00028723606941862711 -0.0099548195748477772 0 -0.00017994682563777622 -0.010025547571401309 0 -0.00028723606941862711 -0.0099548195748477772 0 -0.00019478399583542169 -0.0099339652533299173 0 -0.00028723606941862711 -0.0099548195748477772 0 -0.00019478399583542169 -0.0099339652533299173 0 -0.00025575820995138828 -0.0098407763355596849 0 -7.4315822052719227e-05 -0.010037426361775011 0 -2.4490182433043326e-05 -0.0099084774151547549 0 6.4112468323674883e-05 -0.010058050342299193 0 -0.00017994682563777622 -0.010025547571401309 0 -0.00019478399583542169 -0.0099339652533299173 0 -7.4315822052719227e-05 -0.010037426361775011 0 -0.00019478399583542169 -0.0099339652533299173 0 -7.4315822052719227e-05 -0.010037426361775011 0 -0.00011489898969419518 -0.0098181182111371605 0 -0.00018401057265726085 -0.010111415920811653 0 -0.00017994682563777622 -0.010025547571401309 0 -7.4315822052719227e-05 -0.010037426361775011 0 -2.4490182433043326e-05 -0.0099084774151547549 0 2.5395222131347136e-05 -0.0096826919160029768 0 6.4112468323674883e-05 -0.010058050342299193 0 -7.4315822052719227e-05 -0.010037426361775011 0 -2.4490182433043326e-05 -0.0099084774151547549 0 -0.00011489898969419518 -0.0098181182111371605 0 -0.00011489898969419518 -0.0098181182111371605 0 2.5395222131347136e-05 -0.0096826919160029768 0 -0.00012210894017469537 -0.0094789462816323045 0 -2.4490182433043326e-05 -0.0099084774151547549 0 -0.00011489898969419518 -0.0098181182111371605 0 2.5395222131347136e-05 -0.0096826919160029768 0 -0.00028723606941862711 -0.0099548195748477772 0 -0.00025575820995138828 -0.0098407763355596849 0 -0.0004576852632455259 -0.0097407061790133441 0 -0.00025575820995138828 -0.0098407763355596849 0 -0.00024657395393045317 -0.0097313546786276291 0 -0.0004576852632455259 -0.0097407061790133441 0 -0.00019478399583542169 -0.0099339652533299173 0 -0.00011489898969419518 -0.0098181182111371605 0 -0.00025575820995138828 -0.0098407763355596849 0 -0.00011489898969419518 -0.0098181182111371605 0 -0.00025575820995138828 -0.0098407763355596849 0 -0.00024657395393045317 -0.0097313546786276291 0 -0.00011489898969419518 -0.0098181182111371605 0 -0.00024657395393045317 -0.0097313546786276291 0 -0.00012210894017469537 -0.0094789462816323045 0 -0.00024657395393045317 -0.0097313546786276291 0 -0.0004576852632455259 -0.0097407061790133441 0 -0.00012210894017469537 -0.0094789462816323045 0 3.2701689114071827e-05 -0.0077160345193647215 0 -0.00022723487051854249 -0.0076429344724977932 0 -9.8200253108488313e-07 -0.008759141040020707 0 -0.0002288090109879348 -0.008667952247494835 0 -1.6709710739158304e-07 -0.0087603634030509071 0 -0.0004576852632455259 -0.0097407061790133441 0 -9.4934610367924611e-07 -0.0087620044516954192 0 -0.00012210894017469537 -0.0094789462816323045 0 2.5395222131347136e-05 -0.0096826919160029768 0 -9.4934610367924611e-07 -0.0087620044516954192 0 -0.00012210894017469537 -0.0094789462816323045 0 2.5395222131347136e-05 -0.0096826919160029768 0 -9.4934610367924611e-07 -0.0087620044516954192 0 4.1695166543102631e-07 -0.0096134224690158487 0 2.5395222131347136e-05 -0.0096826919160029768 0 4.1695166543102631e-07 -0.0096134224690158487 0 9.3812706551555614e-05 -0.010092544155140718 0 4.1695166543102631e-07 -0.0096134224690158487 0 9.3812706551555614e-05 -0.010092544155140718 0 4.1132351841791003e-07 -0.010466913306666053 0 9.3812706551555614e-05 -0.010092544155140718 0 0.00012140573458651542 -0.010401896635668213 0 0.00012430495063216781 -0.010336306198301708 0 9.3812706551555614e-05 -0.010092544155140718 0 6.4112468323674883e-05 -0.010058050342299193 0 0.00012430495063216781 -0.010336306198301708 0 2.5395222131347136e-05 -0.0096826919160029768 0 9.3812706551555614e-05 -0.010092544155140718 0 6.4112468323674883e-05 -0.010058050342299193 0 -0.00027462137327815639 -0.0123386114900723 0 -1.164269831418772e-06 -0.01132198007478556 0 -4.8259597444889134e-05 -0.012187801198004552 0 0.00012140573458651542 -0.010401896635668213 0 0.00010897011560495635 -0.010354179614377632 0 -4.3351610571720655e-07 -0.011318459643460546 0 -4.5705267477118081e-05 -0.011350816059135805 0 5.2212382040154324e-09 -0.011319697823405594 0 4.1132351841791003e-07 -0.010466913306666053 0 0.00012140573458651542 -0.010401896635668213 0 -4.3351610571720655e-07 -0.011318459643460546 0 9.3812706551555614e-05 -0.010092544155140718 0 4.1132351841791003e-07 -0.010466913306666053 0 0.00012140573458651542 -0.010401896635668213 0 0.00012140573458651542 -0.010401896635668213 0 0.00010897011560495635 -0.010354179614377632 0 0.00012430495063216781 -0.010336306198301708 0 -0.00027462137327815639 -0.0123386114900723 0 -3.7521725011747248e-05 -0.012313484652586948 0 -0.00013691984227423787 -0.012432537919611191 0 0.00010897011560495635 -0.010354179614377632 0 0.00038152280294834358 -0.010843601865314877 0 0.00012430495063216781 -0.010336306198301708 0 0.00038152280294834358 -0.010843601865314877 0 0.00012430495063216781 -0.010336306198301708 0 7.8305786334681305e-05 -0.011185624006389658 0 -4.5705267477118081e-05 -0.011350816059135805 0 0.00013691893544287968 -0.011585311204036103 0 -3.7521725011747248e-05 -0.012313484652586948 0 -0.00010682332427627085 -0.01224834737493407 0 -0.00013691984227423787 -0.012432537919611191 0 -7.4315822052719227e-05 -0.010037426361775011 0 6.4112468323674883e-05 -0.010058050342299193 0 5.5360381885995623e-05 -0.010169141299820132 0 6.4112468323674883e-05 -0.010058050342299193 0 0.00012430495063216781 -0.010336306198301708 0 5.5360381885995623e-05 -0.010169141299820132 0 0.00013743592128551233 -0.010338580176100556 0 -5.4662362529201137e-05 -0.010668816402731851 0 0.00012430495063216781 -0.010336306198301708 0 7.8305786334681305e-05 -0.011185624006389658 0 -0.00020135996685235251 -0.011182972510441379 0 0.00038152280294834358 -0.010843601865314877 0 7.8305786334681305e-05 -0.011185624006389658 0 0.00012702091449158639 -0.011752065110639866 0 7.8305786334681305e-05 -0.011185624006389658 0 -0.00020135996685235251 -0.011182972510441379 0 -6.1296399196973997e-05 -0.011493958462803234 0 -5.4662362529201137e-05 -0.010668816402731851 0 -6.6901831980902265e-05 -0.010904838936205587 0 -0.00020135996685235251 -0.011182972510441379 0 -6.1296399196973997e-05 -0.011493958462803234 0 -6.0531288630961139e-05 -0.011661245057875644 0 -6.1296399196973997e-05 -0.011493958462803234 0 -4.0739924270851319e-05 -0.01163824744750528 0 -6.0531288630961139e-05 -0.011661245057875644 0 7.8305786334681305e-05 -0.011185624006389658 0 -6.1296399196973997e-05 -0.011493958462803234 0 0.00012702091449158639 -0.011752065110639866 0 -6.1296399196973997e-05 -0.011493958462803234 0 0.00012702091449158639 -0.011752065110639866 0 -4.0739924270851319e-05 -0.01163824744750528 0 0.00012702091449158639 -0.011752065110639866 0 9.156658701171701e-05 -0.011698952109558366 0 -4.0739924270851319e-05 -0.01163824744750528 0 9.156658701171701e-05 -0.011698952109558366 0 -4.0739924270851319e-05 -0.01163824744750528 0 -4.7861210657334155e-05 -0.011589461357815582 0 0.0005076020716039965 -0.011792780701082041 0 0.00062890202135932303 -0.011540909408661244 0 -4.0739924270851319e-05 -0.01163824744750528 0 -4.7861210657334155e-05 -0.011589461357815582 0 4.1131987563525981e-05 -0.011595413827542724 0 -3.7521725011747248e-05 -0.012313484652586948 0 -0.00010682332427627085 -0.01224834737493407 0 -7.0180331311760045e-05 -0.011928966350091341 0 0.00039450191346598564 -0.012195129277162878 0 0.00016132061752476676 -0.011966351059222594 0 -0.00012845210132811599 -0.012305918069048252 0 -0.00010682332427627085 -0.01224834737493407 0 -7.0180331311760045e-05 -0.011928966350091341 0 -0.00012845210132811599 -0.012305918069048252 0 0.00017559972822666541 -0.012060297981341053 0 -9.3470104187858561e-05 -0.012266651287068537 0 -3.7521725011747248e-05 -0.012313484652586948 0 0.00012702091449158639 -0.011752065110639866 0 -7.0180331311760045e-05 -0.011928966350091341 0 0.00013691893544287968 -0.011585311204036103 0 0.00012816570040050289 -0.011753035429320454 0 0.0005076020716039965 -0.011792780701082041 0 0.00017559972822666541 -0.012060297981341053 0 0.0009434303053431919 -0.011899441429644693 0 0.00039450191346598564 -0.012195129277162878 0 0.00051921988179617538 -0.011787663987491452 0 0.00012702091449158639 -0.011752065110639866 0 9.156658701171701e-05 -0.011698952109558366 0 -7.0180331311760045e-05 -0.011928966350091341 0 0.00039450191346598564 -0.012195129277162878 0 0.00016132061752476676 -0.011966351059222594 0 0.00051921988179617538 -0.011787663987491452 0 0.00016132061752476676 -0.011966351059222594 0 0.00030615860371496285 -0.011613288796333068 0 -0.00010197849792829765 -0.011725265657520106 0 0.00016132061752476676 -0.011966351059222594 0 0.00030615860371496285 -0.011613288796333068 0 0.00051921988179617538 -0.011787663987491452 0 0.00030615860371496285 -0.011613288796333068 0 0.00051921988179617538 -0.011787663987491452 0 0.00058252322323592122 -0.011441582550138057 0 0.0009434303053431919 -0.011899441429644693 0 0.00051921988179617538 -0.011787663987491452 0 0.00079917744971186452 -0.011604576279973579 0 0.00051921988179617538 -0.011787663987491452 0 0.00079917744971186452 -0.011604576279973579 0 0.00058252322323592122 -0.011441582550138057 0 0.00079917744971186452 -0.011604576279973579 0 0.00058252322323592122 -0.011441582550138057 0 0.00088715746566571602 -0.011374029494460824 0 0.00074461127256578706 -0.01119405019327486 0 0.00058252322323592122 -0.011441582550138057 0 0.00036350872086087383 -0.011137429218904774 0 0.00074461127256578706 -0.01119405019327486 0 0.00058252322323592122 -0.011441582550138057 0 0.00088715746566571602 -0.011374029494460824 0 0.00030615860371496285 -0.011613288796333068 0 0.00058252322323592122 -0.011441582550138057 0 0.00036350872086087383 -0.011137429218904774 0 -0.00012971274067610173 -0.012137343512688834 0 -0.00023042247073957125 -0.012268159634730231 0 0.00030615860371496285 -0.011613288796333068 0 0.00036350872086087383 -0.011137429218904774 0 -0.00010197849792829765 -0.011725265657520106 0 0.0013177146408368617 -0.011490680637264744 0 0.0012069559922283015 -0.011328783768625131 0 0.0013303079747429478 -0.011266513128442132 0 0.0013177146408368617 -0.011490680637264744 0 0.0010487872000912153 -0.011548217013353861 0 0.0012069559922283015 -0.011328783768625131 0 0.0010487872000912153 -0.011548217013353861 0 0.00088715746566571602 -0.011374029494460824 0 0.0012069559922283015 -0.011328783768625131 0 0.0009434303053431919 -0.011899441429644693 0 0.0013177146408368617 -0.011490680637264744 0 0.0010487872000912153 -0.011548217013353861 0 0.0009434303053431919 -0.011899441429644693 0 0.00079917744971186452 -0.011604576279973579 0 0.0010487872000912153 -0.011548217013353861 0 0.00079917744971186452 -0.011604576279973579 0 0.0010487872000912153 -0.011548217013353861 0 0.00088715746566571602 -0.011374029494460824 0 0.00088715746566571602 -0.011374029494460824 0 0.0012069559922283015 -0.011328783768625131 0 0.0010581877565585998 -0.011130671698941797 0 0.00074461127256578706 -0.01119405019327486 0 0.00088715746566571602 -0.011374029494460824 0 0.0010581877565585998 -0.011130671698941797 0 0.0012069559922283015 -0.011328783768625131 0 0.0013447521865114446 -0.011126554357319919 0 0.0010581877565585998 -0.011130671698941797 0 0.0012069559922283015 -0.011328783768625131 0 0.0013303079747429478 -0.011266513128442132 0 0.0013447521865114446 -0.011126554357319919 0 0.0013303079747429478 -0.011266513128442132 0 0.0012514169618360127 -0.011185130100486213 0 0.0012566607291266151 -0.011348115789622889 0 0.0013303079747429478 -0.011266513128442132 0 0.0012566607291266151 -0.011348115789622889 0 0.0013447521865114446 -0.011126554357319919 0 -4.7861210657334155e-05 -0.011589461357815582 0 0.00019772405873723316 -0.011377851626921492 0 4.1131987563525981e-05 -0.011595413827542724 0 0.00062890202135932303 -0.011540909408661244 0 0.00071579636549762651 -0.01130361614247263 0 0.0013177146408368617 -0.011490680637264744 0 0.0013303079747429478 -0.011266513128442132 0 0.0012514169618360127 -0.011185130100486213 0 0.00019772405873723316 -0.011377851626921492 0 0.00041472142096635873 -0.011587718657003742 0 0.00075827811727768109 -0.011229091198743995 0 0.00019772405873723316 -0.011377851626921492 0 0.00041472142096635873 -0.011587718657003742 0 4.1131987563525981e-05 -0.011595413827542724 0 0.0012514169618360127 -0.011185130100486213 0 0.0010526159761246488 -0.011281079729011462 0 0.00075827811727768109 -0.011229091198743995 0 0.0012514169618360127 -0.011185130100486213 0 0.0010526159761246488 -0.011281079729011462 0 0.0012566607291266151 -0.011348115789622889 0 0.00071579636549762651 -0.01130361614247263 0 0.00074580867202410903 -0.011238762402555089 0 0.00041472142096635873 -0.011587718657003742 0 0.00075827811727768109 -0.011229091198743995 0 0.00087576560523690305 -0.011251483890703611 0 0.0010526159761246488 -0.011281079729011462 0 0.00075827811727768109 -0.011229091198743995 0 0.00084312217186138588 -0.011334597685369126 0 0.0008341612403271766 -0.011250189636441473 0 0.00075827811727768109 -0.011229091198743995 0 0.00084312217186138588 -0.011334597685369126 0 0.0008341612403271766 -0.011250189636441473 0 0.00075827811727768109 -0.011229091198743995 0 0.00087576560523690305 -0.011251483890703611 0 0.0002264964482207351 -0.0074802214883168284 0 0.00026569879712968076 -0.0074610414859822153 0 0.00025103405115158343 -0.0074384524875610375 0 0.00026569879712968076 -0.0074610414859822153 0 0.00031394587505062066 -0.0074351865984508417 0 0.00026380730859307147 -0.0075201756346584912 0 0.00029675641423706443 -0.0096030903859906681 0 0.00095466582859083954 -0.0093065676406774607 0 0.0002264964482207351 -0.0074802214883168284 0 0.00026569879712968076 -0.0074610414859822153 0 0.00026380730859307147 -0.0075201756346584912 0 0.00026569879712968076 -0.0074610414859822153 0 0.00027827926851513226 -0.0074328917522532905 0 0.00025103405115158343 -0.0074384524875610375 0 0.0008341612403271766 -0.011250189636441473 0 0.00087576560523690305 -0.011251483890703611 0 0.0008258062793870634 -0.011208461421098879 0 0.00026569879712968076 -0.0074610414859822153 0 0.00031394587505062066 -0.0074351865984508417 0 0.00027827926851513226 -0.0074328917522532905 0 0.00031394587505062066 -0.0074351865984508417 0 0.00028784503859499841 -0.0074142034422628065 0 0.00027717676697141484 -0.0073780016590112522 0 0.00028784503859499841 -0.0074142034422628065 0 0.00026971618282325407 -0.0073985123381285984 0 0.00027717676697141484 -0.0073780016590112522 0 0.00031394587505062066 -0.0074351865984508417 0 0.00028784503859499841 -0.0074142034422628065 0 0.00027827926851513226 -0.0074328917522532905 0 0.00028784503859499841 -0.0074142034422628065 0 0.00027827926851513226 -0.0074328917522532905 0 0.00026971618282325407 -0.0073985123381285984 0 0.00026971618282325407 -0.0073985123381285984 0 0.00025103405115158343 -0.0074384524875610375 0 0.00023626830494210456 -0.0073610561155571259 0 0.00027827926851513226 -0.0074328917522532905 0 0.00026971618282325407 -0.0073985123381285984 0 0.00025103405115158343 -0.0074384524875610375 0 0.00031394587505062066 -0.0074351865984508417 0 0.00027717676697141484 -0.0073780016590112522 0 0.00023063387148568838 -0.0072971979412724333 0 0.00026971618282325407 -0.0073985123381285984 0 0.00023626830494210456 -0.0073610561155571259 0 0.00025882420733896604 -0.007361632250807798 0 0.00023626830494210456 -0.0073610561155571259 0 0.00025882420733896604 -0.007361632250807798 0 0.00025330991359416902 -0.0073304890236965134 0 0.00025882420733896604 -0.007361632250807798 0 0.00027717676697141484 -0.0073780016590112522 0 0.00026240263886330521 -0.0073447464409244646 0 0.00025882420733896604 -0.007361632250807798 0 0.00026240263886330521 -0.0073447464409244646 0 0.00025330991359416902 -0.0073304890236965134 0 0.00026971618282325407 -0.0073985123381285984 0 0.00025882420733896604 -0.007361632250807798 0 0.00027717676697141484 -0.0073780016590112522 0 0.00025780991347848774 -0.0073146470170154989 0 0.00025330991359416902 -0.0073304890236965134 0 0.00027801721087651149 -0.0072991281378599242 0 0.00027717676697141484 -0.0073780016590112522 0 0.00026240263886330521 -0.0073447464409244646 0 0.00023063387148568838 -0.0072971979412724333 0 0.00026240263886330521 -0.0073447464409244646 0 0.00025780991347848774 -0.0073146470170154989 0 0.00023063387148568838 -0.0072971979412724333 0 0.00026240263886330521 -0.0073447464409244646 0 0.00025780991347848774 -0.0073146470170154989 0 0.00025330991359416902 -0.0073304890236965134 0 0.00022730810469190102 -0.0073064212175309139 0 0.00025330991359416902 -0.0073304890236965134 0 0.00027801721087651149 -0.0072991281378599242 0 0.00022730810469190102 -0.0073064212175309139 0 0.00023626830494210456 -0.0073610561155571259 0 0.00025330991359416902 -0.0073304890236965134 0 -0.00022817364912196817 -0.010274151236645128 0 -0.00018986062597315387 -0.010204605359771395 0 -0.00021251752109119429 -0.01026382461382907 0 0.00029675641423706443 -0.0096030903859906681 0 1.0201439735030761e-06 -0.0086354254822887267 0 5.6753264602751558e-05 -0.011127416269033468 0 0.00029675641423706443 -0.0096030903859906681 0 -0.00022817364912196817 -0.010274151236645128 0 -0.00021251752109119429 -0.01026382461382907 0 -0.00022816449983023641 -0.010258860920291976 0 -0.00021251752109119429 -0.01026382461382907 0 -0.00022816449983023641 -0.010258860920291976 0 -0.00025640960546488193 -0.0102340380416304 0 0.00023063387148568838 -0.0072971979412724333 0 0.00027801721087651149 -0.0072991281378599242 0 0.00011020173354582112 -0.007550265632148021 0 1.0201439735030761e-06 -0.0086354254822887267 0 -7.172217908998926e-05 -0.0089024565929506309 0 0.00022730810469190102 -0.0073064212175309139 0 0.00020945475016488562 -0.0072375477003523963 0 0.00027801721087651149 -0.0072991281378599242 0 0.00025780991347848774 -0.0073146470170154989 0 0.00023063387148568838 -0.0072971979412724333 0 0.00027801721087651149 -0.0072991281378599242 0 0.00020945475016488562 -0.0072375477003523963 0 0.00019849448349370291 -0.0071740934522830447 0 0.00021614754975925844 -0.0071859751176651778 0 0.00020945475016488562 -0.0072375477003523963 0 0.00027801721087651149 -0.0072991281378599242 0 0.00021614754975925844 -0.0071859751176651778 0 0.00027801721087651149 -0.0072991281378599242 0 0.00021614754975925844 -0.0071859751176651778 0 0.00019353902994885324 -0.0071016511505830942 0 0.00026781241441944806 -0.0072985394564968869 0 0.00019134978159157946 -0.0073885850057638109 0 0.00019849448349370291 -0.0071740934522830447 0 0.00021614754975925844 -0.0071859751176651778 0 0.00019428585050603516 -0.0071336391140571455 0 0.00017530789640486758 -0.0071133156259447035 0 0.00019428585050603516 -0.0071336391140571455 0 0.00019353902994885324 -0.0071016511505830942 0 0.00021614754975925844 -0.0071859751176651778 0 0.00019428585050603516 -0.0071336391140571455 0 0.00019353902994885324 -0.0071016511505830942 0 0.0001849952803903331 -0.0071326956681557101 0 0.00018170512237870984 -0.007117619338686678 0 0.00019428585050603516 -0.0071336391140571455 0 0.0001849952803903331 -0.0071326956681557101 0 0.00019849448349370291 -0.0071740934522830447 0 0.00019428585050603516 -0.0071336391140571455 0 0.00017530789640486758 -0.0071133156259447035 0 0.00018170512237870984 -0.007117619338686678 0 0.00019428585050603516 -0.0071336391140571455 0 0.00027801721087651149 -0.0072991281378599242 0 0.00022106890291258069 -0.007600304898726349 0 0.00011020173354582112 -0.007550265632148021 0 -0.00022816449983023641 -0.010258860920291976 0 -0.00025640960546488193 -0.0102340380416304 0 -0.00021257124566651398 -0.010248879099891268 0 9.204944760443736e-05 -0.0078147485827186457 0 0.00022106890291258069 -0.007600304898726349 0 0.00011020173354582112 -0.007550265632148021 0 -0.00019296311931182275 -0.010199488671396225 0 -0.00021257124566651398 -0.010248879099891268 0 -0.00013500659405584777 -0.010275810093459249 0 -0.00019296311931182275 -0.010199488671396225 0 -0.00024349123310668752 -0.010192307983178503 0 -0.00021257124566651398 -0.010248879099891268 0 -0.00024349123310668752 -0.010192307983178503 0 -0.00025640960546488193 -0.0102340380416304 0 -0.00021257124566651398 -0.010248879099891268 0 -9.5489135260023512e-05 -0.010165044997452948 0 -0.00019296311931182275 -0.010199488671396225 0 -0.00013500659405584777 -0.010275810093459249 0 0.00041472142096635873 -0.011587718657003742 0 -6.0531288630961139e-05 -0.011661245057875644 0 4.1131987563525981e-05 -0.011595413827542724 0 -4.0739924270851319e-05 -0.01163824744750528 0 -6.0531288630961139e-05 -0.011661245057875644 0 4.1131987563525981e-05 -0.011595413827542724 0 -0.00022817364912196817 -0.010274151236645128 0 -0.00022816449983023641 -0.010258860920291976 0 -0.00021257124566651398 -0.010248879099891268 0 5.6753264602751558e-05 -0.011127416269033468 0 -6.6901831980902265e-05 -0.010904838936205587 0 -0.00022817364912196817 -0.010274151236645128 0 -0.00021257124566651398 -0.010248879099891268 0 -0.00013500659405584777 -0.010275810093459249 0 1.3156400758464776e-07 -0.014998876417950953 0 2.1614611963641694e-05 -0.014108598509220896 0 -7.1183542618856449e-05 -0.014241063109302279 0 5.0900334800570695e-08 -0.014998941409152474 0 8.1915591135370704e-08 -0.013404487671690458 0 2.1614611963641694e-05 -0.014108598509220896 0 1.3156400758464776e-07 -0.014998876417950953 0 5.0900334800570695e-08 -0.014998941409152474 0 2.1614611963641694e-05 -0.014108598509220896 0 8.1915591135370704e-08 -0.013404487671690458 0 2.1614611963641694e-05 -0.014108598509220896 0 7.6278699198379239e-05 -0.013181876169865639 0 2.1614611963641694e-05 -0.014108598509220896 0 8.9776511925146834e-05 -0.013758508369318113 0 7.6278699198379239e-05 -0.013181876169865639 0 2.1614611963641694e-05 -0.014108598509220896 0 -7.1183542618856449e-05 -0.014241063109302279 0 8.9776511925146834e-05 -0.013758508369318113 0 -7.1183542618856449e-05 -0.014241063109302279 0 8.9776511925146834e-05 -0.013758508369318113 0 -0.0001083281463464413 -0.013584517252766819 0 8.9776511925146834e-05 -0.013758508369318113 0 -2.4950944111325753e-06 -0.013441862744250434 0 7.6278699198379239e-05 -0.013181876169865639 0 8.9776511925146834e-05 -0.013758508369318113 0 -2.4950944111325753e-06 -0.013441862744250434 0 0.00010004664990759433 -0.013574711550914663 0 -2.4950944111325753e-06 -0.013441862744250434 0 7.6278699198379239e-05 -0.013181876169865639 0 -0.00012623723070017103 -0.012613411803837554 0 8.1915591135370704e-08 -0.013404487671690458 0 7.6278699198379239e-05 -0.013181876169865639 0 3.9821613594372682e-07 -0.01221089132358727 0 7.6278699198379239e-05 -0.013181876169865639 0 3.9821613594372682e-07 -0.01221089132358727 0 -0.00012623723070017103 -0.012613411803837554 0 3.9821613594372682e-07 -0.01221089132358727 0 -0.00012623723070017103 -0.012613411803837554 0 -4.8259597444889134e-05 -0.012187801198004552 0 3.9821613594372682e-07 -0.01221089132358727 0 -1.164269831418772e-06 -0.01132198007478556 0 -4.8259597444889134e-05 -0.012187801198004552 0 -0.00027462137327815639 -0.0123386114900723 0 -4.8259597444889134e-05 -0.012187801198004552 0 -0.00013691984227423787 -0.012432537919611191 0 -0.00012623723070017103 -0.012613411803837554 0 -4.8259597444889134e-05 -0.012187801198004552 0 -0.00013691984227423787 -0.012432537919611191 0 -0.00023415665615459963 -0.012385374928645125 0 -0.00012623723070017103 -0.012613411803837554 0 -0.00013691984227423787 -0.012432537919611191 0 -9.5619532766513164e-05 -0.012898604888320267 0 -0.00013826014143117764 -0.01265348972034421 0 -0.00023415665615459963 -0.012385374928645125 0 -0.00013691984227423787 -0.012432537919611191 0 -0.00023149585947897824 -0.012357921391870766 0 -0.00013691984227423787 -0.012432537919611191 0 -0.00012845210132811599 -0.012305918069048252 0 -0.00023149585947897824 -0.012357921391870766 0 -0.00010682332427627085 -0.01224834737493407 0 -0.00013691984227423787 -0.012432537919611191 0 -0.00012845210132811599 -0.012305918069048252 0 -0.00012845210132811599 -0.012305918069048252 0 -0.00023149585947897824 -0.012357921391870766 0 -0.00011073878905721676 -0.01212729996767797 0 -0.00023149585947897824 -0.012357921391870766 0 -0.00025905042509614441 -0.012373440482735457 0 -0.00010875282648877929 -0.012380970786694727 0 -0.00023149585947897824 -0.012357921391870766 0 -0.00025905042509614441 -0.012373440482735457 0 -0.00011073878905721676 -0.01212729996767797 0 -0.00025905042509614441 -0.012373440482735457 0 -0.00045304049679972271 -0.01287019455765441 0 -0.00019250263877085898 -0.012879203958253876 0 -0.000265750118910745 -0.012359781965170367 0 -0.00023042247073957125 -0.012268159634730231 0 -0.00025905042509614441 -0.012373440482735457 0 -0.00011073878905721676 -0.01212729996767797 0 -0.00010197849792829765 -0.011725265657520106 0 0.00016132061752476676 -0.011966351059222594 0 -0.00012845210132811599 -0.012305918069048252 0 -0.00011073878905721676 -0.01212729996767797 0 0.00016132061752476676 -0.011966351059222594 0 -0.00011073878905721676 -0.01212729996767797 0 -0.00010197849792829765 -0.011725265657520106 0 -0.00037784886836243292 -0.012989483799130635 0 -0.00045304049679972271 -0.01287019455765441 0 -0.00041509669016811374 -0.012993319752435818 0 -0.00045304049679972271 -0.01287019455765441 0 -0.00034212969543324879 -0.012960300778240209 0 -0.00041509669016811374 -0.012993319752435818 0 -0.00034212969543324879 -0.012960300778240209 0 -0.00033072375300497689 -0.013036843761743752 0 -0.00041509669016811374 -0.012993319752435818 0 -0.00024714894071322822 -0.012997973737032559 0 -0.00034212969543324879 -0.012960300778240209 0 -0.00019250263877085898 -0.012879203958253876 0 -0.00024714894071322822 -0.012997973737032559 0 -0.00034212969543324879 -0.012960300778240209 0 -0.00033072375300497689 -0.013036843761743752 0 -0.00045304049679972271 -0.01287019455765441 0 -0.00034212969543324879 -0.012960300778240209 0 -0.00019250263877085898 -0.012879203958253876 0 -0.00019250263877085898 -0.012879203958253876 0 8.7746232067568636e-05 -0.01298155501507443 0 -0.00012639597148188564 -0.012650526949878968 0 -0.00019625027880575629 -0.012621379189834548 0 -0.00011232751333826431 -0.013866705716639501 0 -0.00024714894071322822 -0.012997973737032559 0 -0.00019250263877085898 -0.012879203958253876 0 -0.00016360917174251731 -0.012985913927086066 0 -0.00019250263877085898 -0.012879203958253876 0 -0.00016360917174251731 -0.012985913927086066 0 -6.3365355939872195e-05 -0.012989632993741361 0 -0.00024714894071322822 -0.012997973737032559 0 -0.00016360917174251731 -0.012985913927086066 0 -0.00018564973688694182 -0.013046078318324002 0 -0.00016360917174251731 -0.012985913927086066 0 -6.3365355939872195e-05 -0.012989632993741361 0 -0.00010263450663759937 -0.01307665332293402 0 -0.00011232751333826431 -0.013866705716639501 0 -0.00016289401799568989 -0.013686943486240589 0 -0.00019250263877085898 -0.012879203958253876 0 0.00011016239145501183 -0.013048179149246285 0 8.7746232067568636e-05 -0.01298155501507443 0 -0.00011232751333826431 -0.013866705716639501 0 -0.0001190765624962803 -0.014022763774606373 0 0.00011016239145501183 -0.013048179149246285 0 8.7746232067568636e-05 -0.01298155501507443 0 -5.6886146760874324e-05 -0.013093931272482331 0 8.7746232067568636e-05 -0.01298155501507443 0 4.2490806861062509e-05 -0.013350249753225142 0 0.00017232998660847955 -0.013493012208302095 0 7.8267105973999922e-05 -0.012969263648311838 0 1.983325595578496e-05 -0.012938112170753897 0 8.7746232067568636e-05 -0.01298155501507443 0 4.2490806861062509e-05 -0.013350249753225142 0 -5.6886146760874324e-05 -0.013093931272482331 0 -0.00025905042509614441 -0.012373440482735457 0 -0.00019250263877085898 -0.012879203958253876 0 -0.00012639597148188564 -0.012650526949878968 0 8.7746232067568636e-05 -0.01298155501507443 0 -0.00012639597148188564 -0.012650526949878968 0 -0.00010875282648877929 -0.012380970786694727 0 -0.00025905042509614441 -0.012373440482735457 0 -0.00012639597148188564 -0.012650526949878968 0 -0.00010875282648877929 -0.012380970786694727 0 -2.4950944111325753e-06 -0.013441862744250434 0 0.00017232998660847955 -0.013493012208302095 0 0.00010004664990759433 -0.013574711550914663 0 -9.5619532766513164e-05 -0.012898604888320267 0 1.983325595578496e-05 -0.012938112170753897 0 -0.00023415665615459963 -0.012385374928645125 0 -0.00023149585947897824 -0.012357921391870766 0 -0.00010875282648877929 -0.012380970786694727 0 4.2490806861062509e-05 -0.013350249753225142 0 0.00017232998660847955 -0.013493012208302095 0 0.00010004664990759433 -0.013574711550914663 0 8.9776511925146834e-05 -0.013758508369318113 0 0.00010004664990759433 -0.013574711550914663 0 -0.0001083281463464413 -0.013584517252766819 0 4.2490806861062509e-05 -0.013350249753225142 0 0.00010004664990759433 -0.013574711550914663 0 -0.0001083281463464413 -0.013584517252766819 0 -7.1183542618856449e-05 -0.014241063109302279 0 -0.00024030937241189862 -0.014713168122182136 0 -4.9972119591776161e-06 -0.014880470071477289 0 -9.0052458499686037e-05 -0.014212223640915326 0 -0.00015154829999470881 -0.014128443113880999 0 -0.00024030937241189862 -0.014713168122182136 0 -0.00012760797357747169 -0.014886719015445775 0 -4.9972119591776161e-06 -0.014880470071477289 0 -0.00015154829999470881 -0.014128443113880999 0 -0.0001190765624962803 -0.014022763774606373 0 -0.00024030937241189862 -0.014713168122182136 0 -0.00012760797357747169 -0.014886719015445775 0 -0.00020113126393996156 -0.014893308742975951 0 4.2490806861062509e-05 -0.013350249753225142 0 -0.0001083281463464413 -0.013584517252766819 0 -5.6886146760874324e-05 -0.013093931272482331 0 -0.00012760797357747169 -0.014886719015445775 0 -0.00020113126393996156 -0.014893308742975951 0 -0.00014510831928197938 -0.014947823812548125 0 -0.00019615137945327448 -0.014956340501069846 0 -0.00020113126393996156 -0.014893308742975951 0 -0.00014510831928197938 -0.014947823812548125 0 -0.00011232751333826431 -0.013866705716639501 0 -0.00020465392670343261 -0.014773163609916661 0 -0.00019615137945327448 -0.014956340501069846 0 -0.00014510831928197938 -0.014947823812548125 0 -0.00011607705294229034 -0.01498326885789982 0 -0.00014510831928197938 -0.014947823812548125 0 -6.6422176340008454e-05 -0.014962657351801556 0 -0.00011607705294229034 -0.01498326885789982 0 -0.00012760797357747169 -0.014886719015445775 0 -6.6422176340008454e-05 -0.014962657351801556 0 -4.9972119591776161e-06 -0.014880470071477289 0 -0.00012760797357747169 -0.014886719015445775 0 -0.00014510831928197938 -0.014947823812548125 0 -6.6422176340008454e-05 -0.014962657351801556 0 -6.6422176340008454e-05 -0.014962657351801556 0 9.3495492264410323e-08 -0.015000447936392472 0 -4.9972119591776161e-06 -0.014880470071477289 0 -6.6422176340008454e-05 -0.014962657351801556 0 9.3495492264410323e-08 -0.015000447936392472 0 -4.5314913445043353e-05 -0.01496601993203763 0 1.3156400758464776e-07 -0.014998876417950953 0 -7.1183542618856449e-05 -0.014241063109302279 0 -4.9972119591776161e-06 -0.014880470071477289 0 1.3156400758464776e-07 -0.014998876417950953 0 9.3495492264410323e-08 -0.015000447936392472 0 -4.9972119591776161e-06 -0.014880470071477289 0 -2.7760393740272648e-08 -0.014999878739325791 0 -3.8273042527126593e-05 -0.014797744572429855 0 -3.4818518658668971e-09 -0.014999949106326266 0 8.6848507042085809e-09 -0.015000112629882925 0 8.1825404310152015e-06 -0.015000509969024108 0 -0.00011196460459071719 -0.014633695189583179 0 -6.7690025791314759e-07 -0.014998300158495407 0 -0.0001158996645899068 -0.014566948516075423 0 -0.00011196460459071719 -0.014633695189583179 0 -0.00013799718803576112 -0.014575388074712968 0 -0.0001158996645899068 -0.014566948516075423 0 -0.00011196460459071719 -0.014633695189583179 0 -0.0002417537695054743 -0.014465126011184673 0 -0.00019199313737412662 -0.014556314028346087 0 -0.00011196460459071719 -0.014633695189583179 0 -0.0001780488826823214 -0.014536754622855048 0 -0.00013799718803576112 -0.014575388074712968 0 -0.00011196460459071719 -0.014633695189583179 0 -0.0002417537695054743 -0.014465126011184673 0 -0.0001780488826823214 -0.014536754622855048 0 -0.0002417537695054743 -0.014465126011184673 0 -0.00019199313737412662 -0.014556314028346087 0 -0.00028468733791153463 -0.01442731661286978 0 -0.00019199313737412662 -0.014556314028346087 0 -0.00024692429521720592 -0.014517369094638717 0 -0.00028468733791153463 -0.01442731661286978 0 -0.00011196460459071719 -0.014633695189583179 0 -0.00019199313737412662 -0.014556314028346087 0 -0.00011009833028227313 -0.014734575234367747 0 -0.00011009833028227313 -0.014734575234367747 0 -0.00021906562353938452 -0.014580068219062967 0 -3.8598052373058566e-05 -0.014918011765614738 0 -0.00011009833028227313 -0.014734575234367747 0 -0.00021906562353938452 -0.014580068219062967 0 -0.00024692429521720592 -0.014517369094638717 0 -0.00019199313737412662 -0.014556314028346087 0 -0.00011009833028227313 -0.014734575234367747 0 -0.00024692429521720592 -0.014517369094638717 0 -0.00011009833028227313 -0.014734575234367747 0 -6.7690025791314759e-07 -0.014998300158495407 0 -3.8598052373058566e-05 -0.014918011765614738 0 -0.00011196460459071719 -0.014633695189583179 0 -0.00011009833028227313 -0.014734575234367747 0 -6.7690025791314759e-07 -0.014998300158495407 0 9.3495492264410323e-08 -0.015000447936392472 0 -6.7690025791314759e-07 -0.014998300158495407 0 -3.8598052373058566e-05 -0.014918011765614738 0 9.3495492264410323e-08 -0.015000447936392472 0 -3.8598052373058566e-05 -0.014918011765614738 0 -4.5314913445043353e-05 -0.01496601993203763 0 -0.00021906562353938452 -0.014580068219062967 0 -3.8598052373058566e-05 -0.014918011765614738 0 -0.00023716736371985433 -0.01441421583356434 0 -4.8843828821535756e-05 -0.014874017624065412 0 -0.00016433974676402456 -0.014693160245050961 0 -0.00021906562353938452 -0.014580068219062967 0 -0.00031348524050357106 -0.014421571518650415 0 -0.00031678705651376612 -0.014436616847839073 0 -0.00023716736371985433 -0.01441421583356434 0 -0.00031348524050357106 -0.014421571518650415 0 -0.00033798573808110091 -0.014376900739902587 0 -6.6422176340008454e-05 -0.014962657351801556 0 -4.5314913445043353e-05 -0.01496601993203763 0 -0.00011607705294229034 -0.01498326885789982 0 -0.00021906562353938452 -0.014580068219062967 0 -0.00023716736371985433 -0.01441421583356434 0 -0.00031348524050357106 -0.014421571518650415 0 -0.00031348524050357106 -0.014421571518650415 0 -0.00034920880255508396 -0.014377321682295319 0 -0.00031678705651376612 -0.014436616847839073 0 -0.00016433974676402456 -0.014693160245050961 0 -0.00020465392670343261 -0.014773163609916661 0 -0.00031394508201267214 -0.014404059723900384 0 -0.00033798573808110091 -0.014376900739902587 0 -0.00032786160316670889 -0.014381753106678778 0 -0.00033798573808110091 -0.014376900739902587 0 -0.00032786160316670889 -0.014381753106678778 0 -0.00034920880255508396 -0.014377321682295319 0 -0.00032786160316670889 -0.014381753106678778 0 -0.00034920880255508396 -0.014377321682295319 0 -0.00032686708554707875 -0.014372323405433419 0 -0.00031348524050357106 -0.014421571518650415 0 -0.00033798573808110091 -0.014376900739902587 0 -0.00034920880255508396 -0.014377321682295319 0 -0.00034920880255508396 -0.014377321682295319 0 -0.00032785997003124956 -0.014336898873711618 0 -0.00032686708554707875 -0.014372323405433419 0 -0.00034920880255508396 -0.014377321682295319 0 -0.00035489169818130517 -0.014316373496855996 0 -0.00032785997003124956 -0.014336898873711618 0 -0.00035489169818130517 -0.014316373496855996 0 -0.00037128280031328956 -0.014247721567394107 0 -0.00035602354806245519 -0.014341829644429812 0 -0.00034920880255508396 -0.014377321682295319 0 -0.00035489169818130517 -0.014316373496855996 0 -0.00035602354806245519 -0.014341829644429812 0 -0.00037128280031328956 -0.014247721567394107 0 -0.00035602354806245519 -0.014341829644429812 0 -0.00037602049689843355 -0.014256884901299399 0 -0.00035602354806245519 -0.014341829644429812 0 -0.00033792719012487669 -0.014360594480801701 0 -0.00037602049689843355 -0.014256884901299399 0 -0.00034920880255508396 -0.014377321682295319 0 -0.00035602354806245519 -0.014341829644429812 0 -0.00031678705651376612 -0.014436616847839073 0 -0.00021906562353938452 -0.014580068219062967 0 -0.00031678705651376612 -0.014436616847839073 0 -0.00024692429521720592 -0.014517369094638717 0 -0.00031678705651376612 -0.014436616847839073 0 -0.00024692429521720592 -0.014517369094638717 0 -0.00033792719012487669 -0.014360594480801701 0 -0.00035602354806245519 -0.014341829644429812 0 -0.00031678705651376612 -0.014436616847839073 0 -0.00033792719012487669 -0.014360594480801701 0 -0.00033792719012487669 -0.014360594480801701 0 -0.00033638648274774465 -0.014315783869215962 0 -0.00038352556150351763 -0.014216213069806524 0 -0.00033792719012487669 -0.014360594480801701 0 -0.00028468733791153463 -0.01442731661286978 0 -0.00033638648274774465 -0.014315783869215962 0 -0.00024692429521720592 -0.014517369094638717 0 -0.00033792719012487669 -0.014360594480801701 0 -0.00028468733791153463 -0.01442731661286978 0 -0.0002417537695054743 -0.014465126011184673 0 -0.00033638648274774465 -0.014315783869215962 0 -0.00031894657071173386 -0.014337174384823367 0 -0.0002417537695054743 -0.014465126011184673 0 -0.00028468733791153463 -0.01442731661286978 0 -0.00033638648274774465 -0.014315783869215962 0 -0.00033638648274774465 -0.014315783869215962 0 -0.00038352556150351763 -0.014216213069806524 0 -0.00037704866700865724 -0.014207262355994803 0 -0.00038352556150351763 -0.014216213069806524 0 -0.00041833026591035988 -0.01405093648121469 0 -0.00037704866700865724 -0.014207262355994803 0 -0.00040001583702845966 -0.014120484778532245 0 -0.00042509027948137661 -0.01388455139452203 0 -0.00041833026591035988 -0.01405093648121469 0 -0.00038352556150351763 -0.014216213069806524 0 -0.00040001583702845966 -0.014120484778532245 0 -0.00041833026591035988 -0.01405093648121469 0 -0.00038352556150351763 -0.014216213069806524 0 -0.00040001583702845966 -0.014120484778532245 0 -0.00037602049689843355 -0.014256884901299399 0 -0.00037128280031328956 -0.014247721567394107 0 -0.00040001583702845966 -0.014120484778532245 0 -0.00037602049689843355 -0.014256884901299399 0 -0.00033792719012487669 -0.014360594480801701 0 -0.00038352556150351763 -0.014216213069806524 0 -0.00037602049689843355 -0.014256884901299399 0 -0.00032443209580825037 -0.014075763753755844 0 -0.00037718805838316325 -0.014038474819344457 0 -0.00034740185609319037 -0.013908188700510776 0 -0.00040001583702845966 -0.014120484778532245 0 -0.00037718805838316325 -0.014038474819344457 0 -0.00036159440249690941 -0.014159519951252147 0 -0.00032443209580825037 -0.014075763753755844 0 -0.00037718805838316325 -0.014038474819344457 0 -0.00036159440249690941 -0.014159519951252147 0 -0.00037128280031328956 -0.014247721567394107 0 -0.00040001583702845966 -0.014120484778532245 0 -0.00036159440249690941 -0.014159519951252147 0 -0.00040001583702845966 -0.014120484778532245 0 -0.00037718805838316325 -0.014038474819344457 0 -0.00042509027948137661 -0.01388455139452203 0 -0.00037718805838316325 -0.014038474819344457 0 -0.00034740185609319037 -0.013908188700510776 0 -0.00042509027948137661 -0.01388455139452203 0 -0.00034740185609319037 -0.013908188700510776 0 -0.00033354108045976257 -0.013651912041110577 0 -0.00042509027948137661 -0.01388455139452203 0 -0.00034740185609319037 -0.013908188700510776 0 -0.00020033469302022675 -0.013923305264596082 0 -0.00033354108045976257 -0.013651912041110577 0 -0.00020033469302022675 -0.013923305264596082 0 -0.00013828215965653887 -0.013537893267851042 0 -0.00033354108045976257 -0.013651912041110577 0 -1.620776681392815e-05 -0.013818865262815819 0 -0.00020033469302022675 -0.013923305264596082 0 -0.00013828215965653887 -0.013537893267851042 0 -1.620776681392815e-05 -0.013818865262815819 0 -0.00020033469302022675 -0.013923305264596082 0 6.5037476894536252e-05 -0.014022280716586923 0 -0.00020033469302022675 -0.013923305264596082 0 -0.00013865502120909463 -0.014141571583358971 0 6.5037476894536252e-05 -0.014022280716586923 0 -0.00032443209580825037 -0.014075763753755844 0 -0.00034740185609319037 -0.013908188700510776 0 -0.00020033469302022675 -0.013923305264596082 0 -0.00032443209580825037 -0.014075763753755844 0 -0.00020033469302022675 -0.013923305264596082 0 -0.00023783033554500356 -0.014132917546868719 0 -0.00023783033554500356 -0.014132917546868719 0 -0.00022923906975090555 -0.014284143493022606 0 -0.00030643131659306542 -0.014201621567763084 0 -0.00023783033554500356 -0.014132917546868719 0 -0.00013865502120909463 -0.014141571583358971 0 -0.00022923906975090555 -0.014284143493022606 0 -0.00020033469302022675 -0.013923305264596082 0 -0.00023783033554500356 -0.014132917546868719 0 -0.00013865502120909463 -0.014141571583358971 0 -0.00013865502120909463 -0.014141571583358971 0 -0.00012184549075216166 -0.014278393117410386 0 6.5037476894536252e-05 -0.014022280716586923 0 -0.00010841872460385269 -0.014338935662838073 0 5.1061206557494963e-05 -0.01403960942731006 0 -0.00013865502120909463 -0.014141571583358971 0 -0.00012184549075216166 -0.014278393117410386 0 -0.00022923906975090555 -0.014284143493022606 0 -0.00022923906975090555 -0.014284143493022606 0 -0.00030019086014334927 -0.014287576107302434 0 -0.00028761098588605627 -0.014332778848775343 0 -0.00030019086014334927 -0.014287576107302434 0 -0.00030643131659306542 -0.014201621567763084 0 -0.00034189221285186542 -0.014263286973923575 0 -0.00022923906975090555 -0.014284143493022606 0 -0.00030019086014334927 -0.014287576107302434 0 -0.00030643131659306542 -0.014201621567763084 0 -0.00032443209580825037 -0.014075763753755844 0 -0.00030643131659306542 -0.014201621567763084 0 -0.00036159440249690941 -0.014159519951252147 0 -0.00032443209580825037 -0.014075763753755844 0 -0.00023783033554500356 -0.014132917546868719 0 -0.00030643131659306542 -0.014201621567763084 0 -0.00037128280031328956 -0.014247721567394107 0 -0.00036159440249690941 -0.014159519951252147 0 -0.00034189221285186542 -0.014263286973923575 0 -0.00030643131659306542 -0.014201621567763084 0 -0.00036159440249690941 -0.014159519951252147 0 -0.00034189221285186542 -0.014263286973923575 0 -0.00035489169818130517 -0.014316373496855996 0 -0.00037128280031328956 -0.014247721567394107 0 -0.00034189221285186542 -0.014263286973923575 0 -0.00035489169818130517 -0.014316373496855996 0 -0.00034189221285186542 -0.014263286973923575 0 -0.00032785997003124956 -0.014336898873711618 0 -0.00030019086014334927 -0.014287576107302434 0 -0.00034189221285186542 -0.014263286973923575 0 -0.00032785997003124956 -0.014336898873711618 0 -0.00022923906975090555 -0.014284143493022606 0 -0.00028761098588605627 -0.014332778848775343 0 -0.00026953867902678087 -0.014354423096227914 0 -0.00030019086014334927 -0.014287576107302434 0 -0.00032785997003124956 -0.014336898873711618 0 -0.00028761098588605627 -0.014332778848775343 0 -0.00032785997003124956 -0.014336898873711618 0 -0.00028761098588605627 -0.014332778848775343 0 -0.00030115864190531291 -0.014364815207059211 0 -0.00028761098588605627 -0.014332778848775343 0 -0.00026953867902678087 -0.014354423096227914 0 -0.00030115864190531291 -0.014364815207059211 0 -0.00026953867902678087 -0.014354423096227914 0 -0.00030115864190531291 -0.014364815207059211 0 -0.00027877362745604937 -0.014381513436232164 0 -0.00030115864190531291 -0.014364815207059211 0 -0.00027877362745604937 -0.014381513436232164 0 -0.00030907762190905198 -0.014381596321964301 0 -0.00032785997003124956 -0.014336898873711618 0 -0.00030115864190531291 -0.014364815207059211 0 -0.00032686708554707875 -0.014372323405433419 0 -0.00030115864190531291 -0.014364815207059211 0 -0.00032686708554707875 -0.014372323405433419 0 -0.00030907762190905198 -0.014381596321964301 0 -0.00031394508201267214 -0.014404059723900384 0 -0.00032786160316670889 -0.014381753106678778 0 -0.00029847850647122837 -0.014390024822112884 0 -0.00032786160316670889 -0.014381753106678778 0 -0.00032686708554707875 -0.014372323405433419 0 -0.00030907762190905198 -0.014381596321964301 0 -0.00032786160316670889 -0.014381753106678778 0 -0.00030907762190905198 -0.014381596321964301 0 -0.00029847850647122837 -0.014390024822112884 0 -0.00027877362745604937 -0.014381513436232164 0 -0.00030907762190905198 -0.014381596321964301 0 -0.00029847850647122837 -0.014390024822112884 0 -0.00018564973688694182 -0.013046078318324002 0 -0.00017088883911683633 -0.013104039003822104 0 -0.00025012271684602799 -0.013064328114710783 0 -0.00010263450663759937 -0.01307665332293402 0 -0.00018564973688694182 -0.013046078318324002 0 -0.00017088883911683633 -0.013104039003822104 0 -0.00016360917174251731 -0.012985913927086066 0 -0.00010263450663759937 -0.01307665332293402 0 -0.00018564973688694182 -0.013046078318324002 0 -0.00010263450663759937 -0.01307665332293402 0 -0.00017088883911683633 -0.013104039003822104 0 -0.00014666081808290348 -0.01317455353214117 0 -0.00016289401799568989 -0.013686943486240589 0 -0.00013375937001440874 -0.014101495137382895 0 -0.00027877362745604937 -0.014381513436232164 0 -0.00029847850647122837 -0.014390024822112884 0 -0.00026856557957322466 -0.014379203228196455 0 -0.00017088883911683633 -0.013104039003822104 0 -0.00023930393618295127 -0.013137623770010603 0 -0.00025012271684602799 -0.013064328114710783 0 -0.00017088883911683633 -0.013104039003822104 0 -0.00020151150019225979 -0.013160494201284118 0 -0.00023930393618295127 -0.013137623770010603 0 -0.00017088883911683633 -0.013104039003822104 0 -0.00020151150019225979 -0.013160494201284118 0 -0.00014666081808290348 -0.01317455353214117 0 -0.00020151150019225979 -0.013160494201284118 0 -0.00014666081808290348 -0.01317455353214117 0 -0.00024950738536177471 -0.013226745408428163 0 -0.00024929015731562753 -0.014208230822399567 0 -0.00013375937001440874 -0.014101495137382895 0 -0.00026953867902678087 -0.014354423096227914 0 -0.00027877362745604937 -0.014381513436232164 0 -0.00023395575933360518 -0.014384644311988833 0 -0.00012184549075216166 -0.014278393117410386 0 -0.00022923906975090555 -0.014284143493022606 0 -0.00023395575933360518 -0.014384644311988833 0 -0.00022923906975090555 -0.014284143493022606 0 -0.00026953867902678087 -0.014354423096227914 0 -0.00023395575933360518 -0.014384644311988833 0 -0.00010841872460385269 -0.014338935662838073 0 -0.00013375937001440874 -0.014101495137382895 0 -0.00013375937001440874 -0.014101495137382895 0 -6.2168257955472634e-05 -0.0138368878385029 0 -4.6699626821278315e-05 -0.014332872546856553 0 -0.00018025719046053053 -0.014609535908601416 0 0.00012023151430869036 -0.014463415513406059 0 -0.00024950738536177471 -0.013226745408428163 0 -0.00032090789438831932 -0.013193647389380496 0 -0.0002778893921752696 -0.013171333842762421 0 -0.00024950738536177471 -0.013226745408428163 0 -0.00032090789438831932 -0.013193647389380496 0 -0.00035842799217434824 -0.013282670441170791 0 -0.00032090789438831932 -0.013193647389380496 0 -0.0002778893921752696 -0.013171333842762421 0 -0.00030329576026649822 -0.013124594279111827 0 -0.00032090789438831932 -0.013193647389380496 0 -0.00030329576026649822 -0.013124594279111827 0 -0.00039260804735188784 -0.013148774664716178 0 -0.00020151150019225979 -0.013160494201284118 0 -0.00024950738536177471 -0.013226745408428163 0 -0.00023930393618295127 -0.013137623770010603 0 -0.0002778893921752696 -0.013171333842762421 0 -0.00023930393618295127 -0.013137623770010603 0 -0.00030329576026649822 -0.013124594279111827 0 -0.00024950738536177471 -0.013226745408428163 0 -0.0002778893921752696 -0.013171333842762421 0 -0.00023930393618295127 -0.013137623770010603 0 -0.00023930393618295127 -0.013137623770010603 0 -0.00030329576026649822 -0.013124594279111827 0 -0.00025012271684602799 -0.013064328114710783 0 -0.00030329576026649822 -0.013124594279111827 0 -0.00033072375300497689 -0.013036843761743752 0 -0.00039260804735188784 -0.013148774664716178 0 -0.00030329576026649822 -0.013124594279111827 0 -0.00033072375300497689 -0.013036843761743752 0 -0.00025012271684602799 -0.013064328114710783 0 -0.00024714894071322822 -0.012997973737032559 0 -0.00018564973688694182 -0.013046078318324002 0 -0.00025012271684602799 -0.013064328114710783 0 -0.00024714894071322822 -0.012997973737032559 0 -0.00033072375300497689 -0.013036843761743752 0 -0.00025012271684602799 -0.013064328114710783 0 -0.0004156388080059026 -0.013011454357664223 0 -0.00043710393485283668 -0.012968553591453503 0 -0.00033072375300497689 -0.013036843761743752 0 -0.00041509669016811374 -0.012993319752435818 0 -0.00039260804735188784 -0.013148774664716178 0 -0.00041509669016811374 -0.012993319752435818 0 -0.00046028013084585068 -0.012876561250288403 0 -0.00037316179750867824 -0.012886902081394666 0 -0.00046028013084585068 -0.012876561250288403 0 -0.00041867261031637115 -0.012810478455685189 0 -0.00048765036473330357 -0.012763797323429008 0 -0.00032090789438831932 -0.013193647389380496 0 -0.00039260804735188784 -0.013148774664716178 0 -0.00035842799217434824 -0.013282670441170791 0 -0.00046028013084585068 -0.012876561250288403 0 -0.00041867261031637115 -0.012810478455685189 0 -0.00037316179750867824 -0.012886902081394666 0 -0.00043710393485283668 -0.012968553591453503 0 -0.00020342049801461609 -0.013220408554347508 0 -0.00041867261031637115 -0.012810478455685189 0 -0.00044121800549917024 -0.012738147466518388 0 -0.00048765036473330357 -0.012763797323429008 0 9.8687684532045657e-05 -0.013166775843041049 0 -0.00020342049801461609 -0.013220408554347508 0 -1.635226135065622e-05 -0.012741585920075071 0 7.0071924390016613e-05 -0.012785463401275989 0 5.0167109254924263e-05 -0.012709155811970935 0 0.00017524623746933082 -0.012107974943534055 0 9.8687684532045657e-05 -0.013166775843041049 0 -0.00016436031642980584 -0.012224809731271959 0 -0.00027845951525835562 -0.012135561110524462 0 -0.00017804337044996727 -0.012050609284805766 0 0.00017524623746933082 -0.012107974943534055 0 -0.00020342049801461609 -0.013220408554347508 0 -6.2168257955472634e-05 -0.0138368878385029 0 -0.00020342049801461609 -0.013220408554347508 0 0.00012023151430869036 -0.014463415513406059 0 0.00044709387919173447 -0.014300481313762515 0 0.00025031416506927288 -0.014235712461318748 0 -4.6699626821278315e-05 -0.014332872546856553 0 0.00012023151430869036 -0.014463415513406059 0 0.0001095029309827506 -0.014306659192399367 0 0.00012023151430869036 -0.014463415513406059 0 0.00025031416506927288 -0.014235712461318748 0 0.0001095029309827506 -0.014306659192399367 0 -4.6699626821278315e-05 -0.014332872546856553 0 0.0001095029309827506 -0.014306659192399367 0 0.00012241901419615315 -0.014193238926290045 0 0.00025031416506927288 -0.014235712461318748 0 0.0001095029309827506 -0.014306659192399367 0 0.00012241901419615315 -0.014193238926290045 0 0.00025031416506927288 -0.014235712461318748 0 0.00012241901419615315 -0.014193238926290045 0 0.00028060232872782 -0.0140598968936339 0 -4.6699626821278315e-05 -0.014332872546856553 0 0.00012241901419615315 -0.014193238926290045 0 6.5037476894536252e-05 -0.014022280716586923 0 0.00012241901419615315 -0.014193238926290045 0 0.00028060232872782 -0.0140598968936339 0 6.5037476894536252e-05 -0.014022280716586923 0 0.00040584971048516236 -0.014123790213265271 0 0.00044709387919173447 -0.014300481313762515 0 0.00025031416506927288 -0.014235712461318748 0 0.00040584971048516236 -0.014123790213265271 0 0.00025031416506927288 -0.014235712461318748 0 0.00028060232872782 -0.0140598968936339 0 9.8687684532045657e-05 -0.013166775843041049 0 0.00045691996744824155 -0.013652587001273645 0 0.00046969190707942524 -0.014156218243603804 0 0.00023825945391396772 -0.013851061173711524 0 0.00040631267406461389 -0.013588322074167406 0 9.8687684532045657e-05 -0.013166775843041049 0 5.7480597045739615e-05 -0.01273650694686855 0 0.00046969190707942524 -0.014156218243603804 0 0.00028060232872782 -0.0140598968936339 0 0.00023825945391396772 -0.013851061173711524 0 0.00028060232872782 -0.0140598968936339 0 6.5037476894536252e-05 -0.014022280716586923 0 0.00023825945391396772 -0.013851061173711524 0 -1.620776681392815e-05 -0.013818865262815819 0 6.5037476894536252e-05 -0.014022280716586923 0 0.00023825945391396772 -0.013851061173711524 0 -1.620776681392815e-05 -0.013818865262815819 0 0.00023825945391396772 -0.013851061173711524 0 0.00040631267406461389 -0.013588322074167406 0 -1.620776681392815e-05 -0.013818865262815819 0 0.00040631267406461389 -0.013588322074167406 0 -0.00013828215965653887 -0.013537893267851042 0 -0.00027845951525835562 -0.012135561110524462 0 -0.00025051058848797603 -0.011876459956568917 0 -0.00017804337044996727 -0.012050609284805766 0 -0.00025051058848797603 -0.011876459956568917 0 -0.00015472877342034906 -0.011911314936947812 0 -0.00017804337044996727 -0.012050609284805766 0 -0.00025051058848797603 -0.011876459956568917 0 -0.00015472877342034906 -0.011911314936947812 0 -0.00030949688482778893 -0.011896642141815386 0 -0.00015472877342034906 -0.011911314936947812 0 -0.00030949688482778893 -0.011896642141815386 0 -7.0575671654922226e-05 -0.011639340552971446 0 0.00040631267406461389 -0.013588322074167406 0 -5.9492549014019975e-05 -0.013168691955212895 0 -6.2731056364811859e-05 -0.012397530018041574 0 -0.00025051058848797603 -0.011876459956568917 0 -0.00030949688482778893 -0.011896642141815386 0 -6.2731056364811859e-05 -0.012397530018041574 0 5.7480597045739615e-05 -0.01273650694686855 0 -3.308014786804403e-05 -0.012445087300357871 0 0.00040631267406461389 -0.013588322074167406 0 -5.9492549014019975e-05 -0.013168691955212895 0 -0.00013828215965653887 -0.013537893267851042 0 -5.9492549014019975e-05 -0.013168691955212895 0 -6.2731056364811859e-05 -0.012397530018041574 0 -0.00027082127454420375 -0.013196677270473614 0 -6.2731056364811859e-05 -0.012397530018041574 0 -0.00014146918199423362 -0.012326315525791014 0 -0.00030447137350691908 -0.012842602942632371 0 -6.2731056364811859e-05 -0.012397530018041574 0 -0.00014146918199423362 -0.012326315525791014 0 -0.00044309636510746388 -0.011819788038620443 0 -0.00030949688482778893 -0.011896642141815386 0 -6.2731056364811859e-05 -0.012397530018041574 0 -0.00044309636510746388 -0.011819788038620443 0 -0.00030949688482778893 -0.011896642141815386 0 -0.00044309636510746388 -0.011819788038620443 0 -7.0575671654922226e-05 -0.011639340552971446 0 -0.00044309636510746388 -0.011819788038620443 0 -0.00026659514247019797 -0.012392233858986886 0 -0.00020180944920956091 -0.012334375604721125 0 -0.00044309636510746388 -0.011819788038620443 0 -0.00067954308844168942 -0.0096492022188953488 0 3.1620448195223569e-05 -0.010667495383823517 0 -0.00046230282768618591 -0.011698226722901526 0 -0.00043699765179535321 -0.011031762281996114 0 -0.00026659514247019797 -0.012392233858986886 0 -0.00020180944920956091 -0.012334375604721125 0 -0.00025052952692481822 -0.012323263843127133 0 -0.00020180944920956091 -0.012334375604721125 0 -0.00022037610345160754 -0.012362156662560358 0 -0.00025052952692481822 -0.012323263843127133 0 -0.00014146918199423362 -0.012326315525791014 0 -0.00044309636510746388 -0.011819788038620443 0 -0.00020180944920956091 -0.012334375604721125 0 -0.00014146918199423362 -0.012326315525791014 0 -0.00020180944920956091 -0.012334375604721125 0 -0.00022037610345160754 -0.012362156662560358 0 -0.00014146918199423362 -0.012326315525791014 0 -0.00022037610345160754 -0.012362156662560358 0 -0.00030447137350691908 -0.012842602942632371 0 -0.00022037610345160754 -0.012362156662560358 0 -0.00040665203989394147 -0.01247776402380419 0 -0.00030447137350691908 -0.012842602942632371 0 -0.00022037610345160754 -0.012362156662560358 0 -0.00035478376234053413 -0.012331195439866835 0 -0.00040665203989394147 -0.01247776402380419 0 -0.00022037610345160754 -0.012362156662560358 0 -0.00035478376234053413 -0.012331195439866835 0 -0.00025052952692481822 -0.012323263843127133 0 -0.00035478376234053413 -0.012331195439866835 0 -0.00040665203989394147 -0.01247776402380419 0 -0.00052585680578526208 -0.01242294785225059 0 -0.00035478376234053413 -0.012331195439866835 0 -0.00052585680578526208 -0.01242294785225059 0 -0.00051557542459077942 -0.012260641187103682 0 -0.00040665203989394147 -0.01247776402380419 0 -0.00059329769101853721 -0.012618901970459206 0 -0.00052585680578526208 -0.01242294785225059 0 -0.00030447137350691908 -0.012842602942632371 0 -0.00043560486301810915 -0.013533402100503458 0 -0.00048427817772115381 -0.014051577640175164 0 -0.00024621698798076784 -0.012970744634028497 0 -0.00052667349869303832 -0.013230222383474696 0 -0.00040665203989394147 -0.01247776402380419 0 -0.00030447137350691908 -0.012842602942632371 0 -0.00059329769101853721 -0.012618901970459206 0 -6.2731056364811859e-05 -0.012397530018041574 0 -0.00030447137350691908 -0.012842602942632371 0 -0.00027082127454420375 -0.013196677270473614 0 -0.00027082127454420375 -0.013196677270473614 0 -0.00033354108045976257 -0.013651912041110577 0 -0.00043560486301810915 -0.013533402100503458 0 -0.00030447137350691908 -0.012842602942632371 0 -0.00027082127454420375 -0.013196677270473614 0 -0.00043560486301810915 -0.013533402100503458 0 -5.9492549014019975e-05 -0.013168691955212895 0 -0.00027082127454420375 -0.013196677270473614 0 -0.00013828215965653887 -0.013537893267851042 0 -0.00027082127454420375 -0.013196677270473614 0 -0.00013828215965653887 -0.013537893267851042 0 -0.00033354108045976257 -0.013651912041110577 0 -0.00033354108045976257 -0.013651912041110577 0 -0.00042509027948137661 -0.01388455139452203 0 -0.00043560486301810915 -0.013533402100503458 0 -0.00042509027948137661 -0.01388455139452203 0 -0.00043560486301810915 -0.013533402100503458 0 -0.00044394015065062759 -0.013938463082976081 0 -0.00044394015065062759 -0.013938463082976081 0 -0.00038900218135669951 -0.014174487199386203 0 -0.00038998182282949873 -0.014243220558342392 0 -0.00044394015065062759 -0.013938463082976081 0 -0.00041833026591035988 -0.01405093648121469 0 -0.00038900218135669951 -0.014174487199386203 0 -0.00042509027948137661 -0.01388455139452203 0 -0.00044394015065062759 -0.013938463082976081 0 -0.00041833026591035988 -0.01405093648121469 0 -0.00041833026591035988 -0.01405093648121469 0 -0.00037704866700865724 -0.014207262355994803 0 -0.00038900218135669951 -0.014174487199386203 0 -0.00033638648274774465 -0.014315783869215962 0 -0.00037704866700865724 -0.014207262355994803 0 -0.00031894657071173386 -0.014337174384823367 0 -0.00037704866700865724 -0.014207262355994803 0 -0.00031894657071173386 -0.014337174384823367 0 -0.00038900218135669951 -0.014174487199386203 0 -0.00031894657071173386 -0.014337174384823367 0 -0.00029886899392874371 -0.014421380145354606 0 -0.00023909520793733121 -0.014477375466180867 0 -0.00031894657071173386 -0.014337174384823367 0 -0.00038900218135669951 -0.014174487199386203 0 -0.00029886899392874371 -0.014421380145354606 0 -0.00038900218135669951 -0.014174487199386203 0 -0.00038998182282949873 -0.014243220558342392 0 -0.00029886899392874371 -0.014421380145354606 0 -0.00038998182282949873 -0.014243220558342392 0 -0.00048427817772115381 -0.014051577640175164 0 -0.00026378843884074374 -0.01467873960283023 0 -0.00038998182282949873 -0.014243220558342392 0 -0.00028098560205578715 -0.014581232753103362 0 -0.00026378843884074374 -0.01467873960283023 0 -0.00038998182282949873 -0.014243220558342392 0 -0.00029886899392874371 -0.014421380145354606 0 -0.00028098560205578715 -0.014581232753103362 0 -0.00044394015065062759 -0.013938463082976081 0 -0.00038998182282949873 -0.014243220558342392 0 -0.00048427817772115381 -0.014051577640175164 0 -0.00043560486301810915 -0.013533402100503458 0 -0.00044394015065062759 -0.013938463082976081 0 -0.00048427817772115381 -0.014051577640175164 0 -0.00059329769101853721 -0.012618901970459206 0 -0.00052585680578526208 -0.01242294785225059 0 -0.00064541405721369155 -0.012510627667875069 0 -0.00062097860918013711 -0.012385757291816643 0 -0.00052585680578526208 -0.01242294785225059 0 -0.00051557542459077942 -0.012260641187103682 0 -0.00062097860918013711 -0.012385757291816643 0 -0.00052585680578526208 -0.01242294785225059 0 -0.00064541405721369155 -0.012510627667875069 0 -0.00062097860918013711 -0.012385757291816643 0 -0.00064541405721369155 -0.012510627667875069 0 -0.00076762925488711188 -0.01237882750045987 0 -0.00052667349869303832 -0.013230222383474696 0 -0.00034554282701580502 -0.014180432292926249 0 -0.00059329769101853721 -0.012618901970459206 0 -0.00064541405721369155 -0.012510627667875069 0 -0.00072893204113592806 -0.012546888046920746 0 -0.00064541405721369155 -0.012510627667875069 0 -0.00072893204113592806 -0.012546888046920746 0 -0.00076762925488711188 -0.01237882750045987 0 -0.00028098560205578715 -0.014581232753103362 0 -0.00023358592319432938 -0.014758085065639061 0 -0.00014663300226480026 -0.014760989369539759 0 -0.00024802721427718877 -0.014495504254276722 0 -0.00034554282701580502 -0.014180432292926249 0 -0.00023358592319432938 -0.014758085065639061 0 4.5321576305793079e-08 -0.015000172642701658 0 -0.00014663300226480026 -0.014760989369539759 0 0.0001039826782096625 -0.015014297200394966 0 7.7452115941860106e-05 -0.014899810426658396 0 3.6506254319905473e-05 -0.014964598144615161 0 -0.00034554282701580502 -0.014180432292926249 0 -0.00042504485612055543 -0.013359606451327713 0 3.094047788216067e-10 -0.014999998204508945 0 -5.1052189761365217e-10 -0.015000003538428817 0 -8.2748891749331757e-08 -0.015000032459438791 0 8.2806470185663334e-09 -0.014999878656512566 0 -8.2557764555407556e-06 -0.015015856406271115 0 7.7452115941860106e-05 -0.014899810426658396 0 3.6506254319905473e-05 -0.014964598144615161 0 -1.4352284455872293e-05 -0.014860346307236356 0 3.6506254319905473e-05 -0.014964598144615161 0 -2.2376765706841319e-08 -0.014999826771794709 0 -1.4352284455872293e-05 -0.014860346307236356 0 3.6506254319905473e-05 -0.014964598144615161 0 -2.2376765706841319e-08 -0.014999826771794709 0 -1.6009879209456129e-09 -0.015000119876251735 0 -0.00034554282701580502 -0.014180432292926249 0 7.0902902176508138e-07 -0.015000555112651361 0 4.5321576305793079e-08 -0.015000172642701658 0 -6.7207703570026697e-05 -0.014847653917830788 0 -0.00014663300226480026 -0.014760989369539759 0 0.0001039826782096625 -0.015014297200394966 0 3.6506254319905473e-05 -0.014964598144615161 0 -1.6009879209456129e-09 -0.015000119876251735 0 4.5321576305793079e-08 -0.015000172642701658 0 -7.3657009778355333e-08 -0.014999438024616826 0 -6.7207703570026697e-05 -0.014847653917830788 0 -3.2246331029090535e-05 -0.014876985301202099 0 -7.3657009778355333e-08 -0.014999438024616826 0 -6.7207703570026697e-05 -0.014847653917830788 0 -3.2246331029090535e-05 -0.014876985301202099 0 -0.00013590103825118145 -0.014705044509383222 0 -0.00014535648704506064 -0.014629011229917221 0 -3.2246331029090535e-05 -0.014876985301202099 0 -0.00013590103825118145 -0.014705044509383222 0 -6.7207703570026697e-05 -0.014847653917830788 0 -6.7207703570026697e-05 -0.014847653917830788 0 -0.00014663300226480026 -0.014760989369539759 0 -0.00017988485208537535 -0.014645299096712177 0 -0.00014663300226480026 -0.014760989369539759 0 -0.00023702577710197121 -0.014575448778194075 0 -0.00017988485208537535 -0.014645299096712177 0 -0.00028098560205578715 -0.014581232753103362 0 -0.00014663300226480026 -0.014760989369539759 0 -0.00023702577710197121 -0.014575448778194075 0 -0.00029886899392874371 -0.014421380145354606 0 -0.00028098560205578715 -0.014581232753103362 0 -0.00023702577710197121 -0.014575448778194075 0 -0.00023702577710197121 -0.014575448778194075 0 -0.00023199126372316312 -0.014532278137510495 0 -0.00017988485208537535 -0.014645299096712177 0 -0.00029886899392874371 -0.014421380145354606 0 -0.00023702577710197121 -0.014575448778194075 0 -0.00023199126372316312 -0.014532278137510495 0 -0.00013590103825118145 -0.014705044509383222 0 -0.00017988485208537535 -0.014645299096712177 0 -0.00019444149568698368 -0.014573999976316495 0 -0.00023199126372316312 -0.014532278137510495 0 -0.00017988485208537535 -0.014645299096712177 0 -0.00019444149568698368 -0.014573999976316495 0 -0.00013590103825118145 -0.014705044509383222 0 -6.7207703570026697e-05 -0.014847653917830788 0 -0.00017988485208537535 -0.014645299096712177 0 -0.00013590103825118145 -0.014705044509383222 0 -0.00019444149568698368 -0.014573999976316495 0 -0.00014535648704506064 -0.014629011229917221 0 -0.00019444149568698368 -0.014573999976316495 0 -0.00023909520793733121 -0.014477375466180867 0 -0.00018149818228116208 -0.014555382587164848 0 -0.00019444149568698368 -0.014573999976316495 0 -0.00018149818228116208 -0.014555382587164848 0 -0.00014535648704506064 -0.014629011229917221 0 -0.00023199126372316312 -0.014532278137510495 0 -0.00019444149568698368 -0.014573999976316495 0 -0.00023909520793733121 -0.014477375466180867 0 -0.00029886899392874371 -0.014421380145354606 0 -0.00023199126372316312 -0.014532278137510495 0 -0.00023909520793733121 -0.014477375466180867 0 -0.0002417537695054743 -0.014465126011184673 0 -0.00031894657071173386 -0.014337174384823367 0 -0.00023909520793733121 -0.014477375466180867 0 -0.0002417537695054743 -0.014465126011184673 0 -0.00023909520793733121 -0.014477375466180867 0 -0.0001780488826823214 -0.014536754622855048 0 -0.00023909520793733121 -0.014477375466180867 0 -0.00018149818228116208 -0.014555382587164848 0 -0.0001780488826823214 -0.014536754622855048 0 -0.00018149818228116208 -0.014555382587164848 0 -0.0001780488826823214 -0.014536754622855048 0 -0.00013799718803576112 -0.014575388074712968 0 -0.00018149818228116208 -0.014555382587164848 0 -0.00013799718803576112 -0.014575388074712968 0 -0.00014535648704506064 -0.014629011229917221 0 -3.2246331029090535e-05 -0.014876985301202099 0 8.6848507042085809e-09 -0.015000112629882925 0 8.1825404310152015e-06 -0.015000509969024108 0 -4.4981933616589686e-05 -0.014880250327755648 0 -3.8273042527126593e-05 -0.014797744572429855 0 -3.2246331029090535e-05 -0.014876985301202099 0 -0.0001158996645899068 -0.014566948516075423 0 -0.00011932424695080614 -0.014645923967187941 0 -3.2246331029090535e-05 -0.014876985301202099 0 -7.3657009778355333e-08 -0.014999438024616826 0 8.6848507042085809e-09 -0.015000112629882925 0 -0.00013799718803576112 -0.014575388074712968 0 -0.0001158996645899068 -0.014566948516075423 0 -0.00011932424695080614 -0.014645923967187941 0 -0.00013799718803576112 -0.014575388074712968 0 -0.00011932424695080614 -0.014645923967187941 0 -0.00014535648704506064 -0.014629011229917221 0 -3.2246331029090535e-05 -0.014876985301202099 0 -0.00011932424695080614 -0.014645923967187941 0 -0.00014535648704506064 -0.014629011229917221 0 0.0016377227873349807 -0.010684232853872877 0 0.0016772536928129551 -0.010714920013888036 0 0.0015770269861509921 -0.010782292406082713 0 0.0016377227873349807 -0.010684232853872877 0 0.0017762340652850471 -0.010601264243442907 0 0.0016772536928129551 -0.010714920013888036 0 0.0017563447627304901 -0.010705777824852675 0 0.0018434037064940733 -0.010553399428442004 0 0.0016377227873349807 -0.010684232853872877 0 0.0015628579367794868 -0.010780521819858568 0 0.0015770269861509921 -0.010782292406082713 0 0.0016377227873349807 -0.010684232853872877 0 0.0015628579367794868 -0.010780521819858568 0 0.0016156576244302486 -0.010819378050304522 0 0.0017563447627304901 -0.010705777824852675 0 0.0016328329926767076 -0.010790055047138787 0 0.001887453606199779 -0.010732504511025408 0 0.0016156576244302486 -0.010819378050304522 0 0.0017727506230068159 -0.010760720498815927 0 0.001887453606199779 -0.010732504511025408 0 0.0019276561797045562 -0.010641776740302018 0 0.0019115487192897485 -0.010680499081081761 0 0.001887453606199779 -0.010732504511025408 0 0.0019115487192897485 -0.010680499081081761 0 0.0017727506230068159 -0.010760720498815927 0 0.0019276561797045562 -0.010641776740302018 0 0.0019115487192897485 -0.010680499081081761 0 0.0019307996529775028 -0.010646671607650151 0 0.0019082494298935093 -0.010594960272129682 0 0.0019276561797045562 -0.010641776740302018 0 0.0019355339059286183 -0.01050369349596377 0 0.0019082494298935093 -0.010594960272129682 0 0.0019276561797045562 -0.010641776740302018 0 0.0019307996529775028 -0.010646671607650151 0 0.0019082494298935093 -0.010594960272129682 0 0.0018177253771651854 -0.01056029192974879 0 0.001871101790508713 -0.01063316416814856 0 0.0019082494298935093 -0.010594960272129682 0 0.0018177253771651854 -0.01056029192974879 0 0.0018483781433615077 -0.010470234299577467 0 0.0017374631673627442 -0.010411858764117479 0 0.0018177253771651854 -0.01056029192974879 0 0.0018483781433615077 -0.010470234299577467 0 0.0019082494298935093 -0.010594960272129682 0 0.0018483781433615077 -0.010470234299577467 0 0.0019355339059286183 -0.01050369349596377 0 0.0017846871804227289 -0.010229075596608168 0 0.0018483781433615077 -0.010470234299577467 0 0.0019355339059286183 -0.01050369349596377 0 0.0017518281694299377 -0.010328977912627057 0 0.0018434037064940733 -0.010553399428442004 0 0.0017277638619543581 -0.010487926781280505 0 0.0017762340652850471 -0.010601264243442907 0 0.0017732017654215303 -0.010513194450749198 0 0.0017374631673627442 -0.010411858764117479 0 0.0017846871804227289 -0.010229075596608168 0 0.0018483781433615077 -0.010470234299577467 0 0.001887453606199779 -0.010732504511025408 0 0.0019276561797045562 -0.010641776740302018 0 0.0019355339059286183 -0.01050369349596377 0 0.0017762340652850471 -0.010601264243442907 0 0.0017713634256364096 -0.01067242944792837 0 0.0017732017654215303 -0.010513194450749198 0 0.0017762340652850471 -0.010601264243442907 0 0.0017713634256364096 -0.01067242944792837 0 0.0016772536928129551 -0.010714920013888036 0 0.0017356329266422586 -0.010621310075867528 0 0.0019163394818442017 -0.010587851217236648 0 0.0017713634256364096 -0.01067242944792837 0 0.0017732017654215303 -0.010513194450749198 0 0.0017689462909718824 -0.010420727821860869 0 0.0017713634256364096 -0.01067242944792837 0 0.0019021649735407522 -0.010734179964687665 0 0.0018249220952585073 -0.010772948405780395 0 0.0017277638619543581 -0.010487926781280505 0 0.0017732017654215303 -0.010513194450749198 0 0.0017110330573382709 -0.010363198973202516 0 0.0016571623495511521 -0.010215207355843648 0 0.0017689462909718824 -0.010420727821860869 0 0.0017110330573382709 -0.010363198973202516 0 0.0017732017654215303 -0.010513194450749198 0 0.0017689462909718824 -0.010420727821860869 0 0.0017110330573382709 -0.010363198973202516 0 0.0008341612403271766 -0.011250189636441473 0 0.0008258062793870634 -0.011208461421098879 0 0.00084312217186138588 -0.011334597685369126 0 0.0019021649735407522 -0.010734179964687665 0 0.0019584826554948204 -0.010820460079346977 0 0.0018249220952585073 -0.010772948405780395 0 0.00095466582859083954 -0.0093065676406774607 0 0.001407623561050143 -0.011237329439628765 0 0.0013517512309527339 -0.0097986321267914851 0 0.0019163394818442017 -0.010587851217236648 0 0.0020087956420614737 -0.010759103334109111 0 0.0019021649735407522 -0.010734179964687665 0 0.0019584826554948204 -0.010820460079346977 0 0.0019584826554948204 -0.010820460079346977 0 0.0018249220952585073 -0.010772948405780395 0 0.0017789923387680835 -0.010857752730186054 0 0.0017713634256364096 -0.01067242944792837 0 0.0018249220952585073 -0.010772948405780395 0 0.0016957513339068285 -0.010805998949887494 0 0.0018249220952585073 -0.010772948405780395 0 0.0017789923387680835 -0.010857752730186054 0 0.0016957513339068285 -0.010805998949887494 0 0.001407623561050143 -0.011237329439628765 0 0.0013989018570481951 -0.011125579517850176 0 0.0016957513339068285 -0.010805998949887494 0 0.0015770269861509921 -0.010782292406082713 0 0.0016244347909862996 -0.010942693120013353 0 0.0010526159761246488 -0.011281079729011462 0 0.00084312217186138588 -0.011334597685369126 0 0.0012566607291266151 -0.011348115789622889 0 0.0017789923387680835 -0.010857752730186054 0 0.0016957513339068285 -0.010805998949887494 0 0.0016244347909862996 -0.010942693120013353 0 0.0017713634256364096 -0.01067242944792837 0 0.0016957513339068285 -0.010805998949887494 0 0.0016772536928129551 -0.010714920013888036 0 0.0016957513339068285 -0.010805998949887494 0 0.0016772536928129551 -0.010714920013888036 0 0.0015770269861509921 -0.010782292406082713 0 0.0015628579367794868 -0.010780521819858568 0 0.0015770269861509921 -0.010782292406082713 0 0.0014784985368727268 -0.010817592584980237 0 0.0013989018570481951 -0.011125579517850176 0 0.0013380606238703665 -0.011135477352183938 0 0.0015770269861509921 -0.010782292406082713 0 0.0016244347909862996 -0.010942693120013353 0 0.0014854064407767039 -0.010885744768967465 0 0.0016244347909862996 -0.010942693120013353 0 0.0014854064407767039 -0.010885744768967465 0 0.0013447521865114446 -0.011126554357319919 0 0.0014854064407767039 -0.010885744768967465 0 0.0013541034815140259 -0.010876889754541571 0 0.0013447521865114446 -0.011126554357319919 0 0.0013541034815140259 -0.010876889754541571 0 0.0013447521865114446 -0.011126554357319919 0 0.0010581877565585998 -0.011130671698941797 0 0.0013541034815140259 -0.010876889754541571 0 0.0010581877565585998 -0.011130671698941797 0 0.00085494570954259381 -0.010964751837698208 0 0.0013541034815140259 -0.010876889754541571 0 0.00085494570954259381 -0.010964751837698208 0 0.00083262680522741398 -0.010609391428729823 0 0.00074461127256578706 -0.01119405019327486 0 0.0010581877565585998 -0.011130671698941797 0 0.00085494570954259381 -0.010964751837698208 0 0.0014784985368727268 -0.010817592584980237 0 0.0014168586921336859 -0.010853646893800714 0 0.0015103273456382191 -0.010844411802862053 0 0.0013541034815140259 -0.010876889754541571 0 0.0014784985368727268 -0.010817592584980237 0 0.0014168586921336859 -0.010853646893800714 0 0.0013413564599582498 -0.010745871375069006 0 0.00092334465229850253 -0.011455166896354309 0 0.00092334465229850253 -0.011455166896354309 0 0.0016855027674151553 -0.010633592794764226 0 0.0015770269861509921 -0.010782292406082713 0 0.0014854064407767039 -0.010885744768967465 0 0.0014784985368727268 -0.010817592584980237 0 0.0014854064407767039 -0.010885744768967465 0 0.0013541034815140259 -0.010876889754541571 0 0.0014784985368727268 -0.010817592584980237 0 -0.00037784886836243292 -0.012989483799130635 0 -0.00020244643672273589 -0.012834789773624197 0 -0.00037316179750867824 -0.012886902081394666 0 -0.00037784886836243292 -0.012989483799130635 0 -0.00041509669016811374 -0.012993319752435818 0 -0.00037316179750867824 -0.012886902081394666 0 0.00074461127256578706 -0.01119405019327486 0 0.00036350872086087383 -0.011137429218904774 0 0.00085494570954259381 -0.010964751837698208 0 -0.00012971274067610173 -0.012137343512688834 0 0.00092334465229850253 -0.011455166896354309 0 0.00036350872086087383 -0.011137429218904774 0 0.00085494570954259381 -0.010964751837698208 0 0.00083262680522741398 -0.010609391428729823 0 0.0014831729335051738 -0.010929195692656562 0 0.0014070535299706996 -0.010917728531285439 0 0.0014788709271957262 -0.010866889481585151 0 -0.00020244643672273589 -0.012834789773624197 0 -0.00032878143531476942 -0.012785199731071681 0 -0.00037316179750867824 -0.012886902081394666 0 0.00092334465229850253 -0.011455166896354309 0 0.00054076789373549766 -0.011857552823411881 0 -0.00041867261031637115 -0.012810478455685189 0 -0.00032878143531476942 -0.012785199731071681 0 -0.00037316179750867824 -0.012886902081394666 0 0.00017524623746933082 -0.012107974943534055 0 0.00092159349801515425 -0.01139739256224986 0 -0.00041867261031637115 -0.012810478455685189 0 -0.00044121800549917024 -0.012738147466518388 0 -0.00032878143531476942 -0.012785199731071681 0 0.00017524623746933082 -0.012107974943534055 0 0.00054076789373549766 -0.011857552823411881 0 -0.00016436031642980584 -0.012224809731271959 0 -0.00017804337044996727 -0.012050609284805766 0 0.00020397001604533627 -0.012128055617903656 0 0.0013005036815409152 -0.010888677407621629 0 0.0014070535299706996 -0.010917728531285439 0 0.001423266110257417 -0.010832277183011434 0 0.0014070535299706996 -0.010917728531285439 0 0.0014788709271957262 -0.010866889481585151 0 0.001423266110257417 -0.010832277183011434 0 0.0014788709271957262 -0.010866889481585151 0 0.001423266110257417 -0.010832277183011434 0 0.0015406327020475476 -0.010830371106728768 0 0.00020397001604533627 -0.012128055617903656 0 0.00092572671993620959 -0.011756322603382063 0 0.00043321210185733397 -0.011578204939195206 0 0.00092159349801515425 -0.01139739256224986 0 0.0011925178066189352 -0.0112935351392391 0 -0.00015472877342034906 -0.011911314936947812 0 -0.00017804337044996727 -0.012050609284805766 0 0.00020397001604533627 -0.012128055617903656 0 0.00020397001604533627 -0.012128055617903656 0 8.7551882646766808e-05 -0.011804552550612529 0 0.00043321210185733397 -0.011578204939195206 0 -0.00015472877342034906 -0.011911314936947812 0 0.00020397001604533627 -0.012128055617903656 0 8.7551882646766808e-05 -0.011804552550612529 0 0.0015628579367794868 -0.010780521819858568 0 0.0015103273456382191 -0.010844411802862053 0 0.0016156576244302486 -0.010819378050304522 0 0.0015628579367794868 -0.010780521819858568 0 0.0014784985368727268 -0.010817592584980237 0 0.0015103273456382191 -0.010844411802862053 0 0.0014788709271957262 -0.010866889481585151 0 0.0015103273456382191 -0.010844411802862053 0 0.0015406327020475476 -0.010830371106728768 0 0.0014831729335051738 -0.010929195692656562 0 0.0014788709271957262 -0.010866889481585151 0 0.0015103273456382191 -0.010844411802862053 0 0.001567991583769319 -0.010837983444231708 0 0.0015406327020475476 -0.010830371106728768 0 0.0016110166276061548 -0.010955853320859504 0 0.0015103273456382191 -0.010844411802862053 0 0.001567991583769319 -0.010837983444231708 0 0.0015406327020475476 -0.010830371106728768 0 0.0016156576244302486 -0.010819378050304522 0 0.0016110166276061548 -0.010955853320859504 0 0.0017727506230068159 -0.010760720498815927 0 0.0015103273456382191 -0.010844411802862053 0 0.001567991583769319 -0.010837983444231708 0 0.0016156576244302486 -0.010819378050304522 0 0.001567991583769319 -0.010837983444231708 0 0.0016156576244302486 -0.010819378050304522 0 0.0016110166276061548 -0.010955853320859504 0 0.0011925178066189352 -0.0112935351392391 0 0.0015700691505397819 -0.011013356505150038 0 0.00092572671993620959 -0.011756322603382063 0 0.0016110166276061548 -0.010955853320859504 0 0.0010817821044813432 -0.011086170508222011 0 0.0016110166276061548 -0.010955853320859504 0 0.0010817821044813432 -0.011086170508222011 0 0.0013271931294865148 -0.010543180023707254 0 0.0010817821044813432 -0.011086170508222011 0 0.0013271931294865148 -0.010543180023707254 0 0.00053487074791778294 -0.010930809353235468 0 0.0016110166276061548 -0.010955853320859504 0 0.0017563936878842372 -0.010538585013069195 0 0.0017824507312855428 -0.010735311335989095 0 0.0016110166276061548 -0.010955853320859504 0 0.0013271931294865148 -0.010543180023707254 0 0.0017563936878842372 -0.010538585013069195 0 -7.0575671654922226e-05 -0.011639340552971446 0 0.00043321210185733397 -0.011578204939195206 0 0.00053487074791778294 -0.010930809353235468 0 -7.0575671654922226e-05 -0.011639340552971446 0 8.7551882646766808e-05 -0.011804552550612529 0 0.00043321210185733397 -0.011578204939195206 0 -0.00015472877342034906 -0.011911314936947812 0 -7.0575671654922226e-05 -0.011639340552971446 0 8.7551882646766808e-05 -0.011804552550612529 0 0.0010817821044813432 -0.011086170508222011 0 0.00043321210185733397 -0.011578204939195206 0 0.00053487074791778294 -0.010930809353235468 0 0.00092572671993620959 -0.011756322603382063 0 0.0010817821044813432 -0.011086170508222011 0 0.00043321210185733397 -0.011578204939195206 0 -0.00044309636510746388 -0.011819788038620443 0 -7.0575671654922226e-05 -0.011639340552971446 0 3.1620448195223569e-05 -0.010667495383823517 0 -7.0575671654922226e-05 -0.011639340552971446 0 0.00053487074791778294 -0.010930809353235468 0 3.1620448195223569e-05 -0.010667495383823517 0 -0.00067954308844168942 -0.0096492022188953488 0 3.1620448195223569e-05 -0.010667495383823517 0 -1.7454068890369198e-05 -0.0092865330555015908 0 0.00053487074791778294 -0.010930809353235468 0 3.1620448195223569e-05 -0.010667495383823517 0 0.00076588820493887517 -0.010003646580202245 0 0.0013271931294865148 -0.010543180023707254 0 0.00053487074791778294 -0.010930809353235468 0 0.00076588820493887517 -0.010003646580202245 0 3.1620448195223569e-05 -0.010667495383823517 0 0.00076588820493887517 -0.010003646580202245 0 -1.7454068890369198e-05 -0.0092865330555015908 0 0.00076588820493887517 -0.010003646580202245 0 0.00081987254015945419 -0.0085123405235850332 0 -1.7454068890369198e-05 -0.0092865330555015908 0 -0.00067954308844168942 -0.0096492022188953488 0 -1.7454068890369198e-05 -0.0092865330555015908 0 -0.00031558036634091223 -0.0086850135160883701 0 0.0013271931294865148 -0.010543180023707254 0 0.0017563936878842372 -0.010538585013069195 0 0.0017618012863866853 -0.0097292858332735342 0 0.0013271931294865148 -0.010543180023707254 0 0.00076588820493887517 -0.010003646580202245 0 0.0017618012863866853 -0.0097292858332735342 0 0.00076588820493887517 -0.010003646580202245 0 0.00081987254015945419 -0.0085123405235850332 0 0.0017618012863866853 -0.0097292858332735342 0 0.00079368933997575359 -0.008452638367382059 0 0.0013873669457601465 -0.008580141267851657 0 0.00081987254015945419 -0.0085123405235850332 0 0.00119901569996684 -0.0074902689948455467 0 0.0010837032157474385 -0.0075987843554146031 0 0.00119901569996684 -0.0074902689948455467 0 0.0011488696507119111 -0.0072460055125181388 0 0.0010837032157474385 -0.0075987843554146031 0 0.00119901569996684 -0.0074902689948455467 0 0.0012704126867403198 -0.0068090429282443342 0 0.0011488696507119111 -0.0072460055125181388 0 0.0011183351742176946 -0.0069044616940398011 0 0.0012704126867403198 -0.0068090429282443342 0 0.0011488696507119111 -0.0072460055125181388 0 0.0011183351742176946 -0.0069044616940398011 0 0.0010880672874412722 -0.0070730857720856322 0 0.0011488696507119111 -0.0072460055125181388 0 0.0015896098437801862 -0.0085251490005569305 0 0.001511815769637205 -0.0083108817223067743 0 0.0019819299298013001 -0.010299339147985594 0 0.0019596895575059088 -0.010530373216420716 0 0.0019816531776602406 -0.010597778182694903 0 0.0012704126867403198 -0.0068090429282443342 0 0.0011622831590280456 -0.0060457598780808263 0 0.0011461731471711057 -0.0061196847491183492 0 0.0011183351742176946 -0.0069044616940398011 0 0.0012704126867403198 -0.0068090429282443342 0 0.0011461731471711057 -0.0061196847491183492 0 0.0013873669457601465 -0.008580141267851657 0 0.0015896098437801862 -0.0085251490005569305 0 0.0017563936878842372 -0.010538585013069195 0 0.0017618012863866853 -0.0097292858332735342 0 0.0019819299298013001 -0.010299339147985594 0 0.0017563936878842372 -0.010538585013069195 0 0.0019819299298013001 -0.010299339147985594 0 0.001881171274039349 -0.010562722564068738 0 0.0017563936878842372 -0.010538585013069195 0 0.001881171274039349 -0.010562722564068738 0 0.0017824507312855428 -0.010735311335989095 0 0.001881171274039349 -0.010562722564068738 0 0.0017824507312855428 -0.010735311335989095 0 0.0018797026379361041 -0.010661473400200452 0 0.001881171274039349 -0.010562722564068738 0 0.0019596895575059088 -0.010530373216420716 0 0.0018797026379361041 -0.010661473400200452 0 0.0019819299298013001 -0.010299339147985594 0 0.001881171274039349 -0.010562722564068738 0 0.0019596895575059088 -0.010530373216420716 0 0.0019596895575059088 -0.010530373216420716 0 0.001965552605643748 -0.010598718957892375 0 0.0019816531776602406 -0.010597778182694903 0 0.001946075459060903 -0.01062921048882606 0 0.001965552605643748 -0.010598718957892375 0 0.001955707686331549 -0.010627215462455611 0 0.0019596895575059088 -0.010530373216420716 0 0.001946075459060903 -0.01062921048882606 0 0.001965552605643748 -0.010598718957892375 0 0.0019596895575059088 -0.010530373216420716 0 0.001946075459060903 -0.01062921048882606 0 0.0018797026379361041 -0.010661473400200452 0 0.001946075459060903 -0.01062921048882606 0 0.0019115487192897485 -0.010680499081081761 0 0.0018797026379361041 -0.010661473400200452 0 0.0019115487192897485 -0.010680499081081761 0 0.0017727506230068159 -0.010760720498815927 0 0.0018797026379361041 -0.010661473400200452 0 0.001946075459060903 -0.01062921048882606 0 0.0019115487192897485 -0.010680499081081761 0 0.00194281055315073 -0.010643475104250287 0 0.0016110166276061548 -0.010955853320859504 0 0.0017727506230068159 -0.010760720498815927 0 0.0017824507312855428 -0.010735311335989095 0 0.0017727506230068159 -0.010760720498815927 0 0.0017824507312855428 -0.010735311335989095 0 0.0018797026379361041 -0.010661473400200452 0 0.0018907596087626738 -0.010659594325072878 0 0.0019307514833627241 -0.010647056148125077 0 0.0018601131057133359 -0.01070726363421047 0 0.0018907596087626738 -0.010659594325072878 0 0.0018486029303551709 -0.010666617420514824 0 0.001871101790508713 -0.01063316416814856 0 0.0018907596087626738 -0.010659594325072878 0 0.0018486029303551709 -0.010666617420514824 0 0.0018601131057133359 -0.01070726363421047 0 0.0017559472674342337 -0.010658928174721412 0 0.0018486029303551709 -0.010666617420514824 0 0.0018601131057133359 -0.01070726363421047 0 0.0017559472674342337 -0.010658928174721412 0 0.0018486029303551709 -0.010666617420514824 0 0.001871101790508713 -0.01063316416814856 0 0.0017559472674342337 -0.010658928174721412 0 0.0018177253771651854 -0.01056029192974879 0 0.001871101790508713 -0.01063316416814856 0 0.0018907596087626738 -0.010659594325072878 0 0.001871101790508713 -0.01063316416814856 0 0.0019196084304625915 -0.010643591285881864 0 0.0019082494298935093 -0.010594960272129682 0 0.001871101790508713 -0.01063316416814856 0 0.0019196084304625915 -0.010643591285881864 0 0.0019082494298935093 -0.010594960272129682 0 0.0019196084304625915 -0.010643591285881864 0 0.0019307996529775028 -0.010646671607650151 0 0.0019196084304625915 -0.010643591285881864 0 0.0019307996529775028 -0.010646671607650151 0 0.00194281055315073 -0.010643475104250287 0 0.0019115487192897485 -0.010680499081081761 0 0.0019307996529775028 -0.010646671607650151 0 0.00194281055315073 -0.010643475104250287 0 0.001946075459060903 -0.01062921048882606 0 0.00194281055315073 -0.010643475104250287 0 0.001955707686331549 -0.010627215462455611 0 0.00194281055315073 -0.010643475104250287 0 0.0019307514833627241 -0.010647056148125077 0 0.001955707686331549 -0.010627215462455611 0 0.0018907596087626738 -0.010659594325072878 0 0.0019196084304625915 -0.010643591285881864 0 0.0019307514833627241 -0.010647056148125077 0 0.0019196084304625915 -0.010643591285881864 0 0.00194281055315073 -0.010643475104250287 0 0.0019307514833627241 -0.010647056148125077 0 0.0019420928642800497 -0.010636892853978784 0 0.0019816531776602406 -0.010597778182694903 0 0.0018601131057133359 -0.01070726363421047 0 0.0011622831590280456 -0.0060457598780808263 0 0.0021873357614556662 -0.0060226527462049137 0 0.0030006125512655911 -0.0069308734067400762 0 0.001511815769637205 -0.0083108817223067743 0 0.0026624962635757726 -0.0090403938842459914 0 0.0019307514833627241 -0.010647056148125077 0 0.0019420928642800497 -0.010636892853978784 0 0.001955707686331549 -0.010627215462455611 0 0.0019420928642800497 -0.010636892853978784 0 0.001955707686331549 -0.010627215462455611 0 0.0019645166341189335 -0.010613682105387847 0 0.001965552605643748 -0.010598718957892375 0 0.001955707686331549 -0.010627215462455611 0 0.0019645166341189335 -0.010613682105387847 0 0.0011622831590280456 -0.0060457598780808263 0 0.0011461731471711057 -0.0061196847491183492 0 0.0016972739484122413 -0.0057021909435527023 0 0.001965552605643748 -0.010598718957892375 0 0.0019645166341189335 -0.010613682105387847 0 0.0019816531776602406 -0.010597778182694903 0 0.0019420928642800497 -0.010636892853978784 0 0.0019645166341189335 -0.010613682105387847 0 0.0019816531776602406 -0.010597778182694903 0 0.0011622831590280456 -0.0060457598780808263 0 0.0021873357614556662 -0.0060226527462049137 0 0.0016972739484122413 -0.0057021909435527023 0 0.0026522227491753577 -0.0060901423181207092 0 0.0021873357614556662 -0.0060226527462049137 0 0.0030006125512655911 -0.0069308734067400762 0 0.0019307514833627241 -0.010647056148125077 0 0.0019420928642800497 -0.010636892853978784 0 0.0018601131057133359 -0.01070726363421047 0 0.0026522227491753577 -0.0060901423181207092 0 0.0030006125512655911 -0.0069308734067400762 0 0.0033842114103359577 -0.006451958209845279 0 0.0026522227491753577 -0.0060901423181207092 0 0.0033842114103359577 -0.006451958209845279 0 0.002055303456503212 -0.0048645130446852173 0 0.0026348283755728359 -0.0040500628746968957 0 0.002055303456503212 -0.0048645130446852173 0 0.0024918665156823338 -0.003742062795065431 0 0.0026348283755728359 -0.0040500628746968957 0 0.0027364664011724623 -0.0037330176808696011 0 0.002055303456503212 -0.0048645130446852173 0 0.0030536965578902039 -0.0047761081215063053 0 0.00213408317503436 -0.0048450588375109011 0 0.0026522227491753577 -0.0060901423181207092 0 0.0021873357614556662 -0.0060226527462049137 0 0.002055303456503212 -0.0048645130446852173 0 0.0011461731471711057 -0.0061196847491183492 0 0.002055303456503212 -0.0048645130446852173 0 0.0024918665156823338 -0.003742062795065431 0 0.0011183351742176946 -0.0069044616940398011 0 0.0011461731471711057 -0.0061196847491183492 0 0.0008803572321658367 -0.0069523431593006982 0 0.001190368905428281 -0.0060327800395963502 0 0.001701949075693891 -0.0053836421438066351 0 0.0011461731471711057 -0.0061196847491183492 0 0.0016972739484122413 -0.0057021909435527023 0 0.002055303456503212 -0.0048645130446852173 0 0.0021873357614556662 -0.0060226527462049137 0 0.0016972739484122413 -0.0057021909435527023 0 0.002055303456503212 -0.0048645130446852173 0 0.0011183351742176946 -0.0069044616940398011 0 0.0008803572321658367 -0.0069523431593006982 0 0.0010119128127844006 -0.007029498218758235 0 0.0026348283755728359 -0.0040500628746968957 0 0.0025925029569255319 -0.0038952090773563702 0 0.0024918665156823338 -0.003742062795065431 0 0.001701949075693891 -0.0053836421438066351 0 0.0019235842828046082 -0.0055549523599213706 0 0.0008803572321658367 -0.0069523431593006982 0 0.0010405718612696577 -0.0069749738749319435 0 0.0012229090921053352 -0.0069740542527291713 0 0.0008803572321658367 -0.0069523431593006982 0 0.0010405718612696577 -0.0069749738749319435 0 0.0010119128127844006 -0.007029498218758235 0 0.0010405718612696577 -0.0069749738749319435 0 0.0010119128127844006 -0.007029498218758235 0 0.0010067728723797693 -0.0069525978942902569 0 0.0011183351742176946 -0.0069044616940398011 0 0.0010119128127844006 -0.007029498218758235 0 0.0010880672874412722 -0.0070730857720856322 0 0.0010119128127844006 -0.007029498218758235 0 0.0010067728723797693 -0.0069525978942902569 0 0.0010384874772844585 -0.0070641327881010903 0 0.0010405718612696577 -0.0069749738749319435 0 0.0010067728723797693 -0.0069525978942902569 0 0.0011305066887225682 -0.0067326128225138103 0 0.0010405718612696577 -0.0069749738749319435 0 0.0011305066887225682 -0.0067326128225138103 0 0.0012229090921053352 -0.0069740542527291713 0 0.0011305066887225682 -0.0067326128225138103 0 0.00098112866851963717 -0.006790118565112177 0 0.0010455122729085759 -0.0064957540413931635 0 0.0010067728723797693 -0.0069525978942902569 0 0.00098112866851963717 -0.006790118565112177 0 0.00098491731711996015 -0.006961759800711574 0 0.0010067728723797693 -0.0069525978942902569 0 0.0011305066887225682 -0.0067326128225138103 0 0.00098112866851963717 -0.006790118565112177 0 0.00098112866851963717 -0.006790118565112177 0 0.00091212856471829329 -0.0066653067921581526 0 0.0010455122729085759 -0.0064957540413931635 0 0.00091212856471829329 -0.0066653067921581526 0 0.0010455122729085759 -0.0064957540413931635 0 0.00092257392126612935 -0.0064770470634390133 0 0.00075023677970751529 -0.0068758812864966679 0 0.00064924977190984503 -0.0067492525191272289 0 0.00076947536951690171 -0.0067383039962914714 0 0.00083606720873629064 -0.0068418340776447099 0 0.00085318762623079686 -0.006757123589796442 0 0.00091153296190611753 -0.0068710292362205543 0 0.00083606720873629064 -0.0068418340776447099 0 0.00087829357563696305 -0.006957490616757836 0 0.00075023677970751529 -0.0068758812864966679 0 0.00083606720873629064 -0.0068418340776447099 0 0.00075023677970751529 -0.0068758812864966679 0 0.00076947536951690171 -0.0067383039962914714 0 0.00083606720873629064 -0.0068418340776447099 0 0.00085318762623079686 -0.006757123589796442 0 0.00076947536951690171 -0.0067383039962914714 0 0.00085318762623079686 -0.006757123589796442 0 0.00084043720727908905 -0.0066443505419618723 0 0.00076947536951690171 -0.0067383039962914714 0 0.00098112866851963717 -0.006790118565112177 0 0.00091212856471829329 -0.0066653067921581526 0 0.00091153296190611753 -0.0068710292362205543 0 0.00091212856471829329 -0.0066653067921581526 0 0.00085318762623079686 -0.006757123589796442 0 0.00084043720727908905 -0.0066443505419618723 0 0.00091212856471829329 -0.0066653067921581526 0 0.00085318762623079686 -0.006757123589796442 0 0.00091153296190611753 -0.0068710292362205543 0 0.00098112866851963717 -0.006790118565112177 0 0.00091153296190611753 -0.0068710292362205543 0 0.00098491731711996015 -0.006961759800711574 0 0.00091153296190611753 -0.0068710292362205543 0 0.00099322054263458609 -0.0070782882935270597 0 0.00098491731711996015 -0.006961759800711574 0 0.00091153296190611753 -0.0068710292362205543 0 0.00087829357563696305 -0.006957490616757836 0 0.00099322054263458609 -0.0070782882935270597 0 0.00087829357563696305 -0.006957490616757836 0 0.00099322054263458609 -0.0070782882935270597 0 0.00099361613396272037 -0.0072117335609637387 0 0.00083606720873629064 -0.0068418340776447099 0 0.00091153296190611753 -0.0068710292362205543 0 0.00087829357563696305 -0.006957490616757836 0 0.00099322054263458609 -0.0070782882935270597 0 0.0010384874772844585 -0.0070641327881010903 0 0.0011488696507119111 -0.0072460055125181388 0 0.00099322054263458609 -0.0070782882935270597 0 0.0011488696507119111 -0.0072460055125181388 0 0.00099361613396272037 -0.0072117335609637387 0 0.0010067728723797693 -0.0069525978942902569 0 0.00098491731711996015 -0.006961759800711574 0 0.0010384874772844585 -0.0070641327881010903 0 0.00099322054263458609 -0.0070782882935270597 0 0.00098491731711996015 -0.006961759800711574 0 0.0010384874772844585 -0.0070641327881010903 0 0.0010384874772844585 -0.0070641327881010903 0 0.0010880672874412722 -0.0070730857720856322 0 0.0011488696507119111 -0.0072460055125181388 0 0.0010119128127844006 -0.007029498218758235 0 0.0010384874772844585 -0.0070641327881010903 0 0.0010880672874412722 -0.0070730857720856322 0 0.0011488696507119111 -0.0072460055125181388 0 0.0010837032157474385 -0.0075987843554146031 0 0.00099361613396272037 -0.0072117335609637387 0 0.00081987254015945419 -0.0085123405235850332 0 0.0010837032157474385 -0.0075987843554146031 0 0.00057228175969953798 -0.0074760531449636148 0 0.0010837032157474385 -0.0075987843554146031 0 0.00090605843793698058 -0.0073113545623789671 0 0.00057228175969953798 -0.0074760531449636148 0 0.00090605843793698058 -0.0073113545623789671 0 0.00057228175969953798 -0.0074760531449636148 0 0.0008751313293748628 -0.0070471100675862436 0 0.00041767062449810972 -0.0081314951554136428 0 0.00081148447137698325 -0.0072867724801829112 0 0.00090605843793698058 -0.0073113545623789671 0 0.00099361613396272037 -0.0072117335609637387 0 0.0008751313293748628 -0.0070471100675862436 0 0.0010837032157474385 -0.0075987843554146031 0 0.00090605843793698058 -0.0073113545623789671 0 0.00099361613396272037 -0.0072117335609637387 0 -1.7454068890369198e-05 -0.0092865330555015908 0 -0.00031558036634091223 -0.0086850135160883701 0 0.000295287775545759 -0.0085996347121810972 0 2.1615357972909712e-06 -0.0091664902243558267 0 0.00041767062449810972 -0.0081314951554136428 0 0.00081987254015945419 -0.0085123405235850332 0 -1.7454068890369198e-05 -0.0092865330555015908 0 0.00057228175969953798 -0.0074760531449636148 0 0.000295287775545759 -0.0085996347121810972 0 -0.00010819422572321249 -0.0081118874362026399 0 0.00026660230607682085 -0.0082202193990052446 0 -0.00031558036634091223 -0.0086850135160883701 0 0.000295287775545759 -0.0085996347121810972 0 -0.00010819422572321249 -0.0081118874362026399 0 -0.00018050489287165314 -0.010402792164486833 0 -0.00012945223024276553 -0.010263026362558861 0 0.000295287775545759 -0.0085996347121810972 0 0.00026660230607682085 -0.0082202193990052446 0 0.00059679003596437334 -0.0080363972373711599 0 -0.00010819422572321249 -0.0081118874362026399 0 0.00026660230607682085 -0.0082202193990052446 0 0.00032567184165119007 -0.0077948829386669562 0 -0.00010819422572321249 -0.0081118874362026399 0 0.00032567184165119007 -0.0077948829386669562 0 6.3087288962042175e-05 -0.0075612412044653108 0 0.0006182607173560702 -0.0072299137261638393 0 0.0009318055550207794 -0.0084402792866274702 0 9.9879836709437653e-05 -0.011919053956878254 0 2.5892032878784807e-05 -0.01162249304306782 0 0.00027208723704537135 -0.01147017105858604 0 9.9879836709437653e-05 -0.011919053956878254 0 2.5892032878784807e-05 -0.01162249304306782 0 -9.4661741953501439e-05 -0.011809909125751453 0 -0.00012945223024276553 -0.010263026362558861 0 0.0009318055550207794 -0.0084402792866274702 0 0.00094068421058893649 -0.0071081036086276155 0 0.00081148447137698325 -0.0072867724801829112 0 0.00087829357563696305 -0.006957490616757836 0 0.00099361613396272037 -0.0072117335609637387 0 0.00080933062274920651 -0.0069408720411104621 0 0.00099361613396272037 -0.0072117335609637387 0 0.00080933062274920651 -0.0069408720411104621 0 0.00068998130255922289 -0.0069639891096971961 0 0.00087829357563696305 -0.006957490616757836 0 0.00080933062274920651 -0.0069408720411104621 0 0.00075023677970751529 -0.0068758812864966679 0 0.00026660230607682085 -0.0082202193990052446 0 0.00032567184165119007 -0.0077948829386669562 0 0.00059679003596437334 -0.0080363972373711599 0 0.0011253598975727425 -0.0068418416351370796 0 0.00091926587875038187 -0.0066924119046069055 0 0.00095244999593478838 -0.0069470512112748701 0 0.0011253598975727425 -0.0068418416351370796 0 0.00095244999593478838 -0.0069470512112748701 0 0.0011375375525593237 -0.0071894524541463297 0 0.00081148447137698325 -0.0072867724801829112 0 0.00084630539028366855 -0.0068076047676061957 0 0.00091926587875038187 -0.0066924119046069055 0 0.00095244999593478838 -0.0069470512112748701 0 0.00080470282647085456 -0.0069561458695446146 0 0.0006182607173560702 -0.0072299137261638393 0 0.00081148447137698325 -0.0072867724801829112 0 0.00080470282647085456 -0.0069561458695446146 0 0.00075023677970751529 -0.0068758812864966679 0 0.00084810189306220533 -0.00711298067984716 0 0.00080933062274920651 -0.0069408720411104621 0 0.00068998130255922289 -0.0069639891096971961 0 0.00080470282647085456 -0.0069561458695446146 0 0.00073608898862938244 -0.0068940036695986839 0 0.00065979964821798317 -0.0069275983583429301 0 0.00080933062274920651 -0.0069408720411104621 0 0.00080470282647085456 -0.0069561458695446146 0 0.00075023677970751529 -0.0068758812864966679 0 0.00075023677970751529 -0.0068758812864966679 0 0.00064924977190984503 -0.0067492525191272289 0 0.00046954565710397798 -0.0067704807986097033 0 0.00064924977190984503 -0.0067492525191272289 0 0.00046954565710397798 -0.0067704807986097033 0 0.00055927372009195308 -0.0067123130559057593 0 0.00064924977190984503 -0.0067492525191272289 0 0.00055927372009195308 -0.0067123130559057593 0 0.00067332245172551568 -0.0066761304573974278 0 0.00095244999593478838 -0.0069470512112748701 0 0.00080470282647085456 -0.0069561458695446146 0 0.00084810189306220533 -0.00711298067984716 0 0.00084810189306220533 -0.00711298067984716 0 0.0011375375525593237 -0.0071894524541463297 0 0.0012058532220805111 -0.0076487973572903056 0 0.00095244999593478838 -0.0069470512112748701 0 0.00084810189306220533 -0.00711298067984716 0 0.0011375375525593237 -0.0071894524541463297 0 0.00065979964821798317 -0.0069275983583429301 0 0.00084311581869713219 -0.0072429418352122988 0 0.00046954565710397798 -0.0067704807986097033 0 0.00039038064930825084 -0.0067532636894023917 0 0.00047871667920425964 -0.0067202434464633046 0 0.00046954565710397798 -0.0067704807986097033 0 0.00039038064930825084 -0.0067532636894023917 0 0.00037874218786196969 -0.0066486869340394439 0 0.00039038064930825084 -0.0067532636894023917 0 0.00047871667920425964 -0.0067202434464633046 0 0.00043930951905061334 -0.0067091358153192416 0 0.00047871667920425964 -0.0067202434464633046 0 0.00056283180802462406 -0.0066613846989736049 0 0.00055927372009195308 -0.0067123130559057593 0 0.00047871667920425964 -0.0067202434464633046 0 0.00056283180802462406 -0.0066613846989736049 0 0.00043930951905061334 -0.0067091358153192416 0 0.00046954565710397798 -0.0067704807986097033 0 0.00047871667920425964 -0.0067202434464633046 0 0.00055927372009195308 -0.0067123130559057593 0 0.00056283180802462406 -0.0066613846989736049 0 0.00055927372009195308 -0.0067123130559057593 0 0.00067332245172551568 -0.0066761304573974278 0 0.0024485794079885871 -0.0069407252907259876 0 0.0016684974730129124 -0.0062378458498442198 0 0.0018947655214016526 -0.007258501969150513 0 2.5892032878784807e-05 -0.01162249304306782 0 7.2335170072036862e-05 -0.011283270998481186 0 0.00027208723704537135 -0.01147017105858604 0 0.0011985879586022688 -0.0091178808460494545 0 0.0009318055550207794 -0.0084402792866274702 0 0.0013975325089853625 -0.0070466736679879235 0 0.0011375375525593237 -0.0071894524541463297 0 0.0013206509623997385 -0.0075063309933851982 0 0.0016684974730129124 -0.0062378458498442198 0 0.0013206509623997385 -0.0075063309933851982 0 0.0018947655214016526 -0.007258501969150513 0 0.0009318055550207794 -0.0084402792866274702 0 0.0015256721890032055 -0.0067593010548372603 0 0.0011253598975727425 -0.0068418416351370796 0 0.0013975325089853625 -0.0070466736679879235 0 0.0011375375525593237 -0.0071894524541463297 0 0.0011375375525593237 -0.0071894524541463297 0 0.0012058532220805111 -0.0076487973572903056 0 0.0013206509623997385 -0.0075063309933851982 0 0.00039038064930825084 -0.0067532636894023917 0 0.0003505474867214716 -0.0070477404833507529 0 0.00037874218786196969 -0.0066486869340394439 0 0.0012058532220805111 -0.0076487973572903056 0 0.001601198376352 -0.007665835841930149 0 0.0013206509623997385 -0.0075063309933851982 0 0.0012058532220805111 -0.0076487973572903056 0 0.001601198376352 -0.007665835841930149 0 0.0019040476951363336 -0.0080232483923667556 0 0.0016919516058570884 -0.0075248293734904411 0 0.0013206509623997385 -0.0075063309933851982 0 0.0018947655214016526 -0.007258501969150513 0 0.001601198376352 -0.007665835841930149 0 0.0016919516058570884 -0.0075248293734904411 0 0.0013206509623997385 -0.0075063309933851982 0 0.0024485794079885871 -0.0069407252907259876 0 0.0018947655214016526 -0.007258501969150513 0 0.0023151432812120541 -0.0076936382080482896 0 0.0018947655214016526 -0.007258501969150513 0 0.0019020351603902304 -0.0076420740209390617 0 0.0023151432812120541 -0.0076936382080482896 0 0.0016919516058570884 -0.0075248293734904411 0 0.0018947655214016526 -0.007258501969150513 0 0.0019020351603902304 -0.0076420740209390617 0 0.001601198376352 -0.007665835841930149 0 0.0019020351603902304 -0.0076420740209390617 0 0.0019040476951363336 -0.0080232483923667556 0 0.001601198376352 -0.007665835841930149 0 0.0016919516058570884 -0.0075248293734904411 0 0.0019020351603902304 -0.0076420740209390617 0 0.0019040476951363336 -0.0080232483923667556 0 0.0023151432812120541 -0.0076936382080482896 0 0.0024369553363169866 -0.0082703248878509498 0 0.0019020351603902304 -0.0076420740209390617 0 0.0019040476951363336 -0.0080232483923667556 0 0.0023151432812120541 -0.0076936382080482896 0 0.0023151432812120541 -0.0076936382080482896 0 0.0027384293567702363 -0.0079920843263242888 0 0.0024369553363169866 -0.0082703248878509498 0 0.0023151432812120541 -0.0076936382080482896 0 0.0027384293567702363 -0.0079920843263242888 0 0.0027921008719821415 -0.0076167908188203327 0 0.0024485794079885871 -0.0069407252907259876 0 0.0023151432812120541 -0.0076936382080482896 0 0.0027921008719821415 -0.0076167908188203327 0 0.00037874218786196969 -0.0066486869340394439 0 0.0023737522276533625 -0.0090806003142668412 0 0.00109418839408532 -0.008402524433314058 0 0.00084311581869713219 -0.0072429418352122988 0 0.0022843120450099278 -0.008902343313840981 0 0.0012058532220805111 -0.0076487973572903056 0 0.0019040476951363336 -0.0080232483923667556 0 0.0023737522276533625 -0.0090806003142668412 0 0.0023737522276533625 -0.0090806003142668412 0 0.0027811963095863857 -0.0085659267852389569 0 0.0030847681776600328 -0.0099897237127875241 0 0.0019040476951363336 -0.0080232483923667556 0 0.0023737522276533625 -0.0090806003142668412 0 0.0024369553363169866 -0.0082703248878509498 0 0.0023737522276533625 -0.0090806003142668412 0 0.0027811963095863857 -0.0085659267852389569 0 0.0024369553363169866 -0.0082703248878509498 0 0.0027384293567702363 -0.0079920843263242888 0 0.0027811963095863857 -0.0085659267852389569 0 0.0024369553363169866 -0.0082703248878509498 0 0.0023737522276533625 -0.0090806003142668412 0 0.0015626907613973528 -0.0094039266453031147 0 0.00109418839408532 -0.008402524433314058 0 0.0015626907613973528 -0.0094039266453031147 0 0.00109418839408532 -0.008402524433314058 0 0.00076192594695983422 -0.01016099616118323 0 0.0003505474867214716 -0.0070477404833507529 0 0.00109418839408532 -0.008402524433314058 0 0.00076192594695983422 -0.01016099616118323 0 0.00035279938863544066 -0.007204216205712659 0 0.00065205053566632384 -0.0084551547583879925 0 0.0003505474867214716 -0.0070477404833507529 0 0.00043804886434516377 -0.0068182729724804879 0 0.00046976557069215643 -0.0067314492830690218 0 0.0003505474867214716 -0.0070477404833507529 0 0.00037874218786196969 -0.0066486869340394439 0 0.00109418839408532 -0.008402524433314058 0 0.00039038064930825084 -0.0067532636894023917 0 0.0003505474867214716 -0.0070477404833507529 0 0.00043804886434516377 -0.0068182729724804879 0 0.00043804886434516377 -0.0068182729724804879 0 0.00046976557069215643 -0.0067314492830690218 0 0.00043311699636462887 -0.0067382547555675564 0 0.00046976557069215643 -0.0067314492830690218 0 0.00043311699636462887 -0.0067382547555675564 0 0.00049092190256152374 -0.0068790469345701797 0 0.0019336214172581347 -0.011361773585686685 0 0.0030847681776600328 -0.0099897237127875241 0 0.0018896079613682413 -0.013173441998882032 0 0.00076192594695983422 -0.01016099616118323 0 0.0019336214172581347 -0.011361773585686685 0 0.0016758795254876353 -0.013089384377504383 0 0.0015626907613973528 -0.0094039266453031147 0 0.00076192594695983422 -0.01016099616118323 0 0.0019553695815832011 -0.010008078001582179 0 0.0023737522276533625 -0.0090806003142668412 0 0.0015626907613973528 -0.0094039266453031147 0 0.0019553695815832011 -0.010008078001582179 0 0.00076192594695983422 -0.01016099616118323 0 0.0019553695815832011 -0.010008078001582179 0 0.0019336214172581347 -0.011361773585686685 0 0.0023737522276533625 -0.0090806003142668412 0 0.0019553695815832011 -0.010008078001582179 0 0.0030847681776600328 -0.0099897237127875241 0 0.0019553695815832011 -0.010008078001582179 0 0.0019336214172581347 -0.011361773585686685 0 0.0030847681776600328 -0.0099897237127875241 0 0.00056283180802462406 -0.0066613846989736049 0 0.00042091861696146157 -0.0066178727749855301 0 0.00066216116415859783 -0.0065787777736104986 0 0.00056283180802462406 -0.0066613846989736049 0 0.00043930951905061334 -0.0067091358153192416 0 0.00042091861696146157 -0.0066178727749855301 0 0.00039038064930825084 -0.0067532636894023917 0 0.00043804886434516377 -0.0068182729724804879 0 0.00043930951905061334 -0.0067091358153192416 0 0.00043804886434516377 -0.0068182729724804879 0 0.00043930951905061334 -0.0067091358153192416 0 0.00043311699636462887 -0.0067382547555675564 0 0.00043311699636462887 -0.0067382547555675564 0 0.00042091861696146157 -0.0066178727749855301 0 0.00033676067978568832 -0.0069835676385836976 0 0.00043930951905061334 -0.0067091358153192416 0 0.00043311699636462887 -0.0067382547555675564 0 0.00042091861696146157 -0.0066178727749855301 0 0.00042091861696146157 -0.0066178727749855301 0 0.00074306123238191703 -0.0064354672311511688 0 0.00037737082188312707 -0.0063122254728269905 0 0.00042091861696146157 -0.0066178727749855301 0 0.00066216116415859783 -0.0065787777736104986 0 0.00074306123238191703 -0.0064354672311511688 0 0.00056283180802462406 -0.0066613846989736049 0 0.00066216116415859783 -0.0065787777736104986 0 0.00072918119719066177 -0.0065840357519908908 0 0.00066216116415859783 -0.0065787777736104986 0 0.00080666360835276855 -0.0065271000565495126 0 0.00072918119719066177 -0.0065840357519908908 0 0.00063066454765059769 -0.0062084504294260103 0 0.00073611021929603033 -0.0062938442664751031 0 0.00066216116415859783 -0.0065787777736104986 0 0.00074306123238191703 -0.0064354672311511688 0 0.00080666360835276855 -0.0065271000565495126 0 0.00052707681334789936 -0.0059904200960745968 0 0.0006462508624076284 -0.0060702104257163141 0 0.00068447546517884817 -0.0059521173203197133 0 0.00080133564861701613 -0.006088626863171972 0 0.0006462508624076284 -0.0060702104257163141 0 0.00068447546517884817 -0.0059521173203197133 0 0.00080133564861701613 -0.006088626863171972 0 0.00068447546517884817 -0.0059521173203197133 0 0.00085045994867867644 -0.0059685177689416764 0 0.00080133564861701613 -0.006088626863171972 0 0.0008870331549279411 -0.0060609360491423285 0 0.00085045994867867644 -0.0059685177689416764 0 0.00080133564861701613 -0.006088626863171972 0 0.0006462508624076284 -0.0060702104257163141 0 0.00085840760648591449 -0.0062962317575049106 0 0.00073611021929603033 -0.0062938442664751031 0 0.00084006444214993728 -0.0063125728935986237 0 0.00085840760648591449 -0.0062962317575049106 0 0.00085959957776448269 -0.0064556437870388408 0 0.00081180326382614327 -0.0065107855285666816 0 0.00080666360835276855 -0.0065271000565495126 0 0.00085840760648591449 -0.0062962317575049106 0 0.00081180326382614327 -0.0065107855285666816 0 0.00080133564861701613 -0.006088626863171972 0 0.00085840760648591449 -0.0062962317575049106 0 0.00090247702761192875 -0.0062192228799019594 0 0.00090247702761192875 -0.0062192228799019594 0 0.00091066491929342398 -0.0060382390489237686 0 0.0008870331549279411 -0.0060609360491423285 0 0.00090247702761192875 -0.0062192228799019594 0 0.0011528515255511337 -0.0062391117153928876 0 0.0013145551339306184 -0.0059642002183907554 0 0.00080133564861701613 -0.006088626863171972 0 0.00090247702761192875 -0.0062192228799019594 0 0.0008870331549279411 -0.0060609360491423285 0 0.00092346415316159878 -0.0061671706705001324 0 0.0011161411005764451 -0.0060125651635367459 0 0.00085840760648591449 -0.0062962317575049106 0 0.00090247702761192875 -0.0062192228799019594 0 0.00096826392435626039 -0.0063467596506735936 0 0.00090247702761192875 -0.0062192228799019594 0 0.00096826392435626039 -0.0063467596506735936 0 0.0011528515255511337 -0.0062391117153928876 0 0.0010455122729085759 -0.0064957540413931635 0 0.00096826392435626039 -0.0063467596506735936 0 0.00092257392126612935 -0.0064770470634390133 0 0.0010455122729085759 -0.0064957540413931635 0 0.00096826392435626039 -0.0063467596506735936 0 0.0011528515255511337 -0.0062391117153928876 0 0.00085959957776448269 -0.0064556437870388408 0 0.00092257392126612935 -0.0064770470634390133 0 0.00086802130511561579 -0.0065496294545482987 0 0.00085959957776448269 -0.0064556437870388408 0 0.00090134378914641519 -0.0063889679962356579 0 0.00092257392126612935 -0.0064770470634390133 0 0.00085840760648591449 -0.0062962317575049106 0 0.00096826392435626039 -0.0063467596506735936 0 0.00090134378914641519 -0.0063889679962356579 0 0.00096826392435626039 -0.0063467596506735936 0 0.00090134378914641519 -0.0063889679962356579 0 0.00092257392126612935 -0.0064770470634390133 0 0.00085840760648591449 -0.0062962317575049106 0 0.00085959957776448269 -0.0064556437870388408 0 0.00090134378914641519 -0.0063889679962356579 0 0.00091212856471829329 -0.0066653067921581526 0 0.00092257392126612935 -0.0064770470634390133 0 0.00086802130511561579 -0.0065496294545482987 0 0.00091212856471829329 -0.0066653067921581526 0 0.00086802130511561579 -0.0065496294545482987 0 0.00084043720727908905 -0.0066443505419618723 0 0.00086802130511561579 -0.0065496294545482987 0 0.00083088573459701284 -0.0065554440380301109 0 0.00084043720727908905 -0.0066443505419618723 0 0.00085959957776448269 -0.0064556437870388408 0 0.00083088573459701284 -0.0065554440380301109 0 0.00081180326382614327 -0.0065107855285666816 0 0.00085959957776448269 -0.0064556437870388408 0 0.00086802130511561579 -0.0065496294545482987 0 0.00083088573459701284 -0.0065554440380301109 0 0.00083088573459701284 -0.0065554440380301109 0 0.00077571988736453051 -0.0066169577996986716 0 0.00084043720727908905 -0.0066443505419618723 0 0.00083088573459701284 -0.0065554440380301109 0 0.00077571988736453051 -0.0066169577996986716 0 0.00081180326382614327 -0.0065107855285666816 0 0.00077571988736453051 -0.0066169577996986716 0 0.00084043720727908905 -0.0066443505419618723 0 0.00076947536951690171 -0.0067383039962914714 0 0.00064924977190984503 -0.0067492525191272289 0 0.00076947536951690171 -0.0067383039962914714 0 0.00067332245172551568 -0.0066761304573974278 0 0.00077571988736453051 -0.0066169577996986716 0 0.00076947536951690171 -0.0067383039962914714 0 0.00067332245172551568 -0.0066761304573974278 0 0.00077571988736453051 -0.0066169577996986716 0 0.00067332245172551568 -0.0066761304573974278 0 0.00072918119719066177 -0.0065840357519908908 0 0.00056283180802462406 -0.0066613846989736049 0 0.00067332245172551568 -0.0066761304573974278 0 0.00072918119719066177 -0.0065840357519908908 0 0.00080666360835276855 -0.0065271000565495126 0 0.00072918119719066177 -0.0065840357519908908 0 0.00081180326382614327 -0.0065107855285666816 0 0.00077571988736453051 -0.0066169577996986716 0 0.00072918119719066177 -0.0065840357519908908 0 0.00081180326382614327 -0.0065107855285666816 0 7.8463464787499477e-06 -0.014991869414560348 0 -4.3168834077404873e-09 -0.014999959543055606 0 3.1572390388733196e-08 -0.015000015468149745 0 7.8463464787499477e-06 -0.014991869414560348 0 5.4701655386208793e-06 -0.01498823103587198 0 3.1572390388733196e-08 -0.015000015468149745 0 7.8463464787499477e-06 -0.014991869414560348 0 9.2248528308394721e-06 -0.014984399697928587 0 5.4701655386208793e-06 -0.01498823103587198 0 9.2248528308394721e-06 -0.014984399697928587 0 1.0598168050451261e-05 -0.014976368784954756 0 5.4701655386208793e-06 -0.01498823103587198 0 1.707007782047232e-05 -0.014978135055621672 0 9.2248528308394721e-06 -0.014984399697928587 0 1.0598168050451261e-05 -0.014976368784954756 0 1.707007782047232e-05 -0.014978135055621672 0 9.2248528308394721e-06 -0.014984399697928587 0 1.5624381774386859e-05 -0.014980105165303854 0 3.7744807121134702e-06 -0.014973743205941973 0 1.5624381774386859e-05 -0.014980105165303854 0 1.8828042876764578e-05 -0.01498109860797419 0 9.2248528308394721e-06 -0.014984399697928587 0 3.7744807121134702e-06 -0.014973743205941973 0 1.5624381774386859e-05 -0.014980105165303854 0 7.8463464787499477e-06 -0.014991869414560348 0 9.2248528308394721e-06 -0.014984399697928587 0 3.7744807121134702e-06 -0.014973743205941973 0 -0.00071412820992953552 -0.012220735761304575 0 -0.00071042300364404249 -0.012265263600346332 0 -0.00067000712333611576 -0.012220340619438899 0 -0.00034308613901201597 -0.013518613814775515 0 -0.00021661852534282121 -0.013880297676425162 0 2.0038406374403061e-07 -0.015000507567747443 0 -7.4248556849864936e-05 -0.014394343269677139 0 7.8463464787499477e-06 -0.014991869414560348 0 3.7744807121134702e-06 -0.014973743205941973 0 2.1144387497736453e-05 -0.014950423612997896 0 7.8463464787499477e-06 -0.014991869414560348 0 -4.3168834077404873e-09 -0.014999959543055606 0 1.7780761788007254e-06 -0.015001741616537834 0 6.6128031059917606e-06 -0.015224255335748466 0 -7.4248556849864936e-05 -0.014394343269677139 0 -0.00034308613901201597 -0.013518613814775515 0 -7.4248556849864936e-05 -0.014394343269677139 0 5.3790585966186048e-10 -0.014999998370834279 0 -1.1140431255123004e-07 -0.014998718048553555 0 -6.7756052166055673e-10 -0.014999994836629064 0 -7.4248556849864936e-05 -0.014394343269677139 0 -8.2557764555407556e-06 -0.015015856406271115 0 5.0080810988975424e-07 -0.014997506668126149 0 4.3676353479123841e-10 -0.014999988557260861 0 -8.2748891749331757e-08 -0.015000032459438791 0 -7.4248556849864936e-05 -0.014394343269677139 0 -2.7480464939193207e-07 -0.014999785167794126 0 4.3676353479123841e-10 -0.014999988557260861 0 -5.1052189761365217e-10 -0.015000003538428817 0 -8.2748891749331757e-08 -0.015000032459438791 0 -0.00042504485612055543 -0.013359606451327713 0 -7.4248556849864936e-05 -0.014394343269677139 0 7.7452115941860106e-05 -0.014899810426658396 0 1.0449589296401757e-05 -0.014700417734602345 0 -1.4352284455872293e-05 -0.014860346307236356 0 -0.00076762925488711188 -0.01237882750045987 0 -0.00071042300364404249 -0.012265263600346332 0 -0.00066247475399234472 -0.012301858887439598 0 -0.00076762925488711188 -0.01237882750045987 0 -0.00078126866292889006 -0.012264917098895947 0 -0.00071042300364404249 -0.012265263600346332 0 -0.00071412820992953552 -0.012220735761304575 0 -0.00078126866292889006 -0.012264917098895947 0 -0.00071042300364404249 -0.012265263600346332 0 -0.00071042300364404249 -0.012265263600346332 0 -0.00065196222301593424 -0.012221945789154736 0 -0.00067000712333611576 -0.012220340619438899 0 -0.00071042300364404249 -0.012265263600346332 0 -0.00065196222301593424 -0.012221945789154736 0 -0.00066247475399234472 -0.012301858887439598 0 -0.00062097860918013711 -0.012385757291816643 0 -0.00076762925488711188 -0.01237882750045987 0 -0.00066247475399234472 -0.012301858887439598 0 -0.00062097860918013711 -0.012385757291816643 0 -0.00066247475399234472 -0.012301858887439598 0 -0.00051557542459077942 -0.012260641187103682 0 -0.00065196222301593424 -0.012221945789154736 0 -0.00051557542459077942 -0.012260641187103682 0 -0.00055036035011255631 -0.012077299999263498 0 -0.00065196222301593424 -0.012221945789154736 0 -0.00066247475399234472 -0.012301858887439598 0 -0.00051557542459077942 -0.012260641187103682 0 -0.00064452246291406181 -0.012208685627919304 0 -0.00061073644541168796 -0.012165795273806195 0 -0.00065447567918504009 -0.01222156967385684 0 -0.00067000712333611576 -0.012220340619438899 0 -0.00066508104046200732 -0.012215328146707364 0 -0.00065196222301593424 -0.012221945789154736 0 -0.00065447567918504009 -0.01222156967385684 0 -0.00067000712333611576 -0.012220340619438899 0 -0.00071412820992953552 -0.012220735761304575 0 -0.00067000712333611576 -0.012220340619438899 0 -0.00066508104046200732 -0.012215328146707364 0 2.2745715630959449e-05 -0.014980515512663838 0 5.1574897495769541e-05 -0.014964218167238173 0 2.9997666020578275e-05 -0.014966165842876168 0 -0.00021661852534282121 -0.013880297676425162 0 -4.7573052272572528e-05 -0.014435409842389613 0 1.707007782047232e-05 -0.014978135055621672 0 2.2745715630959449e-05 -0.014980515512663838 0 2.9997666020578275e-05 -0.014966165842876168 0 1.707007782047232e-05 -0.014978135055621672 0 1.5624381774386859e-05 -0.014980105165303854 0 2.2745715630959449e-05 -0.014980515512663838 0 -0.00025358161516810332 -0.014105390722076772 0 -0.00021661852534282121 -0.013880297676425162 0 -0.00021661852534282121 -0.013880297676425162 0 -0.00043115590470910268 -0.012985848306143051 0 -0.00015797287764170829 -0.013879560544521611 0 -0.00013550763732567025 -0.013871656432457712 0 -0.00013989492610872871 -0.013869589676026818 0 -0.00065447567918504009 -0.01222156967385684 0 -0.00066508104046200732 -0.012215328146707364 0 -0.00065052736803559172 -0.012226767276232224 0 -0.00061073644541168796 -0.012165795273806195 0 -0.00053262574637083645 -0.01201553315584011 0 -0.00055036035011255631 -0.012077299999263498 0 -0.00045789967790372225 -0.011974065466698977 0 -0.00040375847317556009 -0.01201876284663069 0 -0.00065447567918504009 -0.01222156967385684 0 -0.00065050068469186596 -0.012227245735845448 0 -0.00065052736803559172 -0.012226767276232224 0 -0.00045789967790372225 -0.011974065466698977 0 -0.00037699672725674977 -0.01196249579493714 0 -0.00040375847317556009 -0.01201876284663069 0 -0.00037699672725674977 -0.01196249579493714 0 -0.00033429394877916297 -0.012004507809014161 0 -0.00031931641142923301 -0.011918471846272895 0 -0.00037699672725674977 -0.01196249579493714 0 -0.00033429394877916297 -0.012004507809014161 0 -0.00040375847317556009 -0.01201876284663069 0 -0.00033429394877916297 -0.012004507809014161 0 -0.0003949673952047799 -0.012098395128484781 0 -0.00027620202842063593 -0.012069942777053389 0 -0.00033429394877916297 -0.012004507809014161 0 -0.00040375847317556009 -0.01201876284663069 0 -0.0003949673952047799 -0.012098395128484781 0 -0.00055036035011255631 -0.012077299999263498 0 -0.00040375847317556009 -0.01201876284663069 0 -0.0003949673952047799 -0.012098395128484781 0 -0.00051557542459077942 -0.012260641187103682 0 -0.0003949673952047799 -0.012098395128484781 0 -0.00035662341320066452 -0.012217919579311084 0 -0.00051557542459077942 -0.012260641187103682 0 -0.00055036035011255631 -0.012077299999263498 0 -0.0003949673952047799 -0.012098395128484781 0 -0.00035478376234053413 -0.012331195439866835 0 -0.00051557542459077942 -0.012260641187103682 0 -0.00035662341320066452 -0.012217919579311084 0 -0.00035478376234053413 -0.012331195439866835 0 -0.00035662341320066452 -0.012217919579311084 0 -0.00025052952692481822 -0.012323263843127133 0 -0.0003949673952047799 -0.012098395128484781 0 -0.00035662341320066452 -0.012217919579311084 0 -0.00027620202842063593 -0.012069942777053389 0 -0.00035662341320066452 -0.012217919579311084 0 -0.00025052952692481822 -0.012323263843127133 0 -0.00027620202842063593 -0.012069942777053389 0 -0.00026659514247019797 -0.012392233858986886 0 -6.9404324538442942e-05 -0.012232145196629469 0 -0.00025052952692481822 -0.012323263843127133 0 -0.00043699765179535321 -0.011031762281996114 0 -0.00018050489287165314 -0.010402792164486833 0 -6.9404324538442942e-05 -0.012232145196629469 0 -0.00025052952692481822 -0.012323263843127133 0 -0.00027620202842063593 -0.012069942777053389 0 -6.9404324538442942e-05 -0.012232145196629469 0 9.9879836709437653e-05 -0.011919053956878254 0 -0.00027620202842063593 -0.012069942777053389 0 -0.00027620202842063593 -0.012069942777053389 0 -9.4661741953501439e-05 -0.011809909125751453 0 -0.00024553934083238588 -0.011590511193456358 0 9.9879836709437653e-05 -0.011919053956878254 0 -0.00027620202842063593 -0.012069942777053389 0 -9.4661741953501439e-05 -0.011809909125751453 0 -0.00024218595410622668 -0.012006539062169063 0 -0.00036736474071233946 -0.011871750702432045 0 -0.00033429394877916297 -0.012004507809014161 0 -0.00027620202842063593 -0.012069942777053389 0 -0.00024800316182394222 -0.011967420971702928 0 -0.00033429394877916297 -0.012004507809014161 0 -0.00024800316182394222 -0.011967420971702928 0 -0.00031931641142923301 -0.011918471846272895 0 2.5892032878784807e-05 -0.01162249304306782 0 -9.4661741953501439e-05 -0.011809909125751453 0 -0.00024553934083238588 -0.011590511193456358 0 2.5892032878784807e-05 -0.01162249304306782 0 7.2335170072036862e-05 -0.011283270998481186 0 -0.00024553934083238588 -0.011590511193456358 0 7.2335170072036862e-05 -0.011283270998481186 0 -0.00024553934083238588 -0.011590511193456358 0 -0.00013285584534138644 -0.011089367583081142 0 -0.00036736474071233946 -0.011871750702432045 0 0.00068332939047410183 -0.01115018729214514 0 -0.00024800316182394222 -0.011967420971702928 0 -0.00026044342223777807 -0.011914925408058444 0 -0.00020094168318680064 -0.011833342421197541 0 -0.00024800316182394222 -0.011967420971702928 0 -0.00031931641142923301 -0.011918471846272895 0 -0.00026044342223777807 -0.011914925408058444 0 -0.00031931641142923301 -0.011918471846272895 0 -0.00027662823217460014 -0.011884201955438234 0 -0.00029427178811646128 -0.01186723025429921 0 -0.00031931641142923301 -0.011918471846272895 0 -0.00026044342223777807 -0.011914925408058444 0 -0.00027662823217460014 -0.011884201955438234 0 -0.00026044342223777807 -0.011914925408058444 0 -0.00027662823217460014 -0.011884201955438234 0 -0.00024030242707907972 -0.011868889266665289 0 -6.5678778256631317e-05 -0.013286386192333161 0 0.00083695445540023629 -0.012094804854429243 0 -0.00027662823217460014 -0.011884201955438234 0 -0.00028149498170595603 -0.011866979606486024 0 -0.0002462247100376557 -0.011858604104609045 0 -0.00028149498170595603 -0.011866979606486024 0 -0.00029498923494049718 -0.011867623995133164 0 -0.00020913125321294184 -0.011825261597699066 0 -0.00027662823217460014 -0.011884201955438234 0 -0.0002462247100376557 -0.011858604104609045 0 -0.00024030242707907972 -0.011868889266665289 0 0.00054080895458263238 -0.01513735929591936 0 0.0005071264588711995 -0.014754521037031568 0 0.00036783683456496891 -0.015331973218708149 0 -0.00027662823217460014 -0.011884201955438234 0 -0.00028149498170595603 -0.011866979606486024 0 -0.00029427178811646128 -0.01186723025429921 0 -0.00011964415503342275 -0.013199604860199485 0 -6.5678778256631317e-05 -0.013286386192333161 0 0.00064605048222168263 -0.015336559976254237 0 0.00054080895458263238 -0.01513735929591936 0 0.00037314370856259178 -0.01532458212387691 0 -6.5678778256631317e-05 -0.013286386192333161 0 6.420260169592623e-05 -0.014298254714522366 0 0.00015569126331480912 -0.014935759626430211 0 6.420260169592623e-05 -0.014298254714522366 0 0.00054080895458263238 -0.01513735929591936 0 0.00078859521607583583 -0.015127139960139334 0 0.0006900285062143651 -0.014993747719026815 0 0.00064605048222168263 -0.015336559976254237 0 0.00054080895458263238 -0.01513735929591936 0 0.00078859521607583583 -0.015127139960139334 0 0.00064605048222168263 -0.015336559976254237 0 0.00078859521607583583 -0.015127139960139334 0 0.0010877247964124995 -0.015139615204150907 0 0.00078859521607583583 -0.015127139960139334 0 0.0006900285062143651 -0.014993747719026815 0 0.00084731921573790814 -0.015005852366867932 0 0.00078859521607583583 -0.015127139960139334 0 0.00084731921573790814 -0.015005852366867932 0 0.00097946870799397426 -0.015049182317826757 0 -0.00026044342223777807 -0.011914925408058444 0 -0.00024030242707907972 -0.011868889266665289 0 -0.00020094168318680064 -0.011833342421197541 0 0.00097946870799397426 -0.015049182317826757 0 0.0010697216155919889 -0.01504559141745955 0 0.00095363622528480514 -0.014972839393646856 0 0.00078859521607583583 -0.015127139960139334 0 0.00097946870799397426 -0.015049182317826757 0 0.0010877247964124995 -0.015139615204150907 0 0.00084731921573790814 -0.015005852366867932 0 0.00097946870799397426 -0.015049182317826757 0 0.00095363622528480514 -0.014972839393646856 0 0.00097946870799397426 -0.015049182317826757 0 0.0010697216155919889 -0.01504559141745955 0 0.0010830372088945718 -0.015144988826821708 0 0.0010697216155919889 -0.01504559141745955 0 0.0010830372088945718 -0.015144988826821708 0 0.0011328733771592456 -0.01512359088885116 0 0.0015343399354776086 -0.013426446956299187 0 0.00083695445540023629 -0.012094804854429243 0 -0.00020913125321294184 -0.011825261597699066 0 -0.00022324737312199333 -0.011846247144771969 0 -0.00020094168318680064 -0.011833342421197541 0 0.00083695445540023629 -0.012094804854429243 0 0.00068332939047410183 -0.01115018729214514 0 -0.0002462247100376557 -0.011858604104609045 0 -0.00022324737312199333 -0.011846247144771969 0 -0.00024030242707907972 -0.011868889266665289 0 -0.00028149498170595603 -0.011866979606486024 0 -0.00020913125321294184 -0.011825261597699066 0 -0.0002462247100376557 -0.011858604104609045 0 -0.00020913125321294184 -0.011825261597699066 0 -0.0002462247100376557 -0.011858604104609045 0 -0.00022324737312199333 -0.011846247144771969 0 -0.00022324737312199333 -0.011846247144771969 0 -0.00024030242707907972 -0.011868889266665289 0 -0.00020094168318680064 -0.011833342421197541 0 0.0011985879586022688 -0.0091178808460494545 0 0.00068332939047410183 -0.01115018729214514 0 0.0024485794079885871 -0.0069407252907259876 0 0.0027921008719821415 -0.0076167908188203327 0 0.0032148305483003931 -0.0076410590478949323 0 0.0027384293567702363 -0.0079920843263242888 0 0.0027921008719821415 -0.0076167908188203327 0 0.0031753626292367015 -0.0077950397279270608 0 0.0027921008719821415 -0.0076167908188203327 0 0.0032148305483003931 -0.0076410590478949323 0 0.0031753626292367015 -0.0077950397279270608 0 0.00083695445540023629 -0.012094804854429243 0 0.0014520104158428672 -0.011043031383294787 0 0.00068332939047410183 -0.01115018729214514 0 0.0014520104158428672 -0.011043031383294787 0 0.00089918170702761255 -0.011972987839012442 0 0.00086684288825234651 -0.011942800529225594 0 0.00085641525709157526 -0.011992297472337815 0 0.0033491012581081002 -0.0090137636116715963 0 0.0014520104158428672 -0.011043031383294787 0 0.0011328733771592456 -0.01512359088885116 0 0.0010564420625661125 -0.014856276600409493 0 0.0011742112944252093 -0.014699893580299859 0 0.0027811963095863857 -0.0085659267852389569 0 0.0033919434314448205 -0.0076006566258099177 0 0.0030847681776600328 -0.0099897237127875241 0 0.0011328733771592456 -0.01512359088885116 0 0.0011742112944252093 -0.014699893580299859 0 0.0014733811335958867 -0.014506442751227887 0 0.0014520104158428672 -0.011043031383294787 0 0.0023184412731250244 -0.012293540942400512 0 0.0027384293567702363 -0.0079920843263242888 0 0.0027811963095863857 -0.0085659267852389569 0 0.0033919434314448205 -0.0076006566258099177 0 0.0010697216155919889 -0.01504559141745955 0 0.0011328733771592456 -0.01512359088885116 0 0.0010564420625661125 -0.014856276600409493 0 0.0010564420625661125 -0.014856276600409493 0 0.00084293113077557776 -0.014687598804602421 0 0.00082146119066076853 -0.014882961340050559 0 0.0010697216155919889 -0.01504559141745955 0 0.00095363622528480514 -0.014972839393646856 0 0.0010564420625661125 -0.014856276600409493 0 0.00095363622528480514 -0.014972839393646856 0 0.0010564420625661125 -0.014856276600409493 0 0.00082146119066076853 -0.014882961340050559 0 0.0010564420625661125 -0.014856276600409493 0 0.0011742112944252093 -0.014699893580299859 0 0.00084293113077557776 -0.014687598804602421 0 0.0011742112944252093 -0.014699893580299859 0 0.0014733811335958867 -0.014506442751227887 0 0.00098284767658394297 -0.014382822169052732 0 0.0011742112944252093 -0.014699893580299859 0 0.00098284767658394297 -0.014382822169052732 0 0.00084293113077557776 -0.014687598804602421 0 0.00098284767658394297 -0.014382822169052732 0 0.0013771837273572401 -0.013956445995199792 0 0.0011264132330090983 -0.01387538536629049 0 0.0014733811335958867 -0.014506442751227887 0 0.00098284767658394297 -0.014382822169052732 0 0.0013771837273572401 -0.013956445995199792 0 0.00098284767658394297 -0.014382822169052732 0 0.00036818934557108259 -0.014269158217024288 0 0.0011264132330090983 -0.01387538536629049 0 0.00055828752050098777 -0.014525480632161551 0 0.00034956353970233193 -0.014530216154106967 0 0.00036818934557108259 -0.014269158217024288 0 0.00098284767658394297 -0.014382822169052732 0 0.00055828752050098777 -0.014525480632161551 0 0.00036818934557108259 -0.014269158217024288 0 0.00098284767658394297 -0.014382822169052732 0 0.00055828752050098777 -0.014525480632161551 0 0.00084293113077557776 -0.014687598804602421 0 0.00055828752050098777 -0.014525480632161551 0 0.0005071264588711995 -0.014754521037031568 0 0.00034956353970233193 -0.014530216154106967 0 0.00055828752050098777 -0.014525480632161551 0 0.00084293113077557776 -0.014687598804602421 0 0.0005071264588711995 -0.014754521037031568 0 0.00084293113077557776 -0.014687598804602421 0 0.00082146119066076853 -0.014882961340050559 0 0.0005071264588711995 -0.014754521037031568 0 0.0006900285062143651 -0.014993747719026815 0 0.00082146119066076853 -0.014882961340050559 0 0.0005071264588711995 -0.014754521037031568 0 0.0006900285062143651 -0.014993747719026815 0 0.00084731921573790814 -0.015005852366867932 0 0.00082146119066076853 -0.014882961340050559 0 0.00084731921573790814 -0.015005852366867932 0 0.00095363622528480514 -0.014972839393646856 0 0.00082146119066076853 -0.014882961340050559 0 0.00054080895458263238 -0.01513735929591936 0 0.0006900285062143651 -0.014993747719026815 0 0.0005071264588711995 -0.014754521037031568 0 0.0005071264588711995 -0.014754521037031568 0 0.00034956353970233193 -0.014530216154106967 0 0.00027943022538879953 -0.014722252783980287 0 0.0005071264588711995 -0.014754521037031568 0 0.00027943022538879953 -0.014722252783980287 0 0.00028261130856554269 -0.01489183456342031 0 0.00034956353970233193 -0.014530216154106967 0 0.00027663842464267378 -0.014572979881833571 0 0.00031228825476577139 -0.014479087398175446 0 0.00034956353970233193 -0.014530216154106967 0 0.00031228825476577139 -0.014479087398175446 0 0.00036818934557108259 -0.014269158217024288 0 0.00034956353970233193 -0.014530216154106967 0 0.00027663842464267378 -0.014572979881833571 0 0.00027943022538879953 -0.014722252783980287 0 0.00027663842464267378 -0.014572979881833571 0 0.00027943022538879953 -0.014722252783980287 0 0.00015310983795352163 -0.014746918018390457 0 0.00027943022538879953 -0.014722252783980287 0 0.00020561320331817187 -0.014812512926871696 0 0.00015310983795352163 -0.014746918018390457 0 0.00027943022538879953 -0.014722252783980287 0 0.00028261130856554269 -0.01489183456342031 0 0.00020561320331817187 -0.014812512926871696 0 0.00046013943988625381 -0.014872801668020423 0 9.1213044964758312e-05 -0.014800910205123557 0 -0.00012339215620526221 -0.013863323917043173 0 -0.00011028581572269925 -0.01386377700030678 0 -0.00011572892431343771 -0.013866148466626529 0 9.1213044964758312e-05 -0.014800910205123557 0 6.420260169592623e-05 -0.014298254714522366 0 0.0005071264588711995 -0.014754521037031568 0 -0.00014300418743906187 -0.015312763686571775 0 0.00036783683456496891 -0.015331973218708149 0 -0.00017358887680582528 -0.013305128602357977 0 -0.0001444999103085143 -0.013304921506787373 0 -0.00012433564837657785 -0.013277184422834052 0 -6.5678778256631317e-05 -0.013286386192333161 0 -0.00027041917609118817 -0.012802100162457038 0 -0.00031931641142923301 -0.011918471846272895 0 -0.00029427178811646128 -0.01186723025429921 0 -0.00037721066494154811 -0.011901229979588406 0 -0.00045789967790372225 -0.011974065466698977 0 -0.00037699672725674977 -0.01196249579493714 0 -0.00037721066494154811 -0.011901229979588406 0 6.420260169592623e-05 -0.014298254714522366 0 -0.00027041917609118817 -0.012802100162457038 0 -0.00037699672725674977 -0.01196249579493714 0 -0.00031931641142923301 -0.011918471846272895 0 -0.00037721066494154811 -0.011901229979588406 0 -0.00065050068469186596 -0.012227245735845448 0 -0.00064653190916016219 -0.012241436809143061 0 -0.00065052736803559172 -0.012226767276232224 0 9.1213044964758312e-05 -0.014800910205123557 0 -4.7573052272572528e-05 -0.014435409842389613 0 -0.00012339215620526221 -0.013863323917043173 0 -0.00013550763732567025 -0.013871656432457712 0 -0.00013989492610872871 -0.013869589676026818 0 -0.00012339215620526221 -0.013863323917043173 0 -0.00011572892431343771 -0.013866148466626529 0 -0.00013550763732567025 -0.013871656432457712 0 -0.00053262574637083645 -0.01201553315584011 0 -0.00027041917609118817 -0.012802100162457038 0 -0.00027041917609118817 -0.012802100162457038 0 -0.00043115590470910268 -0.012985848306143051 0 5.1574897495769541e-05 -0.014964218167238173 0 2.9997666020578275e-05 -0.014966165842876168 0 4.2250704607295582e-05 -0.014944031171811195 0 7.7248532396308181e-05 -0.014941368130410457 0 5.1574897495769541e-05 -0.014964218167238173 0 4.2250704607295582e-05 -0.014944031171811195 0 2.9997666020578275e-05 -0.014966165842876168 0 4.2250704607295582e-05 -0.014944031171811195 0 1.2025675724826439e-05 -0.014942643839654952 0 0.00010055914430350694 -0.014932871905760202 0 3.8393205095709294e-06 -0.014933805803798024 0 0.00012009979851531654 -0.014889773824912883 0 7.1710662749081665e-05 -0.014827228510959386 0 1.2025675724826439e-05 -0.014942643839654952 0 9.1213044964758312e-05 -0.014800910205123557 0 0.00010055914430350694 -0.014932871905760202 0 0.00020561320331817187 -0.014812512926871696 0 0.00012009979851531654 -0.014889773824912883 0 0.00015310983795352163 -0.014746918018390457 0 0.00028261130856554269 -0.01489183456342031 0 0.00020561320331817187 -0.014812512926871696 0 0.00012009979851531654 -0.014889773824912883 0 0.00027663842464267378 -0.014572979881833571 0 0.00029554112857030595 -0.014555530793597801 0 0.00030623930021829194 -0.014547795984792578 0 0.0002972199569567784 -0.014538266869680631 0 0.00013004332331415801 -0.014783923853850399 0 0.00027663842464267378 -0.014572979881833571 0 0.00015310983795352163 -0.014746918018390457 0 0.00010517499188259883 -0.01461924756911029 0 0.00010517499188259883 -0.01461924756911029 0 8.1307807892449065e-05 -0.014750458146126164 0 -2.5695029691232833e-07 -0.01480713024192592 0 0.00015310983795352163 -0.014746918018390457 0 0.00010517499188259883 -0.01461924756911029 0 8.1307807892449065e-05 -0.014750458146126164 0 0.00013004332331415801 -0.014783923853850399 0 -4.704771478967389e-06 -0.014907131059908063 0 0.00015310983795352163 -0.014746918018390457 0 8.1307807892449065e-05 -0.014750458146126164 0 7.1710662749081665e-05 -0.014827228510959386 0 0.00012009979851531654 -0.014889773824912883 0 0.00015310983795352163 -0.014746918018390457 0 7.1710662749081665e-05 -0.014827228510959386 0 8.1307807892449065e-05 -0.014750458146126164 0 7.1710662749081665e-05 -0.014827228510959386 0 -2.5695029691232833e-07 -0.01480713024192592 0 7.1710662749081665e-05 -0.014827228510959386 0 -2.5695029691232833e-07 -0.01480713024192592 0 1.2025675724826439e-05 -0.014942643839654952 0 9.2443825078690204e-06 -0.014995465489655637 0 2.8137006026489747e-06 -0.01499990365945124 0 2.9358662391749192e-06 -0.014996852481783061 0 2.8137006026489747e-06 -0.01499990365945124 0 5.8396613870667816e-10 -0.014999999540401699 0 2.9358662391749192e-06 -0.014996852481783061 0 -4.704771478967389e-06 -0.014907131059908063 0 3.3202719572227946e-08 -0.014999941897242136 0 2.8137006026489747e-06 -0.01499990365945124 0 5.8396613870667816e-10 -0.014999999540401699 0 3.2596361604990272e-10 -0.015000001890852406 0 -2.5695029691232833e-07 -0.01480713024192592 0 -1.1518481463081591e-07 -0.014999796656869567 0 1.2025675724826439e-05 -0.014942643839654952 0 -1.1518481463081591e-07 -0.014999796656869567 0 1.2025675724826439e-05 -0.014942643839654952 0 1.788174107390892e-06 -0.014980825363200565 0 2.9997666020578275e-05 -0.014966165842876168 0 1.2025675724826439e-05 -0.014942643839654952 0 1.0598168050451261e-05 -0.014976368784954756 0 1.707007782047232e-05 -0.014978135055621672 0 2.9997666020578275e-05 -0.014966165842876168 0 1.0598168050451261e-05 -0.014976368784954756 0 1.2025675724826439e-05 -0.014942643839654952 0 1.0598168050451261e-05 -0.014976368784954756 0 1.788174107390892e-06 -0.014980825363200565 0 1.0598168050451261e-05 -0.014976368784954756 0 5.4701655386208793e-06 -0.01498823103587198 0 1.788174107390892e-06 -0.014980825363200565 0 -1.1518481463081591e-07 -0.014999796656869567 0 3.1572390388733196e-08 -0.015000015468149745 0 1.788174107390892e-06 -0.014980825363200565 0 5.4701655386208793e-06 -0.01498823103587198 0 3.1572390388733196e-08 -0.015000015468149745 0 1.788174107390892e-06 -0.014980825363200565 0 2.2173900958005717e-08 -0.014999778619135219 0 4.4873116039494239e-05 -0.014932958991587751 0 5.9235159690351794e-05 -0.014886794811022702 0 2.2173900958005717e-08 -0.014999778619135219 0 4.4873116039494239e-05 -0.014932958991587751 0 3.0765621530955086e-08 -0.01499993424085532 0 4.4873116039494239e-05 -0.014932958991587751 0 9.9510739207969007e-05 -0.014866174813139031 0 5.9235159690351794e-05 -0.014886794811022702 0 9.9510739207969007e-05 -0.014866174813139031 0 0.00010816726367373842 -0.014838788564292316 0 5.9235159690351794e-05 -0.014886794811022702 0 4.4873116039494239e-05 -0.014932958991587751 0 3.7118553078690891e-05 -0.014951721735448786 0 9.1451924164979856e-05 -0.014880879379942575 0 4.4873116039494239e-05 -0.014932958991587751 0 9.1451924164979856e-05 -0.014880879379942575 0 9.9510739207969007e-05 -0.014866174813139031 0 4.4873116039494239e-05 -0.014932958991587751 0 3.0765621530955086e-08 -0.01499993424085532 0 3.7118553078690891e-05 -0.014951721735448786 0 3.0765621530955086e-08 -0.01499993424085532 0 2.1678343396283392e-08 -0.014999951358938706 0 3.7118553078690891e-05 -0.014951721735448786 0 5.8396613870667816e-10 -0.014999999540401699 0 1.4049504113486195e-09 -0.014999994572982372 0 2.9358662391749192e-06 -0.014996852481783061 0 2.1678343396283392e-08 -0.014999951358938706 0 5.3647458569531966e-05 -0.014961966550298527 0 3.7118553078690891e-05 -0.014951721735448786 0 2.7860405691176207e-09 -0.014999981790366615 0 1.9858959733539845e-05 -0.014996416559309391 0 5.3647458569531966e-05 -0.014961966550298527 0 3.7118553078690891e-05 -0.014951721735448786 0 0.00010385347018835014 -0.014899955671650308 0 3.7118553078690891e-05 -0.014951721735448786 0 0.00010385347018835014 -0.014899955671650308 0 9.1451924164979856e-05 -0.014880879379942575 0 0.00010385347018835014 -0.014899955671650308 0 0.00017245889402014294 -0.014794822113573886 0 9.1451924164979856e-05 -0.014880879379942575 0 0.00013004332331415801 -0.014783923853850399 0 1.9858959733539845e-05 -0.014996416559309391 0 0.000135167250807946 -0.014948085511380636 0 5.3647458569531966e-05 -0.014961966550298527 0 0.00010385347018835014 -0.014899955671650308 0 0.000135167250807946 -0.014948085511380636 0 0.00010385347018835014 -0.014899955671650308 0 0.00020080723299712168 -0.0148623386614859 0 0.00013004332331415801 -0.014783923853850399 0 0.00026061583797888199 -0.014699523759892457 0 0.00010385347018835014 -0.014899955671650308 0 0.00020080723299712168 -0.0148623386614859 0 0.00017245889402014294 -0.014794822113573886 0 0.00020080723299712168 -0.0148623386614859 0 0.00017245889402014294 -0.014794822113573886 0 0.00028935055000453547 -0.014657290732432389 0 0.00017245889402014294 -0.014794822113573886 0 0.00018847793654938036 -0.014755882946120473 0 0.00022945313678181909 -0.014726095273535489 0 0.00018847793654938036 -0.014755882946120473 0 0.0001378238159080252 -0.014820096717950792 0 0.00013408763808804726 -0.014829137519888791 0 0.00017245889402014294 -0.014794822113573886 0 0.00018847793654938036 -0.014755882946120473 0 0.0001378238159080252 -0.014820096717950792 0 0.00017245889402014294 -0.014794822113573886 0 9.1451924164979856e-05 -0.014880879379942575 0 0.0001378238159080252 -0.014820096717950792 0 9.1451924164979856e-05 -0.014880879379942575 0 0.0001378238159080252 -0.014820096717950792 0 9.9510739207969007e-05 -0.014866174813139031 0 0.0001378238159080252 -0.014820096717950792 0 9.9510739207969007e-05 -0.014866174813139031 0 0.00013408763808804726 -0.014829137519888791 0 9.9510739207969007e-05 -0.014866174813139031 0 0.00013408763808804726 -0.014829137519888791 0 0.00010816726367373842 -0.014838788564292316 0 0.00016287455465775159 -0.014787100904272724 0 7.8776531171804911e-05 -0.014858471002536133 0 0.00018847793654938036 -0.014755882946120473 0 0.00018059458054735315 -0.014744734451352267 0 0.00017575074018234523 -0.014742744518381755 0 0.00018166794081583972 -0.014771565523609973 0 0.00016287455465775159 -0.014787100904272724 0 0.00018847793654938036 -0.014755882946120473 0 0.00017575074018234523 -0.014742744518381755 0 0.00018274179813895341 -0.01473533844526435 0 0.00018274179813895341 -0.01473533844526435 0 0.00017858951846488799 -0.014725988475467831 0 0.00015361932552739445 -0.014746327136493025 0 0.00018274179813895341 -0.01473533844526435 0 0.00017858951846488799 -0.014725988475467831 0 0.00022852663531558316 -0.014706354555232903 0 0.00017858951846488799 -0.014725988475467831 0 0.00020921506491739149 -0.014691453544937706 0 0.00022852663531558316 -0.014706354555232903 0 0.00020921506491739149 -0.014691453544937706 0 0.00022852663531558316 -0.014706354555232903 0 0.00025899517273654093 -0.014612103512232886 0 0.00018847793654938036 -0.014755882946120473 0 0.00018274179813895341 -0.01473533844526435 0 0.00022852663531558316 -0.014706354555232903 0 0.00018847793654938036 -0.014755882946120473 0 0.00022852663531558316 -0.014706354555232903 0 0.00022945313678181909 -0.014726095273535489 0 0.00022852663531558316 -0.014706354555232903 0 0.00022945313678181909 -0.014726095273535489 0 0.00028935055000453547 -0.014657290732432389 0 0.00017245889402014294 -0.014794822113573886 0 0.00022945313678181909 -0.014726095273535489 0 0.00028935055000453547 -0.014657290732432389 0 0.00027663842464267378 -0.014572979881833571 0 0.00030623930021829194 -0.014547795984792578 0 0.00031228825476577139 -0.014479087398175446 0 0.00030623930021829194 -0.014547795984792578 0 0.00028935055000453547 -0.014657290732432389 0 0.00031228825476577139 -0.014479087398175446 0 0.00026061583797888199 -0.014699523759892457 0 0.00027081477677099917 -0.014677916825565785 0 0.00031228825476577139 -0.014479087398175446 0 0.00025899517273654093 -0.014612103512232886 0 0.00036818934557108259 -0.014269158217024288 0 0.00022852663531558316 -0.014706354555232903 0 0.00028935055000453547 -0.014657290732432389 0 0.00025899517273654093 -0.014612103512232886 0 0.00028935055000453547 -0.014657290732432389 0 0.00031228825476577139 -0.014479087398175446 0 0.00025899517273654093 -0.014612103512232886 0 0.00025899517273654093 -0.014612103512232886 0 0.00011910172846564209 -0.014627353653886213 0 0.00016278524291321207 -0.014695724927445197 0 0.00025899517273654093 -0.014612103512232886 0 0.00011910172846564209 -0.014627353653886213 0 0.00036818934557108259 -0.014269158217024288 0 0.00036818934557108259 -0.014269158217024288 0 0.0011264132330090983 -0.01387538536629049 0 0.001297542016024362 -0.013250876873892741 0 0.00052926184406598405 -0.01402006384973848 0 0.00039015649334424145 -0.014099519150486052 0 0.00095882546688443309 -0.012727589869395796 0 0.00036818934557108259 -0.014269158217024288 0 0.001297542016024362 -0.013250876873892741 0 0.0014733811335958867 -0.014506442751227887 0 0.0013771837273572401 -0.013956445995199792 0 0.0018896079613682413 -0.013173441998882032 0 0.0013771837273572401 -0.013956445995199792 0 0.0014431670266107284 -0.013560321213658539 0 0.0018896079613682413 -0.013173441998882032 0 0.0013771837273572401 -0.013956445995199792 0 0.0014431670266107284 -0.013560321213658539 0 0.0011264132330090983 -0.01387538536629049 0 0.0014431670266107284 -0.013560321213658539 0 0.001297542016024362 -0.013250876873892741 0 0.0018896079613682413 -0.013173441998882032 0 0.0014431670266107284 -0.013560321213658539 0 0.0011264132330090983 -0.01387538536629049 0 0.001297542016024362 -0.013250876873892741 0 0.00095882546688443309 -0.012727589869395796 0 0.0017117845963168514 -0.012902633029545904 0 0.0018056910431492519 -0.012578756410775832 0 0.00095882546688443309 -0.012727589869395796 0 0.001297542016024362 -0.013250876873892741 0 0.0017117845963168514 -0.012902633029545904 0 0.001297542016024362 -0.013250876873892741 0 0.0018896079613682413 -0.013173441998882032 0 0.0017117845963168514 -0.012902633029545904 0 0.00095882546688443309 -0.012727589869395796 0 0.0014902742291773357 -0.011639406356866906 0 0.0018056910431492519 -0.012578756410775832 0 0.00052926184406598405 -0.01402006384973848 0 0.00058588576742414069 -0.011676824601370121 0 0.00058588576742414069 -0.011676824601370121 0 0.001400599973353807 -0.0097767172306168371 0 0.00011910172846564209 -0.014627353653886213 0 0.00012821293137404573 -0.014706871755869671 0 0.00014592533958095638 -0.014703375010428257 0 0.00011910172846564209 -0.014627353653886213 0 0.00016278524291321207 -0.014695724927445197 0 0.00014592533958095638 -0.014703375010428257 0 0.00020921506491739149 -0.014691453544937706 0 0.00025899517273654093 -0.014612103512232886 0 0.00016278524291321207 -0.014695724927445197 0 0.00017858951846488799 -0.014725988475467831 0 0.00020921506491739149 -0.014691453544937706 0 0.00016278524291321207 -0.014695724927445197 0 0.00017858951846488799 -0.014725988475467831 0 0.00015614865440923559 -0.014724245647905702 0 0.00015153238783764095 -0.014738884425290482 0 0.00016278524291321207 -0.014695724927445197 0 0.00015614865440923559 -0.014724245647905702 0 0.00014592533958095638 -0.014703375010428257 0 0.00017858951846488799 -0.014725988475467831 0 0.00016278524291321207 -0.014695724927445197 0 0.00015614865440923559 -0.014724245647905702 0 0.00015614865440923559 -0.014724245647905702 0 0.00014779481629877375 -0.014721457585629606 0 0.00015613925422972865 -0.014733028889201047 0 0.00015614865440923559 -0.014724245647905702 0 0.00014779481629877375 -0.014721457585629606 0 0.00014592533958095638 -0.014703375010428257 0 0.00014779481629877375 -0.014721457585629606 0 0.00012821293137404573 -0.014706871755869671 0 0.00015169463685940193 -0.014731009447805171 0 -0.00018914404313671336 -0.011663989654840497 0 0.00023558056675451028 -0.010698821396588738 0 0.0011390400919128536 -0.013452790208758362 0 0.00058588576742414069 -0.011676824601370121 0 0.00061174479782009927 -0.014352251367083369 0 0.00037736965961075839 -0.0096426908691876374 0 0.00058588576742414069 -0.011676824601370121 0 0.00014779481629877375 -0.014721457585629606 0 0.00012821293137404573 -0.014706871755869671 0 0.00014592533958095638 -0.014703375010428257 0 0.00015169463685940193 -0.014731009447805171 0 0.00016527541066026149 -0.014730476495607821 0 0.00015613925422972865 -0.014733028889201047 0 0.00061174479782009927 -0.014352251367083369 0 0.00041179358296061281 -0.014549980810234878 0 0.00021829942505157351 -0.014391355254846692 0 0.00012932021280106932 -0.014384647272684244 0 0.00013968535169730151 -0.014492530010507699 0 0.00012932021280106932 -0.014384647272684244 0 0.00013968535169730151 -0.014492530010507699 0 4.6961522465714552e-05 -0.014435288751725443 0 0.00037736965961075839 -0.0096426908691876374 0 0.00061174479782009927 -0.014352251367083369 0 0.00011081320671265194 -0.014202790793314045 0 0.00021829942505157351 -0.014391355254846692 0 0.00012932021280106932 -0.014384647272684244 0 0.00014779481629877375 -0.014721457585629606 0 0.00015169463685940193 -0.014731009447805171 0 0.00015613925422972865 -0.014733028889201047 0 0.00015614865440923559 -0.014724245647905702 0 0.00015613925422972865 -0.014733028889201047 0 0.00015153238783764095 -0.014738884425290482 0 0.00016527541066026149 -0.014730476495607821 0 0.00015613925422972865 -0.014733028889201047 0 0.00015153238783764095 -0.014738884425290482 0 0.00016527541066026149 -0.014730476495607821 0 0.00015153238783764095 -0.014738884425290482 0 0.00014507582865354445 -0.014719328961368482 0 0.00016527541066026149 -0.014730476495607821 0 0.00014507582865354445 -0.014719328961368482 0 0.00017133051386166332 -0.014666810417889179 0 0.00015153238783764095 -0.014738884425290482 0 0.00014507582865354445 -0.014719328961368482 0 0.00012857824917330039 -0.014737271446967676 0 0.00014507582865354445 -0.014719328961368482 0 0.00013599538310872877 -0.01469870791702829 0 0.00012857824917330039 -0.014737271446967676 0 0.00014507582865354445 -0.014719328961368482 0 0.00013599538310872877 -0.01469870791702829 0 0.00017133051386166332 -0.014666810417889179 0 0.00018134393690969383 -0.014760476338841574 0 0.00016527541066026149 -0.014730476495607821 0 0.00017133051386166332 -0.014666810417889179 0 0.00021829942505157351 -0.014391355254846692 0 0.00017133051386166332 -0.014666810417889179 0 0.00013968535169730151 -0.014492530010507699 0 0.00017133051386166332 -0.014666810417889179 0 0.00013144265845162938 -0.014579866635700829 0 0.0001426427495007984 -0.014644741689003978 0 0.00061174479782009927 -0.014352251367083369 0 0.00012947560372583567 -0.014696246438575582 0 0.00017133051386166332 -0.014666810417889179 0 0.00013968535169730151 -0.014492530010507699 0 0.00013144265845162938 -0.014579866635700829 0 0.00013968535169730151 -0.014492530010507699 0 0.00013144265845162938 -0.014579866635700829 0 9.0433083369345898e-05 -0.014528308821401671 0 0.00013144265845162938 -0.014579866635700829 0 0.0001426427495007984 -0.014644741689003978 0 0.0001050188311697972 -0.014585221618214935 0 0.0001426427495007984 -0.014644741689003978 0 0.0001050188311697972 -0.014585221618214935 0 0.00013040008868533577 -0.01463231903926316 0 0.00013916795951871016 -0.014673765630617976 0 0.00013040008868533577 -0.01463231903926316 0 0.00016965827682377649 -0.014650707192464583 0 0.0001426427495007984 -0.014644741689003978 0 0.00013916795951871016 -0.014673765630617976 0 0.00013040008868533577 -0.01463231903926316 0 0.00017133051386166332 -0.014666810417889179 0 0.0001426427495007984 -0.014644741689003978 0 0.00013916795951871016 -0.014673765630617976 0 0.00014569174089775307 -0.014640121630991825 0 0.00013916795951871016 -0.014673765630617976 0 9.2663851175256055e-05 -0.014679666037685227 0 0.00014569174089775307 -0.014640121630991825 0 0.00013916795951871016 -0.014673765630617976 0 0.00016965827682377649 -0.014650707192464583 0 0.00013599538310872877 -0.01469870791702829 0 0.00013916795951871016 -0.014673765630617976 0 0.00010846444090989422 -0.014709783926800602 0 0.00013916795951871016 -0.014673765630617976 0 9.2663851175256055e-05 -0.014679666037685227 0 0.00010846444090989422 -0.014709783926800602 0 0.00013599538310872877 -0.01469870791702829 0 0.00017133051386166332 -0.014666810417889179 0 0.00013916795951871016 -0.014673765630617976 0 0.00010846444090989422 -0.014709783926800602 0 7.992819940163935e-05 -0.014714532961119922 0 7.3779769226656777e-05 -0.014746116302475369 0 0.00010846444090989422 -0.014709783926800602 0 7.3779769226656777e-05 -0.014746116302475369 0 9.8682946291799546e-05 -0.014752391166305263 0 5.7574766235888515e-05 -0.014701368654330667 0 9.2663851175256055e-05 -0.014679666037685227 0 7.992819940163935e-05 -0.014714532961119922 0 9.2663851175256055e-05 -0.014679666037685227 0 0.00010846444090989422 -0.014709783926800602 0 7.992819940163935e-05 -0.014714532961119922 0 5.7574766235888515e-05 -0.014701368654330667 0 7.992819940163935e-05 -0.014714532961119922 0 5.8072616653428802e-05 -0.014742500622319485 0 7.992819940163935e-05 -0.014714532961119922 0 5.8072616653428802e-05 -0.014742500622319485 0 7.3779769226656777e-05 -0.014746116302475369 0 5.8072616653428802e-05 -0.014742500622319485 0 7.3779769226656777e-05 -0.014746116302475369 0 4.434385342625556e-05 -0.014786495126305662 0 3.2717424798700758e-05 -0.014789313442185703 0 5.8072616653428802e-05 -0.014742500622319485 0 4.434385342625556e-05 -0.014786495126305662 0 7.3779769226656777e-05 -0.014746116302475369 0 9.8682946291799546e-05 -0.014752391166305263 0 5.9301775139701015e-05 -0.014779423883835793 0 7.3779769226656777e-05 -0.014746116302475369 0 5.9301775139701015e-05 -0.014779423883835793 0 4.434385342625556e-05 -0.014786495126305662 0 9.8682946291799546e-05 -0.014752391166305263 0 0.00013136687202198679 -0.014767928152226283 0 7.9882953615733951e-05 -0.014776684303426798 0 9.8682946291799546e-05 -0.014752391166305263 0 7.9882953615733951e-05 -0.014776684303426798 0 5.9301775139701015e-05 -0.014779423883835793 0 0.00013599538310872877 -0.01469870791702829 0 0.00010846444090989422 -0.014709783926800602 0 0.00012857824917330039 -0.014737271446967676 0 0.00010846444090989422 -0.014709783926800602 0 9.8682946291799546e-05 -0.014752391166305263 0 0.00012857824917330039 -0.014737271446967676 0 9.8682946291799546e-05 -0.014752391166305263 0 0.00012857824917330039 -0.014737271446967676 0 0.00013136687202198679 -0.014767928152226283 0 0.00015153238783764095 -0.014738884425290482 0 0.00012857824917330039 -0.014737271446967676 0 0.00015361932552739445 -0.014746327136493025 0 0.00017858951846488799 -0.014725988475467831 0 0.00015153238783764095 -0.014738884425290482 0 0.00015361932552739445 -0.014746327136493025 0 0.00012857824917330039 -0.014737271446967676 0 0.00015361932552739445 -0.014746327136493025 0 0.00013136687202198679 -0.014767928152226283 0 0.00017575074018234523 -0.014742744518381755 0 0.00018274179813895341 -0.01473533844526435 0 0.00013136687202198679 -0.014767928152226283 0 0.00013136687202198679 -0.014767928152226283 0 6.5147144014240588e-05 -0.014808308995999058 0 7.9882953615733951e-05 -0.014776684303426798 0 0.00012585462667482654 -0.014774300051583216 0 0.00013003293180445481 -0.014781998343319693 0 0.00018274179813895341 -0.01473533844526435 0 0.00015361932552739445 -0.014746327136493025 0 0.00013136687202198679 -0.014767928152226283 0 0.00017575074018234523 -0.014742744518381755 0 0.00013136687202198679 -0.014767928152226283 0 0.00017956610040661605 -0.014760082397688241 0 6.5147144014240588e-05 -0.014808308995999058 0 4.4032324990899976e-05 -0.014814107653029559 0 4.5735354534549676e-05 -0.014800139212552431 0 0.00018059458054735315 -0.014744734451352267 0 0.00017575074018234523 -0.014742744518381755 0 0.00017956610040661605 -0.014760082397688241 0 0.00013003293180445481 -0.014781998343319693 0 7.8776531171804911e-05 -0.014858471002536133 0 0.00018059458054735315 -0.014744734451352267 0 0.00017956610040661605 -0.014760082397688241 0 0.00019041626660685096 -0.014757322482496607 0 7.8776531171804911e-05 -0.014858471002536133 0 1.4409693763930038e-05 -0.014912454105378744 0 4.5735354534549676e-05 -0.014800139212552431 0 2.8804293207370598e-05 -0.014830907632753519 0 3.7178153653631575e-05 -0.014817273545499891 0 4.4032324990899976e-05 -0.014814107653029559 0 4.5735354534549676e-05 -0.014800139212552431 0 3.7178153653631575e-05 -0.014817273545499891 0 6.5147144014240588e-05 -0.014808308995999058 0 4.5735354534549676e-05 -0.014800139212552431 0 7.9882953615733951e-05 -0.014776684303426798 0 4.5735354534549676e-05 -0.014800139212552431 0 7.9882953615733951e-05 -0.014776684303426798 0 5.9301775139701015e-05 -0.014779423883835793 0 4.5735354534549676e-05 -0.014800139212552431 0 5.9301775139701015e-05 -0.014779423883835793 0 2.8804293207370598e-05 -0.014830907632753519 0 5.9301775139701015e-05 -0.014779423883835793 0 4.434385342625556e-05 -0.014786495126305662 0 2.8804293207370598e-05 -0.014830907632753519 0 2.4334495791420289e-05 -0.014853427372757898 0 2.8804293207370598e-05 -0.014830907632753519 0 2.0325558118501548e-05 -0.014898624282399853 0 2.4334495791420289e-05 -0.014853427372757898 0 4.434385342625556e-05 -0.014786495126305662 0 2.8804293207370598e-05 -0.014830907632753519 0 2.8804293207370598e-05 -0.014830907632753519 0 3.3612911006931794e-05 -0.014871672508144551 0 3.7178153653631575e-05 -0.014817273545499891 0 1.0783736921917577e-05 -0.014933915662125576 0 1.4409693763930038e-05 -0.014912454105378744 0 2.8804293207370598e-05 -0.014830907632753519 0 2.0325558118501548e-05 -0.014898624282399853 0 3.3612911006931794e-05 -0.014871672508144551 0 2.0325558118501548e-05 -0.014898624282399853 0 1.0551932763748013e-07 -0.014999720009693119 0 3.3612911006931794e-05 -0.014871672508144551 0 1.5298658588541787e-05 -0.01492706069836802 0 2.0325558118501548e-05 -0.014898624282399853 0 1.0551932763748013e-07 -0.014999720009693119 0 1.9787404276385257e-09 -0.014999960678094115 0 1.0783736921917577e-05 -0.014933915662125576 0 -9.2227971848901082e-11 -0.014999999871564512 0 1.3880681089947493e-07 -0.01499950357312191 0 4.1321409215689866e-10 -0.01499999814918157 0 1.3880681089947493e-07 -0.01499950357312191 0 3.2957167110612881e-07 -0.014999432891415624 0 4.1321409215689866e-10 -0.01499999814918157 0 1.3880681089947493e-07 -0.01499950357312191 0 3.2957167110612881e-07 -0.014999432891415624 0 7.0342926496570562e-07 -0.014998677911669749 0 7.8776531171804911e-05 -0.014858471002536133 0 3.0184779192208759e-05 -0.014949859726260848 0 3.2957167110612881e-07 -0.014999432891415624 0 7.0342926496570562e-07 -0.014998677911669749 0 7.9594439873967288e-07 -0.014999267270938638 0 1.8449193724099337e-06 -0.014998130964155639 0 7.0342926496570562e-07 -0.014998677911669749 0 7.9594439873967288e-07 -0.014999267270938638 0 3.9860623403788049e-10 -0.014999999627941636 0 3.2957167110612881e-07 -0.014999432891415624 0 4.1321409215689866e-10 -0.01499999814918157 0 3.0525055429912067e-08 -0.014999967430504762 0 3.0184779192208759e-05 -0.014949859726260848 0 3.9860623403788049e-10 -0.014999999627941636 0 3.2957167110612881e-07 -0.014999432891415624 0 7.9594439873967288e-07 -0.014999267270938638 0 0.00041689403614842107 -0.0058452043155317697 0 0.00051734159791943395 -0.0057528030652552152 0 0.00061565943228758708 -0.0058484292188250775 0 0.00041689403614842107 -0.0058452043155317697 0 0.00040613798624574413 -0.0059278969145303249 0 0.00029456441914796057 -0.005898850582222415 0 0.00041689403614842107 -0.0058452043155317697 0 0.00022583041844664048 -0.0057911755563497284 0 0.00034320124470280886 -0.0057254290804622738 0 0.00041689403614842107 -0.0058452043155317697 0 0.00051734159791943395 -0.0057528030652552152 0 0.00034320124470280886 -0.0057254290804622738 0 0.00068924282608880333 -0.0057746285540181755 0 0.00059917771142541641 -0.0056774618321263322 0 0.00072510746636661547 -0.0056789490623601621 0 0.00051734159791943395 -0.0057528030652552152 0 0.00068924282608880333 -0.0057746285540181755 0 0.00059917771142541641 -0.0056774618321263322 0 0.00068924282608880333 -0.0057746285540181755 0 0.00061565943228758708 -0.0058484292188250775 0 0.00079918011962527662 -0.0058647359250751417 0 0.00051734159791943395 -0.0057528030652552152 0 0.00068924282608880333 -0.0057746285540181755 0 0.00061565943228758708 -0.0058484292188250775 0 0.00061565943228758708 -0.0058484292188250775 0 0.00068447546517884817 -0.0059521173203197133 0 0.00052930021019768816 -0.0059121279817140413 0 0.00061565943228758708 -0.0058484292188250775 0 0.00068447546517884817 -0.0059521173203197133 0 0.00079918011962527662 -0.0058647359250751417 0 0.00068447546517884817 -0.0059521173203197133 0 0.00079918011962527662 -0.0058647359250751417 0 0.00085045994867867644 -0.0059685177689416764 0 0.00052707681334789936 -0.0059904200960745968 0 0.00052930021019768816 -0.0059121279817140413 0 0.00040613798624574413 -0.0059278969145303249 0 0.00052707681334789936 -0.0059904200960745968 0 0.00068447546517884817 -0.0059521173203197133 0 0.00052930021019768816 -0.0059121279817140413 0 0.00041689403614842107 -0.0058452043155317697 0 0.00061565943228758708 -0.0058484292188250775 0 0.00052930021019768816 -0.0059121279817140413 0 0.00041689403614842107 -0.0058452043155317697 0 0.00052930021019768816 -0.0059121279817140413 0 0.00040613798624574413 -0.0059278969145303249 0 0.00074306123238191703 -0.0064354672311511688 0 0.00056478776352003959 -0.0061740501646107733 0 0.00037737082188312707 -0.0063122254728269905 0 0.00063066454765059769 -0.0062084504294260103 0 0.00047841021361708791 -0.0060501962862228465 0 0.00038513183707324929 -0.0065979194255487731 0 0.00026872216239975233 -0.0067156385357643907 0 0.00042091861696146157 -0.0066178727749855301 0 0.00037737082188312707 -0.0063122254728269905 0 0.00010689475672577739 -0.0062440942108215854 0 0.00010689475672577739 -0.0062440942108215854 0 0.0002812348702006039 -0.0060990360983791351 0 0.00011822980395161097 -0.0059228539386828863 0 0.00037737082188312707 -0.0063122254728269905 0 0.00010689475672577739 -0.0062440942108215854 0 0.0002812348702006039 -0.0060990360983791351 0 0.00056478776352003959 -0.0061740501646107733 0 0.00037737082188312707 -0.0063122254728269905 0 0.0002812348702006039 -0.0060990360983791351 0 0.00047841021361708791 -0.0060501962862228465 0 0.00031651588861250271 -0.005902672370513477 0 0.00056478776352003959 -0.0061740501646107733 0 0.0002812348702006039 -0.0060990360983791351 0 0.00029456441914796057 -0.005898850582222415 0 0.0023184412731250244 -0.012293540942400512 0 0.0019369525403315987 -0.01307172395193347 0 0.00065205053566632384 -0.0084551547583879925 0 0.0012136461385017078 -0.010044230716048975 0 0.0018896079613682413 -0.013173441998882032 0 0.0016758795254876353 -0.013089384377504383 0 0.0017117845963168514 -0.012902633029545904 0 0.0019336214172581347 -0.011361773585686685 0 0.0018896079613682413 -0.013173441998882032 0 0.0016758795254876353 -0.013089384377504383 0 0.00046976557069215643 -0.0067314492830690218 0 0.00074446040468417003 -0.0070062469753049425 0 0.00049092190256152374 -0.0068790469345701797 0 0.00043311699636462887 -0.0067382547555675564 0 0.00033676067978568832 -0.0069835676385836976 0 0.00049092190256152374 -0.0068790469345701797 0 0.00074446040468417003 -0.0070062469753049425 0 0.00049092190256152374 -0.0068790469345701797 0 0.00056566426536730702 -0.0071299691339576955 0 0.00033676067978568832 -0.0069835676385836976 0 0.00049092190256152374 -0.0068790469345701797 0 0.00056566426536730702 -0.0071299691339576955 0 0.00010689475672577739 -0.0062440942108215854 0 -3.9042716416082033e-05 -0.0059305726562077464 0 0.00011822980395161097 -0.0059228539386828863 0 0.00026872216239975233 -0.0067156385357643907 0 0.00024711131771178201 -0.0063654183970501474 0 0.00056566426536730702 -0.0071299691339576955 0 0.00071922173093412348 -0.0073186566427822638 0 0.00059215714918814486 -0.0076588365143215736 0 0.00033676067978568832 -0.0069835676385836976 0 0.00056566426536730702 -0.0071299691339576955 0 0.00059215714918814486 -0.0076588365143215736 0 0.0012136461385017078 -0.010044230716048975 0 0.001400599973353807 -0.0097767172306168371 0 0.00074446040468417003 -0.0070062469753049425 0 0.00071922173093412348 -0.0073186566427822638 0 0.0010177243858239282 -0.0075607964108831433 0 0.0016758795254876353 -0.013089384377504383 0 0.0017117845963168514 -0.012902633029545904 0 0.0018056910431492519 -0.012578756410775832 0 0.00074446040468417003 -0.0070062469753049425 0 0.00056566426536730702 -0.0071299691339576955 0 0.00071922173093412348 -0.0073186566427822638 0 0.00071922173093412348 -0.0073186566427822638 0 0.0010177243858239282 -0.0075607964108831433 0 0.00059215714918814486 -0.0076588365143215736 0 0.0012704513447543582 -0.0083434073324833366 0 0.0010177243858239282 -0.0075607964108831433 0 0.00059215714918814486 -0.0076588365143215736 0 -3.9042716416082033e-05 -0.0059305726562077464 0 3.8354056876835414e-05 -0.005919475964316699 0 0.00011822980395161097 -0.0059228539386828863 0 -3.9042716416082033e-05 -0.0059305726562077464 0 3.8354056876835414e-05 -0.005919475964316699 0 1.159137830854433e-05 -0.0060066318045354852 0 3.8354056876835414e-05 -0.005919475964316699 0 0.00011822980395161097 -0.0059228539386828863 0 9.7253899372979613e-05 -0.005830857705960423 0 3.8354056876835414e-05 -0.005919475964316699 0 4.7916201924171164e-05 -0.0058610740608279477 0 9.7253899372979613e-05 -0.005830857705960423 0 3.8354056876835414e-05 -0.005919475964316699 0 4.7916201924171164e-05 -0.0058610740608279477 0 1.159137830854433e-05 -0.0060066318045354852 0 -2.0207660319659847e-06 -0.0062160452557746392 0 -3.5511716244646281e-05 -0.0055606914895598479 0 0.00020432119433105023 -0.0061514155584482134 0 1.159137830854433e-05 -0.0060066318045354852 0 -8.2253485523282156e-05 -0.006409540171759126 0 0.00020432119433105023 -0.0061514155584482134 0 -3.9042716416082033e-05 -0.0059305726562077464 0 1.159137830854433e-05 -0.0060066318045354852 0 0.0011739565924736048 -0.0085577259362636226 0 0.0012704513447543582 -0.0083434073324833366 0 0.00059215714918814486 -0.0076588365143215736 0 0.00037736965961075839 -0.0096426908691876374 0 0.00024711131771178201 -0.0063654183970501474 0 4.7916201924171164e-05 -0.0058610740608279477 0 1.159137830854433e-05 -0.0060066318045354852 0 -7.925832386490875e-06 -0.0057755905160348196 0 0.0002812348702006039 -0.0060990360983791351 0 0.00029456441914796057 -0.005898850582222415 0 0.00011822980395161097 -0.0059228539386828863 0 0.00011822980395161097 -0.0059228539386828863 0 9.7253899372979613e-05 -0.005830857705960423 0 0.00022583041844664048 -0.0057911755563497284 0 0.00041689403614842107 -0.0058452043155317697 0 0.00029456441914796057 -0.005898850582222415 0 0.00022583041844664048 -0.0057911755563497284 0 0.00029456441914796057 -0.005898850582222415 0 0.00011822980395161097 -0.0059228539386828863 0 0.00022583041844664048 -0.0057911755563497284 0 0.00022583041844664048 -0.0057911755563497284 0 8.895071182899189e-05 -0.0057257108586598405 0 0.00022025109813195298 -0.0056647624722330576 0 9.7253899372979613e-05 -0.005830857705960423 0 0.00022583041844664048 -0.0057911755563497284 0 8.895071182899189e-05 -0.0057257108586598405 0 9.7253899372979613e-05 -0.005830857705960423 0 8.895071182899189e-05 -0.0057257108586598405 0 5.5018664109068804e-05 -0.0057690174038130182 0 8.895071182899189e-05 -0.0057257108586598405 0 3.8238032517418583e-05 -0.0057248844618146546 0 -1.634458530294349e-05 -0.005699354067342303 0 8.895071182899189e-05 -0.0057257108586598405 0 0.00012477343132556525 -0.00564394325400567 0 -1.634458530294349e-05 -0.005699354067342303 0 8.895071182899189e-05 -0.0057257108586598405 0 0.00012477343132556525 -0.00564394325400567 0 0.00022025109813195298 -0.0056647624722330576 0 0.00012477343132556525 -0.00564394325400567 0 0.00017325886967426275 -0.0055263213729868912 0 0.00022025109813195298 -0.0056647624722330576 0 0.00012119661052291549 -0.0065850710271407103 0 -8.2253485523282156e-05 -0.006409540171759126 0 -0.00010697229760610537 -0.007132080035035045 0 0.00037736965961075839 -0.0096426908691876374 0 -6.397942486893633e-05 -0.010775090392008288 0 0.00020432119433105023 -0.0061514155584482134 0 0.00012119661052291549 -0.0065850710271407103 0 -8.2253485523282156e-05 -0.006409540171759126 0 0.00011081320671265194 -0.014202790793314045 0 0.00012932021280106932 -0.014384647272684244 0 4.6961522465714552e-05 -0.014435288751725443 0 -7.925832386490875e-06 -0.0057755905160348196 0 5.5018664109068804e-05 -0.0057690174038130182 0 4.077258114902774e-05 -0.0057464757696104396 0 4.7916201924171164e-05 -0.0058610740608279477 0 -7.925832386490875e-06 -0.0057755905160348196 0 5.5018664109068804e-05 -0.0057690174038130182 0 4.7916201924171164e-05 -0.0058610740608279477 0 9.7253899372979613e-05 -0.005830857705960423 0 5.5018664109068804e-05 -0.0057690174038130182 0 3.8238032517418583e-05 -0.0057248844618146546 0 9.7711418957128132e-05 -0.0057483470689979263 0 6.7153544588948222e-05 -0.0058480072298124136 0 8.895071182899189e-05 -0.0057257108586598405 0 5.5018664109068804e-05 -0.0057690174038130182 0 3.8238032517418583e-05 -0.0057248844618146546 0 5.5018664109068804e-05 -0.0057690174038130182 0 3.8238032517418583e-05 -0.0057248844618146546 0 4.077258114902774e-05 -0.0057464757696104396 0 3.8238032517418583e-05 -0.0057248844618146546 0 4.077258114902774e-05 -0.0057464757696104396 0 9.7711418957128132e-05 -0.0057483470689979263 0 -7.925832386490875e-06 -0.0057755905160348196 0 4.077258114902774e-05 -0.0057464757696104396 0 9.7711418957128132e-05 -0.0057483470689979263 0 -3.5511716244646281e-05 -0.0055606914895598479 0 -0.00015080370909784617 -0.0092751079532744519 0 -6.397942486893633e-05 -0.010775090392008288 0 -0.00015080370909784617 -0.0092751079532744519 0 6.0040014050943888e-05 -0.01457160469633571 0 0.0001050188311697972 -0.014585221618214935 0 0.00013040008868533577 -0.01463231903926316 0 6.0040014050943888e-05 -0.01457160469633571 0 0.0001050188311697972 -0.014585221618214935 0 9.0433083369345898e-05 -0.014528308821401671 0 0.00013144265845162938 -0.014579866635700829 0 0.0001050188311697972 -0.014585221618214935 0 9.0433083369345898e-05 -0.014528308821401671 0 4.6961522465714552e-05 -0.014435288751725443 0 6.0040014050943888e-05 -0.01457160469633571 0 9.0433083369345898e-05 -0.014528308821401671 0 0.00013968535169730151 -0.014492530010507699 0 4.6961522465714552e-05 -0.014435288751725443 0 9.0433083369345898e-05 -0.014528308821401671 0 6.0040014050943888e-05 -0.01457160469633571 0 0.00013040008868533577 -0.01463231903926316 0 0.00016965827682377649 -0.014650707192464583 0 9.7711418957128132e-05 -0.0057483470689979263 0 6.7153544588948222e-05 -0.0058480072298124136 0 0.00021705571169700787 -0.0060142289660617219 0 -0.00015080370909784617 -0.0092751079532744519 0 0.00022191027995578695 -0.010537633851341804 0 3.8238032517418583e-05 -0.0057248844618146546 0 6.7153544588948222e-05 -0.0058480072298124136 0 -1.634458530294349e-05 -0.005699354067342303 0 6.7153544588948222e-05 -0.0058480072298124136 0 -4.4526215804267753e-05 -0.0060432598004086157 0 -1.634458530294349e-05 -0.005699354067342303 0 1.477987119434987e-05 -0.0062570957861074819 0 -4.4526215804267753e-05 -0.0060432598004086157 0 0.00021705571169700787 -0.0060142289660617219 0 6.7153544588948222e-05 -0.0058480072298124136 0 -4.4526215804267753e-05 -0.0060432598004086157 0 0.00021705571169700787 -0.0060142289660617219 0 0.00012477343132556525 -0.00564394325400567 0 6.9368165013089311e-05 -0.0054596946915510796 0 0.00017325886967426275 -0.0055263213729868912 0 -3.4654464416600368e-05 -0.0057052954273092036 0 -0.00012088988537380032 -0.0058045041884903989 0 0.00012477343132556525 -0.00564394325400567 0 -1.634458530294349e-05 -0.005699354067342303 0 6.9368165013089311e-05 -0.0054596946915510796 0 -4.4526215804267753e-05 -0.0060432598004086157 0 -1.634458530294349e-05 -0.005699354067342303 0 -0.00033299071644221211 -0.0061360742748054675 0 -0.00021837617982185966 -0.0063399898205807308 0 -4.4526215804267753e-05 -0.0060432598004086157 0 -0.00033299071644221211 -0.0061360742748054675 0 9.3641341624886495e-05 -0.0054444132502342738 0 6.9368165013089311e-05 -0.0054596946915510796 0 0.00017325886967426275 -0.0055263213729868912 0 9.3641341624886495e-05 -0.0054444132502342738 0 0.00012627308327879243 -0.0054554589327640854 0 0.00017325886967426275 -0.0055263213729868912 0 0.00012627308327879243 -0.0054554589327640854 0 0.00022975407550965911 -0.0054820742008464211 0 0.00017325886967426275 -0.0055263213729868912 0 0.00017827537457918945 -0.0053948166448965053 0 0.00012627308327879243 -0.0054554589327640854 0 0.00022975407550965911 -0.0054820742008464211 0 0.00022975407550965911 -0.0054820742008464211 0 0.00034320160052392031 -0.0055527140282677166 0 0.00029225144327235588 -0.0054892291915172768 0 0.00022975407550965911 -0.0054820742008464211 0 0.00017325886967426275 -0.0055263213729868912 0 0.00034320160052392031 -0.0055527140282677166 0 0.00017325886967426275 -0.0055263213729868912 0 0.00022025109813195298 -0.0056647624722330576 0 0.00034320160052392031 -0.0055527140282677166 0 0.00051734159791943395 -0.0057528030652552152 0 0.00034320160052392031 -0.0055527140282677166 0 0.00034320124470280886 -0.0057254290804622738 0 0.00022025109813195298 -0.0056647624722330576 0 0.00034320160052392031 -0.0055527140282677166 0 0.00034320124470280886 -0.0057254290804622738 0 0.00022583041844664048 -0.0057911755563497284 0 0.00022025109813195298 -0.0056647624722330576 0 0.00034320124470280886 -0.0057254290804622738 0 0.00051734159791943395 -0.0057528030652552152 0 0.00034320160052392031 -0.0055527140282677166 0 0.00059917771142541641 -0.0056774618321263322 0 0.00059917771142541641 -0.0056774618321263322 0 0.00067422225893908668 -0.0055718691129858855 0 0.00072510746636661547 -0.0056789490623601621 0 0.00034320160052392031 -0.0055527140282677166 0 0.00059917771142541641 -0.0056774618321263322 0 0.00067422225893908668 -0.0055718691129858855 0 0.00034320160052392031 -0.0055527140282677166 0 0.00032475052506741739 -0.0055046685093691683 0 0.00031868950639395502 -0.0055015558108682475 0 0.00035359407929443483 -0.0055454708114474555 0 0.00049593475384889223 -0.0055441839725489375 0 0.00032475052506741739 -0.0055046685093691683 0 0.00031868950639395502 -0.0055015558108682475 0 0.00034546749625669656 -0.0054763521954991727 0 0.00031868950639395502 -0.0055015558108682475 0 0.00031784976184335358 -0.0054552449652881295 0 0.00034546749625669656 -0.0054763521954991727 0 0.00031868950639395502 -0.0055015558108682475 0 0.00031784976184335358 -0.0054552449652881295 0 0.00029225144327235588 -0.0054892291915172768 0 0.00034320160052392031 -0.0055527140282677166 0 0.00031868950639395502 -0.0055015558108682475 0 0.00029225144327235588 -0.0054892291915172768 0 0.00017827537457918945 -0.0053948166448965053 0 0.00026623920244293263 -0.0054089662215995749 0 0.00022975407550965911 -0.0054820742008464211 0 0.00026623920244293263 -0.0054089662215995749 0 0.00031784976184335358 -0.0054552449652881295 0 0.00029225144327235588 -0.0054892291915172768 0 0.00026623920244293263 -0.0054089662215995749 0 0.00022975407550965911 -0.0054820742008464211 0 0.00029225144327235588 -0.0054892291915172768 0 0.00031784976184335358 -0.0054552449652881295 0 0.0003266704870893955 -0.0053892533800159528 0 0.0003561825080801297 -0.0054253694439017706 0 0.00026623920244293263 -0.0054089662215995749 0 0.00031784976184335358 -0.0054552449652881295 0 0.0003266704870893955 -0.0053892533800159528 0 0.0003266704870893955 -0.0053892533800159528 0 0.0003561825080801297 -0.0054253694439017706 0 0.00037280645625625516 -0.0053671480132165316 0 0.0003561825080801297 -0.0054253694439017706 0 0.00037280645625625516 -0.0053671480132165316 0 0.00040079429127994076 -0.0054013891393995348 0 0.00042127230030093455 -0.0053387188921605643 0 0.00037280645625625516 -0.0053671480132165316 0 0.00040079429127994076 -0.0054013891393995348 0 0.00042127230030093455 -0.0053387188921605643 0 0.00040079429127994076 -0.0054013891393995348 0 0.00044873421991903519 -0.0053787417581779096 0 0.00040079429127994076 -0.0054013891393995348 0 0.00042767251776777904 -0.0054198317480339204 0 0.00044873421991903519 -0.0053787417581779096 0 0.0003561825080801297 -0.0054253694439017706 0 0.00040079429127994076 -0.0054013891393995348 0 0.00039271857120496561 -0.0054514986573572328 0 0.00040079429127994076 -0.0054013891393995348 0 0.00042767251776777904 -0.0054198317480339204 0 0.00039271857120496561 -0.0054514986573572328 0 0.00042767251776777904 -0.0054198317480339204 0 0.00039271857120496561 -0.0054514986573572328 0 0.00044085329110271881 -0.0054586039631915389 0 0.00031784976184335358 -0.0054552449652881295 0 0.0003561825080801297 -0.0054253694439017706 0 0.00034546749625669656 -0.0054763521954991727 0 0.0003561825080801297 -0.0054253694439017706 0 0.00039271857120496561 -0.0054514986573572328 0 0.00034546749625669656 -0.0054763521954991727 0 0.00051128246306299827 -0.0053574522950822915 0 0.00051404225953994426 -0.0053224611137469889 0 0.0005024958087358817 -0.0053406098074810652 0 0.00053037033243068699 -0.0053430955808827906 0 0.00051128246306299827 -0.0053574522950822915 0 0.00051404225953994426 -0.0053224611137469889 0 0.00051404225953994426 -0.0053224611137469889 0 0.0005024958087358817 -0.0053406098074810652 0 0.0005134558573993296 -0.0053215724313521841 0 0.00053908653491619861 -0.005302955224195857 0 0.00051404225953994426 -0.0053224611137469889 0 0.0005134558573993296 -0.0053215724313521841 0 0.0005024958087358817 -0.0053406098074810652 0 0.0005134558573993296 -0.0053215724313521841 0 0.00048987770123165239 -0.0053282682495402953 0 0.0005024958087358817 -0.0053406098074810652 0 0.00048987770123165239 -0.0053282682495402953 0 0.000476842584411034 -0.0053521281563244805 0 0.0005024958087358817 -0.0053406098074810652 0 0.00048405196545906853 -0.0053718310646729238 0 0.000476842584411034 -0.0053521281563244805 0 0.00051128246306299827 -0.0053574522950822915 0 0.0005024958087358817 -0.0053406098074810652 0 0.00048405196545906853 -0.0053718310646729238 0 0.00048405196545906853 -0.0053718310646729238 0 0.000476842584411034 -0.0053521281563244805 0 0.00044873421991903519 -0.0053787417581779096 0 0.000476842584411034 -0.0053521281563244805 0 0.00045641633347419245 -0.0053415269949997112 0 0.00044873421991903519 -0.0053787417581779096 0 0.00048987770123165239 -0.0053282682495402953 0 0.000476842584411034 -0.0053521281563244805 0 0.00045641633347419245 -0.0053415269949997112 0 0.00042127230030093455 -0.0053387188921605643 0 0.00045641633347419245 -0.0053415269949997112 0 0.00044873421991903519 -0.0053787417581779096 0 0.00042767251776777904 -0.0054198317480339204 0 0.00044873421991903519 -0.0053787417581779096 0 0.00046335923373356174 -0.00541233118402548 0 0.00042767251776777904 -0.0054198317480339204 0 0.00046335923373356174 -0.00541233118402548 0 0.00044085329110271881 -0.0054586039631915389 0 0.00048336977162421075 -0.0054435864508036551 0 0.00046335923373356174 -0.00541233118402548 0 0.00044085329110271881 -0.0054586039631915389 0 0.00048336977162421075 -0.0054435864508036551 0 0.00046335923373356174 -0.00541233118402548 0 0.00050079607243854385 -0.0054016177817552179 0 0.00048405196545906853 -0.0053718310646729238 0 0.00044873421991903519 -0.0053787417581779096 0 0.00046335923373356174 -0.00541233118402548 0 0.00048405196545906853 -0.0053718310646729238 0 0.00046335923373356174 -0.00541233118402548 0 0.00050079607243854385 -0.0054016177817552179 0 0.00051128246306299827 -0.0053574522950822915 0 0.00048405196545906853 -0.0053718310646729238 0 0.00050079607243854385 -0.0054016177817552179 0 0.00048336977162421075 -0.0054435864508036551 0 0.00050079607243854385 -0.0054016177817552179 0 0.00053408105736902625 -0.0054464023334491558 0 0.00050079607243854385 -0.0054016177817552179 0 0.00054116749929149081 -0.0053827281004753648 0 0.00053408105736902625 -0.0054464023334491558 0 0.00051128246306299827 -0.0053574522950822915 0 0.00050079607243854385 -0.0054016177817552179 0 0.00054116749929149081 -0.0053827281004753648 0 0.00053037033243068699 -0.0053430955808827906 0 0.00051128246306299827 -0.0053574522950822915 0 0.00054116749929149081 -0.0053827281004753648 0 0.00053408105736902625 -0.0054464023334491558 0 0.00048795947998012015 -0.0054913079818858729 0 0.00058298941925507186 -0.0055130800605857778 0 0.00048336977162421075 -0.0054435864508036551 0 0.00053408105736902625 -0.0054464023334491558 0 0.00048795947998012015 -0.0054913079818858729 0 0.00048795947998012015 -0.0054913079818858729 0 0.00044085329110271881 -0.0054586039631915389 0 0.00039986703692610712 -0.0055251386947299634 0 0.00048336977162421075 -0.0054435864508036551 0 0.00048795947998012015 -0.0054913079818858729 0 0.00044085329110271881 -0.0054586039631915389 0 0.00048795947998012015 -0.0054913079818858729 0 0.00050830365720405917 -0.0055588611278307512 0 0.00039986703692610712 -0.0055251386947299634 0 0.00094031781743656644 -0.0057234044574086661 0 0.00085383464767639064 -0.0056534308356680912 0 0.00090332370367203951 -0.0057490338728529294 0 0.00072205379555043657 -0.0056426543185488431 0 0.00062504953251604398 -0.0055881995653340412 0 0.00048795947998012015 -0.0054913079818858729 0 0.00050830365720405917 -0.0055588611278307512 0 0.00058298941925507186 -0.0055130800605857778 0 0.00032475052506741739 -0.0055046685093691683 0 0.00034546749625669656 -0.0054763521954991727 0 0.00039986703692610712 -0.0055251386947299634 0 0.00039271857120496561 -0.0054514986573572328 0 0.00034546749625669656 -0.0054763521954991727 0 0.00039986703692610712 -0.0055251386947299634 0 0.00039271857120496561 -0.0054514986573572328 0 0.00044085329110271881 -0.0054586039631915389 0 0.00039986703692610712 -0.0055251386947299634 0 0.00049593475384889223 -0.0055441839725489375 0 0.00062504953251604398 -0.0055881995653340412 0 0.00067422225893908668 -0.0055718691129858855 0 0.00085383464767639064 -0.0056534308356680912 0 0.00072510746636661547 -0.0056789490623601621 0 0.00068924282608880333 -0.0057746285540181755 0 0.00072510746636661547 -0.0056789490623601621 0 0.0008337457370657808 -0.005777392995695331 0 0.00085383464767639064 -0.0056534308356680912 0 0.00072510746636661547 -0.0056789490623601621 0 0.00084354691633650497 -0.0057753864376018588 0 0.00073393413681706755 -0.0056819231612732311 0 0.0008363778356887978 -0.0057735210143464921 0 0.00068924282608880333 -0.0057746285540181755 0 0.0008337457370657808 -0.005777392995695331 0 0.00079918011962527662 -0.0058647359250751417 0 0.00084354691633650497 -0.0057753864376018588 0 0.00090332370367203951 -0.0057490338728529294 0 0.0009221596501619735 -0.0057976832894084838 0 0.0008363778356887978 -0.0057735210143464921 0 0.00092531755415069163 -0.0058151208953559855 0 0.00085383464767639064 -0.0056534308356680912 0 0.00084354691633650497 -0.0057753864376018588 0 0.00090332370367203951 -0.0057490338728529294 0 0.00094031781743656644 -0.0057234044574086661 0 0.00094735476001052757 -0.0057678424152180861 0 0.00095442162176262078 -0.0057867571894423958 0 0.00094031781743656644 -0.0057234044574086661 0 0.00090332370367203951 -0.0057490338728529294 0 0.00094735476001052757 -0.0057678424152180861 0 0.00090332370367203951 -0.0057490338728529294 0 0.00094735476001052757 -0.0057678424152180861 0 0.0009221596501619735 -0.0057976832894084838 0 0.00094735476001052757 -0.0057678424152180861 0 0.0009221596501619735 -0.0057976832894084838 0 0.00096071153009352707 -0.0057812830728340208 0 0.00096071153009352707 -0.0057812830728340208 0 0.00097407280157846027 -0.0057630471409171836 0 0.0009836256354407069 -0.0058007930908682672 0 0.0009221596501619735 -0.0057976832894084838 0 0.00096071153009352707 -0.0057812830728340208 0 0.0009836256354407069 -0.0058007930908682672 0 0.00092509623491239589 -0.0058360482847036278 0 0.00090567710118149745 -0.00587801195342629 0 0.0009836256354407069 -0.0058007930908682672 0 0.00092531755415069163 -0.0058151208953559855 0 0.00097595672378792981 -0.0058070461799595461 0 0.00092509623491239589 -0.0058360482847036278 0 0.00090567710118149745 -0.00587801195342629 0 0.00079918011962527662 -0.0058647359250751417 0 0.00090567710118149745 -0.00587801195342629 0 0.00079918011962527662 -0.0058647359250751417 0 0.00085045994867867644 -0.0059685177689416764 0 0.0008337457370657808 -0.005777392995695331 0 0.00092509623491239589 -0.0058360482847036278 0 0.00079918011962527662 -0.0058647359250751417 0 0.00086393995057439847 -0.0057677880584122128 0 0.00084337098234919707 -0.0057083333231924887 0 0.00079546728048787913 -0.005793520029937234 0 0.00086393995057439847 -0.0057677880584122128 0 0.0009281996522145559 -0.0057567327901417746 0 0.00091100481675602781 -0.005786110202933006 0 0.00086393995057439847 -0.0057677880584122128 0 0.00084337098234919707 -0.0057083333231924887 0 0.0009281996522145559 -0.0057567327901417746 0 0.00063515617308202679 -0.0056301886359167944 0 0.00064052670205402059 -0.0056120148271954625 0 0.00084337098234919707 -0.0057083333231924887 0 0.00079546728048787913 -0.005793520029937234 0 0.00065949141183260329 -0.0056296422217908581 0 0.00084337098234919707 -0.0057083333231924887 0 0.00065949141183260329 -0.0056296422217908581 0 0.00078838299662264055 -0.0056414530972729096 0 0.00084337098234919707 -0.0057083333231924887 0 0.00093737337911430465 -0.0057019117107049138 0 0.00078838299662264055 -0.0056414530972729096 0 0.00084337098234919707 -0.0057083333231924887 0 0.0009281996522145559 -0.0057567327901417746 0 0.00093737337911430465 -0.0057019117107049138 0 0.00097407280157846027 -0.0057630471409171836 0 0.0009281996522145559 -0.0057567327901417746 0 0.00093737337911430465 -0.0057019117107049138 0 0.00096071153009352707 -0.0057812830728340208 0 0.00097407280157846027 -0.0057630471409171836 0 0.00095262060305455123 -0.0057804498594293723 0 0.00097407280157846027 -0.0057630471409171836 0 0.0009281996522145559 -0.0057567327901417746 0 0.00095262060305455123 -0.0057804498594293723 0 0.0009281996522145559 -0.0057567327901417746 0 0.00091100481675602781 -0.005786110202933006 0 0.00095262060305455123 -0.0057804498594293723 0 0.00091100481675602781 -0.005786110202933006 0 0.00095262060305455123 -0.0057804498594293723 0 0.00092687010898148605 -0.0057980736604737303 0 0.00095262060305455123 -0.0057804498594293723 0 0.00095442162176262078 -0.0057867571894423958 0 0.00092687010898148605 -0.0057980736604737303 0 0.00091100481675602781 -0.005786110202933006 0 0.00092687010898148605 -0.0057980736604737303 0 0.0008660507620198624 -0.0058335420997869562 0 0.00094735476001052757 -0.0057678424152180861 0 0.00096071153009352707 -0.0057812830728340208 0 0.00095262060305455123 -0.0057804498594293723 0 0.00094735476001052757 -0.0057678424152180861 0 0.00095262060305455123 -0.0057804498594293723 0 0.00095442162176262078 -0.0057867571894423958 0 0.00094031781743656644 -0.0057234044574086661 0 0.00095442162176262078 -0.0057867571894423958 0 0.00096227785603749294 -0.0057723165518087875 0 0.00088196617738341739 -0.0057501238570816784 0 0.00079887971939912638 -0.0056660772390628653 0 0.00092687010898148605 -0.0057980736604737303 0 0.00093900342937759196 -0.0058244521729380206 0 0.0008660507620198624 -0.0058335420997869562 0 0.00079887971939912638 -0.0056660772390628653 0 0.00048733412819551184 -0.0053983965709344314 0 0.00095442162176262078 -0.0057867571894423958 0 0.00092687010898148605 -0.0057980736604737303 0 0.00093900342937759196 -0.0058244521729380206 0 0.00086393995057439847 -0.0057677880584122128 0 0.00091100481675602781 -0.005786110202933006 0 0.0008660507620198624 -0.0058335420997869562 0 0.00086393995057439847 -0.0057677880584122128 0 0.0008660507620198624 -0.0058335420997869562 0 0.00079546728048787913 -0.005793520029937234 0 0.00048733412819551184 -0.0053983965709344314 0 0.00063515617308202679 -0.0056301886359167944 0 0.00031348573826663881 -0.0052351601056023628 0 0.00042796178717175072 -0.0054168848981114692 0 0.000487847185931206 -0.0052749246304786054 0 0.00014848881815351025 -0.0052037456624980981 0 0.00046520786813970068 -0.0050378112794991995 0 0.000487847185931206 -0.0052749246304786054 0 0.00048733412819551184 -0.0053983965709344314 0 0.00036080754499585285 -0.0052271648201564968 0 0.00014848881815351025 -0.0052037456624980981 0 0.00024168945550083354 -0.004865073210549636 0 0.00046520786813970068 -0.0050378112794991995 0 0.00024168945550083354 -0.004865073210549636 0 0.00046520786813970068 -0.0050378112794991995 0 0.0005137251512761055 -0.0046159758127846178 0 0.00014848881815351025 -0.0052037456624980981 0 0.00024168945550083354 -0.004865073210549636 0 -5.9706700601920432e-05 -0.0048791657789779381 0 0.00048733412819551184 -0.0053983965709344314 0 0.00048654490721964554 -0.0052351745372195722 0 0.00024168945550083354 -0.004865073210549636 0 -5.9706700601920432e-05 -0.0048791657789779381 0 0.00011100940072255289 -0.0045795049397173004 0 0.00048654490721964554 -0.0052351745372195722 0 0.00036551738253002116 -0.0051630924385479273 0 0.00024168945550083354 -0.004865073210549636 0 0.00011100940072255289 -0.0045795049397173004 0 0.0005137251512761055 -0.0046159758127846178 0 0.00050830365720405917 -0.0055588611278307512 0 0.00063396951029986808 -0.0055928128850087026 0 0.00058298941925507186 -0.0055130800605857778 0 0.00072205379555043657 -0.0056426543185488431 0 0.00079887971939912638 -0.0056660772390628653 0 0.00079887971939912638 -0.0056660772390628653 0 0.00048654490721964554 -0.0052351745372195722 0 0.00059835235412526971 -0.0054242081512987711 0 0.0005700153509329395 -0.0054165986044908219 0 0.00058598984444427924 -0.0054413496633411162 0 0.00063396951029986808 -0.0055928128850087026 0 0.00058298941925507186 -0.0055130800605857778 0 0.00067723337624457571 -0.0055216447999264732 0 0.00058298941925507186 -0.0055130800605857778 0 0.00067723337624457571 -0.0055216447999264732 0 0.00062710727981439313 -0.0054358789466351408 0 0.00048654490721964554 -0.0052351745372195722 0 0.00065686198143427403 -0.0054329452549318549 0 0.00065769761629242221 -0.0053868730473368232 0 0.00062231775771433458 -0.0053320683533158676 0 0.0006959281544381546 -0.0053267326069727245 0 0.00053408105736902625 -0.0054464023334491558 0 0.00058298941925507186 -0.0055130800605857778 0 0.00062710727981439313 -0.0054358789466351408 0 0.00065686198143427403 -0.0054329452549318549 0 0.00055612443913699344 -0.0052914297985235462 0 0.00054116749929149081 -0.0053827281004753648 0 0.00053408105736902625 -0.0054464023334491558 0 0.00062710727981439313 -0.0054358789466351408 0 0.00054116749929149081 -0.0053827281004753648 0 0.00062710727981439313 -0.0054358789466351408 0 0.00056516569624397097 -0.0053108657071633493 0 0.00062231775771433458 -0.0053320683533158676 0 0.00062245759248859701 -0.0052839726061144846 0 0.00056516569624397097 -0.0053108657071633493 0 0.00062231775771433458 -0.0053320683533158676 0 0.0006675027988797391 -0.0052684247606151514 0 0.0006959281544381546 -0.0053267326069727245 0 0.00062231775771433458 -0.0053320683533158676 0 0.0006675027988797391 -0.0052684247606151514 0 0.00062245759248859701 -0.0052839726061144846 0 0.00066488230287214066 -0.0052088877533059651 0 0.0006675027988797391 -0.0052684247606151514 0 0.00063810923035553541 -0.0052416719852626942 0 0.0006675027988797391 -0.0052684247606151514 0 0.00063810923035553541 -0.0052416719852626942 0 0.00062245759248859701 -0.0052839726061144846 0 0.00062245759248859701 -0.0052839726061144846 0 0.00060582124435151286 -0.0052531802075682036 0 0.00056516569624397097 -0.0053108657071633493 0 0.00063810923035553541 -0.0052416719852626942 0 0.00062245759248859701 -0.0052839726061144846 0 0.00060582124435151286 -0.0052531802075682036 0 0.00058900457724867298 -0.0051376597707578015 0 0.00051404225953994426 -0.0053224611137469889 0 0.00060582124435151286 -0.0052531802075682036 0 0.00051404225953994426 -0.0053224611137469889 0 0.00060582124435151286 -0.0052531802075682036 0 0.00056516569624397097 -0.0053108657071633493 0 0.00053037033243068699 -0.0053430955808827906 0 0.00051404225953994426 -0.0053224611137469889 0 0.00056516569624397097 -0.0053108657071633493 0 0.00053037033243068699 -0.0053430955808827906 0 0.00054116749929149081 -0.0053827281004753648 0 0.00056516569624397097 -0.0053108657071633493 0 0.00011100940072255289 -0.0045795049397173004 0 0.00028933854942888557 -0.0042653473545666894 0 0.0005137251512761055 -0.0046159758127846178 0 4.9296410033780519e-05 -0.0033083892776185932 0 -0.00018274144125852141 -0.0028489328220597824 0 0.00036551738253002116 -0.0051630924385479273 0 4.9296410033780519e-05 -0.0033083892776185932 0 0.0006675027988797391 -0.0052684247606151514 0 0.0006959281544381546 -0.0053267326069727245 0 0.00073870290355245306 -0.0052504618931755323 0 0.0007061243608335896 -0.0051958760886350258 0 0.0006675027988797391 -0.0052684247606151514 0 0.00073870290355245306 -0.0052504618931755323 0 0.0007061243608335896 -0.0051958760886350258 0 0.00066488230287214066 -0.0052088877533059651 0 0.0006675027988797391 -0.0052684247606151514 0 0.00035627503746578051 -0.0041029203634353776 0 4.9296410033780519e-05 -0.0033083892776185932 0 -0.00076000766422466099 -0.00081950449692068416 0 -0.00089726460237674088 -0.0011203718303182939 0 -0.00060009293003039697 -0.0011232318946172595 0 -0.00060009293003039697 -0.0011232318946172595 0 -0.00070665121547442301 -0.0013551349567071124 0 -0.00047071478373382768 -0.001323405148461529 0 -0.00089726460237674088 -0.0011203718303182939 0 -0.00060009293003039697 -0.0011232318946172595 0 -0.00070665121547442301 -0.0013551349567071124 0 -0.00060009293003039697 -0.0011232318946172595 0 -0.000325118824662035 -0.0011312556354754213 0 -0.00047071478373382768 -0.001323405148461529 0 -0.00041617123343999678 -0.00095437631028550871 0 -0.00060009293003039697 -0.0011232318946172595 0 -0.000325118824662035 -0.0011312556354754213 0 -0.00041617123343999678 -0.00095437631028550871 0 -0.000325118824662035 -0.0011312556354754213 0 -0.00019412872391900963 -0.0010242215603188339 0 -0.000325118824662035 -0.0011312556354754213 0 -0.00019412872391900963 -0.0010242215603188339 0 -0.00017096877691439644 -0.0011470712542158545 0 -0.00019412872391900963 -0.0010242215603188339 0 -0.00017096877691439644 -0.0011470712542158545 0 -6.0306795409552278e-05 -0.0010732272626696217 0 -0.00017096877691439644 -0.0011470712542158545 0 -0.00024214670487464243 -0.0013102701219304053 0 -6.8212311764704754e-05 -0.0012248282503223001 0 -0.000325118824662035 -0.0011312556354754213 0 -0.00017096877691439644 -0.0011470712542158545 0 -0.00024214670487464243 -0.0013102701219304053 0 -0.000325118824662035 -0.0011312556354754213 0 -0.00024214670487464243 -0.0013102701219304053 0 -0.00047071478373382768 -0.001323405148461529 0 -0.00038570659844941202 -0.0014639162409899487 0 -0.00024214670487464243 -0.0013102701219304053 0 -0.00022312067995315936 -0.0015035051624126231 0 -0.00038570659844941202 -0.0014639162409899487 0 -0.00024214670487464243 -0.0013102701219304053 0 -0.00047071478373382768 -0.001323405148461529 0 -0.00024214670487464243 -0.0013102701219304053 0 -0.00022312067995315936 -0.0015035051624126231 0 -8.3685101000148955e-05 -0.0013927458347847894 0 -0.00022312067995315936 -0.0015035051624126231 0 -8.5431635628715016e-05 -0.0015698728177987802 0 -0.00019370805085950016 -0.0016871494000558903 0 -0.00022312067995315936 -0.0015035051624126231 0 -0.00032567816622376195 -0.0016267396966247968 0 -0.00019370805085950016 -0.0016871494000558903 0 -0.00038570659844941202 -0.0014639162409899487 0 -0.00032567816622376195 -0.0016267396966247968 0 -0.00054589977188950346 -0.0015653380739854899 0 -0.00038570659844941202 -0.0014639162409899487 0 -0.00022312067995315936 -0.0015035051624126231 0 -0.00032567816622376195 -0.0016267396966247968 0 0.00070680765139553468 -0.0049667676450125247 0 0.00046520786813970068 -0.0050378112794991995 0 0.0005137251512761055 -0.0046159758127846178 0 9.7587233636907305e-05 -0.0032979622842554961 0 -0.00018274144125852141 -0.0028489328220597824 0 -0.00054589977188950346 -0.0015653380739854899 0 -0.00070665121547442301 -0.0013551349567071124 0 -0.00047071478373382768 -0.001323405148461529 0 -0.00038570659844941202 -0.0014639162409899487 0 -0.00054589977188950346 -0.0015653380739854899 0 -0.00047071478373382768 -0.001323405148461529 0 0.00023307551650630809 -0.0011457910868701031 0 0.00019139642213379023 -0.0011566541996890169 0 0.00019813118444581809 -0.0012125257349401241 0 0.00019139642213379023 -0.0011566541996890169 0 0.00015950751113878823 -0.0011260833162455635 0 0.00014821006859175166 -0.0011976206058885751 0 0.00023307551650630809 -0.0011457910868701031 0 0.00019139642213379023 -0.0011566541996890169 0 0.00021392493463969094 -0.0010945206495549576 0 0.00019139642213379023 -0.0011566541996890169 0 0.00015950751113878823 -0.0011260833162455635 0 0.00021392493463969094 -0.0010945206495549576 0 0.00026414058687315419 -0.0010131575896938302 0 0.00021392493463969094 -0.0010945206495549576 0 0.00017347086023872062 -0.001044484909462588 0 0.00015950751113878823 -0.0011260833162455635 0 0.00021392493463969094 -0.0010945206495549576 0 0.00017347086023872062 -0.001044484909462588 0 0.00015950751113878823 -0.0011260833162455635 0 0.00017347086023872062 -0.001044484909462588 0 0.00011021601449188542 -0.0010938114749298178 0 0.00011141972214459649 -0.0010190309751844735 0 0.00017347086023872062 -0.001044484909462588 0 0.00011021601449188542 -0.0010938114749298178 0 0.00011141972214459649 -0.0010190309751844735 0 0.00011021601449188542 -0.0010938114749298178 0 4.5124201802427156e-05 -0.0010542961121880914 0 0.00011021601449188542 -0.0010938114749298178 0 0.00011017175755635054 -0.001164415845004796 0 5.2245962994020842e-05 -0.0011639879757234396 0 0.00015950751113878823 -0.0011260833162455635 0 0.00011021601449188542 -0.0010938114749298178 0 0.00011017175755635054 -0.001164415845004796 0 0.00015950751113878823 -0.0011260833162455635 0 0.00011017175755635054 -0.001164415845004796 0 0.00014821006859175166 -0.0011976206058885751 0 0.00011017175755635054 -0.001164415845004796 0 0.00010337537567616507 -0.001235250594832169 0 0.00014821006859175166 -0.0011976206058885751 0 5.2245962994020842e-05 -0.0011639879757234396 0 6.6431948579302131e-05 -0.0012774946180693616 0 0.00010337537567616507 -0.001235250594832169 0 5.2245962994020842e-05 -0.0011639879757234396 0 -6.8212311764704754e-05 -0.0012248282503223001 0 6.6431948579302131e-05 -0.0012774946180693616 0 0.00011017175755635054 -0.001164415845004796 0 5.2245962994020842e-05 -0.0011639879757234396 0 0.00010337537567616507 -0.001235250594832169 0 -2.0578885633555039e-06 -0.0010039165093053632 0 4.5124201802427156e-05 -0.0010542961121880914 0 -6.0306795409552278e-05 -0.0010732272626696217 0 5.2245962994020842e-05 -0.0011639879757234396 0 4.5124201802427156e-05 -0.0010542961121880914 0 -6.0306795409552278e-05 -0.0010732272626696217 0 0.00011021601449188542 -0.0010938114749298178 0 5.2245962994020842e-05 -0.0011639879757234396 0 4.5124201802427156e-05 -0.0010542961121880914 0 5.2245962994020842e-05 -0.0011639879757234396 0 -6.0306795409552278e-05 -0.0010732272626696217 0 -6.8212311764704754e-05 -0.0012248282503223001 0 -0.00017096877691439644 -0.0011470712542158545 0 -6.0306795409552278e-05 -0.0010732272626696217 0 -6.8212311764704754e-05 -0.0012248282503223001 0 -6.8212311764704754e-05 -0.0012248282503223001 0 -8.3685101000148955e-05 -0.0013927458347847894 0 6.6431948579302131e-05 -0.0012774946180693616 0 -0.00024214670487464243 -0.0013102701219304053 0 -6.8212311764704754e-05 -0.0012248282503223001 0 -8.3685101000148955e-05 -0.0013927458347847894 0 -0.00022312067995315936 -0.0015035051624126231 0 -8.3685101000148955e-05 -0.0013927458347847894 0 -8.5431635628715016e-05 -0.0015698728177987802 0 -8.5431635628715016e-05 -0.0015698728177987802 0 0.00010795053836488282 -0.0015133940904094392 0 8.5492791488324799e-06 -0.0016605061293735884 0 -8.3685101000148955e-05 -0.0013927458347847894 0 -8.5431635628715016e-05 -0.0015698728177987802 0 0.00010795053836488282 -0.0015133940904094392 0 9.7492499666551903e-05 -0.001453791336449291 0 7.0577099158230087e-05 -0.0012719598599543491 0 7.8679852972611227e-05 -0.0012853170028713611 0 6.6431948579302131e-05 -0.0012774946180693616 0 0.00010337537567616507 -0.001235250594832169 0 -8.3685101000148955e-05 -0.0013927458347847894 0 0.00010795053836488282 -0.0015133940904094392 0 6.6431948579302131e-05 -0.0012774946180693616 0 7.8679852972611227e-05 -0.0012853170028713611 0 0.00010337537567616507 -0.001235250594832169 0 0.00013574736585321242 -0.0012463080201501251 0 0.00010337537567616507 -0.001235250594832169 0 0.00014821006859175166 -0.0011976206058885751 0 0.00013574736585321242 -0.0012463080201501251 0 0.00013574736585321242 -0.0012463080201501251 0 0.00011494141372107069 -0.0012900605210113664 0 0.00016371955658726683 -0.0012996187722193382 0 7.8679852972611227e-05 -0.0012853170028713611 0 0.00013574736585321242 -0.0012463080201501251 0 0.00011494141372107069 -0.0012900605210113664 0 0.00013574736585321242 -0.0012463080201501251 0 0.00019813118444581809 -0.0012125257349401241 0 0.00016371955658726683 -0.0012996187722193382 0 0.00019139642213379023 -0.0011566541996890169 0 0.00014821006859175166 -0.0011976206058885751 0 0.00019813118444581809 -0.0012125257349401241 0 0.00014821006859175166 -0.0011976206058885751 0 0.00013574736585321242 -0.0012463080201501251 0 0.00019813118444581809 -0.0012125257349401241 0 -0.00037545003100147455 -5.8151383351969268e-05 0 -0.00033205917322739114 -1.6834073303606026e-05 0 -0.00031594217578691139 -7.6505293621219556e-05 0 -0.0002707751078675336 -5.7044290030856249e-05 0 -0.00027594224358063271 -0.00010243746898152238 0 -0.0002707751078675336 -5.7044290030856249e-05 0 -0.00027594224358063271 -0.00010243746898152238 0 -0.00024819785791455669 -8.3131618668438583e-05 0 -0.00027594224358063271 -0.00010243746898152238 0 -0.00024819785791455669 -8.3131618668438583e-05 0 -0.00021853749017640244 -0.00010071944109088225 0 -5.7138392364212356e-05 -0.00063376733481463839 0 -7.6017560010329874e-06 -0.0012194229496025383 0 0.00011494141372107069 -0.0012900605210113664 0 0.00016371955658726683 -0.0012996187722193382 0 8.3539282059755016e-05 -0.0013278725666022238 0 -0.0002707751078675336 -5.7044290030856249e-05 0 -0.00024819785791455669 -8.3131618668438583e-05 0 -0.00022198335809953796 -7.220017312052858e-05 0 -0.00033205917322739114 -1.6834073303606026e-05 0 -0.00037158556182451959 -0.00074667306232559726 0 -0.00040816224499824765 -8.6172248216973465e-05 0 -0.00037197111238475848 -0.0001033207433914163 0 -0.00039638269248681743 -7.4945908631851314e-05 0 -0.00024730032309674277 -0.0015516822329851693 0 -0.0004793199559611899 -0.0012878587601931446 0 -0.00043639209463116918 -0.0012732236485439019 0 -0.00028571481186679825 -0.0012910479142021964 0 -0.00044964918158743854 -0.001146934993605945 0 -0.00031866713934859583 -0.0018774829960942145 0 -0.00033474728287553651 -0.0018554611017860712 0 -0.00043336219047237395 -0.0018587731178887649 0 -0.00037158556182451959 -0.00074667306232559726 0 -0.0004793199559611899 -0.0012878587601931446 0 -0.00031432258014700814 -0.0018713954261260117 0 -0.00031102412026594051 -0.0018678784818377699 0 -0.00031866713934859583 -0.0018774829960942145 0 -0.00031432258014700814 -0.0018713954261260117 0 -0.00031102412026594051 -0.0018678784818377699 0 -0.00031298009368602788 -0.0018656780097169479 0 -0.00037158556182451959 -0.00074667306232559726 0 -0.00024730032309674277 -0.0015516822329851693 0 -0.00037158556182451959 -0.00074667306232559726 0 -7.6017560010329874e-06 -0.0012194229496025383 0 -0.00024819785791455669 -8.3131618668438583e-05 0 -0.00022198335809953796 -7.220017312052858e-05 0 -0.00021853749017640244 -0.00010071944109088225 0 9.7492499666551903e-05 -0.001453791336449291 0 -7.6017560010329874e-06 -0.0012194229496025383 0 0.00010795053836488282 -0.0015133940904094392 0 0.00013023314496578826 -0.001714776168735795 0 8.5492791488324799e-06 -0.0016605061293735884 0 -0.00031432258014700814 -0.0018713954261260117 0 -0.00031298009368602788 -0.0018656780097169479 0 -0.00031164349842626409 -0.0018796173611771274 0 7.8679852972611227e-05 -0.0012853170028713611 0 0.00011494141372107069 -0.0012900605210113664 0 8.3539282059755016e-05 -0.0013278725666022238 0 -7.6017560010329874e-06 -0.0012194229496025383 0 -0.00023032529470375974 -0.0018455142026368393 0 8.5492791488324799e-06 -0.0016605061293735884 0 -8.9747285955542794e-05 -0.0016730720091010939 0 -6.8690159704124418e-05 -0.00177158242123595 0 0.00013023314496578826 -0.001714776168735795 0 8.5492791488324799e-06 -0.0016605061293735884 0 -6.8690159704124418e-05 -0.00177158242123595 0 -8.5431635628715016e-05 -0.0015698728177987802 0 8.5492791488324799e-06 -0.0016605061293735884 0 -8.9747285955542794e-05 -0.0016730720091010939 0 -8.5431635628715016e-05 -0.0015698728177987802 0 -8.9747285955542794e-05 -0.0016730720091010939 0 -0.00019370805085950016 -0.0016871494000558903 0 -8.9747285955542794e-05 -0.0016730720091010939 0 -6.8690159704124418e-05 -0.00177158242123595 0 -0.00019370805085950016 -0.0016871494000558903 0 -0.00031164349842626409 -0.0018796173611771274 0 -0.00030950769001824257 -0.0018700513211838078 0 -0.00029372800287094718 -0.001857321267066605 0 -0.00030950769001824257 -0.0018700513211838078 0 -0.00029372800287094718 -0.001857321267066605 0 -0.00031252630670244581 -0.001867271426606754 0 -0.00031432258014700814 -0.0018713954261260117 0 -0.00031164349842626409 -0.0018796173611771274 0 -0.00031866713934859583 -0.0018774829960942145 0 -0.00031164349842626409 -0.0018796173611771274 0 -0.00030950769001824257 -0.0018700513211838078 0 -0.00031866713934859583 -0.0018774829960942145 0 -0.00030950769001824257 -0.0018700513211838078 0 -0.00031866713934859583 -0.0018774829960942145 0 -0.00031252630670244581 -0.001867271426606754 0 -0.00031866713934859583 -0.0018774829960942145 0 -0.00031252630670244581 -0.001867271426606754 0 -0.00033474728287553651 -0.0018554611017860712 0 -0.0003046199425479769 -0.0018590357341596263 0 -0.00031252630670244581 -0.001867271426606754 0 -0.00033474728287553651 -0.0018554611017860712 0 -0.0003046199425479769 -0.0018590357341596263 0 -0.00029964292678415753 -0.0018505892957155724 0 -0.00029182381324839877 -0.001855882819978159 0 -0.0003046199425479769 -0.0018590357341596263 0 -0.00029372800287094718 -0.001857321267066605 0 -0.00029182381324839877 -0.001855882819978159 0 -0.0003046199425479769 -0.0018590357341596263 0 -0.00029372800287094718 -0.001857321267066605 0 -0.00031252630670244581 -0.001867271426606754 0 -0.00029964292678415753 -0.0018505892957155724 0 -0.00033474728287553651 -0.0018554611017860712 0 -0.00032614348953072811 -0.0018304573162770653 0 -0.00029964292678415753 -0.0018505892957155724 0 -0.00030508116080223835 -0.0018257713550524676 0 -0.00028675198609545059 -0.0018500899818272879 0 -0.0003046199425479769 -0.0018590357341596263 0 -0.00029964292678415753 -0.0018505892957155724 0 -0.00033474728287553651 -0.0018554611017860712 0 -0.00033474728287553651 -0.0018554611017860712 0 -0.00032614348953072811 -0.0018304573162770653 0 -0.00037569622665753076 -0.0018023612253518591 0 -0.00032614348953072811 -0.0018304573162770653 0 -0.00032073390622356995 -0.0018030448277058381 0 -0.00037569622665753076 -0.0018023612253518591 0 -0.00032614348953072811 -0.0018304573162770653 0 -0.00030508116080223835 -0.0018257713550524676 0 -0.00032073390622356995 -0.0018030448277058381 0 -0.00029964292678415753 -0.0018505892957155724 0 -0.00032614348953072811 -0.0018304573162770653 0 -0.00030508116080223835 -0.0018257713550524676 0 -0.00020913706882132597 -0.003197569259072261 0 -9.215205758793222e-06 -0.0016971983445170534 0 -0.00030508116080223835 -0.0018257713550524676 0 -0.00029536889529103527 -0.0017885702561509244 0 -0.00032073390622356995 -0.0018030448277058381 0 -0.00030508116080223835 -0.0018257713550524676 0 -0.00029536889529103527 -0.0017885702561509244 0 -0.00028675198609545059 -0.0018500899818272879 0 -0.00036795668802590086 -0.0017167096426258985 0 -0.00032073390622356995 -0.0018030448277058381 0 -0.00037569622665753076 -0.0018023612253518591 0 -0.00025535075839814376 -0.0017162489325607887 0 -0.00036795668802590086 -0.0017167096426258985 0 -0.00032073390622356995 -0.0018030448277058381 0 -0.00049348636097144068 -0.0019335777355907475 0 -0.0004793199559611899 -0.0012878587601931446 0 -0.00036795668802590086 -0.0017167096426258985 0 -0.00051348193451855595 -0.0016806568766864487 0 -0.00037569622665753076 -0.0018023612253518591 0 -0.00051348193451855595 -0.0016806568766864487 0 -0.00037569622665753076 -0.0018023612253518591 0 -0.00043336219047237395 -0.0018587731178887649 0 -0.00033474728287553651 -0.0018554611017860712 0 -0.00037569622665753076 -0.0018023612253518591 0 -0.00043336219047237395 -0.0018587731178887649 0 -0.00037197111238475848 -0.0001033207433914163 0 -0.00037402697402281386 -8.1084476068667518e-05 0 -0.00039638269248681743 -7.4945908631851314e-05 0 -0.0004793199559611899 -0.0012878587601931446 0 -0.00054724174247021808 -0.00088259559575220204 0 -0.00037402697402281386 -8.1084476068667518e-05 0 -0.00039638269248681743 -7.4945908631851314e-05 0 -0.00040054397810788419 -5.5903470973175129e-05 0 -0.00051348193451855595 -0.0016806568766864487 0 -0.00049977347291300131 -0.0019010141353399631 0 -0.00063896021667044823 -0.0017876930818066345 0 -0.00051348193451855595 -0.0016806568766864487 0 -0.00063896021667044823 -0.0017876930818066345 0 -0.00064545220818233197 -0.0016258380773552588 0 -0.00040054397810788419 -5.5903470973175129e-05 0 -0.0004241455463063661 -5.6409407441279379e-05 0 -0.00042315212965928325 -3.9409475940045575e-05 0 -0.00063896021667044823 -0.0017876930818066345 0 -0.00080077746088883016 -0.0016592386830959842 0 -0.00064545220818233197 -0.0016258380773552588 0 -0.00054724174247021808 -0.00088259559575220204 0 -0.00053900456172887494 -0.00088372777603540288 0 -0.00043418810868822542 -6.5177483812303686e-05 0 -0.00040816224499824765 -8.6172248216973465e-05 0 -0.0004241455463063661 -5.6409407441279379e-05 0 -0.00040816224499824765 -8.6172248216973465e-05 0 -0.00039638269248681743 -7.4945908631851314e-05 0 -0.0004241455463063661 -5.6409407441279379e-05 0 -0.00039638269248681743 -7.4945908631851314e-05 0 -0.00040054397810788419 -5.5903470973175129e-05 0 -0.0004241455463063661 -5.6409407441279379e-05 0 0.00070911008191055179 -0.0054211739350893372 0 0.00064206120195736802 -0.0052577693366415382 0 0.00080993559114187993 -0.0052909708761387213 0 0.00070911008191055179 -0.0054211739350893372 0 0.00080993559114187993 -0.0052909708761387213 0 0.00074734606240807911 -0.0054244384029810402 0 0.00060381679582145026 -0.0054167845078053759 0 0.000487847185931206 -0.0052749246304786054 0 0.00064206120195736802 -0.0052577693366415382 0 0.00070911008191055179 -0.0054211739350893372 0 0.00060381679582145026 -0.0054167845078053759 0 0.00064206120195736802 -0.0052577693366415382 0 0.00042796178717175072 -0.0054168848981114692 0 0.00060381679582145026 -0.0054167845078053759 0 0.000487847185931206 -0.0052749246304786054 0 0.00070680765139553468 -0.0049667676450125247 0 0.00046520786813970068 -0.0050378112794991995 0 0.00064206120195736802 -0.0052577693366415382 0 0.00046520786813970068 -0.0050378112794991995 0 0.000487847185931206 -0.0052749246304786054 0 0.00064206120195736802 -0.0052577693366415382 0 9.7587233636907305e-05 -0.0032979622842554961 0 0.00018837326270604532 -0.0035069315836174703 0 0.00070680765139553468 -0.0049667676450125247 0 0.00064206120195736802 -0.0052577693366415382 0 0.00080993559114187993 -0.0052909708761387213 0 -0.00032567816622376195 -0.0016267396966247968 0 -0.00054589977188950346 -0.0015653380739854899 0 -0.00039228433552886686 -0.0017835432984775177 0 -0.00032567816622376195 -0.0016267396966247968 0 -0.00039228433552886686 -0.0017835432984775177 0 -0.00027164230604488041 -0.0018259532524881367 0 -6.8690159704124418e-05 -0.00177158242123595 0 -0.00019370805085950016 -0.0016871494000558903 0 -0.00027164230604488041 -0.0018259532524881367 0 -0.00032567816622376195 -0.0016267396966247968 0 -0.00019370805085950016 -0.0016871494000558903 0 -0.00027164230604488041 -0.0018259532524881367 0 -0.00023032529470375974 -0.0018455142026368393 0 -0.00025148985624462905 -0.0018264807887099714 0 -0.00031164349842626409 -0.0018796173611771274 0 -0.00029372800287094718 -0.001857321267066605 0 -0.00027164230604488041 -0.0018259532524881367 0 -0.00027164230604488041 -0.0018259532524881367 0 -0.00027777317914180332 -0.0018539807049839717 0 -0.00027365749116813986 -0.0018757030837149699 0 -0.00029372800287094718 -0.001857321267066605 0 -0.00027164230604488041 -0.0018259532524881367 0 -0.00027777317914180332 -0.0018539807049839717 0 -0.00027777317914180332 -0.0018539807049839717 0 -0.00029182381324839877 -0.001855882819978159 0 -0.00028649207598104037 -0.0018552247228512952 0 -0.00029372800287094718 -0.001857321267066605 0 -0.00027777317914180332 -0.0018539807049839717 0 -0.00029182381324839877 -0.001855882819978159 0 0.00018837326270604532 -0.0035069315836174703 0 0.00030208464673546492 -0.003683233958517189 0 -0.00039228433552886686 -0.0017835432984775177 0 -0.00027164230604488041 -0.0018259532524881367 0 -0.00027365749116813986 -0.0018757030837149699 0 0.00080993559114187993 -0.0052909708761387213 0 0.00074734606240807911 -0.0054244384029810402 0 0.00077840650950673806 -0.0053931789120934288 0 0.00080993559114187993 -0.0052909708761387213 0 0.00077840650950673806 -0.0053931789120934288 0 0.0007621781159017118 -0.0053888342197206786 0 0.00077840650950673806 -0.0053931789120934288 0 0.00074616413353436467 -0.0054861790042201944 0 0.00077185107663356261 -0.0055150334143436704 0 0.00074734606240807911 -0.0054244384029810402 0 0.00077840650950673806 -0.0053931789120934288 0 0.00074616413353436467 -0.0054861790042201944 0 0.00074734606240807911 -0.0054244384029810402 0 0.00074616413353436467 -0.0054861790042201944 0 0.00070732557347178045 -0.005527260720166443 0 -0.00029536889529103527 -0.0017885702561509244 0 -0.00028675198609545059 -0.0018500899818272879 0 -0.00027365749116813986 -0.0018757030837149699 0 0.00077840650950673806 -0.0053931789120934288 0 0.0007621781159017118 -0.0053888342197206786 0 0.00074044620484132453 -0.0051991825612246407 0 0.00075540388800245323 -0.0053385011945887555 0 0.00081208297536549063 -0.0054804047185090842 0 -0.00029964292678415753 -0.0018505892957155724 0 -0.00028649207598104037 -0.0018552247228512952 0 -0.00028675198609545059 -0.0018500899818272879 0 -0.00029964292678415753 -0.0018505892957155724 0 -0.00029182381324839877 -0.001855882819978159 0 -0.00028649207598104037 -0.0018552247228512952 0 -0.00027777317914180332 -0.0018539807049839717 0 -0.00028649207598104037 -0.0018552247228512952 0 -0.00028036589611165545 -0.0018595892988643816 0 -0.00028649207598104037 -0.0018552247228512952 0 -0.00028036589611165545 -0.0018595892988643816 0 -0.00028675198609545059 -0.0018500899818272879 0 -0.00028036589611165545 -0.0018595892988643816 0 -0.00028675198609545059 -0.0018500899818272879 0 -0.00027365749116813986 -0.0018757030837149699 0 -0.00027777317914180332 -0.0018539807049839717 0 -0.00028036589611165545 -0.0018595892988643816 0 -0.00027365749116813986 -0.0018757030837149699 0 0.00077185107663356261 -0.0055150334143436704 0 0.00071619323233684177 -0.0055581285262719929 0 0.0007481114164374418 -0.0055559975902992808 0 0.00081208297536549063 -0.0054804047185090842 0 6.4242175942508663e-05 -0.0046738548851510513 0 -0.00020913706882132597 -0.003197569259072261 0 0.00030208464673546492 -0.003683233958517189 0 0.0005388045430438494 -0.005085332317108439 0 0.00074044620484132453 -0.0051991825612246407 0 0.00064177744310703333 -0.0049200684224412379 0 0.0005388045430438494 -0.005085332317108439 0 0.0007621781159017118 -0.0053888342197206786 0 0.00074044620484132453 -0.0051991825612246407 0 0.00074616413353436467 -0.0054861790042201944 0 0.00070732557347178045 -0.005527260720166443 0 0.00071619323233684177 -0.0055581285262719929 0 0.00074616413353436467 -0.0054861790042201944 0 0.00077185107663356261 -0.0055150334143436704 0 0.00071619323233684177 -0.0055581285262719929 0 0.00068398168055095181 -0.0055811563993124922 0 0.00070732557347178045 -0.005527260720166443 0 0.00065949141183260329 -0.0056296422217908581 0 0.00068398168055095181 -0.0055811563993124922 0 0.00070732557347178045 -0.005527260720166443 0 0.00071619323233684177 -0.0055581285262719929 0 0.00070732557347178045 -0.005527260720166443 0 0.00067566060420336845 -0.0055071548867288928 0 0.00065949141183260329 -0.0056296422217908581 0 0.00070911008191055179 -0.0054211739350893372 0 0.00070732557347178045 -0.005527260720166443 0 0.00067566060420336845 -0.0055071548867288928 0 0.00070911008191055179 -0.0054211739350893372 0 0.00074734606240807911 -0.0054244384029810402 0 0.00070732557347178045 -0.005527260720166443 0 0.00070911008191055179 -0.0054211739350893372 0 0.00060381679582145026 -0.0054167845078053759 0 0.00067566060420336845 -0.0055071548867288928 0 0.00042796178717175072 -0.0054168848981114692 0 0.00060381679582145026 -0.0054167845078053759 0 0.00065949141183260329 -0.0056296422217908581 0 0.00060381679582145026 -0.0054167845078053759 0 0.00067566060420336845 -0.0055071548867288928 0 0.00065949141183260329 -0.0056296422217908581 0 0.00065949141183260329 -0.0056296422217908581 0 0.00068651496323014142 -0.0056023412588366399 0 0.00078838299662264055 -0.0056414530972729096 0 0.00068398168055095181 -0.0055811563993124922 0 0.00065949141183260329 -0.0056296422217908581 0 0.00068651496323014142 -0.0056023412588366399 0 0.00068651496323014142 -0.0056023412588366399 0 0.00066628436500847175 -0.0055531736103175758 0 0.0006773849301659092 -0.005575283383540304 0 0.00068651496323014142 -0.0056023412588366399 0 0.00066628436500847175 -0.0055531736103175758 0 0.00073316995156125372 -0.0055870787919754328 0 0.00066628436500847175 -0.0055531736103175758 0 0.00073316995156125372 -0.0055870787919754328 0 0.00077125108962463652 -0.0055408937884913103 0 0.00066628436500847175 -0.0055531736103175758 0 0.00067102728820272117 -0.0055597043108172048 0 0.00065688749573804782 -0.0055288439734273867 0 0.00066628436500847175 -0.0055531736103175758 0 0.00067102728820272117 -0.0055597043108172048 0 0.0006773849301659092 -0.005575283383540304 0 0.00067102728820272117 -0.0055597043108172048 0 0.0006773849301659092 -0.005575283383540304 0 0.00069377492397068293 -0.0055678830672897207 0 0.00068398168055095181 -0.0055811563993124922 0 0.0006773849301659092 -0.005575283383540304 0 0.00071619323233684177 -0.0055581285262719929 0 0.00068398168055095181 -0.0055811563993124922 0 0.00068651496323014142 -0.0056023412588366399 0 0.0006773849301659092 -0.005575283383540304 0 0.00071619323233684177 -0.0055581285262719929 0 0.00070989222720947731 -0.0055707695679443761 0 0.00069377492397068293 -0.0055678830672897207 0 0.0006773849301659092 -0.005575283383540304 0 0.00071619323233684177 -0.0055581285262719929 0 0.00069377492397068293 -0.0055678830672897207 0 0.00071619323233684177 -0.0055581285262719929 0 0.0007481114164374418 -0.0055559975902992808 0 0.00070989222720947731 -0.0055707695679443761 0 -0.00020913706882132597 -0.003197569259072261 0 6.4242175942508663e-05 -0.0046738548851510513 0 6.4242175942508663e-05 -0.0046738548851510513 0 0.00018972826883234106 -0.005087859209086114 0 -0.00034283267281927826 -0.0046443557104099021 0 -0.00030777182707689572 -0.0045965793669987456 0 -0.00041228783361430921 -0.0046074909202044496 0 -0.00037639110701345204 -0.0046958551050606161 0 -0.00034283267281927826 -0.0046443557104099021 0 -0.00041228783361430921 -0.0046074909202044496 0 6.4242175942508663e-05 -0.0046738548851510513 0 -0.001178452784263252 -0.0037511140993215838 0 0.00070989222720947731 -0.0055707695679443761 0 0.00069377492397068293 -0.0055678830672897207 0 0.0006788468859810177 -0.0055673129266749664 0 0.00067102728820272117 -0.0055597043108172048 0 0.00069377492397068293 -0.0055678830672897207 0 0.0006788468859810177 -0.0055673129266749664 0 0.00018972826883234106 -0.005087859209086114 0 -9.5002216481088151e-05 -0.0053930491495893995 0 -9.5002216481088151e-05 -0.0053930491495893995 0 -6.5322081977298385e-05 -0.0052306284060935071 0 -0.00037431910477309912 -0.0057035274552699172 0 -0.00094185949472500561 -0.0054327653103080856 0 -0.0012045413964306461 -0.0058703517826078667 0 -9.5002216481088151e-05 -0.0053930491495893995 0 -0.001178452784263252 -0.0037511140993215838 0 -0.00037431910477309912 -0.0057035274552699172 0 -0.00094185949472500561 -0.0054327653103080856 0 -0.00070115544214527652 -0.0050251333345306135 0 -0.00070115544214527652 -0.0050251333345306135 0 -0.0015038956605812628 -0.0051207131256359294 0 -0.0010349532826480657 -0.0044478747534580443 0 -0.00094185949472500561 -0.0054327653103080856 0 -0.00070115544214527652 -0.0050251333345306135 0 -0.0015038956605812628 -0.0051207131256359294 0 -0.00070115544214527652 -0.0050251333345306135 0 4.6357565710186876e-05 -0.0050839065478472138 0 -0.00028923726369742731 -0.0047012048914036458 0 -0.00037431910477309912 -0.0057035274552699172 0 -0.00070115544214527652 -0.0050251333345306135 0 4.6357565710186876e-05 -0.0050839065478472138 0 4.6357565710186876e-05 -0.0050839065478472138 0 0.00043176511002460279 -0.0051937387935194739 0 0.00018804997096280655 -0.0055068639718228009 0 0.00043176511002460279 -0.0051937387935194739 0 0.00065646679228582156 -0.0054261173133277408 0 0.00073567764349020319 -0.0051618238734074656 0 0.00043176511002460279 -0.0051937387935194739 0 0.00055289204828824724 -0.0047655444429879727 0 0.00073567764349020319 -0.0051618238734074656 0 4.6357565710186876e-05 -0.0050839065478472138 0 0.00043176511002460279 -0.0051937387935194739 0 0.00055289204828824724 -0.0047655444429879727 0 0.00066628436500847175 -0.0055531736103175758 0 0.00077125108962463652 -0.0055408937884913103 0 0.00065646679228582156 -0.0054261173133277408 0 0.00048031709550006826 -0.0055128169778960942 0 0.00062667225491948168 -0.0054435867894045281 0 0.00066628436500847175 -0.0055531736103175758 0 0.00065688749573804782 -0.0055288439734273867 0 0.00065646679228582156 -0.0054261173133277408 0 0.00043176511002460279 -0.0051937387935194739 0 0.00018804997096280655 -0.0055068639718228009 0 0.00065646679228582156 -0.0054261173133277408 0 -0.00029669619174351147 -0.0056063176603907963 0 4.6357565710186876e-05 -0.0050839065478472138 0 0.00018804997096280655 -0.0055068639718228009 0 0.00067102728820272117 -0.0055597043108172048 0 0.0006788468859810177 -0.0055673129266749664 0 0.00065688749573804782 -0.0055288439734273867 0 -9.5002216481088151e-05 -0.0053930491495893995 0 0.00048031709550006826 -0.0055128169778960942 0 -0.0022845014466335448 -0.0017187972907947589 0 -0.0022127249585323049 -0.0015438585330621788 0 -0.0023955870630816617 -0.0016011793211751259 0 -0.00126444456558408 -0.00085842320002476322 0 -0.0015715946201048064 -0.0015654718861406302 0 -0.00069365628493803461 -0.0014754631564675145 0 -0.00080077746088883016 -0.0016592386830959842 0 -0.00064545220818233197 -0.0016258380773552588 0 -0.00096254610248405639 -0.0015179427355531297 0 -0.00069365628493803461 -0.0014754631564675145 0 -0.00080077746088883016 -0.0016592386830959842 0 -0.00069365628493803461 -0.0014754631564675145 0 -0.00064545220818233197 -0.0016258380773552588 0 -0.00053328433085999931 -0.0015509432313267114 0 -0.00051348193451855595 -0.0016806568766864487 0 -0.00064545220818233197 -0.0016258380773552588 0 -0.00053328433085999931 -0.0015509432313267114 0 -0.0015715946201048064 -0.0015654718861406302 0 -0.0017285976054303802 -0.0020153920214009461 0 -0.00069365628493803461 -0.0014754631564675145 0 -0.00044138598091905744 -0.0014378742417690683 0 -0.00053328433085999931 -0.0015509432313267114 0 -0.0023955870630816617 -0.0016011793211751259 0 -0.0025886178737369796 -0.0016540423537056783 0 -0.0024879591692147248 -0.0018186586209977033 0 -0.00044138598091905744 -0.0014378742417690683 0 -0.00053328433085999931 -0.0015509432313267114 0 -0.00034303515758823483 -0.0015798469785387056 0 -0.0017285976054303802 -0.0020153920214009461 0 -0.00065255742348109915 -0.0025296728317265845 0 -0.00036795668802590086 -0.0017167096426258985 0 -0.00051348193451855595 -0.0016806568766864487 0 -0.00034303515758823483 -0.0015798469785387056 0 -0.00051348193451855595 -0.0016806568766864487 0 -0.00053328433085999931 -0.0015509432313267114 0 -0.00034303515758823483 -0.0015798469785387056 0 -0.00046883355637162644 -0.0035612661183632979 0 -0.00099497767406100382 -0.0034366985974251876 0 -0.00072168891374788937 -0.0028675771161326305 0 -0.00068530326615338271 -0.0038872806019555829 0 -0.00046883355637162644 -0.0035612661183632979 0 -0.00099497767406100382 -0.0034366985974251876 0 -0.00025535075839814376 -0.0017162489325607887 0 -0.00036795668802590086 -0.0017167096426258985 0 -0.00034303515758823483 -0.0015798469785387056 0 -0.00020913706882132597 -0.003197569259072261 0 -0.00065255742348109915 -0.0025296728317265845 0 -0.0013055656071754268 -0.0029811110047745855 0 -0.00099497767406100382 -0.0034366985974251876 0 -0.00072168891374788937 -0.0028675771161326305 0 -0.0017285976054303802 -0.0020153920214009461 0 -0.001178452784263252 -0.0037511140993215838 0 -0.0025190934963163617 -0.0018084181538657155 0 -0.0025509109773329888 -0.0018332887165578851 0 -0.002562095487963973 -0.0018719034423094639 0 -0.001178452784263252 -0.0037511140993215838 0 -0.0021175801325338433 -0.0034931557609107705 0 -0.00094185949472500561 -0.0054327653103080856 0 -0.0012045413964306461 -0.0058703517826078667 0 -0.0015038956605812628 -0.0051207131256359294 0 -0.002562095487963973 -0.0018719034423094639 0 -0.0024879591692147248 -0.0018186586209977033 0 -0.0025626768935981029 -0.0019861530366121964 0 -0.0025190934963163617 -0.0018084181538657155 0 -0.002562095487963973 -0.0018719034423094639 0 -0.0024879591692147248 -0.0018186586209977033 0 -0.0017285976054303802 -0.0020153920214009461 0 -0.0027468757186864079 -0.0016380414890925751 0 -0.0024879591692147248 -0.0018186586209977033 0 -0.0023370828942391527 -0.0018611288461919614 0 -0.0024423589910435358 -0.001942822811376393 0 -0.0022845014466335448 -0.0017187972907947589 0 -0.0024879591692147248 -0.0018186586209977033 0 -0.0023370828942391527 -0.0018611288461919614 0 -0.0022845014466335448 -0.0017187972907947589 0 -0.0023955870630816617 -0.0016011793211751259 0 -0.0024879591692147248 -0.0018186586209977033 0 -0.0022961103910680691 -0.0019921754791095291 0 -0.0024423589910435358 -0.001942822811376393 0 -0.0024725232202027431 -0.0020529058012829092 0 -0.0022961103910680691 -0.0019921754791095291 0 -0.0024725232202027431 -0.0020529058012829092 0 -0.0024417778571425995 -0.0021315375953427085 0 -0.0019172062266147279 -0.00037414954121403572 0 -0.0020957502992015888 -0.00057221552124935558 0 -0.0022961103910680691 -0.0019921754791095291 0 -0.0023370828942391527 -0.0018611288461919614 0 -0.0024423589910435358 -0.001942822811376393 0 -0.0024879591692147248 -0.0018186586209977033 0 -0.0024423589910435358 -0.001942822811376393 0 -0.0025626768935981029 -0.0019861530366121964 0 -0.0024423589910435358 -0.001942822811376393 0 -0.0024725232202027431 -0.0020529058012829092 0 -0.0025626768935981029 -0.0019861530366121964 0 -0.0018425267817889989 -0.0042981164320333512 0 -0.0012384946152370418 -0.0034355012795547614 0 -0.0021928963579911347 -0.0033502437089404551 0 -0.0024725232202027431 -0.0020529058012829092 0 -0.0025626768935981029 -0.0019861530366121964 0 -0.0025482582227018646 -0.0021123031290986496 0 -0.0021901972113755989 -0.0031459008075514568 0 -0.002372598139277044 -0.0027214977087706978 0 -0.0015038956605812628 -0.0051207131256359294 0 -0.0018425267817889989 -0.0042981164320333512 0 -0.0010349532826480657 -0.0044478747534580443 0 -0.0021175801325338433 -0.0034931557609107705 0 -0.0021901972113755989 -0.0031459008075514568 0 -0.0018425267817889989 -0.0042981164320333512 0 -0.0012384946152370418 -0.0034355012795547614 0 -0.0010349532826480657 -0.0044478747534580443 0 -0.0010368379206100195 -0.0023830796131253129 0 -0.0012384946152370418 -0.0034355012795547614 0 -0.0018692755605779654 -0.0026280378385517495 0 -0.0025550110512817937 -0.0021984561064694805 0 -0.0018692755605779654 -0.0026280378385517495 0 -0.0021928963579911347 -0.0033502437089404551 0 -0.002045722909921143 -0.0020700247327246012 0 -0.0025550110512817937 -0.0021984561064694805 0 -0.0018692755605779654 -0.0026280378385517495 0 -0.0012384946152370418 -0.0034355012795547614 0 -0.0018692755605779654 -0.0026280378385517495 0 -0.0021928963579911347 -0.0033502437089404551 0 -0.0024725232202027431 -0.0020529058012829092 0 -0.0025482582227018646 -0.0021123031290986496 0 -0.0024417778571425995 -0.0021315375953427085 0 -0.0025426807054709458 -0.0022369673046584216 0 -0.002372598139277044 -0.0027214977087706978 0 -0.0025550110512817937 -0.0021984561064694805 0 -0.0026750585680772555 -0.0021476360608547358 0 -0.0024417778571425995 -0.0021315375953427085 0 -0.0025550110512817937 -0.0021984561064694805 0 -0.0025482582227018646 -0.0021123031290986496 0 -0.0024417778571425995 -0.0021315375953427085 0 -0.0023086877804522829 -0.00076373014860410483 0 -0.0020957502992015888 -0.00057221552124935558 0 -0.0020240832985961828 0.00057641970203785396 0 -0.0016834240949187538 0.00049213164506630141 0 -0.0017219134269760769 0.00099770022505534309 0 6.9321761857472558e-05 -0.0043758738045573424 0 0.00055289204828824724 -0.0047655444429879727 0 0.00055436835097848181 -0.0039878020853931226 0 4.6357565710186876e-05 -0.0050839065478472138 0 6.9321761857472558e-05 -0.0043758738045573424 0 -0.00028923726369742731 -0.0047012048914036458 0 4.6357565710186876e-05 -0.0050839065478472138 0 6.9321761857472558e-05 -0.0043758738045573424 0 0.00055289204828824724 -0.0047655444429879727 0 6.9321761857472558e-05 -0.0043758738045573424 0 -0.00028923726369742731 -0.0047012048914036458 0 -0.00055701847333007885 -0.0039995125383553718 0 -0.00070115544214527652 -0.0050251333345306135 0 -0.00028923726369742731 -0.0047012048914036458 0 -0.0010349532826480657 -0.0044478747534580443 0 -0.00028923726369742731 -0.0047012048914036458 0 -0.0010349532826480657 -0.0044478747534580443 0 -0.00055701847333007885 -0.0039995125383553718 0 -0.0012384946152370418 -0.0034355012795547614 0 -0.0010349532826480657 -0.0044478747534580443 0 -0.00055701847333007885 -0.0039995125383553718 0 6.9321761857472558e-05 -0.0043758738045573424 0 -0.00055701847333007885 -0.0039995125383553718 0 -0.00020234012140178922 -0.0031569826789957945 0 -0.0012384946152370418 -0.0034355012795547614 0 -0.00055701847333007885 -0.0039995125383553718 0 -0.00020234012140178922 -0.0031569826789957945 0 -0.0010368379206100195 -0.0023830796131253129 0 -0.0012384946152370418 -0.0034355012795547614 0 -0.00020234012140178922 -0.0031569826789957945 0 -0.00026028846704710901 -0.0019759949091901828 0 -0.0010368379206100195 -0.0023830796131253129 0 -0.00020234012140178922 -0.0031569826789957945 0 0.00038936308335997381 -0.0022790587907120085 0 -0.00020234012140178922 -0.0031569826789957945 0 0.00045675507542989832 -0.0030067740471229234 0 6.9321761857472558e-05 -0.0043758738045573424 0 -0.00020234012140178922 -0.0031569826789957945 0 0.00055436835097848181 -0.0039878020853931226 0 -0.00020234012140178922 -0.0031569826789957945 0 0.00055436835097848181 -0.0039878020853931226 0 0.00045675507542989832 -0.0030067740471229234 0 0.00055922714030006131 -0.0039588430694798794 0 0.00084937423501935539 -0.0033066565197945093 0 0.00055436835097848181 -0.0039878020853931226 0 0.00045675507542989832 -0.0030067740471229234 0 0.0011371669093642569 -0.0026676528731037733 0 0.00038936308335997381 -0.0022790587907120085 0 0.00045675507542989832 -0.0030067740471229234 0 0.0011371669093642569 -0.0026676528731037733 0 0.00055436835097848181 -0.0039878020853931226 0 0.00088621473031308938 -0.0042192045815606875 0 0.00081615902522186746 -0.0045445923584041979 0 0.00060370292599216404 -0.0039208105743927602 0 0.00088621473031308938 -0.0042192045815606875 0 0.0011971500856044984 -0.0038911583579401589 0 0.00055436835097848181 -0.0039878020853931226 0 0.00060370292599216404 -0.0039208105743927602 0 0.00088621473031308938 -0.0042192045815606875 0 0.00055289204828824724 -0.0047655444429879727 0 0.00055436835097848181 -0.0039878020853931226 0 0.00081615902522186746 -0.0045445923584041979 0 0.00088621473031308938 -0.0042192045815606875 0 0.00081615902522186746 -0.0045445923584041979 0 0.0011363601998328856 -0.0047818879897759854 0 0.00081615902522186746 -0.0045445923584041979 0 0.00090918895110060226 -0.0050485201485576366 0 0.0011363601998328856 -0.0047818879897759854 0 0.00055289204828824724 -0.0047655444429879727 0 0.00090918895110060226 -0.0050485201485576366 0 0.00073567764349020319 -0.0051618238734074656 0 0.00055289204828824724 -0.0047655444429879727 0 0.00081615902522186746 -0.0045445923584041979 0 0.00090918895110060226 -0.0050485201485576366 0 0.0014001343985709605 -0.0052805279563398052 0 0.0011363601998328856 -0.0047818879897759854 0 0.0011055937943224576 -0.0052733323607950374 0 0.00090918895110060226 -0.0050485201485576366 0 0.0011363601998328856 -0.0047818879897759854 0 0.0011055937943224576 -0.0052733323607950374 0 0.0014001343985709605 -0.0052805279563398052 0 0.0011363601998328856 -0.0047818879897759854 0 0.0016603180954178434 -0.004753429351632147 0 0.0011363601998328856 -0.0047818879897759854 0 0.0013122099195109372 -0.0043612190453976686 0 0.0016603180954178434 -0.004753429351632147 0 0.0013122099195109372 -0.0043612190453976686 0 0.0017459411727256001 -0.0041509795595446276 0 0.0016603180954178434 -0.004753429351632147 0 0.00088621473031308938 -0.0042192045815606875 0 0.0011363601998328856 -0.0047818879897759854 0 0.0013122099195109372 -0.0043612190453976686 0 0.00088621473031308938 -0.0042192045815606875 0 0.0013122099195109372 -0.0043612190453976686 0 0.0011971500856044984 -0.0038911583579401589 0 0.0013122099195109372 -0.0043612190453976686 0 0.0011971500856044984 -0.0038911583579401589 0 0.0017459411727256001 -0.0041509795595446276 0 0.0017155797980005173 -0.0037251837023386195 0 0.0011971500856044984 -0.0038911583579401589 0 0.0017459411727256001 -0.0041509795595446276 0 0.0021665035623824333 -0.0038831901806405619 0 0.0017155797980005173 -0.0037251837023386195 0 0.0017459411727256001 -0.0041509795595446276 0 0.0021665035623824333 -0.0038831901806405619 0 0.0017459411727256001 -0.0041509795595446276 0 0.0022272383054910538 -0.0042559530521058845 0 0.0022272383054910538 -0.0042559530521058845 0 0.002411395032229612 -0.0047737176038653763 0 0.0016603180954178434 -0.004753429351632147 0 0.0017459411727256001 -0.0041509795595446276 0 0.0022272383054910538 -0.0042559530521058845 0 0.0016603180954178434 -0.004753429351632147 0 0.0025925029569255319 -0.0038952090773563702 0 0.0024918665156823338 -0.003742062795065431 0 0.0026562501079250437 -0.0041558626089781298 0 0.0025925029569255319 -0.0038952090773563702 0 0.0026562501079250437 -0.0041558626089781298 0 0.0024515036161731128 -0.0039703569128896445 0 0.0022272383054910538 -0.0042559530521058845 0 0.0026562501079250437 -0.0041558626089781298 0 0.0024515036161731128 -0.0039703569128896445 0 0.0021665035623824333 -0.0038831901806405619 0 0.0022272383054910538 -0.0042559530521058845 0 0.0024515036161731128 -0.0039703569128896445 0 0.0022272383054910538 -0.0042559530521058845 0 0.0026562501079250437 -0.0041558626089781298 0 0.002411395032229612 -0.0047737176038653763 0 0.0019235842828046082 -0.0055549523599213706 0 0.0019717407920194067 -0.0056718913360608234 0 0.0011305066887225682 -0.0067326128225138103 0 0.0012229090921053352 -0.0069740542527291713 0 0.0015792884267191252 -0.006565469632567926 0 0.0011305066887225682 -0.0067326128225138103 0 0.0015792884267191252 -0.006565469632567926 0 0.0014025621618979571 -0.0061886328832556582 0 0.0015792884267191252 -0.006565469632567926 0 0.0014025621618979571 -0.0061886328832556582 0 0.0018574681196708255 -0.0056512802740023892 0 0.0011305066887225682 -0.0067326128225138103 0 0.0010455122729085759 -0.0064957540413931635 0 0.0014025621618979571 -0.0061886328832556582 0 0.002411395032229612 -0.0047737176038653763 0 0.0016603180954178434 -0.004753429351632147 0 0.0018574681196708255 -0.0056512802740023892 0 0.0019717407920194067 -0.0056718913360608234 0 0.0018607904672051261 -0.0056807233564534678 0 0.0014001343985709605 -0.0052805279563398052 0 0.0016603180954178434 -0.004753429351632147 0 0.0018574681196708255 -0.0056512802740023892 0 0.0014001343985709605 -0.0052805279563398052 0 0.0018574681196708255 -0.0056512802740023892 0 0.0016966917597785783 -0.0057591478292385572 0 0.0014025621618979571 -0.0061886328832556582 0 0.0018574681196708255 -0.0056512802740023892 0 0.0016882786180751127 -0.0057799306396922297 0 0.0018574681196708255 -0.0056512802740023892 0 0.0016882786180751127 -0.0057799306396922297 0 0.0016966917597785783 -0.0057591478292385572 0 0.0013240651590886317 -0.0058603474311143978 0 0.0013505416428903011 -0.0057612165269336178 0 0.00096949864091001089 -0.0059230313658580848 0 0.0010390859408841221 -0.0057894683841976432 0 0.0010001480033565515 -0.0058194193433705847 0 0.0014025621618979571 -0.0061886328832556582 0 0.0011528515255511337 -0.0062391117153928876 0 0.0013145551339306184 -0.0059642002183907554 0 0.0010455122729085759 -0.0064957540413931635 0 0.0014025621618979571 -0.0061886328832556582 0 0.0011528515255511337 -0.0062391117153928876 0 0.0014025621618979571 -0.0061886328832556582 0 0.0016882786180751127 -0.0057799306396922297 0 0.0013145551339306184 -0.0059642002183907554 0 0.00096949864091001089 -0.0059230313658580848 0 0.00091066491929342398 -0.0060382390489237686 0 0.00091635349809000258 -0.0059798595840089182 0 0.0013240651590886317 -0.0058603474311143978 0 0.0011161411005764451 -0.0060125651635367459 0 0.00091066491929342398 -0.0060382390489237686 0 0.0008870331549279411 -0.0060609360491423285 0 0.00091635349809000258 -0.0059798595840089182 0 0.0008870331549279411 -0.0060609360491423285 0 0.00091635349809000258 -0.0059798595840089182 0 0.00085045994867867644 -0.0059685177689416764 0 0.00096949864091001089 -0.0059230313658580848 0 0.00091635349809000258 -0.0059798595840089182 0 0.00094554820781895827 -0.0058953807350547744 0 0.00091635349809000258 -0.0059798595840089182 0 0.00094554820781895827 -0.0058953807350547744 0 0.00085045994867867644 -0.0059685177689416764 0 0.00090567710118149745 -0.00587801195342629 0 0.00094554820781895827 -0.0058953807350547744 0 0.00085045994867867644 -0.0059685177689416764 0 0.0010390859408841221 -0.0057894683841976432 0 0.0010001480033565515 -0.0058194193433705847 0 0.0010332760912601653 -0.0057259378328656275 0 0.00096949864091001089 -0.0059230313658580848 0 0.00094554820781895827 -0.0058953807350547744 0 0.0010001480033565515 -0.0058194193433705847 0 0.00090567710118149745 -0.00587801195342629 0 0.00094554820781895827 -0.0058953807350547744 0 0.0009836256354407069 -0.0058007930908682672 0 0.00094554820781895827 -0.0058953807350547744 0 0.0010001480033565515 -0.0058194193433705847 0 0.0009836256354407069 -0.0058007930908682672 0 0.0010001480033565515 -0.0058194193433705847 0 0.0009836256354407069 -0.0058007930908682672 0 0.0010332760912601653 -0.0057259378328656275 0 0.00097407280157846027 -0.0057630471409171836 0 0.0010332760912601653 -0.0057259378328656275 0 0.00093737337911430465 -0.0057019117107049138 0 0.00097407280157846027 -0.0057630471409171836 0 0.0009836256354407069 -0.0058007930908682672 0 0.0010332760912601653 -0.0057259378328656275 0 0.0010332760912601653 -0.0057259378328656275 0 0.001006505875959858 -0.0056407221551243551 0 0.0011556528929419774 -0.0056105572597187712 0 0.0010332760912601653 -0.0057259378328656275 0 0.001006505875959858 -0.0056407221551243551 0 0.00093737337911430465 -0.0057019117107049138 0 0.00093737337911430465 -0.0057019117107049138 0 0.00078838299662264055 -0.0056414530972729096 0 0.00086351746547253406 -0.0056205039367488684 0 0.00078838299662264055 -0.0056414530972729096 0 0.00073316995156125372 -0.0055870787919754328 0 0.00086351746547253406 -0.0056205039367488684 0 0.00068651496323014142 -0.0056023412588366399 0 0.00078838299662264055 -0.0056414530972729096 0 0.00073316995156125372 -0.0055870787919754328 0 0.00073316995156125372 -0.0055870787919754328 0 0.00077125108962463652 -0.0055408937884913103 0 0.00086351746547253406 -0.0056205039367488684 0 0.001006505875959858 -0.0056407221551243551 0 0.00093737337911430465 -0.0057019117107049138 0 0.00086351746547253406 -0.0056205039367488684 0 0.00077125108962463652 -0.0055408937884913103 0 0.00086351746547253406 -0.0056205039367488684 0 0.00091775539830792703 -0.0054732976936780675 0 0.001006505875959858 -0.0056407221551243551 0 0.00086351746547253406 -0.0056205039367488684 0 0.00091775539830792703 -0.0054732976936780675 0 0.00091775539830792703 -0.0054732976936780675 0 0.00065646679228582156 -0.0054261173133277408 0 0.00073567764349020319 -0.0051618238734074656 0 0.00077125108962463652 -0.0055408937884913103 0 0.00091775539830792703 -0.0054732976936780675 0 0.00065646679228582156 -0.0054261173133277408 0 0.00090918895110060226 -0.0050485201485576366 0 0.00091775539830792703 -0.0054732976936780675 0 0.00073567764349020319 -0.0051618238734074656 0 0.00090918895110060226 -0.0050485201485576366 0 0.00091775539830792703 -0.0054732976936780675 0 0.0011055937943224576 -0.0052733323607950374 0 0.0014001343985709605 -0.0052805279563398052 0 0.0011055937943224576 -0.0052733323607950374 0 0.0011556528929419774 -0.0056105572597187712 0 0.00091775539830792703 -0.0054732976936780675 0 0.0011055937943224576 -0.0052733323607950374 0 0.0011556528929419774 -0.0056105572597187712 0 0.0014001343985709605 -0.0052805279563398052 0 0.0016966917597785783 -0.0057591478292385572 0 0.0011556528929419774 -0.0056105572597187712 0 0.0013505416428903011 -0.0057612165269336178 0 0.0011719449751534188 -0.0056483687122521201 0 0.0010390859408841221 -0.0057894683841976432 0 0.0010332760912601653 -0.0057259378328656275 0 0.0011556528929419774 -0.0056105572597187712 0 0.001006505875959858 -0.0056407221551243551 0 0.00091775539830792703 -0.0054732976936780675 0 0.0011556528929419774 -0.0056105572597187712 0 
</DataArray>
</PointData>
<CellData Scalars="region_id,cross_section_updated," Vectors="" Tensors="stress,">
<DataArray type="Float64" Name="region_id" format="ascii">
6 5 5 5 5 5 5 5 5 6 5 5 6 5 5 5 5 5 5 5 6 6 5 5 5 5 5 5 5 5 5 5 5 5 5 5 5 5 6 5 5 5 5 6 5 5 5 6 5 5 5 5 5 5 5 6 5 5 5 6 5 6 5 5 6 5 5 5 5 6 5 5 6 6 5 5 6 5 5 5 5 6 6 5 5 5 5 6 6 5 5 5 5 5 6 6 5 5 5 5 6 6 5 5 6 5 6 5 6 5 6 5 5 6 5 6 5 5 5 5 5 6 5 6 6 6 5 6 6 5 5 5 6 5 6 5 5 5 5 5 5 5 5 6 5 6 5 5 5 5 6 5 5 6 5 5 5 5 5 5 5 5 6 5 5 5 5 5 5 5 5 5 5 5 5 5 5 5 5 5 5 5 5 6 5 5 5 5 5 5 5 5 5 5 5 5 5 5 5 5 5 5 5 5 5 5 5 5 5 5 6 5 5 5 5 5 5 5 5 5 5 5 5 6 5 5 5 5 5 6 5 5 5 5 5 5 5 5 5 5 6 5 5 5 5 5 6 5 5 5 6 5 5 5 5 5 6 5 5 6 5 6 5 5 5 6 6 5 6 5 5 5 6 5 5 5 5 5 5 6 5 5 6 5 6 5 5 5 5 5 6 5 5 6 6 5 5 5 6 5 5 5 6 5 5 6 5 5 5 5 5 5 5 5 5 6 5 5 5 5 5 5 5 5 5 5 5 5 5 5 5 5 5 5 5 5 5 5 6 5 6 5 5 5 5 5 5 5 6 5 5 5 5 5 5 6 5 5 6 5 5 5 5 5 5 6 6 5 5 5 5 6 6 5 5 5 5 6 5 5 5 5 6 5 6 5 6 6 5 5 5 5 5 5 6 5 5 6 5 6 5 5 5 5 5 5 5 5 5 6 5 5 5 5 5 5 5 5 6 5 5 5 6 5 5 5 5 5 6 5 5 5 5 5 5 5 6 5 5 6 5 6 6 5 5 5 5 5 5 5 5 5 5 5 5 5 5 5 5 5 5 5 5 5 5 5 5 5 5 5 5 5 5 5 5 5 5 5 5 5 5 5 5 5 5 5 5 5 5 5 5 6 6 5 5 5 6 5 5 5 5 5 6 5 5 5 5 5 5 5 5 5 6 5 5 5 6 5 6 5 5 5 5 5 6 5 5 5 5 5 5 5 5 6 5 5 5 5 5 5 5 5 5 5 5 5 5 5 5 5 5 5 5 5 5 5 5 5 5 5 5 5 5 5 5 5 5 5 5 5 5 5 5 6 5 5 6 5 5 6 5 5 5 5 5 5 5 5 5 5 5 5 5 6 5 5 5 5 5 5 5 5 5 6 5 5 5 5 5 5 5 5 6 5 5 6 5 5 6 5 5 5 5 5 5 6 6 5 5 5 5 5 5 6 5 5 5 5 5 5 5 5 5 5 5 5 5 6 5 5 5 5 5 5 5 5 5 5 5 5 5 5 5 5 5 5 5 5 5 5 5 5 5 5 5 5 5 5 5 5 5 5 5 5 5 5 5 5 5 5 5 5 5 5 5 5 5 5 6 5 6 5 5 5 6 5 5 6 6 5 5 6 5 5 5 5 5 6 5 5 5 5 5 5 5 5 6 6 6 5 5 5 5 5 5 5 6 5 5 5 5 5 5 5 5 5 5 5 5 5 5 6 5 5 5 5 5 5 5 6 5 5 5 5 5 5 6 5 5 5 5 6 5 5 5 6 5 5 5 5 5 5 6 5 5 5 5 5 5 5 5 5 5 5 5 6 5 5 5 5 5 5 5 5 6 5 6 5 6 5 6 5 5 5 5 6 6 5 5 5 6 6 5 5 6 5 5 5 5 5 5 5 5 5 5 5 5 5 5 5 5 5 6 5 5 5 5 5 5 5 6 6 5 5 5 6 5 5 5 5 5 5 5 5 5 5 6 5 5 5 5 6 5 6 5 5 5 5 5 5 5 6 5 5 5 6 5 5 5 5 5 5 5 5 5 5 5 5 5 6 5 5 5 5 5 6 5 5 5 5 5 5 5 5 5 5 5 5 5 5 5 6 5 5 5 5 5 6 5 6 5 5 5 5 5 5 5 5 5 6 5 5 5 5 5 5 5 5 5 5 5 5 5 5 5 5 5 5 5 6 5 6 5 5 5 5 5 5 5 5 5 5 5 5 5 5 5 5 5 5 5 5 6 5 5 5 5 5 5 5 5 5 5 6 5 5 5 5 5 5 5 5 5 6 5 5 6 5 5 5 5 6 5 5 5 5 5 5 5 5 5 5 5 5 5 5 5 6 5 5 5 6 5 5 6 5 5 5 5 5 5 5 5 5 5 5 5 5 5 5 5 5 5 5 5 5 5 5 5 5 6 5 5 5 5 5 5 5 5 5 5 5 5 5 5 5 5 5 5 5 5 5 5 6 5 5 5 5 6 5 5 6 5 6 5 5 5 5 5 6 5 5 5 5 5 5 5 6 5 5 5 5 5 5 5 6 5 5 5 6 5 5 5 5 5 5 5 5 5 5 5 5 5 5 5 5 5 6 5 5 5 6 5 6 5 5 5 5 6 6 5 5 5 5 5 5 5 5 5 5 5 5 5 5 5 5 5 5 5 6 5 5 5 6 5 5 6 5 5 6 5 6 5 5 6 5 5 5 5 5 5 5 5 5 5 5 5 5 5 5 5 6 6 5 5 5 5 5 6 5 5 5 5 5 5 5 5 5 5 5 5 5 5 5 5 6 5 5 5 5 5 6 5 5 5 5 5 5 5 5 5 5 5 5 5 5 5 5 5 6 5 5 5 5 6 5 5 5 5 6 5 5 6 5 5 6 5 5 5 5 5 5 5 5 6 5 5 5 5 5 5 6 5 5 5 6 5 6 5 5 5 5 6 5 6 5 5 6 5 5 5 5 5 6 5 5 5 5 5 6 5 5 5 6 6 5 5 5 6 5 5 6 5 5 5 5 5 5 5 5 6 5 5 5 5 5 5 5 5 5 5 6 5 5 5 6 5 5 5 6 5 5 5 5 5 6 5 5 5 5 5 5 5 5 5 5 5 5 5 5 5 5 5 5 5 5 5 5 5 5 5 5 5 5 5 5 5 5 5 5 5 5 6 5 5 5 6 5 5 5 5 5 5 5 5 6 5 6 5 5 5 5 5 5 5 5 5 6 5 5 6 5 5 5 6 5 5 5 5 6 5 5 5 5 5 5 5 5 5 5 6 5 5 5 5 5 5 6 5 5 5 5 5 6 5 5 6 5 6 5 5 5 6 5 5 5 6 5 5 5 5 5 6 6 5 5 5 5 5 5 5 5 5 5 5 6 5 6 5 5 6 5 5 5 5 5 5 5 5 5 6 6 5 5 5 5 5 6 5 6 5 5 5 5 5 6 5 5 5 6 5 6 5 6 5 5 5 5 5 5 5 5 5 5 5 5 5 5 5 5 5 5 5 5 5 6 5 5 5 5 5 5 5 5 5 5 5 5 5 5 5 5 5 5 5 5 5 5 5 5 5 6 5 6 5 5 6 5 6 5 5 5 5 6 5 5 5 5 5 5 5 5 5 5 5 6 5 5 5 5 5 5 5 6 6 5 5 5 5 5 5 5 5 5 5 5 5 5 5 5 5 5 5 5 5 5 5 5 6 5 5 5 5 5 5 5 5 5 5 5 5 5 6 5 5 5 6 5 5 5 5 6 5 5 5 5 5 5 5 5 6 5 5 5 5 5 5 5 5 5 5 5 5 5 5 5 5 5 5 5 5 5 5 5 6 5 5 5 5 5 6 5 5 6 5 5 5 5 5 5 5 5 5 5 5 5 5 5 5 5 5 5 5 5 5 5 5 5 5 5 5 5 5 5 5 5 5 5 6 5 5 5 5 5 5 5 5 5 5 5 5 5 6 5 6 5 5 5 5 5 5 5 5 5 5 5 5 6 5 5 5 5 5 6 5 5 5 5 5 5 5 5 5 5 5 6 5 5 5 6 5 5 5 5 6 5 5 5 5 5 5 5 5 5 5 5 5 6 5 5 5 5 6 5 6 6 5 5 6 5 5 5 5 5 5 5 5 5 5 5 5 5 5 5 5 5 5 5 5 5 5 5 6 5 5 5 5 5 5 5 5 5 6 5 5 5 5 5 6 5 5 5 5 5 5 5 5 5 5 5 5 5 5 5 5 5 5 5 5 5 5 5 5 5 5 5 5 5 5 5 5 5 5 5 5 5 5 5 5 5 5 5 5 5 5 5 5 5 5 5 5 5 5 5 5 5 5 5 5 5 5 5 5 5 5 5 5 5 5 5 6 5 5 5 5 5 5 5 5 6 5 5 5 5 5 5 5 5 5 5 5 5 5 5 6 5 5 5 5 5 5 5 5 5 6 5 5 5 5 5 5 5 5 5 5 5 5 5 5 6 5 5 5 6 5 5 5 5 6 6 5 6 5 5 6 5 5 6 5 6 6 5 5 5 5 5 6 5 5 5 5 5 5 6 5 5 6 6 6 5 5 5 5 6 5 6 5 5 5 5 5 5 6 5 5 6 6 5 5 5 5 5 5 6 6 5 5 5 5 5 5 5 5 5 5 6 5 6 5 5 5 5 5 5 6 5 5 5 5 5 5 5 5 5 5 5 5 5 5 5 5 5 5 6 5 5 5 5 5 5 5 5 5 5 5 5 5 5 5 5 5 5 5 5 5 5 5 5 5 5 5 5 5 5 5 5 5 5 5 5 5 5 5 5 5 5 5 6 6 5 5 5 5 5 5 5 5 5 5 5 5 5 5 5 5 5 5 5 5 5 5 5 5 5 5 5 5 5 5 5 5 5 5 5 5 5 5 5 5 5 5 5 5 5 5 5 6 5 5 5 6 5 5 5 5 6 5 6 5 5 5 5 5 5 6 5 5 5 6 6 5 5 5 6 5 6 5 5 5 6 5 5 5 6 5 5 6 5 5 6 5 6 6 5 6 6 5 5 6 5 6 5 5 5 5 6 6 5 5 5 5 6 5 5 6 5 5 6 6 6 5 6 5 5 5 6 5 6 5 5 6 5 5 5 6 5 5 5 5 5 5 5 6 5 5 5 6 5 5 5 5 5 5 5 6 5 5 5 5 5 5 5 5 5 5 5 5 5 5 5 5 6 6 5 5 5 6 5 6 5 6 5 5 5 5 6 5 6 5 5 5 5 5 5 5 6 5 5 6 5 5 5 5 5 5 6 5 5 5 5 5 5 5 5 5 5 5 6 5 5 5 5 5 5 5 5 5 5 5 6 5 5 5 6 5 5 5 5 5 5 5 5 5 5 5 5 5 5 5 5 6 5 5 5 5 6 5 5 6 5 5 5 5 6 5 5 6 5 5 5 5 5 5 5 5 5 5 5 5 5 5 5 5 5 6 5 5 5 5 5 5 5 5 6 5 5 5 5 5 5 5 5 5 5 5 5 5 5 5 5 5 5 5 5 5 5 6 5 5 5 5 6 5 5 5 6 5 6 5 5 5 5 5 5 5 5 6 5 5 5 5 5 5 5 5 5 5 6 5 5 6 5 6 5 5 5 5 5 5 5 5 6 6 5 6 6 5 5 5 6 5 6 5 5 5 5 5 5 5 5 5 5 6 5 5 5 6 5 5 5 5 5 5 6 5 5 5 5 6 5 5 5 5 5 5 5 5 5 5 5 5 5 5 5 5 5 5 5 5 5 5 5 5 5 5 5 6 5 5 5 5 5 6 5 5 5 5 5 5 5 5 5 5 5 5 5 6 5 5 5 5 6 5 5 5 5 5 5 5 5 5 5 5 5 6 5 5 5 5 5 5 5 5 5 5 6 5 5 5 5 5 5 5 5 5 5 5 5 5 5 5 5 5 5 5 5 5 5 5 5 5 5 5 5 5 5 5 5 5 5 5 5 5 5 5 6 6 5 5 5 6 5 5 5 5 5 6 5 5 6 5 5 5 5 5 6 5 5 5 5 6 5 5 5 5 5 5 5 5 5 5 5 5 5 5 5 5 5 5 5 6 5 5 5 5 5 5 5 6 5 5 5 5 5 5 5 5 5 5 5 5 6 5 5 6 5 5 5 5 5 5 5 6 5 5 5 6 6 5 5 5 5 5 5 5 5 5 5 5 5 5 5 5 5 5 5 5 5 5 5 5 5 5 5 5 5 6 5 5 5 5 5 5 5 6 5 5 5 5 5 5 5 5 5 6 5 5 6 5 5 5 5 5 5 5 5 5 5 5 5 5 5 5 6 5 5 5 5 5 5 5 5 5 5 5 5 5 5 5 5 5 5 5 5 5 5 6 5 5 5 5 5 5 5 5 5 5 5 5 5 5 5 5 5 5 5 5 5 5 5 6 5 5 5 6 5 5 6 5 5 5 5 5 5 5 5 5 5 5 5 5 5 5 6 6 5 5 5 5 5 6 5 5 5 5 5 5 5 5 5 5 5 5 5 6 5 5 5 5 5 5 5 5 5 5 5 5 5 5 5 5 5 6 5 5 5 5 5 6 5 5 5 6 6 5 5 5 5 5 5 5 5 5 5 5 5 5 5 5 5 5 5 5 5 5 5 5 5 5 5 5 6 5 5 6 5 5 5 5 5 5 5 5 5 5 5 5 5 5 6 5 5 5 5 5 5 5 5 5 5 5 5 5 5 5 5 5 5 6 5 5 6 5 5 5 5 5 5 5 5 5 5 5 5 5 5 5 5 5 5 5 5 5 5 6 5 5 5 5 6 5 5 5 5 5 5 5 5 5 5 5 5 5 6 5 5 5 5 5 6 6 5 6 5 5 5 5 5 5 6 5 5 5 6 5 5 5 5 5 5 5 6 5 5 5 6 5 5 5 5 5 5 5 5 6 5 5 5 5 5 5 6 5 5 5 5 5 5 5 5 5 5 6 5 6 5 6 6 5 5 5 5 5 5 5 5 5 5 5 5 5 5 5 5 6 5 5 5 5 5 5 5 5 5 5 5 5 5 5 5 5 5 5 5 5 5 5 5 6 5 6 6 5 5 5 5 6 5 5 5 5 5 5 6 5 5 5 6 5 5 5 6 5 5 5 6 5 5 5 5 5 5 5 5 5 6 5 5 5 5 5 5 5 5 5 5 5 5 5 5 5 6 5 5 5 5 5 6 5 6 5 5 6 5 5 6 5 5 5 5 6 5 5 6 5 5 5 5 6 5 5 6 5 5 5 5 5 5 5 5 5 5 5 5 5 5 5 5 6 5 6 5 5 5 5 5 5 5 5 5 6 5 5 5 5 5 5 5 6 5 6 5 6 5 5 5 5 5 5 5 5 5 5 5 5 5 5 5 5 5 5 5 5 5 5 5 5 6 5 5 5 5 5 5 5 6 5 5 5 5 5 5 5 5 5 6 5 5 5 5 5 6 5 5 5 5 5 5 5 5 5 5 5 6 5 5 5 5 5 5 5 5 5 5 5 5 5 5 5 5 5 5 5 5 5 5 5 5 5 6 5 5 5 5 5 5 5 5 5 6 5 5 5 5 5 6 5 5 5 6 5 6 5 5 5 5 5 5 5 5 5 5 5 5 5 5 6 5 5 5 5 6 5 5 5 6 5 5 5 6 5 5 5 5 5 5 5 5 5 5 5 5 5 5 5 5 5 5 5 5 5 5 5 5 5 6 5 6 5 5 6 5 5 6 5 5 5 5 5 5 6 5 5 5 5 5 5 5 5 5 5 5 6 6 5 5 5 5 5 5 5 5 5 5 6 6 5 6 5 5 5 6 5 5 5 5 5 5 5 5 5 5 6 5 6 5 6 5 5 5 5 5 5 6 5 5 5 5 5 5 5 5 5 5 5 5 6 5 5 5 5 6 5 5 5 5 5 6 6 5 5 5 5 5 5 5 5 5 5 5 5 5 5 5 5 5 5 5 5 5 5 5 5 5 6 5 5 5 6 5 5 5 5 5 5 5 5 5 6 5 5 5 5 5 5 5 5 5 5 5 5 5 5 5 5 5 5 5 5 5 5 5 5 5 5 5 6 5 5 5 5 5 5 5 5 5 5 5 5 5 5 5 5 5 5 5 5 5 5 5 5 5 5 5 5 5 5 5 5 5 6 5 5 5 6 5 5 5 5 6 5 5 5 5 6 5 5 6 5 5 5 5 5 5 5 6 5 5 5 5 5 5 5 5 5 5 5 5 5 6 6 5 5 5 6 5 5 6 6 5 5 5 5 5 5 6 5 5 5 5 5 5 6 5 5 6 5 5 5 6 5 5 5 6 5 5 5 5 5 6 5 6 6 5 5 6 5 5 5 6 5 5 5 5 5 5 5 5 6 5 5 5 5 5 5 5 5 5 5 5 5 5 5 5 5 5 5 5 5 5 5 5 5 5 5 5 5 5 5 5 5 6 5 5 5 5 5 5 5 5 5 5 5 5 5 5 5 5 5 5 5 6 5 5 5 5 5 6 5 5 5 5 5 5 5 5 5 5 5 5 5 5 5 5 5 5 5 6 6 5 5 5 5 6 5 5 5 5 5 5 6 5 5 5 5 5 5 5 5 5 6 5 5 5 5 5 5 5 5 5 5 5 5 5 6 5 5 5 5 5 5 6 5 5 5 5 5 5 6 5 5 5 5 5 6 5 5 5 5 5 5 6 5 6 5 5 5 6 5 5 5 5 5 5 5 5 5 5 5 5 5 5 5 5 5 5 5 5 5 5 5 5 5 5 5 5 5 5 5 5 5 5 5 5 6 5 5 5 6 5 6 5 6 5 5 5 5 5 6 5 5 5 6 5 5 5 6 5 5 5 5 5 5 5 5 5 6 5 5 5 5 5 5 6 5 5 6 6 5 5 6 5 5 6 5 5 6 5 5 5 5 5 5 5 5 5 5 5 5 5 5 5 5 5 5 5 5 5 5 5 5 5 6 5 5 5 5 5 5 5 5 5 5 5 5 5 5 5 6 5 5 6 5 5 5 6 5 5 6 6 5 5 5 5 5 5 5 6 5 5 5 5 5 5 5 5 5 5 5 5 5 6 5 5 6 5 5 5 5 5 5 5 5 5 5 5 5 5 5 5 5 5 5 5 5 5 5 5 5 5 5 5 5 5 6 5 5 5 5 5 5 5 6 5 5 5 5 5 6 5 5 5 5 6 6 5 6 5 5 5 6 5 5 6 5 5 5 5 6 5 5 5 5 5 5 5 5 5 5 5 6 6 5 5 5 5 5 5 5 5 5 6 5 5 6 5 5 5 5 5 5 5 5 5 6 5 6 5 6 5 6 5 6 6 5 6 5 6 5 5 5 5 5 6 5 5 6 5 5 6 5 6 6 5 6 5 5 5 5 5 5 5 5 5 5 5 6 5 5 5 6 5 5 6 5 5 5 5 5 5 5 5 5 5 5 5 5 5 5 5 5 5 5 5 5 5 5 5 5 5 5 5 5 5 5 5 5 5 5 5 6 5 5 5 5 5 5 6 6 5 5 5 5 5 5 5 5 5 5 6 5 5 5 6 5 5 5 5 5 5 5 5 6 5 5 5 5 5 5 5 5 5 5 6 5 5 5 5 5 5 6 5 5 5 5 5 5 6 5 5 5 6 5 5 5 5 5 5 5 5 5 5 6 5 5 5 5 5 5 5 6 5 6 5 5 5 5 5 5 5 5 5 5 5 5 5 5 5 5 5 5 5 5 5 5 5 6 5 5 5 5 5 5 5 5 5 5 5 5 5 5 5 5 5 5 5 5 5 5 5 5 5 5 5 5 5 5 5 5 5 5 5 5 5 5 5 5 5 5 5 5 5 5 5 5 5 5 5 5 5 5 5 5 5 5 5 5 5 5 5 5 5 6 5 5 5 5 5 5 5 6 5 5 5 5 5 5 5 5 5 5 5 5 5 5 5 5 5 5 5 5 5 5 6 5 5 5 5 5 5 5 5 5 5 5 5 5 5 5 5 5 5 5 5 5 5 5 5 6 5 5 5 6 5 5 5 5 5 5 5 5 5 5 5 5 5 5 5 5 5 5 5 5 5 5 5 5 5 5 5 5 5 5 5 5 5 6 5 6 5 5 5 5 5 6 5 6 5 5 5 5 5 5 5 5 5 5 5 5 5 6 5 5 5 5 5 5 5 5 5 5 6 5 5 5 5 5 5 5 5 6 5 5 5 6 6 5 5 6 5 5 5 5 5 5 6 5 5 6 5 5 5 6 5 5 5 5 5 6 5 5 6 6 6 5 5 5 5 5 5 5 5 5 5 5 5 5 5 6 5 5 5 6 5 5 5 5 5 5 6 5 5 6 5 5 5 5 5 5 5 5 5 5 5 5 5 5 5 5 5 6 5 5 5 5 5 5 5 5 5 5 5 5 5 5 5 5 5 6 5 5 5 5 5 5 6 5 5 5 5 6 5 5 5 5 5 6 5 5 5 5 5 5 5 5 6 5 5 5 5 6 5 5 5 5 5 5 5 5 5 6 5 5 5 5 5 5 5 5 5 5 5 5 5 6 5 5 5 6 5 5 6 5 5 5 5 5 6 5 5 5 5 5 5 6 5 6 5 5 5 6 5 5 5 6 6 5 6 5 6 5 6 5 6 5 5 5 5 5 6 5 5 5 5 6 5 5 5 5 5 5 5 5 5 5 6 5 5 5 5 5 5 5 5 5 5 5 5 5 5 5 5 5 5 5 5 5 5 5 5 5 5 5 5 5 5 5 5 5 5 6 5 5 5 5 5 5 5 6 5 5 6 5 5 5 5 5 5 5 5 5 5 6 6 5 5 5 5 5 5 5 5 5 5 5 5 6 5 6 5 6 5 5 5 5 6 6 6 5 5 6 5 5 6 5 6 5 5 5 6 6 5 5 6 6 5 5 5 5 5 6 5 5 5 5 5 5 5 5 5 6 5 5 5 5 5 5 6 5 5 6 5 5 5 5 5 5 5 5 5 6 5 5 6 6 5 5 5 5 5 5 5 5 5 6 5 5 5 5 5 5 6 5 5 6 5 5 6 5 6 5 5 5 5 5 5 5 5 5 5 5 5 5 5 5 6 5 5 5 6 5 5 5 5 5 5 5 5 5 5 5 5 5 5 6 5 5 5 5 6 5 5 5 5 5 5 5 6 5 6 5 5 6 5 5 5 6 5 5 5 5 5 5 6 5 6 5 5 5 6 5 6 5 5 5 5 5 6 5 6 5 5 5 5 5 5 5 5 5 5 5 5 5 5 6 5 5 5 5 6 6 5 5 6 6 6 5 5 5 6 5 5 5 5 5 5 5 5 6 5 5 5 5 6 5 5 5 5 5 5 5 6 5 6 5 5 5 6 5 5 5 5 5 5 6 5 5 6 5 5 5 6 5 5 5 5 5 5 5 6 5 6 5 6 5 5 5 5 5 5 5 5 5 5 5 5 5 5 6 5 6 5 6 5 5 6 5 5 5 6 5 6 5 5 5 5 6 5 6 6 5 5 5 5 5 5 5 6 5 5 5 5 5 5 5 5 5 5 5 5 5 5 5 5 6 6 6 6 5 5 6 5 5 5 6 5 5 5 5 6 5 5 6 6 5 6 5 5 5 5 5 5 5 5 5 5 6 6 5 5 5 5 6 6 5 5 6 5 5 5 5 6 5 5 5 5 5 5 6 5 6 5 5 5 5 6 5 5 5 5 5 5 5 5 5 5 6 5 5 5 5 5 5 6 6 6 5 5 5 5 5 5 5 5 5 6 5 5 5 6 5 5 6 5 5 5 6 5 5 5 5 5 6 5 6 5 6 5 5 5 5 6 5 6 5 5 5 5 5 5 5 5 5 6 5 5 5 5 5 5 5 5 5 5 5 5 5 5 5 5 6 6 5 5 5 5 5 5 5 5 5 5 5 5 5 5 5 6 6 6 5 5 5 5 5 6 6 5 5 5 6 6 5 5 5 5 6 5 5 5 6 6 5 5 6 5 5 5 5 5 5 5 5 5 5 5 5 5 5 5 5 5 5 5 5 5 5 5 5 5 5 5 5 5 5 5 6 5 5 5 5 5 5 5 6 5 6 5 5 5 5 5 6 5 6 5 6 5 5 5 5 6 5 5 5 5 5 5 5 5 5 5 5 5 5 5 5 5 5 5 5 5 5 5 5 5 5 5 5 5 5 5 5 5 5 5 6 5 5 5 5 5 5 5 6 5 5 5 5 5 5 5 5 5 5 5 5 5 5 6 6 5 5 5 5 5 6 5 5 5 5 5 5 5 5 5 5 5 5 6 5 5 5 5 6 5 5 6 5 5 6 5 6 5 5 5 5 5 5 5 6 5 5 5 5 6 5 5 5 5 5 5 6 5 5 5 5 5 5 5 5 5 6 5 5 5 5 5 5 5 5 6 5 6 5 5 6 5 5 6 5 5 5 5 5 5 5 5 5 6 5 5 5 6 5 5 5 6 5 5 5 5 5 5 5 5 5 5 5 5 5 5 5 5 5 5 5 5 6 5 5 5 5 5 5 6 5 5 5 6 5 5 6 5 5 6 5 5 6 5 6 5 5 6 6 5 5 5 5 5 5 5 5 5 5 5 5 5 5 5 5 5 5 5 5 5 6 5 5 5 5 5 6 6 6 5 6 5 6 5 5 5 6 5 5 6 5 6 5 5 5 6 5 6 5 6 5 5 5 5 5 6 6 5 5 5 5 5 5 5 5 5 6 5 5 5 6 5 6 6 5 5 5 5 5 5 5 5 5 5 5 5 5 5 5 5 5 5 6 5 5 5 5 5 5 5 5 6 5 5 5 6 5 5 5 5 5 5 5 5 5 5 5 6 5 5 5 5 5 5 6 5 6 5 5 6 5 5 5 5 5 5 5 5 5 5 5 5 5 5 5 5 6 5 5 5 6 6 5 5 6 5 6 5 5 5 5 6 6 5 5 5 5 5 5 6 5 5 5 6 6 5 5 5 5 5 5 5 5 5 6 5 5 5 5 5 6 5 5 6 5 6 5 5 5 5 5 5 5 5 5 5 5 5 5 5 5 6 5 5 5 5 5 6 5 5 5 5 5 5 5 5 5 6 5 5 5 5 6 5 5 5 5 5 5 5 5 5 6 5 5 5 5 5 5 5 6 5 5 6 6 5 5 5 6 5 5 6 5 5 5 5 5 5 6 5 5 6 5 6 5 5 5 5 5 5 5 6 5 6 5 5 5 6 5 5 5 5 5 6 5 5 6 5 5 6 5 6 5 5 5 5 5 5 5 5 5 5 5 5 5 5 5 5 5 5 5 5 5 6 5 5 5 5 5 6 5 6 5 5 5 5 5 5 5 6 5 5 5 5 5 5 5 5 5 5 5 6 5 5 5 5 5 5 5 5 5 5 5 5 5 5 5 6 5 6 5 6 6 6 5 5 6 6 5 5 6 5 5 5 5 6 5 5 5 6 5 6 5 6 5 5 5 5 6 5 5 5 5 5 5 5 5 6 5 6 5 5 5 5 5 5 5 5 5 5 5 5 5 5 5 5 5 5 5 5 5 5 5 6 5 5 6 5 5 5 5 5 5 5 5 5 5 6 6 5 6 5 5 5 6 6 5 6 5 5 5 5 5 5 5 5 5 5 5 5 6 5 5 5 5 5 5 5 5 6 5 5 5 5 5 5 5 5 5 5 5 5 5 6 6 5 5 6 5 5 5 5 5 6 5 5 5 5 5 5 5 5 6 5 5 5 5 6 5 5 5 5 5 5 5 5 5 6 6 5 5 5 5 5 5 6 5 6 5 6 5 5 5 6 5 5 5 6 5 5 6 5 5 5 5 5 5 5 5 5 5 5 6 5 5 5 5 6 5 5 5 5 5 5 5 5 5 5 5 5 5 5 5 5 5 5 5 5 6 5 5 5 5 5 6 5 5 5 5 5 6 5 5 5 5 6 5 5 5 5 5 5 5 5 5 5 5 5 5 5 5 5 5 5 5 5 5 5 5 5 5 5 6 5 5 5 5 5 5 5 5 5 5 5 5 5 5 5 5 5 5 5 5 5 5 5 5 5 5 5 5 5 5 5 5 6 5 5 5 5 5 5 5 5 5 5 6 6 5 5 5 5 5 5 5 5 5 5 5 5 5 6 5 5 5 5 5 5 5 5 5 5 5 5 5 5 5 5 5 5 5 5 5 5 5 5 5 5 5 5 5 5 5 5 5 5 5 5 5 5 5 5 5 5 5 5 5 5 5 5 6 5 5 5 5 5 5 5 5 5 5 5 5 5 5 5 5 5 5 5 5 5 5 5 5 5 5 5 5 5 5 6 5 5 5 6 5 5 5 5 5 5 5 5 5 6 5 5 6 5 5 5 5 5 6 5 5 5 5 5 6 5 5 5 5 5 5 5 5 5 5 5 5 5 5 5 5 5 5 5 5 6 5 5 5 5 5 5 5 5 5 5 5 6 5 5 5 5 5 5 5 5 5 5 5 5 5 5 5 5 5 5 6 5 5 5 5 5 5 5 5 5 5 5 5 5 5 5 5 5 6 5 5 5 5 5 5 5 5 5 5 5 5 5 6 5 5 5 5 5 5 5 5 5 5 5 5 5 6 5 6 5 5 5 5 5 5 5 5 5 5 5 5 5 5 5 5 5 5 5 5 5 5 5 5 5 5 6 5 5 5 5 5 5 6 5 5 5 5 6 5 5 5 5 6 5 5 5 5 5 5 5 5 5 5 6 5 5 5 5 6 5 5 5 5 5 5 5 5 6 5 5 5 6 5 5 5 5 5 5 5 5 5 5 5 6 6 5 5 6 5 5 5 5 6 6 5 5 5 5 5 5 5 5 5 6 5 5 5 5 5 5 5 5 5 5 5 5 5 5 5 5 5 5 5 5 5 5 5 6 5 6 5 5 5 5 5 5 5 5 5 5 6 5 5 5 5 6 5 5 6 5 5 6 5 5 5 6 5 5 6 5 5 5 5 5 5 5 5 5 5 5 5 5 5 5 5 5 5 5 5 5 5 5 5 5 5 5 5 5 5 5 5 5 5 5 5 5 5 5 5 5 5 5 5 5 5 5 5 5 5 5 5 5 5 5 5 5 5 5 5 5 5 5 5 5 5 6 6 5 5 5 5 5 5 5 5 5 6 5 5 5 5 5 6 5 5 5 6 5 5 5 5 5 5 5 5 5 5 5 5 5 5 5 5 5 5 5 5 6 5 5 5 5 5 5 5 5 5 5 5 5 5 5 5 5 5 5 6 5 5 5 5 6 5 5 6 5 5 5 5 5 5 5 5 5 5 5 5 5 5 5 5 5 5 5 5 5 5 5 5 5 5 5 5 5 5 5 5 5 5 5 5 5 5 5 5 6 5 5 5 5 5 5 5 5 6 5 5 5 5 5 5 5 5 5 5 5 5 5 5 5 5 5 5 5 5 5 5 5 5 5 5 5 5 6 6 5 5 5 5 5 5 5 5 6 6 5 5 5 6 5 5 5 5 5 5 5 5 5 5 6 5 5 5 5 5 5 5 5 5 5 5 5 5 5 5 5 5 5 5 5 5 5 5 5 5 5 5 5 5 5 5 5 5 5 6 5 5 5 5 6 5 5 5 5 5 5 5 5 5 5 5 5 5 5 5 5 6 5 6 5 5 5 5 6 5 5 5 5 5 5 5 5 5 5 5 5 5 5 5 5 5 5 5 5 5 5 5 5 5 5 5 5 5 5 6 5 5 5 5 5 5 5 5 5 5 5 6 5 5 6 5 6 5 5 5 5 5 5 6 5 5 5 5 5 5 5 5 5 5 5 5 6 5 6 5 5 6 5 5 5 5 5 5 5 5 5 5 5 5 5 5 5 5 5 5 5 5 5 5 5 5 5 5 5 5 5 5 5 5 5 5 5 5 5 5 5 5 5 5 5 5 5 5 5 5 5 5 5 6 5 5 5 5 5 5 5 5 5 5 5 5 5 5 5 5 5 5 5 5 5 5 5 5 5 5 5 5 5 5 5 5 5 5 5 5 5 5 5 6 5 5 5 5 5 6 5 5 5 5 5 5 5 5 5 5 5 5 5 5 5 5 5 5 5 5 5 5 5 5 5 5 5 5 5 5 5 5 5 5 5 5 5 5 5 5 5 5 5 5 5 5 5 5 5 5 5 5 5 5 6 5 6 5 5 5 5 5 5 5 5 6 5 5 5 5 5 5 5 5 5 5 5 5 5 5 5 5 5 5 5 6 5 5 5 5 5 5 5 5 6 5 5 5 5 5 5 5 5 5 5 5 5 5 5 5 5 5 5 5 5 5 5 5 5 5 6 5 5 5 5 5 5 5 5 5 5 5 5 5 6 5 5 5 5 5 5 5 5 5 5 5 5 5 5 5 5 5 5 6 5 5 5 5 5 5 5 5 5 5 5 5 5 5 5 5 5 5 5 5 5 5 5 5 5 5 6 5 5 5 5 6 5 5 5 5 5 5 5 5 5 5 5 5 5 5 5 5 5 5 6 5 5 6 5 5 5 5 5 5 5 5 5 6 5 5 5 5 6 5 5 6 5 5 5 5 5 5 5 5 5 5 5 5 5 5 5 5 5 5 5 5 5 5 5 5 5 5 5 5 5 6 5 5 6 5 5 5 5 5 5 6 5 5 5 6 5 5 5 5 5 5 5 5 5 5 5 5 5 5 5 5 5 5 5 5 5 5 5 5 5 6 5 5 5 5 5 6 5 5 5 5 5 5 5 5 5 5 5 5 5 6 5 5 5 5 5 5 5 5 5 5 5 5 6 5 5 5 5 5 6 5 5 6 5 5 5 5 5 6 5 5 6 5 5 5 5 5 5 5 5 5 5 5 6 5 5 5 5 5 5 5 5 5 5 5 5 5 5 5 5 5 5 5 5 5 5 5 5 5 5 5 5 5 6 5 5 6 5 5 6 5 5 5 6 5 5 5 6 5 5 5 5 5 5 5 5 5 5 5 5 5 5 5 5 6 5 5 5 5 5 5 5 5 5 5 5 5 5 5 6 5 5 5 5 5 5 5 5 5 5 5 5 5 5 5 5 5 5 5 5 5 5 5 5 5 5 5 5 5 5 5 5 5 5 5 6 5 5 5 5 5 5 5 5 5 5 5 5 5 5 5 5 5 6 5 5 5 5 6 5 5 5 5 5 5 5 5 5 5 5 5 6 5 5 5 5 5 5 5 6 5 5 5 5 5 5 5 5 5 5 5 6 5 5 5 5 5 5 5 5 5 5 5 5 5 5 5 5 5 6 5 5 5 5 6 5 5 5 5 5 6 5 5 6 5 6 6 5 5 5 5 5 5 5 5 5 5 5 5 5 5 5 5 6 6 5 5 5 5 5 5 5 5 5 6 5 5 5 5 5 6 5 5 5 5 5 5 6 5 5 6 5 6 5 5 6 5 6 5 5 5 6 5 5 5 5 5 5 6 6 5 6 5 5 6 5 5 5 5 5 5 5 5 5 5 5 5 5 6 5 5 5 5 5 5 5 5 5 5 6 6 5 5 6 5 5 5 6 5 6 5 5 5 5 6 5 5 6 5 5 5 5 5 5 5 6 5 5 5 5 5 5 5 5 5 5 5 6 5 5 5 5 5 6 6 5 5 5 5 5 5 6 5 5 5 5 6 5 6 5 5 5 5 5 5 5 5 5 5 5 5 5 6 5 5 5 5 6 5 5 5 5 5 5 5 5 5 5 5 5 5 5 5 5 5 5 5 5 5 5 6 5 5 5 5 5 5 5 5 5 5 5 5 5 5 5 6 5 5 5 5 5 5 6 5 5 5 5 5 5 5 5 5 5 5 5 5 5 5 5 5 5 5 5 5 5 5 5 5 5 5 5 5 5 5 5 6 5 5 5 5 5 5 5 5 5 5 5 5 5 5 5 5 5 5 5 6 5 5 5 5 5 5 6 6 5 5 5 5 6 6 5 5 5 5 5 5 5 5 5 5 6 5 5 5 5 5 5 5 5 5 5 5 5 5 5 5 5 5 5 5 5 5 5 5 5 6 5 5 5 5 5 5 5 5 5 5 6 5 5 5 5 5 5 5 5 5 5 5 5 5 5 5 5 5 6 5 5 5 5 5 5 5 5 5 6 6 5 6 5 5 5 5 5 5 5 5 5 5 5 5 5 5 5 5 5 5 5 5 5 5 6 5 5 5 6 5 5 5 5 5 5 5 5 5 5 6 5 5 5 5 5 6 5 6 6 5 5 5 5 5 5 5 5 5 5 5 5 5 5 5 5 5 6 5 5 6 5 5 5 6 5 5 6 5 6 5 5 5 5 5 5 5 5 5 5 5 6 5 5 5 6 5 5 5 5 5 5 5 5 5 5 6 5 5 5 5 5 6 5 5 5 5 5 5 5 6 5 5 5 5 5 5 5 5 5 5 5 5 5 5 6 6 5 5 5 5 6 5 5 5 5 6 5 5 5 5 5 6 5 6 5 5 5 5 5 5 5 5 5 5 5 5 5 5 6 6 5 5 5 5 5 5 5 5 5 5 5 5 5 5 5 5 5 5 5 5 5 5 5 5 5 5 5 5 5 6 5 5 5 5 5 5 5 5 5 5 5 5 5 6 6 5 5 6 5 5 5 5 5 5 5 5 5 5 5 5 5 5 5 5 5 5 5 5 5 5 5 5 5 5 5 5 5 5 5 5 5 5 5 5 5 5 5 5 5 5 5 5 5 5 5 5 5 5 5 5 6 5 6 5 5 5 5 5 6 5 5 5 5 5 6 6 5 5 5 5 5 5 5 5 6 5 5 5 5 5 5 5 5 5 5 6 5 5 6 5 5 6 5 5 5 5 5 5 5 6 6 5 6 6 5 5 6 5 5 5 5 5 5 5 5 5 5 6 5 5 5 5 5 5 5 5 5 5 5 5 5 5 5 5 5 5 5 5 5 5 5 5 5 5 5 5 5 5 5 5 5 5 5 5 5 5 5 5 5 5 5 6 5 5 5 5 6 5 5 6 5 5 5 5 5 5 5 5 5 5 5 5 5 5 5 5 5 5 5 6 5 5 5 5 5 5 5 5 5 5 5 5 5 5 5 5 5 5 5 5 5 5 6 5 5 5 5 5 5 5 5 5 5 6 5 5 5 5 5 5 6 5 5 5 6 5 5 5 6 5 5 5 5 5 5 6 5 5 5 5 6 5 6 6 5 5 5 5 5 5 5 5 5 5 5 5 6 5 5 5 5 5 5 5 5 5 5 5 5 5 5 6 5 5 5 5 5 6 5 5 5 5 5 5 6 5 5 5 5 5 5 5 5 5 5 5 5 5 5 5 5 5 5 5 5 5 5 5 6 6 5 5 5 6 5 5 5 5 5 6 5 5 5 5 5 5 5 5 5 5 5 5 5 5 5 5 6 5 5 5 5 5 5 5 5 5 5 5 5 5 5 5 5 5 5 6 5 5 5 5 5 5 5 6 5 5 5 5 5 5 5 5 5 5 6 5 5 5 5 6 5 6 5 5 6 5 5 5 5 5 6 5 5 5 5 5 6 5 6 5 5 5 5 6 5 5 5 5 5 5 5 5 6 5 5 5 5 5 5 5 5 5 5 5 5 5 5 5 5 5 6 5 5 5 5 5 6 5 5 5 5 5 5 5 5 5 5 5 5 5 5 5 5 5 5 5 5 5 5 5 5 5 5 5 5 5 5 5 5 5 5 5 5 5 5 5 5 5 5 5 5 6 5 5 5 5 5 5 5 5 5 5 5 5 5 5 5 5 5 5 5 5 5 5 5 5 5 5 5 6 5 5 5 5 5 6 5 5 5 6 6 5 5 5 5 5 5 5 5 5 5 5 5 5 6 5 5 5 5 5 6 5 6 5 6 5 6 6 5 5 5 5 5 5 5 5 5 5 6 5 6 5 5 5 5 5 5 5 5 5 5 5 6 5 5 5 5 5 5 5 5 6 5 5 5 5 5 5 5 5 5 5 5 5 6 5 5 5 5 5 5 5 5 5 5 5 5 5 5 5 5 5 5 5 5 5 5 5 5 5 5 6 5 5 5 6 5 5 6 5 6 5 5 5 6 5 5 5 5 5 5 5 5 5 5 5 5 5 5 5 5 5 5 5 5 5 5 5 5 5 5 6 5 5 5 5 5 5 5 6 5 5 6 5 5 5 5 5 5 5 5 5 5 5 6 5 5 5 5 5 6 5 5 5 5 5 5 5 6 6 5 5 5 5 6 5 5 5 5 5 5 6 5 5 5 5 5 5 5 5 5 6 6 5 5 5 5 5 6 5 5 5 6 5 6 5 6 5 5 5 5 5 6 5 5 5 5 5 5 5 5 5 5 5 5 6 5 5 5 5 5 5 5 5 5 5 5 5 5 5 5 5 5 5 5 5 5 6 5 5 5 5 5 6 5 5 5 6 5 5 5 5 5 5 5 5 5 5 5 5 5 5 5 5 5 5 5 5 5 5 5 5 5 5 5 5 5 5 5 5 6 5 5 5 5 5 5 5 5 5 5 5 5 5 6 5 5 5 6 5 5 5 5 6 5 5 5 5 5 5 5 5 5 5 5 5 5 5 5 5 5 5 5 5 5 5 5 5 5 5 5 5 5 5 5 5 5 5 5 5 6 5 5 5 6 5 5 5 6 5 5 5 6 5 5 6 6 5 5 5 5 5 5 6 5 6 5 5 6 5 5 5 5 5 5 5 6 5 5 5 5 5 5 5 5 5 6 5 5 6 5 5 5 5 5 5 5 5 5 5 5 5 5 5 5 5 5 5 6 5 5 5 5 5 5 5 5 6 5 5 5 5 5 5 5 5 5 5 5 5 5 5 5 5 5 5 5 5 5 5 6 5 5 5 5 5 5 6 5 5 5 5 5 5 6 5 5 5 5 5 5 5 5 5 5 5 5 5 5 5 5 5 5 5 5 5 5 5 5 5 5 5 5 5 5 5 5 5 6 6 5 5 6 6 5 6 5 6 5 6 5 5 5 5 5 5 5 5 5 5 6 5 5 5 5 6 5 5 6 6 5 5 6 5 5 5 5 5 5 5 5 5 5 5 5 5 5 5 6 5 5 5 5 6 5 5 5 5 5 6 5 5 5 5 5 6 5 5 5 5 5 6 5 6 6 5 5 5 5 5 5 5 5 5 5 5 6 5 6 5 5 5 5 6 5 5 5 6 6 5 6 5 5 5 6 5 5 5 5 5 5 5 5 5 5 5 5 5 5 5 5 5 5 5 5 5 5 5 5 5 5 5 5 5 6 5 6 5 5 6 5 5 6 5 5 6 5 5 6 6 5 5 5 6 5 6 5 5 5 6 5 5 5 6 5 5 5 5 5 5 6 5 5 5 5 5 5 5 5 5 5 5 5 5 5 5 5 5 5 5 6 5 5 5 6 5 5 6 5 5 5 5 5 5 5 5 5 6 5 6 5 5 5 5 5 5 5 5 5 5 5 6 5 5 5 5 5 5 6 5 5 5 5 5 5 5 5 5 5 6 6 5 5 5 5 5 5 5 5 5 5 5 6 6 5 5 6 5 5 6 5 5 5 5 5 5 5 5 5 5 5 5 6 5 5 5 5 5 5 5 5 5 5 5 5 5 5 5 5 5 5 5 5 5 5 5 5 5 5 5 5 5 5 5 5 6 5 5 5 5 6 5 6 5 5 5 5 5 5 5 5 5 6 5 5 5 6 5 5 5 6 5 5 5 6 5 5 5 5 5 5 5 5 5 5 5 5 5 5 5 5 5 6 6 5 5 5 5 6 5 6 6 5 5 5 5 5 5 5 6 5 5 6 5 5 5 5 5 5 5 5 5 5 6 5 5 5 6 5 5 5 5 5 5 5 5 5 5 5 5 5 6 5 5 5 5 5 5 5 5 5 5 6 6 5 5 5 5 5 5 5 6 5 5 5 5 5 6 5 5 5 5 5 5 5 5 5 5 5 5 5 5 5 5 5 6 5 5 5 5 5 5 5 5 5 5 5 5 5 5 5 5 5 5 5 5 5 5 5 5 5 5 5 5 5 5 5 5 5 5 5 5 5 5 5 5 5 5 5 5 5 5 5 5 6 5 5 5 5 6 5 5 5 6 5 5 6 5 5 5 5 5 5 5 5 6 5 5 5 5 5 5 6 5 5 5 5 5 5 5 5 5 5 5 5 5 5 6 5 6 5 5 5 6 5 5 6 5 5 5 6 5 6 5 5 6 6 5 5 5 6 5 5 6 5 5 5 5 5 5 5 5 5 5 5 5 5 5 6 6 5 5 5 6 5 5 5 5 5 5 5 5 5 5 5 5 5 5 5 5 5 5 5 6 5 5 5 5 5 5 5 5 5 5 5 5 5 5 5 5 5 5 5 5 5 5 5 5 5 5 5 5 6 5 5 5 5 5 5 5 5 5 6 5 5 5 6 5 5 6 5 6 5 5 6 5 5 6 6 5 6 5 5 5 6 5 5 5 5 5 5 5 5 5 5 5 5 5 5 5 5 5 5 5 5 5 5 6 5 5 5 5 6 5 5 5 5 6 5 5 5 5 5 6 5 5 5 5 5 5 5 5 5 5 6 5 5 5 5 5 6 5 5 5 5 5 6 5 5 5 5 5 5 5 5 6 5 5 5 5 5 5 5 6 6 5 5 5 5 5 5 5 5 5 5 5 5 5 5 5 5 5 5 5 5 5 5 5 5 5 6 6 5 5 6 5 5 6 6 5 6 5 5 5 5 5 5 5 5 5 5 6 5 5 5 5 6 5 6 5 5 5 5 6 5 5 5 6 5 5 5 5 5 6 5 6 5 6 5 5 5 6 5 5 5 5 5 6 5 5 5 5 5 6 5 6 5 5 5 5 5 5 6 5 5 6 5 5 5 5 5 5 5 5 5 5 5 5 5 5 5 6 5 5 5 5 5 5 5 5 5 5 5 5 5 5 5 5 5 5 5 5 5 5 5 5 5 5 5 5 6 5 5 5 5 5 6 5 5 5 5 6 5 5 5 5 5 6 5 5 5 5 5 5 5 5 5 5 5 5 5 5 5 5 5 5 5 5 5 5 5 5 5 5 5 5 6 5 5 
</DataArray>
<DataArray type="Float64" Name="stress" NumberOfComponents="9" format="ascii">
-0.00022706059912476286 -0.45217650302106094 0 -0.45217650302106094 0.31902552822327834 0 0 0 0 0.0023756360045618288 -1.6604576672543772 0 -1.6604576672543772 1483.5259168981215 0 0 0 0 8.6442065454996317 50.723756574887375 0 50.723756574887375 1718.0792261411043 0 0 0 0 5.3499579838010431 14.002532970451284 0 14.002532970451284 1723.0071696577434 0 0 0 0 -191.78764024840396 -9.8482665136834839 0 -9.8482665136834839 1470.0102602341321 0 0 0 0 27.078094439317645 107.09240683459939 0 107.09240683459939 1498.3200761569606 0 0 0 0 136.16596816676787 465.41377614388603 0 465.41377614388603 1174.8597944733629 0 0 0 0 13.133704689122908 129.4841269294302 0 129.4841269294302 771.40122948570206 0 0 0 0 70.910114779369167 559.10334727227655 0 559.10334727227655 1971.9957462309249 0 0 0 0 -0.24174572770824901 -1.2860505483379612 0 -1.2860505483379612 4.5084447459469175 0 0 0 0 -0.50251071106589507 -1.8404013654508162 0 -1.8404013654508162 12.343549329430971 0 0 0 0 -0.00071176391906431231 -5.2976448557856202 0 -5.2976448557856202 5.499687311505113 0 0 0 0 0.09445569153787986 -4.4963398455209429 0 -4.4963398455209429 7.4856221080418237 0 0 0 0 -0.70200458200263682 -6.2853630003614853 0 -6.2853630003614853 10.456182356072532 0 0 0 0 -1.1480953089393808 -4.5885667542133888 0 -4.5885667542133888 20.335923359318258 0 0 0 0 2.4219124711484881 -2.6203265670810651 0 -2.6203265670810651 12.761588550140004 0 0 0 0 0.0025581905066580503 -2.070181849152863 0 -2.070181849152863 17.589605830464279 0 0 0 0 1.5990793753592079 -5.2611652834675624 0 -5.2611652834675624 13.433115626731706 0 0 0 0 0.44410976706516436 -4.4863527483357757 0 -4.4863527483357757 17.612968367067879 0 0 0 0 2.6738345301846635 -2.8081876728392672 0 -2.8081876728392672 8.4570462827668962 0 0 0 0 0.86044059603699541 -6.1490576654415818 0 -6.1490576654415818 7.9547413960239339 0 0 0 0 0.088683784278305339 -0.45992797402233521 0 -0.45992797402233521 2.7441514494361101 0 0 0 0 -38.809872431918791 -10.860497958532505 0 -10.860497958532505 357.43688452659626 0 0 0 0 -1.5452519652070578 9.0053804473936907 0 9.0053804473936907 362.25721178795447 0 0 0 0 -37.696255014770742 31.056048316436545 0 31.056048316436545 381.97932182851946 0 0 0 0 -6.9008753311942499 47.579175441286907 0 47.579175441286907 382.19706481992034 0 0 0 0 -12.175721195602137 257.49192797911928 0 257.49192797911928 918.78711801004829 0 0 0 0 -267.82262673542482 -145.25345928393472 0 -145.25345928393472 1138.2956645189497 0 0 0 0 -213.12568274346179 90.396600461439675 0 90.396600461439675 1499.9935775651902 0 0 0 0 -257.84718613779387 -142.47710064889907 0 -142.47710064889907 920.8846332867397 0 0 0 0 -255.35282714666386 -373.94843358264916 0 -373.94843358264916 1500.1256613351411 0 0 0 0 -80.698147759126897 -487.9835694311123 0 -487.9835694311123 1002.0068095411043 0 0 0 0 -115.4288551551905 -406.6501254623563 0 -406.6501254623563 817.72688351373654 0 0 0 0 -57.288841114143963 -276.90146142669983 0 -276.90146142669983 804.2290901076758 0 0 0 0 97.830906773956741 -234.86590054429143 0 -234.86590054429143 246.91561615182582 0 0 0 0 91.439054480826087 -250.21975095969538 0 -250.21975095969538 333.5644194791239 0 0 0 0 -83.116880852980728 -208.02371222256261 0 -208.02371222256261 879.40513626834763 0 0 0 0 -52.441125102986632 -126.99389454292896 0 -126.99389454292896 426.93150604051334 0 0 0 0 -1.5713312332202727 1.9015597171771148 0 1.9015597171771148 3.6437994883961977 0 0 0 0 440.92235586468286 1840.9411646259559 0 1840.9411646259559 1529.2674033771168 0 0 0 0 287.830389693847 1002.0847975289362 0 1002.0847975289362 2455.8856100725243 0 0 0 0 917.60329061915877 -416.53001887272967 0 -416.53001887272967 335.79650019710243 0 0 0 0 928.59631148693359 1218.4449161269586 0 1218.4449161269586 1698.5671930012395 0 0 0 0 2.9023512620060732 -3.0214902470896448 0 -3.0214902470896448 12.091556078319726 0 0 0 0 865.32235215291689 872.31557219108981 0 872.31557219108981 556.44493910557503 0 0 0 0 617.98967893149756 -552.25144500995157 0 -552.25144500995157 464.57145538459008 0 0 0 0 180.75833897235503 -940.296776610292 0 -940.296776610292 1497.384420810509 0 0 0 0 1.2444647074615094 -2.0267292826011847 0 -2.0267292826011847 -1.0328384659150913 0 0 0 0 973.32599475878806 -598.13289322194032 0 -598.13289322194032 216.35188377868326 0 0 0 0 398.37262681636128 -630.11248760662056 0 -630.11248760662056 541.97009736559994 0 0 0 0 256.17308205147367 -194.94568798537512 0 -194.94568798537512 165.34430066827917 0 0 0 0 66.593931471438736 48.231079534991295 0 48.231079534991295 75.892663905809059 0 0 0 0 438.23104155338604 -245.10606692112879 0 -245.10606692112879 44.413537467851711 0 0 0 0 443.64633049092527 107.36311163407481 0 107.36311163407481 -204.70932756557886 0 0 0 0 -181.91814764354262 28.379861804876782 0 28.379861804876782 173.17278690893727 0 0 0 0 1.7555495449788876 -10.152203111577684 0 -10.152203111577684 29.131683145708749 0 0 0 0 83.326855546621431 30.603295129283651 0 30.603295129283651 318.43127819639449 0 0 0 0 501.33962135351646 125.17676840776403 0 125.17676840776403 134.3675122851273 0 0 0 0 14.546872389557734 25.665272661718518 0 25.665272661718518 5.2987728329680976 0 0 0 0 -0.79623098000456038 1.1064217372086453 0 1.1064217372086453 -0.75101932748628997 0 0 0 0 -2.7253577565785463 -5.0338605384931725 0 -5.0338605384931725 20.047535293582769 0 0 0 0 -8.050539749996414 4.4244830546788378 0 4.4244830546788378 17.279101278398805 0 0 0 0 -66.018433645836041 -36.023079955141839 0 -36.023079955141839 77.742379143150174 0 0 0 0 64.467743995391345 36.732132368815655 0 36.732132368815655 -50.374190311846178 0 0 0 0 -2.1716434810107517 1.904285183307131 0 1.904285183307131 3.1464469607583325 0 0 0 0 -23.236731389995896 11.766284002871544 0 11.766284002871544 81.759832106496106 0 0 0 0 0.69056881660617364 -1.3816953153091163 0 -1.3816953153091163 10.638219426204159 0 0 0 0 -4.5897007344760539 0.31963935078601935 0 0.31963935078601935 10.668800592878142 0 0 0 0 -6.6388774682272924 -1.0908388025391105 0 -1.0908388025391105 16.191730323887896 0 0 0 0 -1.604966107104715 -0.94645094658990025 0 -0.94645094658990025 12.436780099874611 0 0 0 0 -5.5077345040420482 -3.6909694363057497 0 -3.6909694363057497 10.28527364632464 0 0 0 0 -26.511788200249271 -120.25417412801835 0 -120.25417412801835 427.79569806945074 0 0 0 0 0.58707063684250271 0.50916160053330373 0 0.50916160053330373 0.34144425667828671 0 0 0 0 1.2821310995145783 2.5686218813873438 0 2.5686218813873438 2.1025068430931348 0 0 0 0 63.762057701092743 -30.385159318680962 0 -30.385159318680962 52.06843109219335 0 0 0 0 32.811277922303788 -168.36237325410093 0 -168.36237325410093 281.14678853246005 0 0 0 0 -0.95055890991945668 -3.3059828070391433 0 -3.3059828070391433 6.3788075493619232 0 0 0 0 0.5986706873119374 2.0707519746174512 0 2.0707519746174512 11.132587210810016 0 0 0 0 0.63237956641249427 -2.3912440769850036 0 -2.3912440769850036 5.7725663137825904 0 0 0 0 0.79396617076206866 -1.4553489365589485 0 -1.4553489365589485 10.697507243847213 0 0 0 0 76.53921389886608 -84.573463495573378 0 -84.573463495573378 94.956620745550026 0 0 0 0 1.1323193989470706 -2.2301688948988527 0 -2.2301688948988527 2.7603829315340462 0 0 0 0 -0.0014528877987447508 -4.410497255971876 0 -4.410497255971876 6.1358435308973185 0 0 0 0 -7.8052764713786953 8.1010372259406722 0 8.1010372259406722 13.951144215825479 0 0 0 0 0.25743934906525734 -9.3964212161154137 0 -9.3964212161154137 14.165225108236939 0 0 0 0 1.2500206557996307 -1.4186735596631479 0 -1.4186735596631479 10.914571375426021 0 0 0 0 -0.48261401523514635 -3.1690804186146124 0 -3.1690804186146124 11.310310109052807 0 0 0 0 -0.45462879424383906 -4.4750746407671613 0 -4.4750746407671613 6.2860209265447224 0 0 0 0 -0.97417564801170409 1.4908264222000582 0 1.4908264222000582 5.3903797672163876 0 0 0 0 -0.82224934777107972 -1.9394968254887317 0 -1.9394968254887317 11.34285794619791 0 0 0 0 -1.5199416511548307 -2.6064008019166067 0 -2.6064008019166067 13.898222115454701 0 0 0 0 -0.76673462178123941 -3.2062555070060625 0 -3.2062555070060625 12.097344521669584 0 0 0 0 -5.3402511057695108 -5.0944755841219376 0 -5.0944755841219376 11.712018055084627 0 0 0 0 -4.2537190229810022 -1.7300415802037605 0 -1.7300415802037605 11.678259827865986 0 0 0 0 0.28163585138904546 -2.3565020834516268 0 -2.3565020834516268 11.138487071053603 0 0 0 0 -1.5960540328267623 -3.5069804865343812 0 -3.5069804865343812 10.779707707028535 0 0 0 0 -0.86800946790702938 -2.7832219473129953 0 -2.7832219473129953 10.56551934080926 0 0 0 0 -2.9489332665470727 -0.30495747461100109 0 -0.30495747461100109 11.536534825834678 0 0 0 0 -1.7179426638082305 0.090929884376237169 0 0.090929884376237169 11.23672063981212 0 0 0 0 6.4865780363831043 -13.328856630610971 0 -13.328856630610971 25.753589533815102 0 0 0 0 -1.1806261371279623 -3.6572094985716319 0 -3.6572094985716319 7.5445883561367566 0 0 0 0 -0.07929842417663957 -0.15607273537382227 0 -0.15607273537382227 0.0065129806739605556 0 0 0 0 0.77291414820588478 -1.2182961861972217 0 -1.2182961861972217 -0.34060232517367695 0 0 0 0 -0.095944419146917426 -3.8164055176021066 0 -3.8164055176021066 13.55605861733784 0 0 0 0 0.22051865648670721 -3.201594735707971 0 -3.201594735707971 3.1429449641651104 0 0 0 0 0.33178707251272499 -2.6787850928958505 0 -2.6787850928958505 14.325309439271223 0 0 0 0 -1.1635041017860823 -4.0054848899122746 0 -4.0054848899122746 5.5150351232679924 0 0 0 0 0.92390207272774205 -4.6086596684981487 0 -4.6086596684981487 6.0661737397167599 0 0 0 0 -0.10569178610671925 -0.021990703469128903 0 -0.021990703469128903 0.15359265312459058 0 0 0 0 -2.0219290017604408 -2.4800709782721242 0 -2.4800709782721242 12.853945191345701 0 0 0 0 -1.9097538362460615 -3.8661617265343189 0 -3.8661617265343189 7.9394933782097326 0 0 0 0 0.084274007635400494 -4.1579299224595161 0 -4.1579299224595161 12.643301190517377 0 0 0 0 2.8824662211732939 5.6128690540008392 0 5.6128690540008392 6.4281893121442408 0 0 0 0 -0.7725378607257859 0.1473774591609498 0 0.1473774591609498 7.2291247834580474 0 0 0 0 0.53508666896175328 -2.136662912889733 0 -2.136662912889733 14.07372317694535 0 0 0 0 -1.6355833571848697 -1.1539789895046368 0 -1.1539789895046368 6.6601127644090301 0 0 0 0 -2.0250094460320724 -2.8409665333165321 0 -2.8409665333165321 14.893803798782756 0 0 0 0 -1.4456603436697186 -2.8140112705957563 0 -2.8140112705957563 13.514109297000687 0 0 0 0 -1.3893849965327263 -1.8052243554921006 0 -1.8052243554921006 12.03771251541184 0 0 0 0 0.86490534493896121 0.027961225569015369 0 0.027961225569015369 13.002469993109116 0 0 0 0 19.162929680686887 -3.6545658663308132 0 -3.6545658663308132 -11.835248265240807 0 0 0 0 1.6664942634474729 -3.3906725282786603 0 -3.3906725282786603 -1.3556425517416528 0 0 0 0 -0.58017662229732991 -2.7250736024579965 0 -2.7250736024579965 -0.035205658583436161 0 0 0 0 -0.14302656906464717 -5.1345123103907575 0 -5.1345123103907575 4.6412549779264793 0 0 0 0 1.2992223544334953 -4.6321710876324431 0 -4.6321710876324431 13.022290517788795 0 0 0 0 0.69995010099494293 -3.6619999501348914 0 -3.6619999501348914 7.2600229006538513 0 0 0 0 -2.8445795492108346 -2.8437032649235334 0 -2.8437032649235334 7.0338089130164008 0 0 0 0 -0.98492177414851556 -3.0891742656624608 0 -3.0891742656624608 9.8833784355015979 0 0 0 0 -0.81708384359948494 -1.5660102829111722 0 -1.5660102829111722 7.3321493410656444 0 0 0 0 6.6480355051422748 -8.4718816309832619 0 -8.4718816309832619 19.246111437591026 0 0 0 0 0.041674646808019133 -17.595410713322053 0 -17.595410713322053 -8.9272722439636709 0 0 0 0 2.2159592930865983 -5.3407949039537925 0 -5.3407949039537925 17.319448690512218 0 0 0 0 0.43272630426192138 -4.6224878463812651 0 -4.6224878463812651 8.6472543054901223 0 0 0 0 -1.6834578235274194 -9.561943514712766 0 -9.561943514712766 15.572077394660482 0 0 0 0 -1.7705822268098288 -5.3893535682717868 0 -5.3893535682717868 0.88382815660011715 0 0 0 0 -10.029208747971978 -16.020495820603173 0 -16.020495820603173 6.0045932530629216 0 0 0 0 -0.88364082647802888 -10.901170956149144 0 -10.901170956149144 -2.0961990875694028 0 0 0 0 -4.4858093539888628 -22.747649383990392 0 -22.747649383990392 10.455476718590944 0 0 0 0 34.58851033559813 -15.548507346062252 0 -15.548507346062252 5.9856800593115622 0 0 0 0 -13.028507378388213 -39.119413355634606 0 -39.119413355634606 30.876149476294813 0 0 0 0 -59.144036868265403 0.46022986431489699 0 0.46022986431489699 18.10722244884164 0 0 0 0 -6.23837552810825 -16.449677547666852 0 -16.449677547666852 5.3022777770238463 0 0 0 0 12.471566770747813 3.0823791145230643 0 3.0823791145230643 4.6173867783904825 0 0 0 0 0.55005305115655001 -1.3997486045853549 0 -1.3997486045853549 4.5307631250134079 0 0 0 0 0.64365342065985942 -3.6852177618056885 0 -3.6852177618056885 11.456085488302051 0 0 0 0 0.64663590252200642 -0.8590160934110358 0 -0.8590160934110358 0.61214354278598648 0 0 0 0 -2.3249658994600395 -4.4236473810160533 0 -4.4236473810160533 5.7809989967645379 0 0 0 0 0.71938672261381953 -1.9430667484048172 0 -1.9430667484048172 5.0958852608291636 0 0 0 0 -8.6829020184495 21.650177777154568 0 21.650177777154568 32.865076345493435 0 0 0 0 1.2014187100665765 -1.9773807809269783 0 -1.9773807809269783 4.0033390576390957 0 0 0 0 0.020800051077116133 -0.2389421550468569 0 -0.2389421550468569 0.71267140198748535 0 0 0 0 17.408434190130421 -11.181208973204775 0 -11.181208973204775 -10.928157625521635 0 0 0 0 13.807400788538359 8.6405382830853341 0 8.6405382830853341 -18.868539112569124 0 0 0 0 0.03985171511937835 -0.37632264372241764 0 -0.37632264372241764 0.59716171953829189 0 0 0 0 -0.55017489306402467 -10.852502286652452 0 -10.852502286652452 -2.5403270239403355 0 0 0 0 26.046581382837587 -13.895643449301133 0 -13.895643449301133 -3.3266983185221761 0 0 0 0 55.066301583121032 4.8547985011173296 0 4.8547985011173296 12.132800799183315 0 0 0 0 8.5285562271644082 -1.1394463913329673 0 -1.1394463913329673 12.247741873186897 0 0 0 0 21.68813282915567 -8.4813143893843517 0 -8.4813143893843517 35.658611052756896 0 0 0 0 6.5724099396463629 20.030272621275799 0 20.030272621275799 33.037085295579345 0 0 0 0 2.6201506922881848 26.099071197266312 0 26.099071197266312 67.478842559597979 0 0 0 0 -5.6290880596053174 5.893874056386835 0 5.893874056386835 71.87758008158562 0 0 0 0 0.055616907344959943 -0.011858939337798802 0 -0.011858939337798802 -0.068215322376374843 0 0 0 0 7.4910601942352422 4.653635935523198 0 4.653635935523198 10.93541492458462 0 0 0 0 4.0028802229024603 4.1411998686817242 0 4.1411998686817242 23.746555278459709 0 0 0 0 2.6232304328236538 0.3058307408609835 0 0.3058307408609835 18.250842336721689 0 0 0 0 5.8893982974358927 11.021451777078255 0 11.021451777078255 30.857285395337385 0 0 0 0 -5.4511514184787799 7.5549971646505583 0 7.5549971646505583 50.361272289494082 0 0 0 0 0.45406411029387783 1.5619242702541669 0 1.5619242702541669 36.285645198937345 0 0 0 0 -2.794021006427998 2.4226454624786129 0 2.4226454624786129 44.58590388545781 0 0 0 0 1.4728221978880285 4.4636005594147719 0 4.4636005594147719 34.030809478912488 0 0 0 0 0.002475842032629101 -1.0218049128397979 0 -1.0218049128397979 35.017999570427492 0 0 0 0 1.6276070377419232 3.5053548601026705 0 3.5053548601026705 28.720891835451766 0 0 0 0 -0.64000036722490439 0.42247497218340868 0 0.42247497218340868 27.371593979849422 0 0 0 0 0.0022820769110101224 0.1247531690823962 0 0.1247531690823962 31.012335524013906 0 0 0 0 3.3262030819779236 1.2372326108052221 0 1.2372326108052221 18.741720958103542 0 0 0 0 1.9198353453117081 -1.6000375762778276 0 -1.6000375762778276 18.037928142308374 0 0 0 0 1.6262819789942036 -2.1721293499285821 0 -2.1721293499285821 16.334889405363356 0 0 0 0 0.0018866827492658917 -1.354556738078827 0 -1.354556738078827 21.132819137950719 0 0 0 0 2.9833179268082004 -1.1678734618944873 0 -1.1678734618944873 10.464978398675157 0 0 0 0 -0.35096283436792675 -2.7626677842854406 0 -2.7626677842854406 16.233288895060468 0 0 0 0 2.1585915604069918 0.11573378171306103 0 0.11573378171306103 16.301744791751844 0 0 0 0 1.4932459404205325 0.023172027008058649 0 0.023172027008058649 14.043831416289322 0 0 0 0 0.031910624259548291 -0.010748961839425419 0 -0.010748961839425419 -0.29890224035544577 0 0 0 0 0.47254882927107689 -3.989178508745681 0 -3.989178508745681 11.726341975918331 0 0 0 0 0.5401713957927079 -3.6689675487432396 0 -3.6689675487432396 11.202905053345603 0 0 0 0 1.6012437553761032 -5.550381445671519 0 -5.550381445671519 7.3859621019764745 0 0 0 0 1.6999220471753205 -4.962371305358829 0 -4.962371305358829 10.307877014468431 0 0 0 0 5.7592451748656153 1.2525524241755193 0 1.2525524241755193 15.092088984529255 0 0 0 0 2.5099690400321002 -4.1237014531689056 0 -4.1237014531689056 11.11197452149645 0 0 0 0 3.7062526738316883 0.29814338934738771 0 0.29814338934738771 15.677305875429738 0 0 0 0 59.25699017194917 -227.32175344859752 0 -227.32175344859752 619.89477471672217 0 0 0 0 87.485914459720618 -79.202307664705586 0 -79.202307664705586 323.7660060635335 0 0 0 0 -78.344933129959642 10.763541703940746 0 10.763541703940746 828.19020206675486 0 0 0 0 51.489860574752001 -50.805546456957927 0 -50.805546456957927 1132.1043622807119 0 0 0 0 -62.341161863891983 102.75726819570082 0 102.75726819570082 926.03021045584046 0 0 0 0 -115.68310994636785 -93.563307189100669 0 -93.563307189100669 1142.78090028724 0 0 0 0 -211.54750810257892 25.511012157304094 0 25.511012157304094 1499.9188832304408 0 0 0 0 -209.22905218549982 57.555214362208972 0 57.555214362208972 1202.8835242121404 0 0 0 0 -162.99341163419552 153.42156698582221 0 153.42156698582221 1196.0831967318122 0 0 0 0 -199.78940204870725 210.77451054978883 0 210.77451054978883 1499.6856354808024 0 0 0 0 -155.04303990653159 167.94585316187568 0 167.94585316187568 1122.6347628544063 0 0 0 0 59.05075123628999 148.60972920709901 0 148.60972920709901 1110.1288739011115 0 0 0 0 -122.32092619690893 140.12480345119957 0 140.12480345119957 1182.1943592087118 0 0 0 0 -74.771056947527342 207.03344748278141 0 207.03344748278141 779.03094595139919 0 0 0 0 -6.3101446361968669 162.63469910972708 0 162.63469910972708 599.5751444168236 0 0 0 0 -41.456724254790458 85.915287554184033 0 85.915287554184033 677.98217633511922 0 0 0 0 50.739644282963809 -1.2680436242371798 0 -1.2680436242371798 -6.3523131533365813 0 0 0 0 96.797619114640057 213.61249564704917 0 213.61249564704917 256.06851202317193 0 0 0 0 155.62216703159226 413.87385693948272 0 413.87385693948272 493.96560009414679 0 0 0 0 0.10935512678324709 0.81739187283620218 0 0.81739187283620218 5.6671177768194241 0 0 0 0 55.154023485943185 63.122462829098367 0 63.122462829098367 17.098822895517515 0 0 0 0 103.72632282505668 -101.18047703127013 0 -101.18047703127013 94.752548528227635 0 0 0 0 -167.83662596238003 231.54339384577179 0 231.54339384577179 1096.3763519718959 0 0 0 0 -34.925550711764117 -16.170386921743557 0 -16.170386921743557 513.14223376371228 0 0 0 0 -45.202998808068344 219.33226233287405 0 219.33226233287405 509.47146339574465 0 0 0 0 -20.890586775726156 -235.79147191533229 0 -235.79147191533229 693.72432608091549 0 0 0 0 -28.631794243631134 546.42385557078342 0 546.42385557078342 876.69774267118555 0 0 0 0 155.4849176070839 280.84528243407567 0 280.84528243407567 1056.4448744626934 0 0 0 0 -176.87029548752494 581.69562515650068 0 581.69562515650068 1499.7960161784958 0 0 0 0 -47.073503795287742 288.07456902522154 0 288.07456902522154 1067.3389291350977 0 0 0 0 60.970384500684986 464.12749336735214 0 464.12749336735214 608.82635283517993 0 0 0 0 -102.86191845990727 456.44745611276176 0 456.44745611276176 1689.8722568101148 0 0 0 0 -1.5205397286152076 1.8011482138845949 0 1.8011482138845949 1.3514822587738138 0 0 0 0 -22.021054091097199 473.31130341790049 0 473.31130341790049 629.79237564905452 0 0 0 0 42.091084158672288 395.1673790413588 0 395.1673790413588 608.90569678979227 0 0 0 0 155.97671188517893 406.52226706041802 0 406.52226706041802 584.47609439405278 0 0 0 0 89.822435364500478 249.23941387312425 0 249.23941387312425 912.66664873306581 0 0 0 0 145.57016455586222 484.02014813228743 0 484.02014813228743 520.15008645300986 0 0 0 0 -3.0377907453269262 3.4709480545820668 0 3.4709480545820668 1.9775630581618451 0 0 0 0 154.05557036279146 392.14137029911399 0 392.14137029911399 1500.2239442767423 0 0 0 0 37.081821270399132 516.18291106529068 0 516.18291106529068 1281.2313069958018 0 0 0 0 67.790444647323838 333.86965397351014 0 333.86965397351014 1499.9763035460539 0 0 0 0 112.1985144581752 378.51097660910455 0 378.51097660910455 1539.0754727273888 0 0 0 0 170.56019009983356 376.33544448698012 0 376.33544448698012 1884.7030992536456 0 0 0 0 289.52905244227429 409.89283305372646 0 409.89283305372646 962.25582001768635 0 0 0 0 56.925202071387616 221.56211344579788 0 221.56211344579788 494.96350049977627 0 0 0 0 259.67524314031778 578.41224070623866 0 578.41224070623866 866.00704536365265 0 0 0 0 -28.907974103422021 -8.459455761632853 0 -8.459455761632853 29.076643745985166 0 0 0 0 231.6779704599021 244.32858461208616 0 244.32858461208616 82.514722646024893 0 0 0 0 -0.55631146530342224 -1.5003936824071005 0 -1.5003936824071005 8.8365903289003285 0 0 0 0 -43.378580720739251 82.980521115121519 0 82.980521115121519 291.53792115121905 0 0 0 0 80.037767830181679 162.47022114351239 0 162.47022114351239 163.18147607691935 0 0 0 0 45.406372041581108 335.00880793552096 0 335.00880793552096 643.49115522539978 0 0 0 0 44.989697310657334 85.458660692677768 0 85.458660692677768 102.18249373494473 0 0 0 0 100.11132808593004 -70.194998845126975 0 -70.194998845126975 -5.6419083124255849 0 0 0 0 -0.28392556387242818 -4.3472161357368968 0 -4.3472161357368968 19.569230590256623 0 0 0 0 -1.46600528579296 2.6436868819430401 0 2.6436868819430401 14.452357001791825 0 0 0 0 -8.335963260429935 3.1630519094433112 0 3.1630519094433112 17.200886600810918 0 0 0 0 -2.400335519379496 -0.4174326756838127 0 -0.4174326756838127 14.472390320312115 0 0 0 0 -0.38134198247325246 -0.80384060064947249 0 -0.80384060064947249 3.7361735039293364 0 0 0 0 -37.075658650697846 -50.261719391979568 0 -50.261719391979568 39.810406687091927 0 0 0 0 -21.063879011299946 1.2758991504488222 0 1.2758991504488222 16.955857934413871 0 0 0 0 -9.3419972409160437 -10.146352605419452 0 -10.146352605419452 13.31573406062671 0 0 0 0 10.039020033001711 33.616860576100329 0 33.616860576100329 47.229072484653443 0 0 0 0 -37.052296067299551 -48.52102378129166 0 -48.52102378129166 -5.9715189335074683 0 0 0 0 0.75068963277804357 -5.7453530813738496 0 -5.7453530813738496 17.621026199044834 0 0 0 0 10.013309237146659 -15.932422147888243 0 -15.932422147888243 37.067721690655162 0 0 0 0 2.6804908161784624 -0.23136376866932551 0 -0.23136376866932551 10.13806990523517 0 0 0 0 1.3459677055861772 2.555652658785533 0 2.555652658785533 6.8111569342434883 0 0 0 0 18.765519491037367 -40.278254241376999 0 -40.278254241376999 20.070489702557097 0 0 0 0 0.29176659816486894 -1.4885566745286773 0 -1.4885566745286773 2.1165064241177589 0 0 0 0 -11.426326728407098 1.329112506013189 0 1.329112506013189 40.676454071113767 0 0 0 0 20.796432394970793 1.4357429551055247 0 1.4357429551055247 12.489670085589751 0 0 0 0 0.33907195526580836 -4.9973108972044429 0 -4.9973108972044429 18.108978377014864 0 0 0 0 -7.493105212130148 -2.9141455518105843 0 -2.9141455518105843 25.777432481783791 0 0 0 0 -2.4506334697838277 -2.5438984764621253 0 -2.5438984764621253 16.322449213530735 0 0 0 0 -5.2442457253728207 -1.9407986293372232 0 -1.9407986293372232 10.649966161872726 0 0 0 0 0.23780217843394114 -7.3371588287043537 0 -7.3371588287043537 4.6390696830235925 0 0 0 0 14.105934858328169 -15.794275323714828 0 -15.794275323714828 -15.51665569486795 0 0 0 0 5.046870917087432 -31.769936846502787 0 -31.769936846502787 -17.890228688542265 0 0 0 0 3.9392339833713397 -3.1066664642294199 0 -3.1066664642294199 33.265357303422206 0 0 0 0 -2.115925678838221 -10.717269442791938 0 -10.717269442791938 21.736106325508842 0 0 0 0 63.446117073779533 -44.492974298751506 0 -44.492974298751506 -18.557332202057296 0 0 0 0 0.73944782585704161 -7.6966640348691726 0 -7.6966640348691726 -40.143283032950421 0 0 0 0 -3.5633017049577802 -19.273062650418069 0 -19.273062650418069 41.549255845144216 0 0 0 0 -41.703612676245484 23.166377987570741 0 23.166377987570741 -5.1319712341282866 0 0 0 0 -76.134569963324111 -32.343011622161612 0 -32.343011622161612 72.618254121014616 0 0 0 0 27.584586981156349 173.73841725064267 0 173.73841725064267 117.89529083741763 0 0 0 0 -1.3415268824902222 -11.789244036411937 0 -11.789244036411937 20.765891448921153 0 0 0 0 149.11918072193816 -159.28210401404249 0 -159.28210401404249 -79.739200854681258 0 0 0 0 -33.976182801383345 12.635116292909515 0 12.635116292909515 124.61638104805752 0 0 0 0 -0.23492642385026663 1.9024323839806598 0 1.9024323839806598 7.224268392886664 0 0 0 0 19.070732016555013 39.860949293012709 0 39.860949293012709 46.90326151474801 0 0 0 0 1.0197332650698443 -0.51165283145480345 0 -0.51165283145480345 0.59546460767224119 0 0 0 0 14.404321056537377 -83.361683848685061 0 -83.361683848685061 56.691453141583679 0 0 0 0 -4.4681637782452412 -42.945569833476839 0 -42.945569833476839 62.718873800484289 0 0 0 0 -24.837560112363008 42.774152123763997 0 42.774152123763997 70.223825900502561 0 0 0 0 40.703106142727194 -26.717382032842579 0 -26.717382032842579 14.737515283621178 0 0 0 0 -18.767661684924178 13.680568617695826 0 13.680568617695826 74.111951398357633 0 0 0 0 0.52616855200820989 0.77059651689101116 0 0.77059651689101116 13.252092306498497 0 0 0 0 36.560768123659912 50.157852771553735 0 50.157852771553735 12.639083138339629 0 0 0 0 -0.64131760243554936 6.1672141066119366 0 6.1672141066119366 -22.904668853276235 0 0 0 0 -5.3542424562490325 -9.8858899027068361 0 -9.8858899027068361 20.623641316215782 0 0 0 0 -1.0279856401459631 -2.2669260798019346 0 -2.2669260798019346 26.727869108059124 0 0 0 0 -9.2680873522765523 -9.4817509141539631 0 -9.4817509141539631 32.079088610433246 0 0 0 0 -38.096297263097938 17.67658360031237 0 17.67658360031237 35.385947071426926 0 0 0 0 -9.5302507283973341 -9.1589559865096817 0 -9.1589559865096817 31.74937766345829 0 0 0 0 -0.6609285016023938 -1.7957941032168674 0 -1.7957941032168674 25.999293986081113 0 0 0 0 -7.0201479029260767 -1.7207460509623616 0 -1.7207460509623616 21.43151388204933 0 0 0 0 -39.551894939707381 -17.324903854254444 0 -17.324903854254444 44.538591038366576 0 0 0 0 43.610766066333554 7.0268491162278224 0 7.0268491162278224 -20.486805767876831 0 0 0 0 1.5749241030545362 -5.3511051369074849 0 -5.3511051369074849 4.0500798644140321 0 0 0 0 13.337360066738086 -12.636098794780992 0 -12.636098794780992 7.5004250037145539 0 0 0 0 -121.96286942465875 -66.051709611682895 0 -66.051709611682895 80.248016948717122 0 0 0 0 0.10048180762699344 0.13313173037311676 0 0.13313173037311676 13.384236976913513 0 0 0 0 -40.489725450495264 24.105504074454188 0 24.105504074454188 1.4469670140933886 0 0 0 0 -94.674053313167292 -19.607818811075049 0 -19.607818811075049 180.26206433294101 0 0 0 0 -48.810382947369305 -97.396060147049866 0 -97.396060147049866 -78.167737502215459 0 0 0 0 54.573893330777835 75.281589144445206 0 75.281589144445206 197.64934124254796 0 0 0 0 95.381485103876344 48.270445355632546 0 48.270445355632546 -38.154598856148368 0 0 0 0 70.305644925814534 -19.374161722255849 0 -19.374161722255849 11.912925727050606 0 0 0 0 -15.730638651137326 -99.690017525928852 0 -99.690017525928852 -11.899651409301896 0 0 0 0 -108.30796177623807 -29.263109930965584 0 -29.263109930965584 42.575340123228671 0 0 0 0 -54.917895663160152 24.783161699038828 0 24.783161699038828 18.266467257878048 0 0 0 0 -1.3412681481883828 -1.042936625957779 0 -1.042936625957779 5.8935442652119008 0 0 0 0 -39.071068668512737 -3.7527147629061801 0 -3.7527147629061801 33.998468691517701 0 0 0 0 -21.842265034158373 -33.381163741856653 0 -33.381163741856653 42.38645364355034 0 0 0 0 -8.2525003264562429 -9.9079472159119177 0 -9.9079472159119177 31.343545648946019 0 0 0 0 -3.7425381107643716 -23.813041291128684 0 -23.813041291128684 26.242897353062148 0 0 0 0 6.2702778596190285 -17.208876822676757 0 -17.208876822676757 12.107630640202842 0 0 0 0 7.9353859727867473 -40.848378224164662 0 -40.848378224164662 12.733301198357367 0 0 0 0 -9.7049828799168836 -27.213366697420497 0 -27.213366697420497 26.199661603955917 0 0 0 0 42.702498822561004 -11.094580771423352 0 -11.094580771423352 12.201603466313827 0 0 0 0 3.0149932863943718 -13.663913110818612 0 -13.663913110818612 12.545699233768801 0 0 0 0 4.1210157375945471 9.2607110745161663 0 9.2607110745161663 20.43988837111101 0 0 0 0 38.896059239428169 19.452815165852371 0 19.452815165852371 21.651000011854194 0 0 0 0 21.334633231345506 3.6974255729774086 0 3.6974255729774086 22.208599665584188 0 0 0 0 37.480748386729019 34.83920532020511 0 34.83920532020511 61.24076264717587 0 0 0 0 87.337058329718246 13.031342398231573 0 13.031342398231573 21.629651089581785 0 0 0 0 123.79577542738156 10.806006511640589 0 10.806006511640589 34.234275423234521 0 0 0 0 44.805914934397379 -8.0410863934830559 0 -8.0410863934830559 38.334981584390334 0 0 0 0 100.62097962709662 8.3632092056150213 0 8.3632092056150213 148.67247590227271 0 0 0 0 61.114829066370518 27.603684419395904 0 27.603684419395904 157.1042252158768 0 0 0 0 78.82688263046758 11.479204496870807 0 11.479204496870807 60.193696477680078 0 0 0 0 3.1155468320167756 -7.8096071259205928 0 -7.8096071259205928 26.657587589601007 0 0 0 0 -4.2803855765371281 -1.8592304631711158 0 -1.8592304631711158 43.545386200486973 0 0 0 0 -7.5626711387874366 -15.547650419906859 0 -15.547650419906859 27.538123999189338 0 0 0 0 -4.917154302585419 -11.514763755961908 0 -11.514763755961908 22.838136250531747 0 0 0 0 20.189916648366761 -1.7784047331770125 0 -1.7784047331770125 -11.506418454149753 0 0 0 0 -3.8766922037913396 -12.077601951311628 0 -12.077601951311628 24.376922784700341 0 0 0 0 2.2062492494623029 -10.550692695938778 0 -10.550692695938778 56.814588738114253 0 0 0 0 -6.0604675445362375 -0.60230325171824006 0 -0.60230325171824006 50.36085291778727 0 0 0 0 0.89839461223368744 -12.507163461973505 0 -12.507163461973505 38.375311108327878 0 0 0 0 -8.0050888736361685 -3.7536124385751464 0 -3.7536124385751464 66.856505623349221 0 0 0 0 3.8463900798227542 -7.6225937642930148 0 -7.6225937642930148 67.804594209908828 0 0 0 0 18.005143737804431 -12.325066206769407 0 -12.325066206769407 1.1566670387219347 0 0 0 0 6.4129462314219836 -3.2993034753981192 0 -3.2993034753981192 -4.5411253462971217 0 0 0 0 0.24703713423139828 -1.019763998284354 0 -1.019763998284354 1.9339611342836811 0 0 0 0 -3.2381091599697811 -0.48124723321052443 0 -0.48124723321052443 74.389922582193321 0 0 0 0 -6.6192455133174235 -11.180504662818748 0 -11.180504662818748 89.110801900304068 0 0 0 0 -2.471974507656796 -16.576873663238075 0 -16.576873663238075 73.260387756348791 0 0 0 0 5.2829417296079555 -11.095359708784599 0 -11.095359708784599 77.366923441852123 0 0 0 0 4.7905860598829975 -10.077036908297714 0 -10.077036908297714 65.899008616921492 0 0 0 0 3.621359276824478 -11.816972828837606 0 -11.816972828837606 92.26564162192517 0 0 0 0 -2.8902540517553472 1.1716418079915627 0 1.1716418079915627 11.781209316521458 0 0 0 0 -6.6494370074977383 -11.249748672345959 0 -11.249748672345959 10.091267723662895 0 0 0 0 -2.723349789841734 -17.080578413001604 0 -17.080578413001604 16.975500571763405 0 0 0 0 -4.8709210295454826 -9.9802409208235758 0 -9.9802409208235758 10.862742106764614 0 0 0 0 -6.0010065045262309 -12.772656798966636 0 -12.772656798966636 10.231133553155814 0 0 0 0 -6.1215320743624488 -11.062981950664835 0 -11.062981950664835 -7.9115007511318254 0 0 0 0 -7.6472009268298962 -12.277540970510017 0 -12.277540970510017 12.63606687209176 0 0 0 0 2.8686084647094958 12.291249395071645 0 12.291249395071645 37.486569867713115 0 0 0 0 -9.4306222246049742 -16.907695231684556 0 -16.907695231684556 17.983072939263366 0 0 0 0 -16.135143717634492 -3.146297719942595 0 -3.146297719942595 50.607552742112603 0 0 0 0 0.65695223431723804 9.2300681414814889 0 9.2300681414814889 11.55223237847402 0 0 0 0 -0.0089830462168878356 -13.731202003488512 0 -13.731202003488512 25.286088433714681 0 0 0 0 1.5161187760345456 -5.8414680397427219 0 -5.8414680397427219 8.9442582572373794 0 0 0 0 -2.4674648868771669 -0.026829629977328295 0 -0.026829629977328295 26.452932427338965 0 0 0 0 11.508564100480498 -16.912573234218144 0 -16.912573234218144 12.603698707549484 0 0 0 0 2.9543945146481292 16.885539096667344 0 16.885539096667344 56.882535946970165 0 0 0 0 -2.6444536249458741 -12.153687861541943 0 -12.153687861541943 2.2990536953877267 0 0 0 0 -0.87824890221228813 -7.9036410591475015 0 -7.9036410591475015 0.12922752712810848 0 0 0 0 6.9749160983451475 -43.990982430743315 0 -43.990982430743315 -31.15083984570083 0 0 0 0 -5.1205146697973305 -3.0679846181556059 0 -3.0679846181556059 1.9812408273573965 0 0 0 0 -10.249435403591065 -20.92426701688828 0 -20.92426701688828 12.935375264918548 0 0 0 0 -15.790323089772755 11.305238764693058 0 11.305238764693058 20.763355588698687 0 0 0 0 1.5286803617582634 -4.7506974040185668 0 -4.7506974040185668 9.6503284241209855 0 0 0 0 -12.294429024409737 19.036713864355988 0 19.036713864355988 16.139869530104988 0 0 0 0 -105.9714531418058 -49.496507808198658 0 -49.496507808198658 52.317526904960687 0 0 0 0 -78.560490375772844 41.72948279414959 0 41.72948279414959 121.68497470641887 0 0 0 0 -45.221779878225448 -9.0495807485649493 0 -9.0495807485649493 8.94666085067729 0 0 0 0 2.5350920096067107 -6.6327490826508964 0 -6.6327490826508964 13.476037354724298 0 0 0 0 -8.2533112672758762 -11.705615850116374 0 -11.705615850116374 28.535051482063864 0 0 0 0 -2.5840623163209262 5.2398203580079752 0 5.2398203580079752 11.490995294856241 0 0 0 0 -18.249977728937893 5.4878239504287194 0 5.4878239504287194 62.012218148563989 0 0 0 0 -1.0527922241612653 -11.768455990013258 0 -11.768455990013258 12.409503337379817 0 0 0 0 -4.7692587952730738 -9.9830875445154206 0 -9.9830875445154206 25.966257190274405 0 0 0 0 -8.5722157897167222 -9.5100811462034471 0 -9.5100811462034471 30.905372522283869 0 0 0 0 -1.3096733650753549 -3.3865323047721176 0 -3.3865323047721176 50.61105930290023 0 0 0 0 21.175651432879903 -23.489886422143172 0 -23.489886422143172 15.835402814889676 0 0 0 0 217.91424832586483 42.031891767604975 0 42.031891767604975 -19.030812048033113 0 0 0 0 158.64599382328538 200.1345176672985 0 200.1345176672985 95.277604601695202 0 0 0 0 5.3666191811604449 -15.742750362340303 0 -15.742750362340303 71.752139961077773 0 0 0 0 0.055420094763283329 -5.218099816541355 0 -5.218099816541355 0.93116125556169038 0 0 0 0 9.4889867155500838 36.061510493120295 0 36.061510493120295 76.703331010859984 0 0 0 0 -58.467150178569682 -41.365268978122913 0 -41.365268978122913 48.602247845912643 0 0 0 0 -0.99268794916499958 -0.89501007296545509 0 -0.89501007296545509 5.0890475830271527 0 0 0 0 -179.63034300228003 -111.78024009142609 0 -111.78024009142609 -54.692788798342008 0 0 0 0 0.086545188909278092 -0.65323209377653768 0 -0.65323209377653768 1.1722425643494248 0 0 0 0 -130.41534980909819 -132.7533673246362 0 -132.7533673246362 -73.421002968621906 0 0 0 0 -131.91201636516092 5.8596001576288472 0 5.8596001576288472 58.306689227043535 0 0 0 0 -45.550632364044077 -19.603005686531105 0 -19.603005686531105 -30.90922384638543 0 0 0 0 33.694274640233402 -71.224179726024886 0 -71.224179726024886 7.7871364253514912 0 0 0 0 -15.765725468701135 -65.351915254897904 0 -65.351915254897904 33.65701050235657 0 0 0 0 26.883302597853344 57.029478798907803 0 57.029478798907803 124.47316305200729 0 0 0 0 -156.06592466765096 -145.08294899169414 0 -145.08294899169414 -9.1510755932731627 0 0 0 0 -15.980061471907561 -173.61078142134829 0 -173.61078142134829 -52.90788130886358 0 0 0 0 -44.410032969791814 -18.683075391540115 0 -18.683075391540115 -23.583237002683745 0 0 0 0 0.34061754084860785 -0.60429308764629752 0 -0.60429308764629752 0.97468155012960267 0 0 0 0 159.90897256373114 -54.275916454913386 0 -54.275916454913386 -3.4197589290706674 0 0 0 0 3.7087743151180348 -40.986583962763689 0 -40.986583962763689 4.5284903233186924 0 0 0 0 31.081472600822167 -95.214705703587242 0 -95.214705703587242 70.327913176164429 0 0 0 0 31.351107563965684 -60.732815312785533 0 -60.732815312785533 209.9813599339177 0 0 0 0 72.060496615194324 87.413970941350271 0 87.413970941350271 141.07202333891291 0 0 0 0 47.490135338408209 54.81768953444589 0 54.81768953444589 108.67591580858425 0 0 0 0 -96.147472390076473 -43.445257013700029 0 -43.445257013700029 113.50579807261965 0 0 0 0 -28.434397843884256 -11.943975637143012 0 -11.943975637143012 67.330865670022831 0 0 0 0 -0.073230785787438246 0.11147713017771821 0 0.11147713017771821 1.3456523366323268 0 0 0 0 4.9363970926947331 59.01988945847188 0 59.01988945847188 37.028742048471031 0 0 0 0 62.020266862653301 -26.289762843844983 0 -26.289762843844983 -22.134535894063447 0 0 0 0 40.755517504514557 -1.1173808520707098 0 -1.1173808520707098 -21.142515457889658 0 0 0 0 -0.18145978246950623 -0.048421015674993129 0 -0.048421015674993129 3.1338361277630327 0 0 0 0 -53.472803995672223 -35.927378284020961 0 -35.927378284020961 32.940433398009191 0 0 0 0 37.743446093374573 2.1620671956334263 0 2.1620671956334263 11.647914157463674 0 0 0 0 -68.824740075682485 52.787073013258123 0 52.787073013258123 281.9253571460431 0 0 0 0 21.925281349130273 -78.706245797220618 0 -78.706245797220618 17.176164856216928 0 0 0 0 -38.566848673062395 -136.77878859247176 0 -136.77878859247176 151.99854488909114 0 0 0 0 -0.13646936261748699 0.0014082550924952031 0 0.0014082550924952031 1.8300586840252606 0 0 0 0 -74.1773754216116 -104.5292251372648 0 -104.5292251372648 315.23173121653235 0 0 0 0 -23.204238873471922 -38.938313913673483 0 -38.938313913673483 152.4281390995784 0 0 0 0 42.119117408179591 5.5957400245697499 0 5.5957400245697499 -0.63397546725900611 0 0 0 0 -16.76538762153541 57.04425045491007 0 57.04425045491007 30.878734009970003 0 0 0 0 -17.322640770268208 29.476452672366577 0 29.476452672366577 5.5837622992985416 0 0 0 0 -95.603865127588563 9.5567300075763342 0 9.5567300075763342 27.63675720566971 0 0 0 0 22.004717768656519 14.594896623759269 0 14.594896623759269 -3.4954146814270644 0 0 0 0 -0.6594240383655805 -2.2587335376405306 0 -2.2587335376405306 7.1765447770469422 0 0 0 0 12.457489918930833 -3.1165530114003559 0 -3.1165530114003559 10.935475344136648 0 0 0 0 32.80788811323626 -1.7874325543725718 0 -1.7874325543725718 -17.054449470699183 0 0 0 0 -0.19251622190790896 -2.6482909762127527 0 -2.6482909762127527 -0.54721893836395452 0 0 0 0 -1.7825734270491012 -14.194363643448014 0 -14.194363643448014 -0.49032711535801354 0 0 0 0 0.48160354234724245 -0.94295389170476085 0 -0.94295389170476085 0.97971809672752386 0 0 0 0 -0.030908219984764562 -0.35894329811447356 0 -0.35894329811447356 2.0159237670480934 0 0 0 0 29.387083469908475 -10.600797919332763 0 -10.600797919332763 12.556448565694154 0 0 0 0 43.907335419162564 64.984655720960291 0 64.984655720960291 100.79387263976059 0 0 0 0 -22.401691974467376 -68.641506883763412 0 -68.641506883763412 303.17030001638341 0 0 0 0 75.15253938385581 -88.596152766680461 0 -88.596152766680461 242.50434263016632 0 0 0 0 112.98148861492882 -24.466064496387844 0 -24.466064496387844 195.61366094233199 0 0 0 0 59.48529988141604 7.4889319273515866 0 7.4889319273515866 243.18002939419239 0 0 0 0 38.242227598421437 -101.40938764322118 0 -101.40938764322118 261.71200289702392 0 0 0 0 60.538933338070819 -59.226308141991467 0 -59.226308141991467 290.65359199681552 0 0 0 0 60.879443136240305 14.338992472106824 0 14.338992472106824 228.31674311634561 0 0 0 0 -39.066273826916813 1.9828239433372801 0 1.9828239433372801 230.67540260593159 0 0 0 0 54.47861837102846 -29.888834081848472 0 -29.888834081848472 156.23334977629929 0 0 0 0 -39.066357098977051 -12.901641511991329 0 -12.901641511991329 96.675600192735146 0 0 0 0 -76.024942108825144 -77.501509549034381 0 -77.501509549034381 324.55891371927282 0 0 0 0 -137.79254933570201 -6.0580693908232206 0 -6.0580693908232206 331.41513522862078 0 0 0 0 -71.59226197995531 -17.000442416028818 0 -17.000442416028818 219.92270089265367 0 0 0 0 -71.64769227165857 -24.161986016661103 0 -24.161986016661103 312.04289778810926 0 0 0 0 -28.155616085444308 -17.976908427184753 0 -17.976908427184753 29.375040286355215 0 0 0 0 -81.388101544301662 40.327779783430742 0 40.327779783430742 103.65346508799848 0 0 0 0 -70.564563377707941 -78.660971042483652 0 -78.660971042483652 94.884565860789735 0 0 0 0 75.488029418153246 -132.59917028481141 0 -132.59917028481141 148.36494194947591 0 0 0 0 132.40662469588005 -13.520874964136965 0 -13.520874964136965 13.405939973585191 0 0 0 0 64.31404045238105 -47.689203060168438 0 -47.689203060168438 -47.081873351489776 0 0 0 0 -45.582075547155398 -83.72573841792655 0 -83.72573841792655 -41.760777094492369 0 0 0 0 13.795719217827354 9.8307765774698055 0 9.8307765774698055 9.4258033304058699 0 0 0 0 15.72206146077424 -8.8394894661450962 0 -8.8394894661450962 49.231339489248057 0 0 0 0 11.787137932282144 -20.201926964633458 0 -20.201926964633458 23.109776934797992 0 0 0 0 19.565038747494516 -0.87993376496524434 0 -0.87993376496524434 31.72818390258908 0 0 0 0 20.726948614548633 -2.5665335581325053 0 -2.5665335581325053 34.018382788548479 0 0 0 0 25.325451644863769 10.62575983777424 0 10.62575983777424 51.19071186264955 0 0 0 0 19.363362831933674 25.721583787242707 0 25.721583787242707 75.123951603558453 0 0 0 0 0.015369839529608357 5.9568075984552706 0 5.9568075984552706 61.597163446234845 0 0 0 0 12.716290814208778 -3.7006391817576514 0 -3.7006391817576514 42.651541158089458 0 0 0 0 12.257841511849037 7.1364437715856184 0 7.1364437715856184 53.756269903482462 0 0 0 0 -0.0019129970824296801 0.046793405415883171 0 0.046793405415883171 50.937620975937534 0 0 0 0 5.0493240167430011 1.2749085675222886 0 1.2749085675222886 44.486567082665715 0 0 0 0 -2.9884577337512326 -7.604384651313012 0 -7.604384651313012 53.168593060123385 0 0 0 0 -0.78765661581535529 -7.4262139207285145 0 -7.4262139207285145 49.966143050947721 0 0 0 0 -5.7486984597929354 -13.734130854611067 0 -13.734130854611067 72.859844327307655 0 0 0 0 6.4753748474324127 -37.859435270962422 0 -37.859435270962422 57.361393011155087 0 0 0 0 -12.777602889289369 16.486099594942061 0 16.486099594942061 168.71897188420553 0 0 0 0 -19.50475312068653 -0.5196106080111349 0 -0.5196106080111349 130.84295778142405 0 0 0 0 -17.46819014311501 -4.6486391696962528 0 -4.6486391696962528 65.998934103714419 0 0 0 0 22.509329103563772 30.615222974709468 0 30.615222974709468 68.254997454641853 0 0 0 0 40.005392165560721 67.400726522715559 0 67.400726522715559 139.84295619633485 0 0 0 0 125.27076922414599 16.555395930859959 0 16.555395930859959 31.889916183877176 0 0 0 0 -19.319739605802511 -9.5506608772120671 0 -9.5506608772120671 188.62287556441879 0 0 0 0 1.23614299176635 -62.833838096255931 0 -62.833838096255931 87.483370253166868 0 0 0 0 -25.695436573998009 64.486790232376734 0 64.486790232376734 113.42782917146542 0 0 0 0 -0.041644836897642611 0.030727937624220658 0 0.030727937624220658 1.7722898504800924 0 0 0 0 0.31816429541864877 -0.54696899898802798 0 -0.54696899898802798 1.5714729297150143 0 0 0 0 40.467462435025993 74.036422449815291 0 74.036422449815291 120.96927762689302 0 0 0 0 9.5873542283324014 1.2985515751715866 0 1.2985515751715866 6.1968964259140193 0 0 0 0 -2.3265554371647568 -3.2095471350312437 0 -3.2095471350312437 144.57438884412113 0 0 0 0 0.24193803620870347 0.14218392750041176 0 0.14218392750041176 -0.11809323514120251 0 0 0 0 -54.255903662897708 68.947824379560188 0 68.947824379560188 19.779198130664554 0 0 0 0 -26.837940665030601 55.45999681995454 0 55.45999681995454 142.93336891551735 0 0 0 0 -9.0244267799077988 51.619733662275394 0 51.619733662275394 81.368370688680443 0 0 0 0 -26.889254361173407 64.162265171402126 0 64.162265171402126 124.20973444687115 0 0 0 0 -9.2326174672832622 45.176471942315402 0 45.176471942315402 170.07562222544948 0 0 0 0 0.07585586802869447 0.10577390730812386 0 0.10577390730812386 -0.16138436110895782 0 0 0 0 143.3210202799838 -82.936205713550407 0 -82.936205713550407 117.95092870143708 0 0 0 0 7.1050233265717111 6.9723909572185221 0 6.9723909572185221 61.856904466727428 0 0 0 0 49.468039204180059 11.804916790213611 0 11.804916790213611 -44.743129443282669 0 0 0 0 64.582310704158999 -34.011678244480208 0 -34.011678244480208 75.75714299430399 0 0 0 0 -49.661646621053052 -9.8283520725744893 0 -9.8283520725744893 25.279515837290091 0 0 0 0 58.308674000757932 -34.976366402659551 0 -34.976366402659551 -1.0064168473400059 0 0 0 0 10.86830010244322 -28.113915994293166 0 -28.113915994293166 2.5596444670954952 0 0 0 0 -19.754592244847764 7.5782369671505876 0 7.5782369671505876 5.8196930055735265 0 0 0 0 -63.023018334313825 -17.073010799655094 0 -17.073010799655094 27.40982091006299 0 0 0 0 -0.10636998372066608 -0.16587241718324108 0 -0.16587241718324108 3.9794628062292929 0 0 0 0 11.707795613387017 -18.230773244074953 0 -18.230773244074953 0.90146342738444218 0 0 0 0 17.190235555948171 25.278221779111846 0 25.278221779111846 24.674007458571396 0 0 0 0 5.9450029793374277 -9.0687186565810407 0 -9.0687186565810407 -19.576194610697712 0 0 0 0 -0.073917812212647649 -0.11665865571950551 0 -0.11665865571950551 4.1135732646867496 0 0 0 0 -59.404034191724065 2.0410099149958114 0 2.0410099149958114 47.20364781112221 0 0 0 0 0.12289396722579349 -0.062936024102623556 0 -0.062936024102623556 -0.39601689511491145 0 0 0 0 58.411458817041819 -28.532039467483628 0 -28.532039467483628 -11.74190287838428 0 0 0 0 45.812491846026887 -18.989733019936921 0 -18.989733019936921 10.520590194370016 0 0 0 0 61.287377147335633 -10.899534790527468 0 -10.899534790527468 -17.750021537282009 0 0 0 0 50.581937566342589 1.2328668153620583 0 1.2328668153620583 -18.246899189347459 0 0 0 0 -33.185652283386645 -14.404444972715282 0 -14.404444972715282 21.324407359299585 0 0 0 0 0.1219826543004766 -0.029797495957816444 0 -0.029797495957816444 -0.25002703643556856 0 0 0 0 109.3806308938841 -35.780458801464192 0 -35.780458801464192 10.595884620744982 0 0 0 0 36.246529066733714 9.7921654399008276 0 9.7921654399008276 104.01073324132449 0 0 0 0 76.603485584354729 -88.969283335301952 0 -88.969283335301952 72.578203821653005 0 0 0 0 21.429625400497287 -25.084805081503873 0 -25.084805081503873 336.58997321665447 0 0 0 0 43.569331019219874 -85.346097759063923 0 -85.346097759063923 228.346268305384 0 0 0 0 23.553238853143586 68.242900510913387 0 68.242900510913387 167.09728080033528 0 0 0 0 79.186465366496748 46.290307693896466 0 46.290307693896466 -45.873029395261256 0 0 0 0 75.176073297886774 123.91664210423687 0 123.91664210423687 195.03890244467766 0 0 0 0 0.08199067930285385 0.084360546985804419 0 0.084360546985804419 1.9065683071372916 0 0 0 0 11.060187815763264 96.663536793936146 0 96.663536793936146 335.33442104329151 0 0 0 0 62.036728583957874 70.86583093990339 0 70.86583093990339 167.27575101084904 0 0 0 0 28.942104146144501 105.38283624956239 0 105.38283624956239 262.32484752506207 0 0 0 0 5.4900937834640331 52.945875970419365 0 52.945875970419365 193.20569877513299 0 0 0 0 -17.462113819499251 57.09218084839631 0 57.09218084839631 246.69594527910158 0 0 0 0 7.1195712266584721 72.895435300921235 0 72.895435300921235 199.23394653077048 0 0 0 0 13.217529687435643 45.985183992734164 0 45.985183992734164 152.62322609845796 0 0 0 0 28.801070392834223 75.870749665122162 0 75.870749665122162 140.08690439401471 0 0 0 0 39.521256680565855 98.220537262664948 0 98.220537262664948 138.08437966987549 0 0 0 0 30.304197768004599 43.66565784460181 0 43.66565784460181 54.61889513863207 0 0 0 0 21.95821609444684 34.575189943055193 0 34.575189943055193 85.634748286480317 0 0 0 0 32.101141479457809 26.125598069444095 0 26.125598069444095 40.035247320156486 0 0 0 0 18.322196324202437 16.742868977166836 0 16.742868977166836 52.681451739841577 0 0 0 0 0.022050251072474953 15.814039275526738 0 15.814039275526738 93.211131448033484 0 0 0 0 17.006119064987484 10.87610009135642 0 10.87610009135642 55.853937889245572 0 0 0 0 15.233303163144953 26.769636305409222 0 26.769636305409222 92.610611046800841 0 0 0 0 18.724852740802081 51.17585070126006 0 51.17585070126006 131.9123222235321 0 0 0 0 -0.0040687167500089993 25.534968067779118 0 25.534968067779118 153.80181663085386 0 0 0 0 -6.5340320414775306 40.536498378276519 0 40.536498378276519 205.53898739416763 0 0 0 0 -5.7411247979220335 45.07584657202824 0 45.07584657202824 197.32565904996591 0 0 0 0 -0.0044958193147039902 21.169055604548703 0 21.169055604548703 221.86427001078118 0 0 0 0 -18.787359174761818 28.898766969444296 0 28.898766969444296 242.96536043375454 0 0 0 0 -18.385460895935065 26.85277673069595 0 26.85277673069595 250.75072923813786 0 0 0 0 -0.054222323617889465 10.711094144133313 0 10.711094144133313 255.12046180303605 0 0 0 0 -6.7624671976634154 36.581918418144596 0 36.581918418144596 272.88854932190588 0 0 0 0 -17.857656886575086 53.167350626214102 0 53.167350626214102 301.91929609280487 0 0 0 0 -24.392265394690469 6.0714520663568692 0 6.0714520663568692 283.09910181154555 0 0 0 0 -33.465129792354332 -40.264271951330556 0 -40.264271951330556 341.72733463554323 0 0 0 0 -17.220161045359294 23.460081562405321 0 23.460081562405321 316.61904294435226 0 0 0 0 -26.506474935294484 -3.1669583583534404 0 -3.1669583583534404 295.76686912187506 0 0 0 0 -27.621007122901133 -43.391025452572649 0 -43.391025452572649 239.00325691968101 0 0 0 0 -11.77687082428405 -21.731790765046753 0 -21.731790765046753 214.30732900646763 0 0 0 0 1.8714766685962871 -67.37277941461798 0 -67.37277941461798 212.88465460907355 0 0 0 0 -14.344480867877238 -13.690211874680244 0 -13.690211874680244 237.05306047293516 0 0 0 0 -21.219843153285208 -8.5820536306014219 0 -8.5820536306014219 237.54272530227172 0 0 0 0 0.021889543650101408 -7.5728594856918789 0 -7.5728594856918789 198.30250384886313 0 0 0 0 0.64376761320812648 -29.238857992590056 0 -29.238857992590056 162.67221906161285 0 0 0 0 0.00043786417712690558 -0.73790321404823755 0 -0.73790321404823755 -0.20632172534533311 0 0 0 0 -11.996866151177692 4.9336476921889698 0 4.9336476921889698 135.37861678605259 0 0 0 0 0.0064881828061820641 -0.062664225323189271 0 -0.062664225323189271 0.2658070112141786 0 0 0 0 9.1424672061145813 4.5054366557124013 0 4.5054366557124013 7.917294010250771 0 0 0 0 -3.7595481433319691 17.799027659115382 0 17.799027659115382 70.062593911118029 0 0 0 0 -0.039882258496497694 -0.1525691329832739 0 -0.1525691329832739 0.20979806458868566 0 0 0 0 -12.347825075524046 -28.418733518867157 0 -28.418733518867157 205.51758810887259 0 0 0 0 5.6819733939579882 -18.479335500995148 0 -18.479335500995148 183.38272627427068 0 0 0 0 -0.11266786943598742 -0.48781594213535584 0 -0.48781594213535584 -0.076820703970003734 0 0 0 0 2.1101067286091855 -46.489432809745267 0 -46.489432809745267 143.51137835509144 0 0 0 0 -20.079958714308578 -18.532818387953739 0 -18.532818387953739 191.61289987411146 0 0 0 0 0.77489596245827208 2.7517447569116484 0 2.7517447569116484 37.157360981454076 0 0 0 0 1.0469637975281305 3.2845917346926399 0 3.2845917346926399 17.944674673701229 0 0 0 0 -0.68543116863338938 13.386071840133809 0 13.386071840133809 25.262511242650362 0 0 0 0 8.12386367381432 10.270064887285116 0 10.270064887285116 15.601665609217889 0 0 0 0 -5.6503418401139456 -9.9093023002842529 0 -9.9093023002842529 -0.2169711338574416 0 0 0 0 -4.7043066177590003 -2.0482139908308454 0 -2.0482139908308454 23.003317296937894 0 0 0 0 0.39161016291715356 -0.40954686931036122 0 -0.40954686931036122 -6.6424641202174826 0 0 0 0 4.8279450098138064 7.2959720243525226 0 7.2959720243525226 5.9594950980596195 0 0 0 0 0.76664678506104689 -1.7394360190664884 0 -1.7394360190664884 5.610869273927733 0 0 0 0 0.0073583723131695209 0.25341580173335387 0 0.25341580173335387 11.331316265037458 0 0 0 0 1.4055103723125368 3.784487843990064 0 3.784487843990064 4.2315893856030016 0 0 0 0 0.044036457171571577 -0.18001896315274735 0 -0.18001896315274735 0.39933425770274766 0 0 0 0 -10.076552260038518 -5.3494613637776638 0 -5.3494613637776638 12.721294912964368 0 0 0 0 47.736667373818477 45.307815670345008 0 45.307815670345008 182.88484288545078 0 0 0 0 -5.2929511210052169 27.445441997268063 0 27.445441997268063 101.52256440143537 0 0 0 0 35.396807504270328 3.9885618020025504 0 3.9885618020025504 57.018957626060001 0 0 0 0 92.678217624614945 82.628147078288748 0 82.628147078288748 30.495256960304687 0 0 0 0 34.403366103226745 1.2802889705890266 0 1.2802889705890266 143.67395241743361 0 0 0 0 92.798154138991151 71.790358052481679 0 71.790358052481679 129.60099607352095 0 0 0 0 71.246275945988486 160.15193631257716 0 160.15193631257716 120.79497204517247 0 0 0 0 43.301315932671457 41.326813389739982 0 41.326813389739982 -22.965566114027752 0 0 0 0 0.87198891643213172 0.7203521157644488 0 0.7203521157644488 0.18319653346497944 0 0 0 0 16.910691419733524 60.639869806791467 0 60.639869806791467 22.151299226599804 0 0 0 0 -11.252168959702374 44.234474665010566 0 44.234474665010566 166.17824889098119 0 0 0 0 52.010744663603191 -53.450891724824032 0 -53.450891724824032 108.71966036062076 0 0 0 0 49.402944873577781 -37.209107771945128 0 -37.209107771945128 25.278345896142127 0 0 0 0 -64.542942348797624 -19.678542485567959 0 -19.678542485567959 60.67140096658477 0 0 0 0 -13.621357767200379 -12.41636223749083 0 -12.41636223749083 31.428847338756896 0 0 0 0 -36.18219915130905 -16.725211331246555 0 -16.725211331246555 46.888656230439665 0 0 0 0 -13.872536638348947 -22.362437866060645 0 -22.362437866060645 95.89672498726577 0 0 0 0 0.98056246921862555 4.8524789090844074 0 4.8524789090844074 18.536271269080643 0 0 0 0 -4.8292937576438328 19.854282629628869 0 19.854282629628869 28.042897931336483 0 0 0 0 -83.258380007391793 14.136352410508152 0 14.136352410508152 47.847141775906493 0 0 0 0 0.40692551074230504 1.8201768497822002 0 1.8201768497822002 1.6344337488094425 0 0 0 0 11.989633601034509 3.1607637447204979 0 3.1607637447204979 10.930622329346079 0 0 0 0 -5.9986267860545013 18.121184844640084 0 18.121184844640084 -8.8409491002748837 0 0 0 0 1.9319994967761411 5.3842263993957076 0 5.3842263993957076 14.117310059793283 0 0 0 0 -47.855583393075563 71.199714842483445 0 71.199714842483445 35.270050381319379 0 0 0 0 -10.205250753963298 27.435629354653429 0 27.435629354653429 7.3335244464979041 0 0 0 0 -7.5413550456232894 3.1755763416322225 0 3.1755763416322225 20.407728601516283 0 0 0 0 -5.2657288451910782 0.74620093384146458 0 0.74620093384146458 16.931491746934626 0 0 0 0 -5.5590931199197904 4.0114030662698497 0 4.0114030662698497 20.520136525574344 0 0 0 0 61.958163019137544 -28.472735631927208 0 -28.472735631927208 39.935856532731577 0 0 0 0 -0.64859297997298337 -0.29908220557382492 0 -0.29908220557382492 1.9144819135009348 0 0 0 0 0.37380721773083359 2.3091323483684256 0 2.3091323483684256 9.4755615894147809 0 0 0 0 37.453253492589056 48.810740426579287 0 48.810740426579287 4.6118344246951892 0 0 0 0 -14.817526849501576 -14.589196511555201 0 -14.589196511555201 104.15274681422306 0 0 0 0 81.938504589664888 22.363822187598998 0 22.363822187598998 -18.992725064548722 0 0 0 0 100.98031089624556 111.17765037896015 0 111.17765037896015 -44.947581961569085 0 0 0 0 85.896389097998849 4.2285656926433148 0 4.2285656926433148 -190.52263215695893 0 0 0 0 80.350286486296113 116.38778768328439 0 116.38778768328439 178.12874797834229 0 0 0 0 -0.11896840272218046 -0.092049795131387668 0 -0.092049795131387668 0.097154035555924168 0 0 0 0 49.937790542252515 51.598622297893598 0 51.598622297893598 39.665926223598944 0 0 0 0 74.165892361029591 135.76011267354534 0 135.76011267354534 47.855981356980919 0 0 0 0 24.503818466160396 138.3516218992645 0 138.3516218992645 273.54115433509287 0 0 0 0 69.872642048552962 87.020785641063412 0 87.020785641063412 236.98324357164529 0 0 0 0 375.55549028596016 235.29403883751729 0 235.29403883751729 130.24908200107893 0 0 0 0 151.63823080080965 185.78248313918448 0 185.78248313918448 159.46048897034416 0 0 0 0 165.61557579596931 9.1265418590946865 0 9.1265418590946865 6.3150600773151382 0 0 0 0 153.69372489118882 -107.73714675088559 0 -107.73714675088559 525.52940411680356 0 0 0 0 81.050227529197116 208.92341701261648 0 208.92341701261648 574.60365636013012 0 0 0 0 13.251766233049239 -16.843553664018145 0 -16.843553664018145 351.39626451252479 0 0 0 0 -6.0048767635447291 -90.977275740295227 0 -90.977275740295227 422.09493705407658 0 0 0 0 103.02988415382237 -244.61432192394568 0 -244.61432192394568 487.21612844721676 0 0 0 0 96.000237707126217 -95.429432750388514 0 -95.429432750388514 86.147352372596288 0 0 0 0 0.74993509187181184 1.2952642217268817 0 1.2952642217268817 3.3598785048060336 0 0 0 0 42.460400214660964 104.05550094871433 0 104.05550094871433 646.03368416366993 0 0 0 0 44.396775608620146 18.830407871995703 0 18.830407871995703 345.38723871426737 0 0 0 0 -14.994571807526583 4.6062786950078589 0 4.6062786950078589 376.75411627858557 0 0 0 0 363.6317042026817 60.93700082387295 0 60.93700082387295 324.63553208344456 0 0 0 0 123.81235223106339 1.9657064958519186 0 1.9657064958519186 301.43373634786258 0 0 0 0 160.08508655178946 37.434412712636913 0 37.434412712636913 321.9228851585649 0 0 0 0 45.99610768454329 96.896949530626443 0 96.896949530626443 339.59987869467841 0 0 0 0 60.021054792792654 -56.091940516031173 0 -56.091940516031173 354.90649729327225 0 0 0 0 62.564445907206263 24.49263259631698 0 24.49263259631698 355.96552978346881 0 0 0 0 174.43667459732885 22.069391854010973 0 22.069391854010973 293.9482297001523 0 0 0 0 8.5810218043382633 -0.19241065052756312 0 -0.19241065052756312 311.12556409286481 0 0 0 0 -30.947782452839363 -53.262135732001298 0 -53.262135732001298 322.28427522664424 0 0 0 0 -12.737126143294631 18.762310244721448 0 18.762310244721448 316.14561112559704 0 0 0 0 -18.016062756241467 -64.15372329535785 0 -64.15372329535785 315.83695972431633 0 0 0 0 -30.825319772491639 -13.112348486773044 0 -13.112348486773044 344.18827175342358 0 0 0 0 22.491054957095969 -34.715165000622619 0 -34.715165000622619 258.59736524053733 0 0 0 0 -25.185525672351218 -32.410535218704354 0 -32.410535218704354 232.19586292823442 0 0 0 0 -43.497077306114988 -0.64168399545815191 0 -0.64168399545815191 254.40499698160784 0 0 0 0 -23.304463356709221 12.776893727710558 0 12.776893727710558 262.03074784022033 0 0 0 0 -24.550922564380137 -13.080065793649169 0 -13.080065793649169 203.70917010964331 0 0 0 0 -35.852721349758212 -0.32245953055826249 0 -0.32245953055826249 139.81355677875399 0 0 0 0 -28.071437102618006 32.69566469925303 0 32.69566469925303 200.80184085073051 0 0 0 0 -25.679907775437641 50.951647143045193 0 50.951647143045193 64.664794371630705 0 0 0 0 -60.132419572723165 22.176779593904939 0 22.176779593904939 143.74843631451358 0 0 0 0 -34.748164923952345 19.352626248361048 0 19.352626248361048 122.82812414470391 0 0 0 0 -10.749948251001115 51.343971290960326 0 51.343971290960326 153.63071137759835 0 0 0 0 -12.498985529136235 33.534900445953099 0 33.534900445953099 232.75883659960164 0 0 0 0 26.999205775177245 101.0685349393043 0 101.0685349393043 124.48743745347019 0 0 0 0 28.110848667107405 79.455509569988862 0 79.455509569988862 174.77644887729912 0 0 0 0 -4.4253924614239395 1.1277933601377299 0 1.1277933601377299 215.06702032087924 0 0 0 0 -36.498738084248721 27.239631212478457 0 27.239631212478457 42.540595764265163 0 0 0 0 -156.46202198015908 1.520550615116008 0 1.520550615116008 160.83021459543852 0 0 0 0 40.960053014234973 42.2060861259597 0 42.2060861259597 128.17600736246095 0 0 0 0 -35.805573886640431 15.424338710031861 0 15.424338710031861 144.64271933074633 0 0 0 0 97.768673395161159 18.934498267040908 0 18.934498267040908 84.684419591550977 0 0 0 0 -10.069997264931544 50.601215089427569 0 50.601215089427569 156.69163349949849 0 0 0 0 73.899456025484596 104.60439978043178 0 104.60439978043178 185.59616905157236 0 0 0 0 55.390438693346823 4.3948734737664381 0 4.3948734737664381 175.44873298682069 0 0 0 0 38.401819208733741 6.3674122422853543 0 6.3674122422853543 188.95073996443989 0 0 0 0 13.919240448106848 -59.09703547481331 0 -59.09703547481331 233.5297342283211 0 0 0 0 2.1644774223094601 23.016453567117424 0 23.016453567117424 199.94151928080828 0 0 0 0 -59.741556170761669 3.4433909700055665 0 3.4433909700055665 131.35955976616424 0 0 0 0 -49.834484446429315 45.743061104213211 0 45.743061104213211 197.88907139399089 0 0 0 0 -63.762072348590138 70.588566287844969 0 70.588566287844969 90.956923962970905 0 0 0 0 -46.708878344094046 33.808571138331899 0 33.808571138331899 28.608366591368394 0 0 0 0 -50.730661293853245 67.999712653057941 0 67.999712653057941 5.7498688925661554 0 0 0 0 -147.19803786150032 -16.208354776787019 0 -16.208354776787019 105.21236274783223 0 0 0 0 -75.880330257902699 87.02390506842994 0 87.02390506842994 213.6965222876097 0 0 0 0 -32.722815474846129 130.28957215853734 0 130.28957215853734 296.31798711695956 0 0 0 0 -0.35229693948031127 57.222606481842377 0 57.222606481842377 27.785737044345296 0 0 0 0 0.046298651410501268 -0.57927197382053475 0 -0.57927197382053475 1.8368519976608866 0 0 0 0 305.38993309585567 154.06399851241463 0 154.06399851241463 24.575345990313508 0 0 0 0 -2.1504892632744332 17.420839165383654 0 17.420839165383654 97.248522155423856 0 0 0 0 -124.84529198419386 177.6453321482677 0 177.6453321482677 121.82207776529322 0 0 0 0 -49.129262285104829 29.914514139536095 0 29.914514139536095 40.550335740539595 0 0 0 0 -277.82482821557005 109.8261792007761 0 109.8261792007761 162.74491346434661 0 0 0 0 2.047554369189204 5.9188328320783805 0 5.9188328320783805 -0.17123487391246073 0 0 0 0 255.05470958825089 -249.0138028084848 0 -249.0138028084848 245.34011612439281 0 0 0 0 69.948037851600247 145.31321599555486 0 145.31321599555486 176.13238431698119 0 0 0 0 -0.67231539046010591 8.4368715996040677 0 8.4368715996040677 3.9543561812511996 0 0 0 0 -4.3638668996837913 37.775768456690933 0 37.775768456690933 44.619875565130585 0 0 0 0 29.87725031316063 65.818619752808445 0 65.818619752808445 10.123333440809802 0 0 0 0 4.165626533131217 24.086370361639638 0 24.086370361639638 -2.8779189762026363 0 0 0 0 -4.6417878287817533 14.138234595070617 0 14.138234595070617 85.788753103251452 0 0 0 0 -152.7415452188975 94.603329527083588 0 94.603329527083588 271.59846933373046 0 0 0 0 63.658478843603916 -167.30994949262822 0 -167.30994949262822 321.18099469303615 0 0 0 0 319.45862335893406 988.8547004283455 0 988.8547004283455 -181.69684727663844 0 0 0 0 37.71107297537128 -427.69081484718481 0 -427.69081484718481 640.43946724262787 0 0 0 0 -65.661819990290496 196.18249588507751 0 196.18249588507751 2594.6138450916915 0 0 0 0 -9.8943171729154553 -3.1687027298629573 0 -3.1687027298629573 10.254843391886851 0 0 0 0 -51.126829769500546 72.587587683081438 0 72.587587683081438 -31.75240830398252 0 0 0 0 -77.40661015957366 59.501622074317993 0 59.501622074317993 4.5878901340111042 0 0 0 0 -42.511760412301328 54.941618289361941 0 54.941618289361941 -83.606355647025339 0 0 0 0 -65.008884500508884 70.186354933244729 0 70.186354933244729 11.046905917446566 0 0 0 0 -375.07644118251619 -121.50009101246542 0 -121.50009101246542 584.09362855528161 0 0 0 0 254.95805486713925 -113.80910822765873 0 -113.80910822765873 221.35924215359591 0 0 0 0 -60.550838977130752 38.24904903874085 0 38.24904903874085 202.86888223481947 0 0 0 0 50.543452721167341 -196.042728780787 0 -196.042728780787 239.039838706929 0 0 0 0 11.566240613902092 17.951133120650507 0 17.951133120650507 20.51362676309482 0 0 0 0 -5.8924565055211362 -1.2172229004621187 0 -1.2172229004621187 10.151259341044584 0 0 0 0 0.90943962048216065 6.3311154305464115 0 6.3311154305464115 54.467565443674005 0 0 0 0 -99.56160923857442 492.31326746750347 0 492.31326746750347 299.14571082988914 0 0 0 0 57.593474034861629 160.88297151413644 0 160.88297151413644 139.57641233525646 0 0 0 0 -341.00406312099039 -48.404849947892217 0 -48.404849947892217 33.392715231249895 0 0 0 0 -422.24577005934657 557.46789618699904 0 557.46789618699904 411.2374736785132 0 0 0 0 -204.26090276723471 388.74493865596196 0 388.74493865596196 280.02932626826805 0 0 0 0 183.4006583951159 -658.67400516658017 0 -658.67400516658017 -1257.9859668557328 0 0 0 0 385.28297371688859 -594.78590032887587 0 -594.78590032887587 466.76375140865275 0 0 0 0 6.2887380297406787 5.4164889139675694 0 5.4164889139675694 4.926168733652986 0 0 0 0 375.69949031719034 -199.6847522560638 0 -199.6847522560638 -12.166071660834859 0 0 0 0 -34.592383843711104 71.929706784250811 0 71.929706784250811 -32.36307191245578 0 0 0 0 188.03484414803302 -42.671509672721186 0 -42.671509672721186 31.683959761765436 0 0 0 0 99.477726584537777 -172.35506629144766 0 -172.35506629144766 26.777403308637076 0 0 0 0 506.05629765327467 -63.87980613768741 0 -63.87980613768741 92.750153098942974 0 0 0 0 -161.83294449705977 16.560200337592619 0 16.560200337592619 149.56572953655268 0 0 0 0 379.3927024644554 -266.21442956166902 0 -266.21442956166902 15.325175178766585 0 0 0 0 241.55578690010589 181.07027753969851 0 181.07027753969851 -73.161618913254642 0 0 0 0 336.55949078929007 -183.07116460140492 0 -183.07116460140492 55.324284575141064 0 0 0 0 263.78797891896068 -156.64271149560818 0 -156.64271149560818 109.87523912718643 0 0 0 0 481.52777206840551 -441.89316807755677 0 -441.89316807755677 483.48564823446213 0 0 0 0 386.2814827471791 -157.40744590279701 0 -157.40744590279701 108.8046856029614 0 0 0 0 50.773739749138372 78.135677772872441 0 78.135677772872441 62.466831560413993 0 0 0 0 36.86241327473823 87.570072623151646 0 87.570072623151646 127.42615199494685 0 0 0 0 -0.67150272090629026 0.64887858029997858 0 0.64887858029997858 -0.034813151861303737 0 0 0 0 -2.8373774018264157 53.574470392902185 0 53.574470392902185 27.588062919508957 0 0 0 0 55.081294315505318 87.71599685388901 0 87.71599685388901 -1.6353832737731864 0 0 0 0 39.559965149874529 69.72047578782076 0 69.72047578782076 68.200241062480927 0 0 0 0 39.030050946114443 72.854161823466711 0 72.854161823466711 51.630696332216758 0 0 0 0 -17.776606693267468 32.796646721533762 0 32.796646721533762 26.565035934807383 0 0 0 0 -92.829326518940888 48.373722117561556 0 48.373722117561556 66.840576308453819 0 0 0 0 -16.415229934055105 73.262780160621332 0 73.262780160621332 -28.366359176361584 0 0 0 0 -1.2860268029904205 -1.0708023694044755 0 -1.0708023694044755 -1.909267524811213 0 0 0 0 -50.14641606893224 177.35071933441213 0 177.35071933441213 -204.89914850628702 0 0 0 0 -204.44824303190757 128.456175068015 0 128.456175068015 302.90019899125764 0 0 0 0 -154.2377775919374 136.24905068530279 0 136.24905068530279 13.665343519765884 0 0 0 0 53.694914484391575 107.69403523454093 0 107.69403523454093 20.766194404301132 0 0 0 0 137.07981497961691 150.67807386592176 0 150.67807386592176 -18.888292723286213 0 0 0 0 -67.830513898992876 22.025754222113392 0 22.025754222113392 25.957242046592 0 0 0 0 -1.9381879925257683 0.86613898555865632 0 0.86613898555865632 0.18051475208113033 0 0 0 0 8.8799607771832143 38.132043971665553 0 38.132043971665553 128.53644429759879 0 0 0 0 31.33462374932742 210.09262256110287 0 210.09262256110287 227.0757981232382 0 0 0 0 5.4374638858039361 40.8478077212676 0 40.8478077212676 139.03145319654868 0 0 0 0 -185.41149685466348 17.232602045442036 0 17.232602045442036 484.31356844714901 0 0 0 0 -1.4976613666142136 -0.11249886945330445 0 -0.11249886945330445 0.55256303430506648 0 0 0 0 11.889615168904584 22.726631720797741 0 22.726631720797741 107.14293611969151 0 0 0 0 -21.051534448250095 55.246176309088696 0 55.246176309088696 137.49242920306278 0 0 0 0 -51.82851405736983 13.284432787961123 0 13.284432787961123 232.19490720687827 0 0 0 0 7.0789986005275667 9.8644673418300783 0 9.8644673418300783 8.7113186679095946 0 0 0 0 29.909500833704442 0.0037931629558443092 0 0.0037931629558443092 161.58672525381553 0 0 0 0 8.4243473952144541 33.289493600025708 0 33.289493600025708 160.60322431242093 0 0 0 0 8.5089829729092799 20.728006977667974 0 20.728006977667974 142.85005500480202 0 0 0 0 4.4492613161157806 28.088661894769757 0 28.088661894769757 139.21675169054652 0 0 0 0 13.813309737515738 22.418679921382136 0 22.418679921382136 116.21706429680489 0 0 0 0 10.516709480433065 32.525056492078875 0 32.525056492078875 70.518898851329141 0 0 0 0 0.6937591996598842 1.0689594579537953 0 1.0689594579537953 1.2657000769629647 0 0 0 0 9.2136927681967791 17.88102695930138 0 17.88102695930138 84.190759389639425 0 0 0 0 -0.33795005639956344 40.947433834731555 0 40.947433834731555 111.00267808834906 0 0 0 0 1.9454676810933051 31.624425876289024 0 31.624425876289024 122.77789138628577 0 0 0 0 3.2477522322383265 36.998027304282004 0 36.998027304282004 133.43595551962062 0 0 0 0 6.2346092378261346 38.295446460277162 0 38.295446460277162 128.91719174828177 0 0 0 0 6.8502604251161756 37.756460313274147 0 37.756460313274147 128.0510408183618 0 0 0 0 6.9917760686645352 35.986333251068572 0 35.986333251068572 144.72388738348127 0 0 0 0 -1.745397035633232 24.035844865604304 0 24.035844865604304 132.77994364267943 0 0 0 0 -13.661433246512956 41.799733081654267 0 41.799733081654267 120.08446522101258 0 0 0 0 -6.3279103692833019 9.1187790889744065 0 9.1187790889744065 51.089553994315793 0 0 0 0 -0.26366332663575065 40.507031182231003 0 40.507031182231003 83.646696119023545 0 0 0 0 22.621406233418497 -31.445595458553726 0 -31.445595458553726 55.675872966094175 0 0 0 0 0.36292348362649163 0.93700257988971458 0 0.93700257988971458 0.028765963479987278 0 0 0 0 -172.21798042393155 -63.897256704005486 0 -63.897256704005486 64.294490894237242 0 0 0 0 -31.863488419540545 3.2898975695788977 0 3.2898975695788977 68.2663548531782 0 0 0 0 -119.68736043233812 56.676404316289336 0 56.676404316289336 134.76028546544694 0 0 0 0 -77.649834444995321 107.31521128501663 0 107.31521128501663 140.75158547674801 0 0 0 0 3.9962584382711555 -27.077544102323372 0 -27.077544102323372 24.432370145565073 0 0 0 0 25.550615894168516 -29.27241404508095 0 -29.27241404508095 -63.975531289202991 0 0 0 0 -28.844696526279449 -74.468222750227142 0 -74.468222750227142 -43.374676349209039 0 0 0 0 -29.568716946299602 33.288629049954579 0 33.288629049954579 120.0212790087644 0 0 0 0 4.3658556402750701 0.79702995237740026 0 0.79702995237740026 2.8558515347180693 0 0 0 0 -38.632632277299422 33.643396021816443 0 33.643396021816443 132.42397512033858 0 0 0 0 0.94804555482774677 0.27368904905020486 0 0.27368904905020486 0.12024846790333754 0 0 0 0 8.2573446049609629 -0.95173481164965779 0 -0.95173481164965779 63.474849356796767 0 0 0 0 6.6330126099723374 8.6342037687782636 0 8.6342037687782636 2.3278054551904814 0 0 0 0 2.7678436541518749 8.9532600245765934 0 8.9532600245765934 47.715929600696199 0 0 0 0 0.93771978363970865 -7.1944187063624483 0 -7.1944187063624483 12.772879829400097 0 0 0 0 97.925396472751004 -14.455623820311303 0 -14.455623820311303 50.141300707247865 0 0 0 0 12.615756062392848 15.051196113126935 0 15.051196113126935 28.209256316841675 0 0 0 0 6.9163175968619726 3.8084607243217761 0 3.8084607243217761 49.854953829242731 0 0 0 0 1.2811543393529519 3.4171645044334582 0 3.4171645044334582 -3.8110352224030066 0 0 0 0 2.278127941755228 -0.15059081785923212 0 -0.15059081785923212 -2.0226168954128667 0 0 0 0 -6.0293729377192413 20.249048168558147 0 20.249048168558147 23.494555466463957 0 0 0 0 -16.227259146833603 11.87969549627087 0 11.87969549627087 -15.410471531604344 0 0 0 0 27.870233459360065 99.095861386153501 0 99.095861386153501 -11.091933683281241 0 0 0 0 -16.99687930071309 41.683607333075997 0 41.683607333075997 67.729492694008513 0 0 0 0 0.30041935787278717 2.8797941031295871 0 2.8797941031295871 -3.4139718092390012 0 0 0 0 -3.9946363076729945 18.900477450029165 0 18.900477450029165 34.530929157428908 0 0 0 0 33.576852909419188 80.40163099894562 0 80.40163099894562 46.854377796693939 0 0 0 0 53.952394243628873 5.6834097019054752 0 5.6834097019054752 -22.473107106852694 0 0 0 0 -2.1163803427880006 18.395236057235586 0 18.395236057235586 36.479111169982836 0 0 0 0 -45.940409366433542 55.347093535270233 0 55.347093535270233 56.1436116717814 0 0 0 0 -22.266005023720481 -22.59208262183347 0 -22.59208262183347 50.166360061683918 0 0 0 0 -1.9356314596402626 -8.9983961865482343 0 -8.9983961865482343 67.329406771594222 0 0 0 0 43.579946596420541 25.909788502845913 0 25.909788502845913 56.979552623274685 0 0 0 0 15.399725950166612 27.280827145560579 0 27.280827145560579 112.40713579797739 0 0 0 0 41.55268054515227 -12.388420290326394 0 -12.388420290326394 94.324124768186266 0 0 0 0 38.245624375890202 -10.736303366008997 0 -10.736303366008997 178.61028865247863 0 0 0 0 44.951105302311817 -63.97825933716922 0 -63.97825933716922 181.96312346224295 0 0 0 0 46.61617946345541 -60.578674557800696 0 -60.578674557800696 97.165121329999238 0 0 0 0 91.865354621907045 -61.437168550693968 0 -61.437168550693968 139.25936287069817 0 0 0 0 0.50375719420617315 -37.586741378758234 0 -37.586741378758234 150.41934987965215 0 0 0 0 -8.9891537564606097 -8.4876979676728297 0 -8.4876979676728297 87.689410456914629 0 0 0 0 8.2917621974163467 -15.712444847085862 0 -15.712444847085862 72.113368192092821 0 0 0 0 9.1463601887787718 -40.163243350383709 0 -40.163243350383709 113.93007023777864 0 0 0 0 -13.363069406783438 12.753948898249291 0 12.753948898249291 73.204202394381355 0 0 0 0 -19.310448923729723 6.3887159372425231 0 6.3887159372425231 74.658310940610136 0 0 0 0 -15.524145705679189 -9.4659619374688191 0 -9.4659619374688191 85.541119522556983 0 0 0 0 -1.0926977050369788 14.538544879839542 0 14.538544879839542 44.757167488186496 0 0 0 0 -3.0107217232061885 -1.5665948581881821 0 -1.5665948581881821 77.231558890991437 0 0 0 0 -6.6934622032217703 7.0361780395960523 0 7.0361780395960523 60.867714190710103 0 0 0 0 2.173782444574158 11.908333245211907 0 11.908333245211907 36.398316001148487 0 0 0 0 -4.664288560326554 10.716855668848439 0 10.716855668848439 67.403858184785349 0 0 0 0 -2.8602997788545963 18.324296059377957 0 18.324296059377957 73.820441210620629 0 0 0 0 7.681180193004252 14.049809195403213 0 14.049809195403213 44.758376041965676 0 0 0 0 15.744726084178751 28.009298903474701 0 28.009298903474701 62.302912964587449 0 0 0 0 -3.4218217322845104 3.3238737810273271 0 3.3238737810273271 72.662105253041659 0 0 0 0 2.6764239827017531 3.7308046666038948 0 3.7308046666038948 -2.6857487342606134 0 0 0 0 25.144017966062847 35.952365382595417 0 35.952365382595417 60.213947988006112 0 0 0 0 119.16955776080184 47.6747181603032 0 47.6747181603032 10.791685183728987 0 0 0 0 54.289129699351264 113.83363775933321 0 113.83363775933321 85.702429330936866 0 0 0 0 1.2405573930187992 1.0542479593988325 0 1.0542479593988325 5.9389349951801762 0 0 0 0 192.20595553633154 -14.227994918508557 0 -14.227994918508557 -3.5957477035408374 0 0 0 0 -18.86163489075193 17.158463477484474 0 17.158463477484474 82.318526310387824 0 0 0 0 -10.757332928866731 -34.680986322218814 0 -34.680986322218814 23.659699466266829 0 0 0 0 263.189820944639 -123.76818169083163 0 -123.76818169083163 79.496933663538584 0 0 0 0 290.74940846169602 95.933698751018824 0 95.933698751018824 98.788269686916465 0 0 0 0 129.8967641248471 -62.099060368157552 0 -62.099060368157552 248.77756287015654 0 0 0 0 236.55825357443837 136.14923319571335 0 136.14923319571335 617.24277027052085 0 0 0 0 -14.238796214504873 -222.31491835264751 0 -222.31491835264751 813.35299437963249 0 0 0 0 291.417033926165 -250.71521513720108 0 -250.71521513720108 791.45632671940257 0 0 0 0 13.85279239436602 -438.1210529918244 0 -438.1210529918244 1323.8171380803251 0 0 0 0 0.70296343976397635 1.2686181445238329 0 1.2686181445238329 5.4820581532528507 0 0 0 0 495.61720580487895 -31.950749568452011 0 -31.950749568452011 108.47928464536926 0 0 0 0 781.35064222435904 -75.39916283400089 0 -75.39916283400089 -700.4792454585222 0 0 0 0 25.801971559226786 -158.74243204630329 0 -158.74243204630329 480.21814870923845 0 0 0 0 1563.1019473059746 -1186.9838560094663 0 -1186.9838560094663 -687.31608793256237 0 0 0 0 -0.72875399114046324 -2.3068280803968406 0 -2.3068280803968406 1.2472243026199479 0 0 0 0 -577.48857196257177 552.01252541930626 0 552.01252541930626 1006.5031508608445 0 0 0 0 1.1801882398349748 3.0539800384132558 0 3.0539800384132558 17.201309947414487 0 0 0 0 1086.8220240903461 -324.35032941384998 0 -324.35032941384998 -655.78472969098857 0 0 0 0 351.41874682574485 857.64406067613891 0 857.64406067613891 208.5624241673504 0 0 0 0 428.83041803213746 -430.90151125942157 0 -430.90151125942157 491.37794782245328 0 0 0 0 45.139492069421067 398.7995139704235 0 398.7995139704235 -370.8764004985012 0 0 0 0 -774.22264576539465 -29.93220057824692 0 -29.93220057824692 192.62434830033726 0 0 0 0 -291.70511722857009 271.12333065531493 0 271.12333065531493 317.10704375354544 0 0 0 0 -3.6530609770013598 18.755522952757019 0 18.755522952757019 44.460858808430203 0 0 0 0 3.4050603006099305 15.745310607454115 0 15.745310607454115 19.243893913838257 0 0 0 0 -221.98072557775629 -20.442680970367292 0 -20.442680970367292 -2.728390289878007 0 0 0 0 -446.65661689333956 -217.90977351059701 0 -217.90977351059701 -71.821366683695487 0 0 0 0 12.287963323650956 -31.889511086229732 0 -31.889511086229732 -0.45909340605066973 0 0 0 0 -6.5305224620002749 -0.097033158400186892 0 -0.097033158400186892 7.6446216202094277 0 0 0 0 -35.66731454075898 -0.098317443642372382 0 -0.098317443642372382 159.21457162691877 0 0 0 0 52.582782178630623 33.585349788801977 0 33.585349788801977 33.701348964745193 0 0 0 0 19.318773673289343 7.1317186996193414 0 7.1317186996193414 134.86801637367898 0 0 0 0 84.224974006026059 -30.239063913595601 0 -30.239063913595601 78.447216442038552 0 0 0 0 5.8534539607110219 -70.930793532344069 0 -70.930793532344069 228.80769392506045 0 0 0 0 259.06466051752841 -180.00925130036376 0 -180.00925130036376 187.05971535052959 0 0 0 0 99.488542275529198 -65.230425718724291 0 -65.230425718724291 114.9281866919664 0 0 0 0 121.42407335175267 -21.111583067588072 0 -21.111583067588072 121.99531704926994 0 0 0 0 112.67235934290102 -6.772625770936429 0 -6.772625770936429 270.24761174918967 0 0 0 0 98.308637868328788 -95.978881520481082 0 -95.978881520481082 223.22157077115298 0 0 0 0 379.22617049781866 10.822998361671125 0 10.822998361671125 135.47637529589701 0 0 0 0 272.45200535899448 -133.42942042094728 0 -133.42942042094728 -1.9103063094044046 0 0 0 0 318.14836387261153 59.565597661812717 0 59.565597661812717 310.09335519277556 0 0 0 0 2.5561255382567958 3.04099011110881 0 3.04099011110881 4.7494220910115033 0 0 0 0 420.38903231296263 -200.79258487224206 0 -200.79258487224206 -37.883628151543235 0 0 0 0 211.80537428352659 -373.2551926993583 0 -373.2551926993583 266.46878171436765 0 0 0 0 191.74926290061831 -286.76458083348734 0 -286.76458083348734 30.51568521052468 0 0 0 0 285.41154612145033 -144.98903739025809 0 -144.98903739025809 24.330863791918091 0 0 0 0 686.62050237334051 268.92623129715321 0 268.92623129715321 -93.190509192550962 0 0 0 0 2.6644133776820071 3.8505728125332634 0 3.8505728125332634 8.1897761739712465 0 0 0 0 237.1313946831342 -60.967684409312824 0 -60.967684409312824 31.4201949452181 0 0 0 0 177.50196578606847 -95.869838060947586 0 -95.869838060947586 92.849397145515468 0 0 0 0 110.25758337959664 -60.709276347408206 0 -60.709276347408206 29.988237580706482 0 0 0 0 214.26815639080587 -26.533591786585021 0 -26.533591786585021 25.876350437461952 0 0 0 0 166.2411080736974 -12.562610672234086 0 -12.562610672234086 -35.861849316675944 0 0 0 0 -15.348425769031337 113.36560005052297 0 113.36560005052297 -59.364454795400889 0 0 0 0 106.02954254680753 35.267886525105496 0 35.267886525105496 -39.906107825559957 0 0 0 0 102.96437846601623 -17.541783101844885 0 -17.541783101844885 4.5288280168551864 0 0 0 0 164.78263307432002 2.2963429221152367 0 2.2963429221152367 -75.248134690804363 0 0 0 0 37.509815029474794 -46.93818063017261 0 -46.93818063017261 42.769704552993062 0 0 0 0 164.27940203519938 -89.706392216306995 0 -89.706392216306995 34.962259806230577 0 0 0 0 -66.702520327021745 45.632598746401072 0 45.632598746401072 -16.890762852333864 0 0 0 0 69.803384510598448 -13.002877150797758 0 -13.002877150797758 -73.384776154109204 0 0 0 0 97.889389061477232 20.633574802869589 0 20.633574802869589 -33.16352574503253 0 0 0 0 2.1037628901277685 128.98618146814533 0 128.98618146814533 -140.14051009276591 0 0 0 0 5.9588375359768673 4.1239928685413645 0 4.1239928685413645 2.6393371039873692 0 0 0 0 209.27789746232008 -25.908118998499958 0 -25.908118998499958 -30.319039181958942 0 0 0 0 2.6617379622125554 -60.338854987359809 0 -60.338854987359809 4.9130540279656998 0 0 0 0 129.14609045683392 -98.912937641107419 0 -98.912937641107419 70.129416640604177 0 0 0 0 150.89492449106888 -128.92330217231029 0 -128.92330217231029 122.72421655725702 0 0 0 0 362.13060733395315 -172.95753402720948 0 -172.95753402720948 -6.191578059715539 0 0 0 0 1.6475457716487778 1.7469520391975681 0 1.7469520391975681 2.2533894758176487 0 0 0 0 205.49399674481953 177.09793805115987 0 177.09793805115987 170.6595138092307 0 0 0 0 1.6224282447101672 1.3278044963277349 0 1.3278044963277349 1.025848433867246 0 0 0 0 344.08680132524603 -231.09273744831626 0 -231.09273744831626 -89.835604825548216 0 0 0 0 216.7167830068835 -76.620792848423093 0 -76.620792848423093 -25.873689113552246 0 0 0 0 311.43118679177223 81.735084329251549 0 81.735084329251549 78.651854590096264 0 0 0 0 368.59405089264214 118.63764634178551 0 118.63764634178551 -123.09535906806377 0 0 0 0 387.16966311873415 71.546710107612853 0 71.546710107612853 -153.68384685354613 0 0 0 0 6.7547650186934334 -133.82080819087787 0 -133.82080819087787 187.36009728030513 0 0 0 0 389.9816986828472 -44.386934710977584 0 -44.386934710977584 -13.184969849953632 0 0 0 0 286.78941563359007 128.97176412033332 0 128.97176412033332 100.00889931179972 0 0 0 0 65.237756143396496 63.035772837687546 0 63.035772837687546 121.23284464215385 0 0 0 0 2.8426753492933745 1.5467435256219773 0 1.5467435256219773 0.87338167091868257 0 0 0 0 358.78970972136028 8.2959948498935319 0 8.2959948498935319 -94.097165470171603 0 0 0 0 204.89565632083116 -68.738650667616639 0 -68.738650667616639 -97.288276391960608 0 0 0 0 7.4459149623253609 -17.714821364965701 0 -17.714821364965701 122.61077028308318 0 0 0 0 46.982600391081576 -53.429537829825676 0 -53.429537829825676 43.772443098030635 0 0 0 0 33.544362987588329 -42.164665453970883 0 -42.164665453970883 51.063922195578016 0 0 0 0 33.862557688086213 -47.435994540743195 0 -47.435994540743195 82.93035232434886 0 0 0 0 40.109166053599552 -30.654073472715027 0 -30.654073472715027 28.877165536438952 0 0 0 0 39.360246888832862 -41.194916847438265 0 -41.194916847438265 57.501227134525834 0 0 0 0 58.351000044278862 30.129089272428246 0 30.129089272428246 -12.758963004751422 0 0 0 0 1.19172506550251 30.259189233593133 0 30.259189233593133 28.923019966612628 0 0 0 0 38.092198425877768 -8.6846218896644132 0 -8.6846218896644132 20.259678429050837 0 0 0 0 78.4593031963268 -27.01861847852706 0 -27.01861847852706 25.202738244035572 0 0 0 0 134.42626241241976 -32.457057464862373 0 -32.457057464862373 -10.96013310131093 0 0 0 0 107.72684068594526 2.6798584384996502 0 2.6798584384996502 -14.566434009582053 0 0 0 0 94.847012781408466 -245.9183117059838 0 -245.9183117059838 -41.141399044962782 0 0 0 0 -187.98363414031473 20.805575230604518 0 20.805575230604518 -0.37373067552107386 0 0 0 0 -62.739348882937065 -128.07601189605521 0 -128.07601189605521 29.782749785008491 0 0 0 0 -100.00617355117453 -94.703833928574113 0 -94.703833928574113 38.035855825612089 0 0 0 0 -30.012293251838173 115.28961930658261 0 115.28961930658261 44.442315466294531 0 0 0 0 0.075512023338775991 1.1679793646405869 0 1.1679793646405869 20.69008825999579 0 0 0 0 -14.268614468168607 -3.2033926365747902 0 -3.2033926365747902 61.087623668310698 0 0 0 0 1.1523428483532456 -3.1012834053294815 0 -3.1012834053294815 52.787044955951487 0 0 0 0 28.776723670848696 20.049465642050563 0 20.049465642050563 38.94065084795875 0 0 0 0 -37.110478856032039 -84.776895458609943 0 -84.776895458609943 15.019456336194708 0 0 0 0 -2.7025525016645133 -4.0833351629880781 0 -4.0833351629880781 48.601306467496215 0 0 0 0 -15.087771565956615 5.310990182881369 0 5.310990182881369 59.463809980632504 0 0 0 0 4.0176828390727906 -1.2625684017912135 0 -1.2625684017912135 59.062393612322921 0 0 0 0 4.6926903901003243 -6.0355394519929177 0 -6.0355394519929177 66.846913737412251 0 0 0 0 -3.6804521840028883 -1.9029308677127119 0 -1.9029308677127119 68.290129138993507 0 0 0 0 29.830707816060112 -10.073595385847511 0 -10.073595385847511 54.67412090482685 0 0 0 0 55.766725425629602 -31.921392308883696 0 -31.921392308883696 48.373979571020755 0 0 0 0 18.148949430095399 -5.8784653987277125 0 -5.8784653987277125 53.356475153112115 0 0 0 0 8.0746480846564737 -4.1800013281244901 0 -4.1800013281244901 64.477336291733081 0 0 0 0 21.955183929509388 -25.444718440479392 0 -25.444718440479392 72.739022880865377 0 0 0 0 5.8019025578036292 -14.535860158265223 0 -14.535860158265223 72.12207243177545 0 0 0 0 29.625708799297399 -45.686987963103093 0 -45.686987963103093 87.838063980798324 0 0 0 0 49.382174318474085 -72.394370343361516 0 -72.394370343361516 93.033988358303759 0 0 0 0 40.238533115018186 -52.425702699129033 0 -52.425702699129033 53.435888439704286 0 0 0 0 99.535955927735131 -85.66534388765956 0 -85.66534388765956 92.859081149123085 0 0 0 0 58.908901075613585 -91.563253871336201 0 -91.563253871336201 57.611394254869083 0 0 0 0 128.96181608716142 -80.761398753770663 0 -80.761398753770663 20.581342160861823 0 0 0 0 59.36209517129214 -86.755598663652563 0 -86.755598663652563 92.866097638804618 0 0 0 0 2.3910431181790428 4.0491210844356953 0 4.0491210844356953 6.690295297189401 0 0 0 0 56.540442751841738 -39.290197557587817 0 -39.290197557587817 20.150166105174293 0 0 0 0 -22.131883763970109 -37.724100029692636 0 -37.724100029692636 58.369815831047163 0 0 0 0 42.338900932396513 -91.845116728346056 0 -91.845116728346056 48.182461136049824 0 0 0 0 76.296540782567263 -71.260168841185077 0 -71.260168841185077 38.335415203622688 0 0 0 0 71.512275006275104 -80.791703568482262 0 -80.791703568482262 49.728868229291038 0 0 0 0 104.68531863601424 -86.128339893768498 0 -86.128339893768498 41.98858751588341 0 0 0 0 58.39055068379173 16.407306553224771 0 16.407306553224771 10.888724765625284 0 0 0 0 88.247411529831425 -70.126654024476011 0 -70.126654024476011 54.9812911465051 0 0 0 0 87.198364268848536 -80.348493632925965 0 -80.348493632925965 41.152960831658675 0 0 0 0 25.141693492200829 -97.500638941372017 0 -97.500638941372017 58.653835104916652 0 0 0 0 2.0078564198405933 4.0821515589784472 0 4.0821515589784472 7.2978595310028709 0 0 0 0 -100.82442966510894 72.102601681899614 0 72.102601681899614 93.191769510687664 0 0 0 0 -40.689943186773348 72.899541962139665 0 72.899541962139665 111.39016726511181 0 0 0 0 54.40501990120292 30.688362352554577 0 30.688362352554577 310.74460518761407 0 0 0 0 152.84687315744765 29.250835782262584 0 29.250835782262584 -15.491252189864099 0 0 0 0 239.88512065103126 -286.93979322218252 0 -286.93979322218252 99.415749878058705 0 0 0 0 364.57471627037256 145.57162209065064 0 145.57162209065064 38.583586355609441 0 0 0 0 209.31074851922386 217.02158302978205 0 217.02158302978205 57.96241643504618 0 0 0 0 156.06873277569082 -135.09291897243384 0 -135.09291897243384 114.71076872420599 0 0 0 0 195.68616334804807 -52.792329120029535 0 -52.792329120029535 19.933486857371463 0 0 0 0 0.40698207527404628 -1.4218317416362538 0 -1.4218317416362538 5.2041152248543057 0 0 0 0 -90.582580077107878 328.29135510007291 0 328.29135510007291 246.77597363189489 0 0 0 0 -416.54887333950717 -89.486815799387841 0 -89.486815799387841 251.63301272942772 0 0 0 0 -0.80975517325794133 0.67591449671251169 0 0.67591449671251169 72.497476332857616 0 0 0 0 -265.3950980520209 93.920430171798216 0 93.920430171798216 260.93660720452317 0 0 0 0 -250.05886889650697 -173.52851410090443 0 -173.52851410090443 133.54266476200428 0 0 0 0 -308.33791924490657 80.186719665995042 0 80.186719665995042 136.8811002951079 0 0 0 0 -228.52365139543645 -92.289497606029727 0 -92.289497606029727 130.44847281863076 0 0 0 0 -0.4359676175194464 -0.97263719133955062 0 -0.97263719133955062 83.446902223162439 0 0 0 0 -24.767253484793514 45.733173429667659 0 45.733173429667659 7.0521089128014864 0 0 0 0 26.235024185282668 164.52129198533294 0 164.52129198533294 239.31693521530542 0 0 0 0 289.66889423025964 -23.204719487857801 0 -23.204719487857801 71.092773957287136 0 0 0 0 122.53551227801981 -54.842620315081149 0 -54.842620315081149 172.36181458548708 0 0 0 0 30.071481018506006 -1.1565221829860093 0 -1.1565221829860093 186.52936694426899 0 0 0 0 149.72628524872488 56.199848757805739 0 56.199848757805739 34.780846575818941 0 0 0 0 9.482370296871963 71.340588736748032 0 71.340588736748032 243.36510550887397 0 0 0 0 112.90033325752705 -130.30041444104245 0 -130.30041444104245 377.29437375377165 0 0 0 0 222.81696906416713 -225.890926826738 0 -225.890926826738 132.16375572819379 0 0 0 0 -40.763902989222061 -170.16368908470758 0 -170.16368908470758 448.06682598371117 0 0 0 0 -102.29640935640725 -27.676111839573423 0 -27.676111839573423 126.95290292163554 0 0 0 0 54.189876893209203 -60.474006264497802 0 -60.474006264497802 14.335224677502993 0 0 0 0 -69.731290850913183 -188.25610570733261 0 -188.25610570733261 229.3507669943574 0 0 0 0 50.910423563513973 -118.52824745094767 0 -118.52824745094767 -5.3282115020083438 0 0 0 0 284.25403063331174 -34.717673626640135 0 -34.717673626640135 -14.893213178467704 0 0 0 0 1.2156736012054743 -1.8793626576693114 0 -1.8793626576693114 3.2268300932719853 0 0 0 0 102.46747721146136 -7.7429592527951172 0 -7.7429592527951172 -9.0902431016729679 0 0 0 0 -4.8594609845621335 -42.816381381822794 0 -42.816381381822794 7.8536680907127447 0 0 0 0 -3.9901815143744415 -45.170427355717038 0 -45.170427355717038 -18.814627667161403 0 0 0 0 2.5704874830839302 -5.0269546807884034 0 -5.0269546807884034 9.2467672079484942 0 0 0 0 9.2794649980058921 -27.243648008279706 0 -27.243648008279706 42.161194193751726 0 0 0 0 -2.1109611517543385 -61.562647176564496 0 -61.562647176564496 22.17370930450852 0 0 0 0 -1.74825604436103 -3.0426670034507595 0 -3.0426670034507595 7.7676448353763305 0 0 0 0 -15.931399703339025 -80.716624705279173 0 -80.716624705279173 15.743386024994834 0 0 0 0 31.032909489932621 -4.2034105192688003 0 -4.2034105192688003 2.5013846604488208 0 0 0 0 -23.859239356562057 -37.072943295046571 0 -37.072943295046571 47.38003964852976 0 0 0 0 38.86206965233869 74.226399162194866 0 74.226399162194866 41.301125383746694 0 0 0 0 15.954785921722451 -36.16399634114623 0 -36.16399634114623 132.60079816476355 0 0 0 0 -2.1144635552179962 55.552006835660066 0 55.552006835660066 180.94903665294987 0 0 0 0 33.190148496153874 45.234324356011712 0 45.234324356011712 182.55407624053078 0 0 0 0 -1.4930046440209139 21.277516948284756 0 21.277516948284756 203.63303217268549 0 0 0 0 35.076034151880208 6.3946003164965077 0 6.3946003164965077 193.96317713770259 0 0 0 0 19.66516149195057 29.153380416206346 0 29.153380416206346 167.78830126047615 0 0 0 0 44.67812393286971 19.023126498024794 0 19.023126498024794 170.26931846922707 0 0 0 0 32.191808636672476 28.921590869453212 0 28.921590869453212 157.95281878124297 0 0 0 0 12.297767597888999 32.264888008232447 0 32.264888008232447 164.32036786059871 0 0 0 0 49.206281727898102 25.498608014837373 0 25.498608014837373 162.48232351646948 0 0 0 0 18.862125725935339 26.698636751045342 0 26.698636751045342 166.10861661196395 0 0 0 0 0.17900128951380451 20.248655823837908 0 20.248655823837908 191.56669318284912 0 0 0 0 13.429244675122572 28.359589358631638 0 28.359589358631638 174.3751396492371 0 0 0 0 12.976675716255464 40.904969895724207 0 40.904969895724207 166.3727246406288 0 0 0 0 -7.8269143675473032 40.379360876289866 0 40.379360876289866 164.975132716399 0 0 0 0 -0.043071213751214844 15.764354156022819 0 15.764354156022819 117.96514490899062 0 0 0 0 14.616121641664753 42.853405227779149 0 42.853405227779149 99.51473675501984 0 0 0 0 10.249523904279787 15.804478620790178 0 15.804478620790178 169.93845057553699 0 0 0 0 16.376180429150569 71.869909118633586 0 71.869909118633586 124.8841862456502 0 0 0 0 16.449949295849706 18.103387776311138 0 18.103387776311138 41.557849647651892 0 0 0 0 34.736473969599544 42.987267057778809 0 42.987267057778809 8.8194184802778182 0 0 0 0 0.24912508813332407 0.68696030316549184 0 0.68696030316549184 0.51134875458672013 0 0 0 0 -13.333252387654298 -13.14615874215815 0 -13.14615874215815 15.520725151638089 0 0 0 0 15.082474055062292 -2.8216168930084677 0 -2.8216168930084677 9.0719647168371012 0 0 0 0 17.99726785574865 24.034687519549152 0 24.034687519549152 33.968517196793982 0 0 0 0 11.487576457703751 -6.2290849620112567 0 -6.2290849620112567 20.158453140893471 0 0 0 0 12.834970602137281 -7.2055169678469611 0 -7.2055169678469611 19.535942997608799 0 0 0 0 11.506479691593377 -18.246441530071024 0 -18.246441530071024 -46.573108098313241 0 0 0 0 -32.399489626096155 -74.960666758881416 0 -74.960666758881416 28.951076566037955 0 0 0 0 -12.431574335025182 90.632213873353521 0 90.632213873353521 93.117293154777144 0 0 0 0 -23.363729973645331 -7.7837761689554554 0 -7.7837761689554554 20.736892166067264 0 0 0 0 -25.372638170224516 9.2142946396861589 0 9.2142946396861589 6.5718141824036138 0 0 0 0 0.042432496762361792 7.5226078260384384 0 7.5226078260384384 51.241229413426481 0 0 0 0 17.892456158398552 1.5673488030470253 0 1.5673488030470253 29.199963417588151 0 0 0 0 8.4945837796604629 13.625279904757917 0 13.625279904757917 45.363618081813911 0 0 0 0 7.7784593338488124 3.3104660930230239 0 3.3104660930230239 26.594046124439046 0 0 0 0 -0.0084830151437285724 3.0000337987821695 0 3.0000337987821695 34.899554641197028 0 0 0 0 0.57868167527361436 -3.2778262335286854 0 -3.2778262335286854 29.858243172711809 0 0 0 0 -1.7123260229888069 5.9334201346373447 0 5.9334201346373447 26.45735137599695 0 0 0 0 -21.896000889513811 12.72777352473895 0 12.72777352473895 50.368851955114224 0 0 0 0 -12.913070821106277 -8.6826455006412289 0 -8.6826455006412289 83.390088308864506 0 0 0 0 -0.43138765956977743 -6.6210376477429236 0 -6.6210376477429236 42.117123726464342 0 0 0 0 -16.332785270814249 -23.183251974975065 0 -23.183251974975065 30.001276882860111 0 0 0 0 1.4749421279224464 -4.1270212505332893 0 -4.1270212505332893 45.309284912524163 0 0 0 0 0.026570689662904393 -0.083731177833790582 0 -0.083731177833790582 0.19253300958209252 0 0 0 0 -2.7633714968684941 -12.196027264766599 0 -12.196027264766599 -1.6088578308917931 0 0 0 0 3.5355001304785105 10.749682727713662 0 10.749682727713662 37.179608561189525 0 0 0 0 -2.0277584715550434 -8.3461985520034432 0 -8.3461985520034432 -1.2096642111355322 0 0 0 0 -12.464765808817756 13.973746445609322 0 13.973746445609322 35.665643371248734 0 0 0 0 -0.57644863044409889 -1.0188320388630423 0 -1.0188320388630423 1.9652772579644022 0 0 0 0 -34.21688437473199 -1.8786094707211305 0 -1.8786094707211305 10.986262476813863 0 0 0 0 -34.964664943198159 -19.812331851182535 0 -19.812331851182535 22.556972642538312 0 0 0 0 -1.153843686925264 0.39284169955696413 0 0.39284169955696413 19.751001754526968 0 0 0 0 19.940853581999775 -29.910118937483276 0 -29.910118937483276 11.717361314731534 0 0 0 0 -2.7235861396606698 -3.9409771957390198 0 -3.9409771957390198 19.87892822392152 0 0 0 0 -27.325883325789988 -20.729001282386889 0 -20.729001282386889 30.387631974786927 0 0 0 0 -34.92894223217337 -24.483702307057683 0 -24.483702307057683 59.961759946891107 0 0 0 0 10.646544694842106 -26.28537603672271 0 -26.28537603672271 11.835813269790378 0 0 0 0 7.6499837678843505 -11.493818816481507 0 -11.493818816481507 9.3330645243477193 0 0 0 0 -18.130072484702623 -21.097488890354725 0 -21.097488890354725 17.91945296429185 0 0 0 0 -4.8590203081340855 -6.1386423421555349 0 -6.1386423421555349 10.937112683904708 0 0 0 0 -11.314722317269116 -5.4319965544927982 0 -5.4319965544927982 21.173447383938765 0 0 0 0 -3.0158249604760385 -20.188713772306073 0 -20.188713772306073 10.516748033172917 0 0 0 0 5.8260058248006032 -19.167608456603375 0 -19.167608456603375 18.797666428501543 0 0 0 0 -24.675598570283 -12.255957678396953 0 -12.255957678396953 14.925631622687433 0 0 0 0 1.5591331913199156 -29.814073764973728 0 -29.814073764973728 20.511286305096291 0 0 0 0 130.92274507938453 -54.38542897107618 0 -54.38542897107618 -172.18744921214966 0 0 0 0 -82.06736763085803 -83.192319659836357 0 -83.192319659836357 -9.630797174097097 0 0 0 0 1.4784407441047107 -0.14187237284421883 0 -0.14187237284421883 -0.017720690798441296 0 0 0 0 16.024398704576299 79.136507394716318 0 79.136507394716318 268.07707451564329 0 0 0 0 167.77730876148763 134.49611489274594 0 134.49611489274594 32.014910013735062 0 0 0 0 91.935956229230101 57.946218883258553 0 57.946218883258553 -22.129780765801115 0 0 0 0 430.1612055505027 70.99795899142191 0 70.99795899142191 -177.46873734126348 0 0 0 0 0.21419889199535191 -6.2946198953177372 0 -6.2946198953177372 -0.3485137099687563 0 0 0 0 -285.28907699143474 -42.874439167091623 0 -42.874439167091623 152.80914043448865 0 0 0 0 -164.67754999054478 -191.69395946183067 0 -191.69395946183067 166.70398899861902 0 0 0 0 -0.54303092026552835 0.14161229884386728 0 0.14161229884386728 2.0084718217008231 0 0 0 0 -54.770969084549961 -27.584783655933279 0 -27.584783655933279 -17.479125023251981 0 0 0 0 -91.348696937876298 -28.573654673236888 0 -28.573654673236888 2.3367586152016884 0 0 0 0 -67.616073656027766 68.296970425770269 0 68.296970425770269 -53.209195811465179 0 0 0 0 -4.867318026810981 -0.79060221009528675 0 -0.79060221009528675 1.8823910119892986 0 0 0 0 23.971919660452272 -44.060681242328428 0 -44.060681242328428 -23.696522492260556 0 0 0 0 -59.167918132919795 25.681363983705523 0 25.681363983705523 3.4673630135512212 0 0 0 0 -74.587672299614042 -2.5947257906664163 0 -2.5947257906664163 58.224898514090455 0 0 0 0 -170.46490113196433 81.371571567695355 0 81.371571567695355 27.238424986586324 0 0 0 0 -65.920609712897374 -5.9589567673901911 0 -5.9589567673901911 48.237718284530274 0 0 0 0 176.91374693932073 -142.10314160235066 0 -142.10314160235066 14.649271057358419 0 0 0 0 -21.257945260992983 -239.57681280572433 0 -239.57681280572433 111.86045730592014 0 0 0 0 -35.726322161120152 -48.877330749390239 0 -48.877330749390239 66.730395163176581 0 0 0 0 -35.312376951910153 -81.854680897900835 0 -81.854680897900835 89.645274120382965 0 0 0 0 32.938964867581063 -32.393422968412779 0 -32.393422968412779 43.279235693174996 0 0 0 0 15.415811095787603 -55.071021550182195 0 -55.071021550182195 45.247178911196897 0 0 0 0 -9.2090513177687683 -33.511809581759735 0 -33.511809581759735 43.842930057493504 0 0 0 0 76.641935490652884 4.2368158506833424 0 4.2368158506833424 48.042636561709514 0 0 0 0 -50.311602565457292 -13.272222931733268 0 -13.272222931733268 33.32869935646886 0 0 0 0 -43.07536589142569 -27.823455210178508 0 -27.823455210178508 59.935167767049279 0 0 0 0 -14.328925682969157 -42.998161696717943 0 -42.998161696717943 31.18570540874498 0 0 0 0 -23.731057091740013 -26.493687452788436 0 -26.493687452788436 3.2335938874530257 0 0 0 0 2.3708133294096645 -6.3832618279735378 0 -6.3832618279735378 15.435554974865596 0 0 0 0 6.9190476082012538 -17.637666825648921 0 -17.637666825648921 -0.63037448152044817 0 0 0 0 -43.435115054953371 -5.0426825371159794 0 -5.0426825371159794 27.119252965138003 0 0 0 0 -21.899125598174692 -7.4507296979463717 0 -7.4507296979463717 20.143524240927945 0 0 0 0 0.9651792670093009 -0.50323563676420235 0 -0.50323563676420235 3.7104199925236685 0 0 0 0 -19.923046727892181 -0.076797639072992752 0 -0.076797639072992752 15.082941367836611 0 0 0 0 -0.94112324478631482 -0.56156242900595998 0 -0.56156242900595998 4.4686500923746024 0 0 0 0 -4.9612760379548035 32.173367319195677 0 32.173367319195677 -17.231906590044673 0 0 0 0 -14.496939824087065 -11.069794494629605 0 -11.069794494629605 21.763270142997499 0 0 0 0 9.9522335127657016 -5.048706199733715 0 -5.048706199733715 14.189787162744324 0 0 0 0 -4.2604516703394211 -3.3880055873669335 0 -3.3880055873669335 12.307773676660872 0 0 0 0 -6.2972971111546538 -4.204259145144448 0 -4.204259145144448 14.705686403133427 0 0 0 0 -2.0102982036136909 -3.4843447081027783 0 -3.4843447081027783 11.545429985669159 0 0 0 0 -16.24359743119021 2.1230381615168881 0 2.1230381615168881 -13.811057045670168 0 0 0 0 3.9281592800234648 -21.018258932041135 0 -21.018258932041135 4.5576244353651418 0 0 0 0 -32.363578515863537 0.77401097042456968 0 0.77401097042456968 22.55815108124807 0 0 0 0 -5.1193894622633707 -19.104198883967115 0 -19.104198883967115 93.852459112865745 0 0 0 0 3.8507176760337671 -5.9232597586575935 0 -5.9232597586575935 14.406347730202924 0 0 0 0 12.356721198301557 -23.875479585849689 0 -23.875479585849689 26.063606992085624 0 0 0 0 37.115230719011379 -6.4045243272067864 0 -6.4045243272067864 38.301171142921248 0 0 0 0 -19.175818349982478 -51.980496841586501 0 -51.980496841586501 28.755286771731051 0 0 0 0 -17.485490753282182 -43.277915488280541 0 -43.277915488280541 -23.384604791211586 0 0 0 0 -35.357129648799479 -46.365145234709416 0 -46.365145234709416 2.8134430786691382 0 0 0 0 -17.008582696304359 -45.004060653380577 0 -45.004060653380577 -86.169122412760544 0 0 0 0 -15.171656785216612 -16.992490848942566 0 -16.992490848942566 -10.903578486738169 0 0 0 0 -17.0727319023256 -16.037100364928136 0 -16.037100364928136 16.039816557917959 0 0 0 0 -28.893847371107654 -29.30565392791307 0 -29.30565392791307 -10.849127707686364 0 0 0 0 -8.0318565423672794 -1.9514030440143131 0 -1.9514030440143131 4.1159171761735891 0 0 0 0 5.7769460134143173 -11.463948020401034 0 -11.463948020401034 0.21519316707156122 0 0 0 0 21.408683144854876 -16.874835010141368 0 -16.874835010141368 2.1635793573067872 0 0 0 0 7.943352953448084 -5.7549849576353154 0 -5.7549849576353154 15.170501586660322 0 0 0 0 7.8809692749898659 -9.8399035986195003 0 -9.8399035986195003 4.2636204203688806 0 0 0 0 0.17582156693888118 -2.8160809832976708 0 -2.8160809832976708 3.3827899341854928 0 0 0 0 6.3460344702866678 -15.698140644046692 0 -15.698140644046692 18.801911705825233 0 0 0 0 8.5765775673125972 -15.535103955603329 0 -15.535103955603329 5.6605367323056512 0 0 0 0 15.114877656056024 -24.584203690584388 0 -24.584203690584388 17.752740199006439 0 0 0 0 1.0190356566103835 -2.7113903175152663 0 -2.7113903175152663 3.6611193991183777 0 0 0 0 -0.272141467059555 -9.9228923249706895 0 -9.9228923249706895 18.361921911241325 0 0 0 0 51.009889157557382 -40.846150305394701 0 -40.846150305394701 35.360173996295941 0 0 0 0 7.2890152921911309 -14.437052062606057 0 -14.437052062606057 12.908091472129808 0 0 0 0 -3.1185370618634352 -1.5641700383894204 0 -1.5641700383894204 4.2863511199138884 0 0 0 0 19.236903848516704 -18.31622539054797 0 -18.31622539054797 3.2400890136832459 0 0 0 0 9.4268259005311297 -10.96499796462726 0 -10.96499796462726 5.7949427786436702 0 0 0 0 5.2123446824625717 -11.344907657637332 0 -11.344907657637332 15.533689336652373 0 0 0 0 -5.0761007415059325 -9.1926220562773704 0 -9.1926220562773704 7.5965528886242852 0 0 0 0 25.120090555318029 -61.595415976531456 0 -61.595415976531456 90.361280832095417 0 0 0 0 -52.885681734459581 -63.301000944226871 0 -63.301000944226871 80.753936762394488 0 0 0 0 -4.1010647080809566 -2.8790146986473806 0 -2.8790146986473806 -2.9671920894516344 0 0 0 0 -2.4363758450208479 -13.249910363773665 0 -13.249910363773665 20.052667010653465 0 0 0 0 18.365999212315728 -61.010665592285477 0 -61.010665592285477 91.459286485580378 0 0 0 0 -1.2585735207387643 -19.838021941232228 0 -19.838021941232228 33.042323364465346 0 0 0 0 53.094181885380067 -64.78770360076453 0 -64.78770360076453 68.202305609427185 0 0 0 0 65.525370390664435 -72.178847886172434 0 -72.178847886172434 -53.144130250896069 0 0 0 0 41.404937753828449 -54.056674758771123 0 -54.056674758771123 -61.465506885485411 0 0 0 0 -47.192829331769985 60.09438263911693 0 60.09438263911693 -171.00506041774088 0 0 0 0 31.851185704898349 -82.045267621480434 0 -82.045267621480434 -32.988614645602865 0 0 0 0 39.946445639714867 -83.996419004334712 0 -83.996419004334712 -55.504732695750135 0 0 0 0 38.669607317213149 -52.840753586578785 0 -52.840753586578785 -16.431481823151444 0 0 0 0 23.642067159781931 -3.9735856959812281 0 -3.9735856959812281 188.24021040289335 0 0 0 0 103.36511370032065 -182.51689677954892 0 -182.51689677954892 12.661127382338918 0 0 0 0 109.31587089405728 -78.419185381486102 0 -78.419185381486102 -122.19708020510461 0 0 0 0 -9.1782162819777113 -52.716847801294762 0 -52.716847801294762 239.58621450370333 0 0 0 0 28.832574303750278 -7.4075317517642816 0 -7.4075317517642816 -171.6596662398324 0 0 0 0 -39.041917195417341 3.308405486619904 0 3.308405486619904 154.37690143346299 0 0 0 0 1.134018772299576 -1.2093539399711002 0 -1.2093539399711002 0.92402054764531183 0 0 0 0 -1.5585730141515823 -0.92861749549376915 0 -0.92861749549376915 -0.55404219701573743 0 0 0 0 -38.978852845916037 -107.95575501765393 0 -107.95575501765393 100.17368104507396 0 0 0 0 81.268231717601282 91.984241837746822 0 91.984241837746822 -342.89025446251844 0 0 0 0 379.16512677212859 -232.2553693731752 0 -232.2553693731752 -401.85829005074947 0 0 0 0 -16.681454621951758 -139.3878620789078 0 -139.3878620789078 -128.14557999922749 0 0 0 0 -272.94653555138416 -40.703025382343867 0 -40.703025382343867 -164.40675505663239 0 0 0 0 4.9131565897016607 -3.434081087295175 0 -3.434081087295175 1.9247209044781237 0 0 0 0 25.807415507153337 -68.036739415636703 0 -68.036739415636703 -50.903602219632376 0 0 0 0 -46.589854850158133 -134.85227342164012 0 -134.85227342164012 11.554097391656114 0 0 0 0 -16.192709049638324 -20.217261780189119 0 -20.217261780189119 162.23718970512027 0 0 0 0 -14.161701904552501 38.269937706943892 0 38.269937706943892 33.790067753725452 0 0 0 0 2.1311600614931194 -32.5093571258667 0 -32.5093571258667 108.98418610679073 0 0 0 0 48.349446161248125 -52.867798782465798 0 -52.867798782465798 43.549096716478516 0 0 0 0 29.859487697131016 17.312017594758601 0 17.312017594758601 41.789595994039246 0 0 0 0 23.509711937840393 -32.006637010454824 0 -32.006637010454824 -48.285891308511282 0 0 0 0 -14.177202330174168 14.468273020552715 0 14.468273020552715 41.618234841156237 0 0 0 0 -32.939979545478309 -44.843980613753047 0 -44.843980613753047 44.234353143780936 0 0 0 0 9.312040907375831 3.1815996991367683 0 3.1815996991367683 60.587192905099073 0 0 0 0 6.9351237885780392 -3.8347714762051055 0 -3.8347714762051055 59.972700512514024 0 0 0 0 12.850038185012181 20.627438089279622 0 20.627438089279622 13.726631814737175 0 0 0 0 14.323468108508678 -12.55496147625513 0 -12.55496147625513 13.076171943931968 0 0 0 0 9.567264876688597 20.508276668784916 0 20.508276668784916 39.354771707563486 0 0 0 0 4.1692152241089389 -4.0384715390495103 0 -4.0384715390495103 6.4551174362259189 0 0 0 0 11.317061060230644 -7.020702886966399 0 -7.020702886966399 4.0803185970258085 0 0 0 0 18.63442759754912 -27.747986654141528 0 -27.747986654141528 -43.636401130700051 0 0 0 0 -12.745105017772346 -52.957024941135749 0 -52.957024941135749 -11.368011967132865 0 0 0 0 10.72586485788338 -60.744181177859417 0 -60.744181177859417 -86.186080093655761 0 0 0 0 -17.844439211679401 -25.064499927677872 0 -25.064499927677872 -30.679682732063952 0 0 0 0 -13.220860512287175 -55.800617508636606 0 -55.800617508636606 -80.05602681517658 0 0 0 0 8.6375874594145827 -5.5627718999973936 0 -5.5627718999973936 3.2292476040088332 0 0 0 0 1.5559384510663676 -10.655207568296937 0 -10.655207568296937 -30.92458503585091 0 0 0 0 -11.108612004262227 -5.8254576492704047 0 -5.8254576492704047 -9.0839912749390912 0 0 0 0 -14.361003459406277 -3.4302554847664766 0 -3.4302554847664766 9.4778109101966947 0 0 0 0 -12.404579807378809 -30.70391702761026 0 -30.70391702761026 35.844940833910869 0 0 0 0 -4.7772747903222239 -31.826343930763667 0 -31.826343930763667 9.3382580404412465 0 0 0 0 14.607605684197097 -4.6352886299937381 0 -4.6352886299937381 27.466735319304007 0 0 0 0 0.27554489328286991 -17.559344575945232 0 -17.559344575945232 123.14558537868913 0 0 0 0 16.409839522993707 -77.114755426243619 0 -77.114755426243619 140.37663866498497 0 0 0 0 -6.0567287571159341 -28.153522554233973 0 -28.153522554233973 99.825202505648122 0 0 0 0 18.77990164110679 -44.223362223151753 0 -44.223362223151753 84.275621151464065 0 0 0 0 12.470362627147779 -41.541295290814219 0 -41.541295290814219 132.11280048972594 0 0 0 0 6.6665422767945159 -24.739839984026986 0 -24.739839984026986 87.755694991686141 0 0 0 0 -12.048601595906945 -25.602990684903148 0 -25.602990684903148 91.880093348027799 0 0 0 0 -4.8328623835355273 -12.369294470922057 0 -12.369294470922057 61.359446545349783 0 0 0 0 -22.502849492297059 -29.859846982906372 0 -29.859846982906372 -1.0225977790791951 0 0 0 0 20.255456824665089 -53.48885181629484 0 -53.48885181629484 11.90487532555909 0 0 0 0 29.71877430889981 5.1085979388452074 0 5.1085979388452074 13.680144055458456 0 0 0 0 -0.47465255169911469 0.82789402561794201 0 0.82789402561794201 1.4266894587149663 0 0 0 0 -24.297342816170385 -24.718220260269106 0 -24.718220260269106 70.317858047781442 0 0 0 0 -0.35508946384709361 21.126393038952997 0 21.126393038952997 38.810247562272821 0 0 0 0 9.947488578862334 -16.847039448914984 0 -16.847039448914984 -50.581393551568439 0 0 0 0 -2.5788661869080443 -18.256425543599562 0 -18.256425543599562 -50.551342316658065 0 0 0 0 -4.0424389499979458 -1.4954373313054345 0 -1.4954373313054345 1.749298347759257 0 0 0 0 12.750245994559464 10.64055652131546 0 10.64055652131546 8.7138333544762645 0 0 0 0 8.2739119268359218 -6.1416145985861021 0 -6.1416145985861021 -40.715054159629744 0 0 0 0 -14.672557129207462 -15.161137281793117 0 -15.161137281793117 -17.315874031117801 0 0 0 0 -9.8779914107358309 -38.509310375772202 0 -38.509310375772202 -36.446317229980878 0 0 0 0 -4.5768570694025339 -1.2347442470257874 0 -1.2347442470257874 1.8255460108357475 0 0 0 0 6.3389731225884987 25.367620925694041 0 25.367620925694041 -59.255447027209811 0 0 0 0 3.5961205722752254 -33.518285938921167 0 -33.518285938921167 92.664012888892785 0 0 0 0 -2.4650172908296968 -1.4701675689172577 0 -1.4701675689172577 -0.68845750007382911 0 0 0 0 -8.6186800636053533 -0.022064459488547072 0 -0.022064459488547072 -39.421221825268958 0 0 0 0 -11.708001641186016 2.854481097644566 0 2.854481097644566 -42.094486474148653 0 0 0 0 -3.9246644624044533 -2.1546092537751065 0 -2.1546092537751065 0.11589433305873564 0 0 0 0 1.3884465635247842 6.8386719578706732 0 6.8386719578706732 -41.978301144879879 0 0 0 0 20.99102443267887 -3.6177296163316441 0 -3.6177296163316441 -40.623406794551101 0 0 0 0 13.095232296605644 -21.460074505380817 0 -21.460074505380817 -23.487183375004406 0 0 0 0 19.908776413873341 3.3245440066184528 0 3.3245440066184528 -30.616465810844602 0 0 0 0 9.437696111625911 -7.7329978003685937 0 -7.7329978003685937 -24.202339833266251 0 0 0 0 12.642639294634279 18.291328214883833 0 18.291328214883833 -32.184911182304404 0 0 0 0 -9.1649045547305832 -0.008441488300832134 0 -0.008441488300832134 -46.912118722214927 0 0 0 0 -16.106854414903182 -18.78199705371685 0 -18.78199705371685 61.119086561138261 0 0 0 0 -1.1032661901167722 -0.22105189007551829 0 -0.22105189007551829 0.013429133745658461 0 0 0 0 -9.7072909939639658 42.895143238986748 0 42.895143238986748 -85.81106252362315 0 0 0 0 -1.2390443123694013 -16.590404220452342 0 -16.590404220452342 58.958924463988524 0 0 0 0 9.4200389680208048 -30.24626056567854 0 -30.24626056567854 75.91694213291737 0 0 0 0 -1.1736703312353711 -2.0532512770117251 0 -2.0532512770117251 68.206436449076946 0 0 0 0 -1.0662111317367078 -11.41064473350859 0 -11.41064473350859 98.580247240053666 0 0 0 0 -0.40943113264899011 -7.9393041310793535 0 -7.9393041310793535 42.690794878285942 0 0 0 0 -0.31666741358127126 0.11686818294551013 0 0.11686818294551013 3.3485217429585763 0 0 0 0 -2.1087703325357836 -7.9537833356646246 0 -7.9537833356646246 8.2401796360435924 0 0 0 0 -11.008735909270399 -9.7180148288395571 0 -9.7180148288395571 0.43054232018147331 0 0 0 0 -13.80535349390351 -22.007223531737282 0 -22.007223531737282 -10.016232850212702 0 0 0 0 0.47256265045957102 0.67353311749582934 0 0.67353311749582934 -0.52715944646889079 0 0 0 0 6.3205065989039895 -8.2532776858693069 0 -8.2532776858693069 37.781414226422839 0 0 0 0 -0.10691527214004592 0.6783133412793223 0 0.6783133412793223 1.0967535023839758 0 0 0 0 27.103489550643161 -7.1558588153868641 0 -7.1558588153868641 4.5311054923513439 0 0 0 0 25.050737306469699 -18.488161368475005 0 -18.488161368475005 2.9248683109999547 0 0 0 0 6.4454227879874679 -11.753725721802311 0 -11.753725721802311 27.12452892381134 0 0 0 0 11.244960712847273 -14.945216197510344 0 -14.945216197510344 5.5778727851198866 0 0 0 0 8.9173010056055801 -11.263347777533696 0 -11.263347777533696 8.0407920015396055 0 0 0 0 -0.15027436337254585 -10.132848308254324 0 -10.132848308254324 51.765944914431998 0 0 0 0 -5.1162597131222469 -0.21336588640780629 0 -0.21336588640780629 18.617577723614087 0 0 0 0 14.908765652192074 -9.4759579963674696 0 -9.4759579963674696 21.568140913747811 0 0 0 0 7.8179434152507383 -8.1357176998290015 0 -8.1357176998290015 21.954964359105361 0 0 0 0 -5.8626669493536765 1.0732427426713453 0 1.0732427426713453 16.579776171839335 0 0 0 0 -11.517407465629503 -26.301413834477671 0 -26.301413834477671 51.434931799583133 0 0 0 0 37.731919699123637 -47.6976761316688 0 -47.6976761316688 41.868567228522352 0 0 0 0 -19.18181381024943 -63.478284834095831 0 -63.478284834095831 37.673902655444408 0 0 0 0 32.221034216995577 9.8993766859077823 0 9.8993766859077823 -24.270975266595997 0 0 0 0 4.7476663672875077 -7.4504994439212169 0 -7.4504994439212169 21.774985430767629 0 0 0 0 -4.1089369679462511 -2.2442088337481318 0 -2.2442088337481318 19.797126761350611 0 0 0 0 1.2092746372705676 -10.180485472755663 0 -10.180485472755663 20.598297665636892 0 0 0 0 8.6846623994966876 -10.528276699965772 0 -10.528276699965772 24.089781840820251 0 0 0 0 1.0012378189215951 -10.104192102831803 0 -10.104192102831803 27.985494521661167 0 0 0 0 4.9029716477118015 -13.300247034823769 0 -13.300247034823769 27.638189696965355 0 0 0 0 0.28120035750976058 -24.644719213250937 0 -24.644719213250937 17.571655656959592 0 0 0 0 3.6410316878500582 -10.696079102863186 0 -10.696079102863186 20.005054719805258 0 0 0 0 0.77043332446351087 -18.475092991539896 0 -18.475092991539896 21.831935395497567 0 0 0 0 20.88284627283474 -20.170483404617698 0 -20.170483404617698 18.244619650977256 0 0 0 0 24.94611434278147 -38.627554514114991 0 -38.627554514114991 21.34362212889755 0 0 0 0 -1.2536846589238104 -4.4776951688182187 0 -4.4776951688182187 2.0240437367458455 0 0 0 0 -0.32104295295641627 -0.24063270558982008 0 -0.24063270558982008 1.9291751639045316 0 0 0 0 197.22435770703925 -161.73799523279104 0 -161.73799523279104 -8.5620103289220424 0 0 0 0 -116.10050042162811 55.484240759426029 0 55.484240759426029 48.65911868603871 0 0 0 0 -25.285038104823798 8.2786221328169631 0 8.2786221328169631 44.853651047844323 0 0 0 0 -0.48913446428171348 -0.60085953392746205 0 -0.60085953392746205 -0.52298955170427064 0 0 0 0 12.870952591367313 -46.47803849248703 0 -46.47803849248703 68.250835290500618 0 0 0 0 129.85499330235234 5.7927208962373697 0 5.7927208962373697 1.5942867851317715 0 0 0 0 -0.67348912376141712 -0.050612891538661664 0 -0.050612891538661664 5.5122231189395521 0 0 0 0 -100.04270751096658 31.37026612731006 0 31.37026612731006 17.993553374202747 0 0 0 0 72.076873740696556 -55.243320305006819 0 -55.243320305006819 37.637995717255762 0 0 0 0 46.501464137490984 -62.772008824420482 0 -62.772008824420482 49.685686646547765 0 0 0 0 16.444327453283677 -38.329798868615399 0 -38.329798868615399 67.40450644151133 0 0 0 0 52.250241994071075 -46.157630194207741 0 -46.157630194207741 18.574287159711275 0 0 0 0 13.942083613484556 -8.4145519772318949 0 -8.4145519772318949 30.806184312874393 0 0 0 0 32.566200585034267 -40.053063294014009 0 -40.053063294014009 55.79167863153998 0 0 0 0 35.412823656745786 -29.236192571648644 0 -29.236192571648644 56.196611786759831 0 0 0 0 -3.6745221929745639 1.701122114002569 0 1.701122114002569 4.0847385927374305 0 0 0 0 35.958044329562881 -25.947280776274965 0 -25.947280776274965 28.922920347104082 0 0 0 0 52.259062362670193 -26.738367478865257 0 -26.738367478865257 17.472599478682241 0 0 0 0 35.41877489321746 -9.6702275404236389 0 -9.6702275404236389 15.669388280792191 0 0 0 0 27.39758739552417 -23.983259643584461 0 -23.983259643584461 29.697084425079083 0 0 0 0 24.635451893343088 -19.981937044773986 0 -19.981937044773986 23.90080890788704 0 0 0 0 -33.047569588382885 30.823031760763115 0 30.823031760763115 -10.984944569412619 0 0 0 0 -7.2897545422265466 -17.319159353251052 0 -17.319159353251052 -1.6385566130375082 0 0 0 0 15.458233432964391 9.7471780700482213 0 9.7471780700482213 101.84084881292438 0 0 0 0 -65.711621794742769 2.378051720213989 0 2.378051720213989 48.701553205370146 0 0 0 0 12.971491755473835 -36.538839459886731 0 -36.538839459886731 -18.538515373325936 0 0 0 0 -0.87591031787091955 1.0808099740008434 0 1.0808099740008434 8.1189926703557802 0 0 0 0 16.82775218914685 -10.027574297489082 0 -10.027574297489082 24.388895365473218 0 0 0 0 -58.765143705673381 14.137633328764423 0 14.137633328764423 5.3761275998986093 0 0 0 0 21.549719846287417 -19.166417469791668 0 -19.166417469791668 27.183721507801238 0 0 0 0 -0.89046946744458744 0.30825278160567393 0 0.30825278160567393 1.7946475218589484 0 0 0 0 18.682404934715123 -11.690313770664034 0 -11.690313770664034 20.32470934605044 0 0 0 0 22.979013410117659 -22.009455956971578 0 -22.009455956971578 29.523395387502205 0 0 0 0 15.99509372851162 -18.708775427064211 0 -18.708775427064211 32.572703800972704 0 0 0 0 -6.8787385091865518 -1.6594159520049017 0 -1.6594159520049017 16.972707177643137 0 0 0 0 21.787051597327263 -26.166241965092922 0 -26.166241965092922 33.832709182554936 0 0 0 0 -0.45084121855808945 -5.1096915077228005 0 -5.1096915077228005 36.039575246566983 0 0 0 0 15.024331529106348 -23.190009749270757 0 -23.190009749270757 36.988801255720318 0 0 0 0 4.5509627144207343 -11.899046045607975 0 -11.899046045607975 24.413269061073152 0 0 0 0 10.689707660381636 -14.743231831650519 0 -14.743231831650519 25.625280825055597 0 0 0 0 -7.9847715459300499 0.34011010956561272 0 0.34011010956561272 17.679270017821704 0 0 0 0 18.48060693682794 -23.639518694182811 0 -23.639518694182811 37.737477428750935 0 0 0 0 21.258942693748168 -24.820543488311387 0 -24.820543488311387 36.783930005534785 0 0 0 0 39.812400818437254 -44.170916555635813 0 -44.170916555635813 51.583825229774448 0 0 0 0 39.978798675466805 -36.212972609167139 0 -36.212972609167139 45.557947127756051 0 0 0 0 27.445470716987984 -40.860901528268187 0 -40.860901528268187 68.334552438140236 0 0 0 0 17.923946830560453 -27.294807375603341 0 -27.294807375603341 50.794352323209296 0 0 0 0 34.00072612724216 -35.614876683923285 0 -35.614876683923285 51.891909274358795 0 0 0 0 18.25978687257907 -19.281714171027488 0 -19.281714171027488 47.817096450093231 0 0 0 0 22.322618728337602 -22.478008336007406 0 -22.478008336007406 50.181032401931589 0 0 0 0 43.278192478284382 -34.821571989841686 0 -34.821571989841686 39.038792670445218 0 0 0 0 30.287947719678414 -21.577015127746563 0 -21.577015127746563 34.566633013913815 0 0 0 0 36.772538969708194 -38.641249850092208 0 -38.641249850092208 53.744821748183313 0 0 0 0 31.484622711440579 -25.379721674531538 0 -25.379721674531538 43.776300608835299 0 0 0 0 35.411238658303091 -22.325598714638545 0 -22.325598714638545 22.363965987959091 0 0 0 0 13.608841697357946 -26.249333136035375 0 -26.249333136035375 45.925725074008369 0 0 0 0 17.428685854118157 -13.468953346004128 0 -13.468953346004128 17.27464833808699 0 0 0 0 13.50666448236683 -2.3725189061447054 0 -2.3725189061447054 1.0275187728620949 0 0 0 0 10.559585140492118 -11.33474638116968 0 -11.33474638116968 36.555671720016107 0 0 0 0 19.647670726404471 -7.4515849618970833 0 -7.4515849618970833 25.944049098685355 0 0 0 0 -2.525198613350085 -0.58812195536665968 0 -0.58812195536665968 52.073364260024391 0 0 0 0 -10.179662106466367 15.734153341203637 0 15.734153341203637 23.135541467065195 0 0 0 0 -1.4278803372999391 2.0321865632113258 0 2.0321865632113258 44.252020748073846 0 0 0 0 -23.450173350538535 5.2050506227787992 0 5.2050506227787992 21.365727419956784 0 0 0 0 -47.940629060552965 44.69511747800334 0 44.69511747800334 -36.485395724334012 0 0 0 0 -21.965240926984279 9.4585477125856414 0 9.4585477125856414 28.531022522149215 0 0 0 0 -22.972745548468538 5.6928162147487456 0 5.6928162147487456 49.509388359205332 0 0 0 0 -35.37695120475928 29.271875357611862 0 29.271875357611862 9.2315638560758089 0 0 0 0 -52.349297007513542 -17.12200071161169 0 -17.12200071161169 -7.581287127845826 0 0 0 0 -13.376778932458365 -17.634181306435494 0 -17.634181306435494 26.512740393513013 0 0 0 0 -11.56760195261154 6.689947202014082 0 6.689947202014082 -0.73343431050670915 0 0 0 0 -32.019998541792326 -20.799725399536612 0 -20.799725399536612 24.253514866504702 0 0 0 0 10.354168179899034 -8.4627763937605778 0 -8.4627763937605778 19.330950983758157 0 0 0 0 11.30797803763415 -41.256139222603508 0 -41.256139222603508 38.25985823154042 0 0 0 0 -23.754562395835819 -25.500282714935111 0 -25.500282714935111 66.16902843142816 0 0 0 0 3.6451507171964295 -63.004457749743779 0 -63.004457749743779 121.04139696626498 0 0 0 0 34.084817112964402 -61.195501194463759 0 -61.195501194463759 39.672752995757037 0 0 0 0 -0.39064780868456328 0.36777766920355148 0 0.36777766920355148 0.87685689408770529 0 0 0 0 55.949553829056867 -48.516647503678541 0 -48.516647503678541 50.128888786441166 0 0 0 0 51.13430029479764 -85.987411639976926 0 -85.987411639976926 71.586898338827723 0 0 0 0 25.492579206951177 -63.209417449976172 0 -63.209417449976172 90.592301488817611 0 0 0 0 -0.10676940430542814 0.14473630802039139 0 0.14473630802039139 0.36825506684067122 0 0 0 0 12.377476239798852 -32.189197142923149 0 -32.189197142923149 57.654891029751525 0 0 0 0 36.22857315223132 -34.219365368966464 0 -34.219365368966464 36.913903224631213 0 0 0 0 31.376948501318793 -41.173139318821086 0 -41.173139318821086 71.600470584955474 0 0 0 0 51.858812123911321 -41.825226889395708 0 -41.825226889395708 62.327058717259206 0 0 0 0 47.233740303099694 -37.414179812745715 0 -37.414179812745715 42.856632989350146 0 0 0 0 49.973055961394493 -26.130465050433486 0 -26.130465050433486 64.111799740629067 0 0 0 0 54.240181421445413 -45.425807955212804 0 -45.425807955212804 53.984951185432351 0 0 0 0 32.617277321126949 -30.443848704941047 0 -30.443848704941047 86.448623201225928 0 0 0 0 5.7495305830013308 5.862294964918803 0 5.862294964918803 5.084895792994196 0 0 0 0 36.104989577077276 -24.027026859688704 0 -24.027026859688704 73.701895812850125 0 0 0 0 6.3679503213873954 5.3381516130696376 0 5.3381516130696376 4.0041058595484706 0 0 0 0 -39.542781235695742 124.03486482105495 0 124.03486482105495 -114.99218270008168 0 0 0 0 -64.594085934345912 25.148386195764033 0 25.148386195764033 -32.800979936697331 0 0 0 0 43.637102491553378 -50.662519489714214 0 -50.662519489714214 67.424304547618704 0 0 0 0 -84.342557678730145 79.824237871876903 0 79.824237871876903 3.9892168266233057 0 0 0 0 -89.810060118617344 82.945593075856323 0 82.945593075856323 80.561618642252142 0 0 0 0 -23.756051713560396 99.209455893364975 0 99.209455893364975 -53.270521762795397 0 0 0 0 -75.807851775388372 20.623750922681211 0 20.623750922681211 31.878154561676638 0 0 0 0 -83.206177870427155 -34.336401293501694 0 -34.336401293501694 226.903629099912 0 0 0 0 -17.009944069667199 140.10961697781386 0 140.10961697781386 -213.94085298810205 0 0 0 0 -2.0755764271108026 0.80962152014331323 0 0.80962152014331323 0.0034767907744424065 0 0 0 0 -70.621757511903866 55.213248192743777 0 55.213248192743777 -25.970388171602281 0 0 0 0 -69.702860517026636 48.72064369607051 0 48.72064369607051 127.71720042294692 0 0 0 0 -4.6936365566039706 0.24306843846524018 0 0.24306843846524018 4.2817653781280534 0 0 0 0 54.369633272164151 -37.80805436096216 0 -37.80805436096216 -24.847100307377332 0 0 0 0 20.256406910021781 13.856387738141962 0 13.856387738141962 66.906507862766375 0 0 0 0 24.077791626277985 -84.504908304119454 0 -84.504908304119454 90.586520294143384 0 0 0 0 4.4143303141769596 6.1230145340559758 0 6.1230145340559758 5.4923921055657665 0 0 0 0 89.871932199785931 -41.623244173350031 0 -41.623244173350031 -8.220051442469412 0 0 0 0 -33.53634007395101 -35.19420591522794 0 -35.19420591522794 141.64815286857493 0 0 0 0 14.349667129613749 66.785610429211374 0 66.785610429211374 -14.122467224333377 0 0 0 0 -14.473589478475418 -15.887560899073605 0 -15.887560899073605 30.87351144740569 0 0 0 0 -0.2656782039069725 -5.7617169654823668 0 -5.7617169654823668 22.673921208260836 0 0 0 0 -91.042715180876712 27.755865069528227 0 27.755865069528227 17.822741126070468 0 0 0 0 -174.4093748859018 -53.433601276642548 0 -53.433601276642548 78.379840654931286 0 0 0 0 -90.358528530179342 35.856964627821071 0 35.856964627821071 38.137375239849916 0 0 0 0 -62.699832056695101 81.946589125818264 0 81.946589125818264 43.63493040638059 0 0 0 0 -90.360227371167895 34.752859888994863 0 34.752859888994863 43.970142626571032 0 0 0 0 -75.978616423326329 -98.982308736847699 0 -98.982308736847699 175.91736951559642 0 0 0 0 -73.222890565245052 81.206934303723756 0 81.206934303723756 137.80664867274572 0 0 0 0 73.646892301215757 78.642013588132613 0 78.642013588132613 251.28784869051515 0 0 0 0 -97.623198645347429 176.06388558886238 0 176.06388558886238 100.24145140639666 0 0 0 0 -35.625607125989035 -30.127006517567906 0 -30.127006517567906 143.06850916434996 0 0 0 0 -0.078940009281643242 -2.814705119393512 0 -2.814705119393512 11.692900270279619 0 0 0 0 12.830817732773539 -11.70537445361515 0 -11.70537445361515 56.210435207543469 0 0 0 0 0.20747254627349321 -37.949635698001657 0 -37.949635698001657 90.803710550935648 0 0 0 0 7.5055924327953107 -39.288621922063612 0 -39.288621922063612 82.486720131328184 0 0 0 0 9.0055565349330209 -21.517357916719448 0 -21.517357916719448 53.921304850664455 0 0 0 0 10.539048623707572 -15.94375068935301 0 -15.94375068935301 65.358357296332542 0 0 0 0 -5.3013957428472906 -11.900145331084332 0 -11.900145331084332 62.796841962602684 0 0 0 0 0.60598847911753595 -5.01647912765646 0 -5.01647912765646 15.034253488381134 0 0 0 0 -19.444142159879902 -60.682744835465201 0 -60.682744835465201 80.906157351844115 0 0 0 0 -44.532804408286069 -35.927284410113316 0 -35.927284410113316 71.917793166829711 0 0 0 0 26.107771265294588 -32.04743332617727 0 -32.04743332617727 71.755477565661749 0 0 0 0 27.022091201992595 -15.759118363522703 0 -15.759118363522703 60.84081523498071 0 0 0 0 15.226745682596629 -26.074269981600082 0 -26.074269981600082 63.693583571941417 0 0 0 0 5.1357653682711586 -19.702776817081535 0 -19.702776817081535 46.2994406529819 0 0 0 0 16.200187584903688 -24.512441096861949 0 -24.512441096861949 32.512621095120267 0 0 0 0 18.240010744578285 -43.414570115111616 0 -43.414570115111616 72.100494953219027 0 0 0 0 9.0862737583120357 -20.334902601475576 0 -20.334902601475576 32.669364014185945 0 0 0 0 16.156804706995899 -25.12620146620975 0 -25.12620146620975 30.547895825089654 0 0 0 0 6.5810833574994971 -9.0922556671049453 0 -9.0922556671049453 14.71886021322633 0 0 0 0 16.564038033211546 -22.118499462918408 0 -22.118499462918408 29.602505376404224 0 0 0 0 12.904428210875267 -20.546571615212088 0 -20.546571615212088 35.220826261953334 0 0 0 0 -0.42264493394088731 -8.817851810808861 0 -8.817851810808861 8.0415719055145019 0 0 0 0 9.2597129918452836 -15.588887621877021 0 -15.588887621877021 14.581933422403743 0 0 0 0 18.368168027605861 -22.051874794271157 0 -22.051874794271157 33.850165342861146 0 0 0 0 16.225985244615003 -22.132586836243718 0 -22.132586836243718 34.149950143391834 0 0 0 0 2.412074037459206 -11.903135458143879 0 -11.903135458143879 59.44950128944356 0 0 0 0 2.7845805336919955 0.082235084348999621 0 0.082235084348999621 16.867243646565086 0 0 0 0 18.289063640792733 -20.982257087815015 0 -20.982257087815015 34.825745182330138 0 0 0 0 17.194363791136766 -22.994098847812893 0 -22.994098847812893 34.828008076699916 0 0 0 0 -8.1065161301185071 -32.633389955995881 0 -32.633389955995881 74.181041128787911 0 0 0 0 -8.6382066088026477 -27.901998439197996 0 -27.901998439197996 100.98227256496466 0 0 0 0 -13.563065929678487 -22.124598876056552 0 -22.124598876056552 78.28126110602534 0 0 0 0 0.27115004330619685 0.80766516504049157 0 0.80766516504049157 -0.45606181560172843 0 0 0 0 -0.12001823658643573 4.3867304892328693 0 4.3867304892328693 5.9203854125705391 0 0 0 0 -0.71024787377427856 26.846355245746963 0 26.846355245746963 66.657485501295014 0 0 0 0 17.485564579936181 16.293631535731038 0 16.293631535731038 18.988361372586951 0 0 0 0 36.499654956464838 -19.155985581528512 0 -19.155985581528512 15.336951798331938 0 0 0 0 -19.478147465991697 -37.959719974667678 0 -37.959719974667678 119.32775012146158 0 0 0 0 58.813727051624255 -35.886955559114995 0 -35.886955559114995 90.532845773173904 0 0 0 0 48.421708233085155 -23.40813146849905 0 -23.40813146849905 86.803412617064168 0 0 0 0 12.669804118608226 -24.168035700735345 0 -24.168035700735345 94.716489206337428 0 0 0 0 13.004706506553703 -40.503124289327388 0 -40.503124289327388 86.667265660842531 0 0 0 0 28.602316910635636 1.778358460209347 0 1.778358460209347 36.294274741969275 0 0 0 0 -17.190375421823774 -78.609131830371552 0 -78.609131830371552 122.5451163656362 0 0 0 0 22.438033613680375 15.841159083151155 0 15.841159083151155 83.845009552816919 0 0 0 0 -0.69883291365438005 0.87193796759175513 0 0.87193796759175513 -0.096619756575169191 0 0 0 0 8.8827211519219418 7.0418781653279439 0 7.0418781653279439 41.449678804205178 0 0 0 0 3.2005642472028413 4.6301858073545468 0 4.6301858073545468 8.229454778859683 0 0 0 0 -3.953207508478954 -29.639532536559273 0 -29.639532536559273 114.80150689739821 0 0 0 0 -77.859283235904968 -19.639237326476177 0 -19.639237326476177 124.87690631883015 0 0 0 0 -1.5807305814582449 -10.067398375010811 0 -10.067398375010811 -1.7820623276912659 0 0 0 0 10.741933437579974 -66.171979730212115 0 -66.171979730212115 103.19834998640044 0 0 0 0 -18.549167293289429 -21.92442085375842 0 -21.92442085375842 71.699412070531253 0 0 0 0 4.0087286187826976 -56.78264219185985 0 -56.78264219185985 67.968349410998599 0 0 0 0 46.976476263017503 -30.391620866017547 0 -30.391620866017547 64.391985135753202 0 0 0 0 32.308256168977096 -31.225272569652589 0 -31.225272569652589 70.773092389365047 0 0 0 0 11.280252196526931 -23.100632141066626 0 -23.100632141066626 74.180919814825756 0 0 0 0 7.7751027913427606 -21.34963052553212 0 -21.34963052553212 84.116231134219561 0 0 0 0 2.1110102684906451 -16.417689787288509 0 -16.417689787288509 39.845406392528275 0 0 0 0 38.242689816578604 -17.733050627726698 0 -17.733050627726698 69.615430600282707 0 0 0 0 2.2876032386343486 -11.741252755230164 0 -11.741252755230164 20.408068058552757 0 0 0 0 -0.68023844190616156 -9.9820779708537639 0 -9.9820779708537639 -4.0001955747457938 0 0 0 0 0.73399251366504359 -14.971084219597287 0 -14.971084219597287 38.452563812186781 0 0 0 0 -8.2051155725532681 -10.982632101493436 0 -10.982632101493436 27.888341594811664 0 0 0 0 -0.19100906687771158 -17.843286717303727 0 -17.843286717303727 30.649149847933586 0 0 0 0 0.3839973153419578 -5.4094430615059537 0 -5.4094430615059537 30.468432547349437 0 0 0 0 -2.6903104708558203 -11.874724324504768 0 -11.874724324504768 18.158564210812074 0 0 0 0 -3.6937150492237478 -10.845462937037137 0 -10.845462937037137 19.63909207594174 0 0 0 0 -27.798639777868516 -70.084910742140508 0 -70.084910742140508 -34.560124786738925 0 0 0 0 3.4482352281080084 -6.3055678055901385 0 -6.3055678055901385 4.1495360550950338 0 0 0 0 0.13695575475128408 -7.0594113965912584 0 -7.0594113965912584 41.341770037659444 0 0 0 0 -1.6836417041549794 -15.010242485047229 0 -15.010242485047229 -34.766868457598775 0 0 0 0 -26.330306926899766 -65.351949575611343 0 -65.351949575611343 -86.543287139534186 0 0 0 0 -10.695378985947741 -48.457734836350028 0 -48.457734836350028 -99.820779654957278 0 0 0 0 -43.701714613802324 -74.835229991397341 0 -74.835229991397341 5.6400602894259464 0 0 0 0 0.13163592714931061 -4.0706904360096559 0 -4.0706904360096559 8.0874951929246794 0 0 0 0 4.1374622933763021 -9.1825029868959973 0 -9.1825029868959973 53.574636235760408 0 0 0 0 10.628235984014282 1.8981643240040285 0 1.8981643240040285 14.031167299850495 0 0 0 0 45.620811014551919 -31.795381979830154 0 -31.795381979830154 40.765188123393273 0 0 0 0 -3.0522301915854309 -17.735188509943995 0 -17.735188509943995 31.920694548108958 0 0 0 0 -17.694007705144145 -48.321123745022305 0 -48.321123745022305 103.59972508721421 0 0 0 0 5.2639005346460346 -21.289268360532446 0 -21.289268360532446 41.86237461505533 0 0 0 0 1.7277491817239934 -31.605657212821825 0 -31.605657212821825 65.304289127247102 0 0 0 0 -2.6491429233623274 -0.07884689447392601 0 -0.07884689447392601 10.975048858414368 0 0 0 0 1.5099808929753635 -31.672502772144071 0 -31.672502772144071 77.507276602853381 0 0 0 0 16.737311014192528 10.017196559617332 0 10.017196559617332 44.568214373665342 0 0 0 0 -98.381209996345262 -42.300735422962589 0 -42.300735422962589 40.091264078888884 0 0 0 0 -16.206582172749989 -128.0186901654032 0 -128.0186901654032 1.9267955776676899 0 0 0 0 -99.077241933175799 -105.30532849192241 0 -105.30532849192241 50.059294640876089 0 0 0 0 -101.50721427924736 -69.341691731963238 0 -69.341691731963238 62.417803702016499 0 0 0 0 -23.505536836526844 -11.396378077071859 0 -11.396378077071859 -20.492884137174954 0 0 0 0 -46.138312376583372 -164.30816962882545 0 -164.30816962882545 -33.446861985926262 0 0 0 0 -60.117073436522219 -116.66452696721899 0 -116.66452696721899 -92.732908452365081 0 0 0 0 -73.672230684030069 -11.795073267273438 0 -11.795073267273438 100.43512696414064 0 0 0 0 -5.008080851393629 -4.3668423443240272 0 -4.3668423443240272 81.499773813744014 0 0 0 0 -38.254784544880863 5.8977097897848125 0 5.8977097897848125 132.74975575254598 0 0 0 0 -21.39327006975202 -28.692222716388642 0 -28.692222716388642 80.245815791499865 0 0 0 0 -37.098004093328655 -56.074078948913666 0 -56.074078948913666 32.162370234666923 0 0 0 0 -45.244383899651439 -8.6849600775271938 0 -8.6849600775271938 71.163862736442525 0 0 0 0 -28.993536017884367 -53.896700497186771 0 -53.896700497186771 13.179927671931182 0 0 0 0 -21.84611078925127 -58.50762838182095 0 -58.50762838182095 -43.033555515317857 0 0 0 0 -33.24266855480937 -12.773810229216679 0 -12.773810229216679 -15.02822674761569 0 0 0 0 -56.103321605117344 -16.500850030187053 0 -16.500850030187053 25.876413859508716 0 0 0 0 -61.319249257616235 -22.278426311150568 0 -22.278426311150568 147.55130248689443 0 0 0 0 84.283216062704014 -9.4410968488402887 0 -9.4410968488402887 -2.5530281714677017 0 0 0 0 0.58248823251905879 -1.0937165969806686 0 -1.0937165969806686 3.1440083491846402 0 0 0 0 -65.223458959673195 4.0996529996089777 0 4.0996529996089777 75.498849141794835 0 0 0 0 -49.217823319783747 -54.723378016237234 0 -54.723378016237234 144.38290217233975 0 0 0 0 -58.106768557095364 -32.11149224465828 0 -32.11149224465828 117.7178275418471 0 0 0 0 -47.525935700536138 -65.63029096995939 0 -65.63029096995939 114.76409671568592 0 0 0 0 -69.7235276403635 -44.420711867154182 0 -44.420711867154182 104.08604609930133 0 0 0 0 149.95723314048155 19.071214236764661 0 19.071214236764661 54.084102015590702 0 0 0 0 -20.989838124798553 -110.53849820582667 0 -110.53849820582667 190.1618395086881 0 0 0 0 -15.105480259021761 -33.855614403196057 0 -33.855614403196057 -3.1291447747803431 0 0 0 0 -27.040608701935071 -79.937104632469087 0 -79.937104632469087 73.416056245127493 0 0 0 0 32.258857342820647 3.4455623136643396 0 3.4455623136643396 46.378202282887095 0 0 0 0 90.296958286679683 37.252098447669411 0 37.252098447669411 99.414672293186413 0 0 0 0 112.30592051876192 82.570909536949841 0 82.570909536949841 149.34255866865209 0 0 0 0 74.406929007126323 138.80053434111082 0 138.80053434111082 215.83614363506621 0 0 0 0 13.866057603101265 82.304825011513572 0 82.304825011513572 169.39711828959355 0 0 0 0 34.066399922817794 18.168999180823306 0 18.168999180823306 110.9128897730634 0 0 0 0 7.8501032904604635 61.871458250195985 0 61.871458250195985 180.71369563550047 0 0 0 0 32.002485816303874 -25.727285714039056 0 -25.727285714039056 104.25410929374107 0 0 0 0 5.5821426117965984 12.324632272823351 0 12.324632272823351 137.92326438793464 0 0 0 0 163.02373491564799 -160.31520341906162 0 -160.31520341906162 307.48191018660236 0 0 0 0 161.92698328323979 -181.97595867096334 0 -181.97595867096334 98.771652796061062 0 0 0 0 143.6060982229269 -229.49279570698309 0 -229.49279570698309 298.03632915610353 0 0 0 0 9.2476114696392671 -53.856657195814023 0 -53.856657195814023 108.99443506616444 0 0 0 0 -57.200129592274713 -191.35132723078914 0 -191.35132723078914 192.3871376163529 0 0 0 0 -3.5360347590483343 -29.576125496309032 0 -29.576125496309032 199.36968418310016 0 0 0 0 -51.402924342919221 -198.62228907162569 0 -198.62228907162569 -54.103665165703205 0 0 0 0 -0.94594112003023545 2.5347304033436089 0 2.5347304033436089 6.582796851673308 0 0 0 0 -59.753625261698517 25.172944603367796 0 25.172944603367796 157.31396095904711 0 0 0 0 -2.3633674709854802 -5.8322318654205931 0 -5.8322318654205931 45.546708557086419 0 0 0 0 -114.83217162756819 -20.581034744948283 0 -20.581034744948283 23.14569017152462 0 0 0 0 24.681718691455444 -84.947217043570134 0 -84.947217043570134 -24.383490606521491 0 0 0 0 -5.2952965815953048 -8.8064280813693649 0 -8.8064280813693649 21.834414631426412 0 0 0 0 -13.644587031409992 -4.267411169188108 0 -4.267411169188108 26.227384300203994 0 0 0 0 0.80683187284350333 -7.2649805176343509 0 -7.2649805176343509 20.569532046202237 0 0 0 0 92.672288493536769 -146.56944754538441 0 -146.56944754538441 93.622406865298899 0 0 0 0 -170.26004368914437 -92.111878280141667 0 -92.111878280141667 140.08365762318624 0 0 0 0 -48.283708782245867 -7.7772806723786516 0 -7.7772806723786516 -35.542609508326748 0 0 0 0 -123.81236364873348 -46.590038926048464 0 -46.590038926048464 259.38283108474434 0 0 0 0 1.6446997904969534 10.719777945424237 0 10.719777945424237 31.118564758759522 0 0 0 0 -136.37240597635173 161.88878833725877 0 161.88878833725877 40.426132638261834 0 0 0 0 -67.523437483517228 127.62881620250721 0 127.62881620250721 164.83144308994537 0 0 0 0 -123.81508298896955 -53.268111083087099 0 -53.268111083087099 19.157827895002583 0 0 0 0 -70.879498199269619 85.009775858214823 0 85.009775858214823 -35.905768837377991 0 0 0 0 264.6103158511396 -265.10633781867637 0 -265.10633781867637 232.40459757305689 0 0 0 0 -157.79832159449779 15.684583699006936 0 15.684583699006936 56.712790048345447 0 0 0 0 47.476624456892068 -95.574978357079999 0 -95.574978357079999 395.47597519651754 0 0 0 0 96.993846561599355 -175.30261035022795 0 -175.30261035022795 442.7346934489633 0 0 0 0 284.05549650064131 -219.09713619364857 0 -219.09713619364857 273.44251207939487 0 0 0 0 158.7976062364171 -351.78684979623813 0 -351.78684979623813 370.16254028693402 0 0 0 0 355.57114283795579 -236.96731248642755 0 -236.96731248642755 42.097024119510024 0 0 0 0 1.3988340936817996 6.1207937985456331 0 6.1207937985456331 4.2195833604855721 0 0 0 0 131.76502012098013 -39.991462177542417 0 -39.991462177542417 -42.267615067496081 0 0 0 0 164.98306221039843 -147.37136107546576 0 -147.37136107546576 136.45423524456692 0 0 0 0 28.673147981087467 -197.50537062150033 0 -197.50537062150033 202.32857146673632 0 0 0 0 43.506807176136107 -286.36795791835902 0 -286.36795791835902 279.0201435986728 0 0 0 0 62.607068501812705 -247.85626823763687 0 -247.85626823763687 309.59818035581156 0 0 0 0 74.794162215612516 -240.02564817707889 0 -240.02564817707889 255.33588117015279 0 0 0 0 106.5451014223213 -186.72605957558699 0 -186.72605957558699 274.110142158896 0 0 0 0 -1.5645045625193568 0.25284527005869961 0 0.25284527005869961 14.087515527554542 0 0 0 0 -0.39754698688288514 13.612175115632315 0 13.612175115632315 110.00913450839263 0 0 0 0 -23.512065912064486 6.9834796175268821 0 6.9834796175268821 117.0389690557115 0 0 0 0 -259.77664130770495 36.835697121235626 0 36.835697121235626 209.75636805203203 0 0 0 0 -2.6400485488867957 -131.93028198461889 0 -131.93028198461889 175.2847898669479 0 0 0 0 -89.027900544073532 -41.052130589263697 0 -41.052130589263697 82.236713606222111 0 0 0 0 111.87668482110115 -181.16513783940854 0 -181.16513783940854 254.40881847510354 0 0 0 0 -0.55940619725629404 -105.20249150622658 0 -105.20249150622658 280.42466060544689 0 0 0 0 -37.597921261492978 -87.966507720169943 0 -87.966507720169943 304.01010400614359 0 0 0 0 57.19945685635048 -92.499757745044008 0 -92.499757745044008 392.2359881387714 0 0 0 0 83.748422831231778 -97.568645555006242 0 -97.568645555006242 223.59733402857455 0 0 0 0 189.35285216177022 -304.29611040079112 0 -304.29611040079112 404.0279229898315 0 0 0 0 99.44053347438637 -186.72114391779633 0 -186.72114391779633 293.57621936816759 0 0 0 0 310.65376829356154 -392.9611000812672 0 -392.9611000812672 475.95727438100766 0 0 0 0 286.10703713719067 -298.95189267749947 0 -298.95189267749947 265.96180675820824 0 0 0 0 158.92509028452196 -257.01163498272831 0 -257.01163498272831 621.75244596981156 0 0 0 0 103.42113950412943 62.322269155079084 0 62.322269155079084 201.54369844271878 0 0 0 0 27.776455390280034 197.36634308462817 0 197.36634308462817 545.32138071661211 0 0 0 0 49.997005748273068 162.70640954325791 0 162.70640954325791 146.10118782270229 0 0 0 0 161.25827210112539 61.258635539159968 0 61.258635539159968 119.35009728488967 0 0 0 0 -19.407362243637017 99.737195094008257 0 99.737195094008257 137.88377914549483 0 0 0 0 -45.690914321673162 36.841542973543255 0 36.841542973543255 308.00564726862126 0 0 0 0 96.501359975871054 92.981291265023913 0 92.981291265023913 126.57621299500443 0 0 0 0 -37.858349474307943 39.830218866719122 0 39.830218866719122 60.056378519454483 0 0 0 0 -27.349358575110625 2.5558750434615831 0 2.5558750434615831 83.930581494542821 0 0 0 0 -0.027546273603563765 15.677216824428072 0 15.677216824428072 115.59876268827185 0 0 0 0 -243.32248136205385 164.33493348301545 0 164.33493348301545 49.793036260423833 0 0 0 0 -262.0615019683467 117.3803528787771 0 117.3803528787771 160.99987132579599 0 0 0 0 120.82787467315399 386.48308177510916 0 386.48308177510916 925.72559051633266 0 0 0 0 527.48217768304585 303.58991065672967 0 303.58991065672967 241.69384378189852 0 0 0 0 60.959913833388242 135.23283337608399 0 135.23283337608399 400.94381926377059 0 0 0 0 57.327227577909355 147.27987142573838 0 147.27987142573838 212.61712515444557 0 0 0 0 142.27611599392429 252.91654353638256 0 252.91654353638256 340.20897773900589 0 0 0 0 146.78457026334684 82.842114764873656 0 82.842114764873656 256.22386947319706 0 0 0 0 257.34464217678061 125.3022476458016 0 125.3022476458016 108.43901658656605 0 0 0 0 -140.78374026022539 -102.99803050630132 0 -102.99803050630132 57.247259890155078 0 0 0 0 93.439915098802174 -43.116417180794954 0 -43.116417180794954 58.67384064494928 0 0 0 0 115.85911727638404 -39.857629572423207 0 -39.857629572423207 -151.26451691048817 0 0 0 0 159.29178112346221 134.40370553354967 0 134.40370553354967 76.992817767489669 0 0 0 0 0.31127937940584438 7.4112071975302776 0 7.4112071975302776 21.752168079045845 0 0 0 0 -259.01078345979658 113.70406509686487 0 113.70406509686487 -13.325218405548078 0 0 0 0 301.60442197627435 -223.41604701525603 0 -223.41604701525603 461.48775483776694 0 0 0 0 622.06149941174408 -1014.1540906877858 0 -1014.1540906877858 1485.2316562785745 0 0 0 0 0.60573677819278249 2.3504401644519257 0 2.3504401644519257 8.3573669423805619 0 0 0 0 -189.05876739153109 482.98975122789307 0 482.98975122789307 129.99690282586005 0 0 0 0 -105.42091077735604 116.27225873824955 0 116.27225873824955 1183.8893146632195 0 0 0 0 697.62485997346198 -390.62990799034083 0 -390.62990799034083 1410.3732565071587 0 0 0 0 502.69900833989328 -33.136414546635933 0 -33.136414546635933 -37.36394877162661 0 0 0 0 4.3988721369705015 -4.3299849472335055 0 -4.3299849472335055 5.2736634312867805 0 0 0 0 -341.62024373932263 447.99427052058536 0 447.99427052058536 1305.7023265009229 0 0 0 0 -401.46981344632059 7.6625663710801746 0 7.6625663710801746 1731.8664552944726 0 0 0 0 166.70183570540166 101.40051316503832 0 101.40051316503832 346.67049302857049 0 0 0 0 42.90614517029644 -79.507653560286599 0 -79.507653560286599 1092.0297578457958 0 0 0 0 -183.76180103277056 630.21496246088327 0 630.21496246088327 451.06350355835366 0 0 0 0 252.88706811432576 469.66131532684813 0 469.66131532684813 -136.22973049506709 0 0 0 0 111.47566542236405 -33.16140403925283 0 -33.16140403925283 -140.49370558089072 0 0 0 0 157.13373712792622 -310.72547703539419 0 -310.72547703539419 324.24561508195347 0 0 0 0 7.2186296161406336 -7.8545834727963042 0 -7.8545834727963042 7.7946802039392198 0 0 0 0 71.238783622031178 -106.44581327858134 0 -106.44581327858134 281.07522526186023 0 0 0 0 -468.52237302084234 186.53270597939621 0 186.53270597939621 385.96562679804993 0 0 0 0 286.40565624437818 185.25526670472982 0 185.25526670472982 -159.4299728989879 0 0 0 0 221.23523747466709 139.26477266548369 0 139.26477266548369 -42.672332489122709 0 0 0 0 567.2478276708548 -9.5710369973450042 0 -9.5710369973450042 -85.543006811696841 0 0 0 0 85.123258867299683 333.56316989266702 0 333.56316989266702 -134.28600430426491 0 0 0 0 295.32255634987303 67.00160377410964 0 67.00160377410964 18.891891231266072 0 0 0 0 321.33285755129339 -84.665272125029617 0 -84.665272125029617 23.618878899410959 0 0 0 0 358.94412606995246 -50.784663222324582 0 -50.784663222324582 45.773344506226522 0 0 0 0 153.38252057646105 -349.13415512500569 0 -349.13415512500569 1037.7681304040689 0 0 0 0 741.5495188895901 -435.68070295034727 0 -435.68070295034727 261.31742254637987 0 0 0 0 390.51567987905986 -150.58494022237278 0 -150.58494022237278 191.62072955463691 0 0 0 0 28.710137453329736 -21.438232666243408 0 -21.438232666243408 412.53573068004516 0 0 0 0 38.746129546682752 -55.083509877389872 0 -55.083509877389872 118.583898117579 0 0 0 0 239.411154935708 -249.808005770622 0 -249.808005770622 291.36485984197907 0 0 0 0 19.446035596703251 -141.86638092461237 0 -141.86638092461237 110.97960974397222 0 0 0 0 -104.73898055603672 -107.56762765736855 0 -107.56762765736855 252.08090239462564 0 0 0 0 -122.42726980517163 -37.259487571578745 0 -37.259487571578745 131.53420365073401 0 0 0 0 -127.88358651450582 -105.9374662531545 0 -105.9374662531545 64.923534987851326 0 0 0 0 -163.12367942950482 7.5042117617263528 0 7.5042117617263528 202.35240966373507 0 0 0 0 -150.32367781650146 -32.389508858724561 0 -32.389508858724561 299.80316724142358 0 0 0 0 -47.855824929767344 -67.59322982887366 0 -67.59322982887366 452.65570736754199 0 0 0 0 -62.890996529633703 -0.88549271205408786 0 -0.88549271205408786 246.09116094292114 0 0 0 0 0.79166811068917031 -1.0490105425522072 0 -1.0490105425522072 1.1402778021651385 0 0 0 0 40.783073998747909 -119.77817037035462 0 -119.77817037035462 -102.12413960905002 0 0 0 0 -79.669406460670643 12.070758478155042 0 12.070758478155042 176.42352915224433 0 0 0 0 -71.049046874885789 66.271531971129221 0 66.271531971129221 273.36725714057047 0 0 0 0 -16.203991525201332 -71.513050289340441 0 -71.513050289340441 200.04200148824188 0 0 0 0 -37.344821427938314 -13.804150703291077 0 -13.804150703291077 46.471393921815093 0 0 0 0 -1.1475318152413494 0.4436059505523412 0 0.4436059505523412 0.1413828115086897 0 0 0 0 20.999715442841762 97.196454175100996 0 97.196454175100996 302.03774477872366 0 0 0 0 -68.21690266655736 65.011851496975964 0 65.011851496975964 303.2387468533251 0 0 0 0 -2.8606527531686448 2.1410009893332154 0 2.1410009893332154 -0.98021296773212685 0 0 0 0 13.392732433121239 118.84802222771641 0 118.84802222771641 339.13919224523545 0 0 0 0 5.8122085548029148 181.98873830989248 0 181.98873830989248 423.79264878947197 0 0 0 0 -47.846584827717436 109.90723291271877 0 109.90723291271877 328.47319909233755 0 0 0 0 -40.056288039917888 118.59621688238116 0 118.59621688238116 208.07355959304653 0 0 0 0 -45.910824594446566 135.12290225699783 0 135.12290225699783 300.22609077626942 0 0 0 0 -93.529864008989634 144.30741745406232 0 144.30741745406232 307.7031948431798 0 0 0 0 0.28124581830975615 188.16102509704845 0 188.16102509704845 312.76565844301808 0 0 0 0 24.855101288603208 109.40404610776724 0 109.40404610776724 225.93650159520587 0 0 0 0 14.687644439272376 54.445730776045821 0 54.445730776045821 145.25008632158801 0 0 0 0 5.8557800071964294 54.033344144706348 0 54.033344144706348 222.71500919437725 0 0 0 0 -20.252654399122775 97.330961872604121 0 97.330961872604121 276.89704571709649 0 0 0 0 -31.923102110875476 79.045061371810334 0 79.045061371810334 326.16042506114286 0 0 0 0 -4.9560477428867102 55.499352449553925 0 55.499352449553925 378.24068447077639 0 0 0 0 16.265568243372286 19.583749482881558 0 19.583749482881558 288.77047633727716 0 0 0 0 -9.1852311707089029 35.01315768387019 0 35.01315768387019 280.49995806859476 0 0 0 0 7.5966390129769934 -34.35681587234771 0 -34.35681587234771 219.40531311192376 0 0 0 0 11.772528055021581 -17.359683923662999 0 -17.359683923662999 267.31017018638659 0 0 0 0 3.5598039683250136 -47.038806457883766 0 -47.038806457883766 342.95519204970515 0 0 0 0 -27.258588395766765 -57.597116948562302 0 -57.597116948562302 257.52466069884986 0 0 0 0 -52.900852412271092 -33.6530761981453 0 -33.6530761981453 221.26089057167792 0 0 0 0 6.1496076645015592 -67.202838983675065 0 -67.202838983675065 221.62012008699458 0 0 0 0 17.229303009962678 -54.657764531120449 0 -54.657764531120449 227.44091974051639 0 0 0 0 80.886450571607156 -84.98334786458031 0 -84.98334786458031 203.35650716777695 0 0 0 0 108.9252831906494 -13.243166174852263 0 -13.243166174852263 117.87663761865565 0 0 0 0 -6.0592485924642574 -61.031013418521752 0 -61.031013418521752 114.63357856931589 0 0 0 0 16.982063808931258 44.479505039319406 0 44.479505039319406 117.05988667780292 0 0 0 0 -24.000506496051095 11.35836042457862 0 11.35836042457862 149.46378854937507 0 0 0 0 15.219175143784639 32.108436670858509 0 32.108436670858509 175.08190869317968 0 0 0 0 32.111063587790142 6.2479394655101714 0 6.2479394655101714 192.11235115182194 0 0 0 0 -23.591162048524666 32.816202548350475 0 32.816202548350475 413.26706373166235 0 0 0 0 109.14852448396732 -15.687118960961698 0 -15.687118960961698 301.16956547309451 0 0 0 0 -22.966078210677317 46.968648437669337 0 46.968648437669337 297.59370574779359 0 0 0 0 12.467391661021978 31.813952082830369 0 31.813952082830369 118.25631259282477 0 0 0 0 37.810914895464407 43.748814808288444 0 43.748814808288444 112.41469225724973 0 0 0 0 0.50991610505364537 -0.39622127899300974 0 -0.39622127899300974 0.49096032974227732 0 0 0 0 83.933414521241502 -57.263042531082419 0 -57.263042531082419 111.64164046826045 0 0 0 0 17.494094083955588 -47.140105232386077 0 -47.140105232386077 172.33180987020239 0 0 0 0 -9.3204481179485583 -38.048361578949084 0 -38.048361578949084 287.80706451703236 0 0 0 0 41.247339382485279 3.5897761323562918 0 3.5897761323562918 281.17848964485108 0 0 0 0 95.592771986506079 7.6727645068441603 0 7.6727645068441603 387.33429015586353 0 0 0 0 92.843143380564499 -74.71074199481852 0 -74.71074199481852 399.73092653614094 0 0 0 0 256.49602138213027 -88.95792752836428 0 -88.95792752836428 445.14813459550669 0 0 0 0 9.9993917068422888 74.769188627185258 0 74.769188627185258 457.48819249245929 0 0 0 0 17.577715414794056 160.16930334059396 0 160.16930334059396 401.58827626606188 0 0 0 0 -6.9394289605545509 45.130121826331219 0 45.130121826331219 405.63072643718556 0 0 0 0 160.02357443694473 375.01241520026269 0 375.01241520026269 511.52918938010703 0 0 0 0 87.721510551916253 107.24434426637379 0 107.24434426637379 290.95952433125558 0 0 0 0 49.912833863024048 -34.006236712386112 0 -34.006236712386112 748.3903938498961 0 0 0 0 -1.3244819596211352 1.028481817534959 0 1.028481817534959 2.9486977807461638 0 0 0 0 205.50469378985599 -295.8538162772652 0 -295.8538162772652 429.96277479235755 0 0 0 0 -1.1960546737544586 -0.27091658174940214 0 -0.27091658174940214 3.3437306037089192 0 0 0 0 -152.582823118546 -104.10125322953718 0 -104.10125322953718 885.49511305771739 0 0 0 0 49.183993169415089 -2.4484242641472065 0 -2.4484242641472065 394.63057261675385 0 0 0 0 228.71505808333683 194.79339449208393 0 194.79339449208393 590.4683341313148 0 0 0 0 -109.81039090809327 -73.10066196443529 0 -73.10066196443529 394.38533190320913 0 0 0 0 -81.526272579124907 13.600675581047881 0 13.600675581047881 609.29115736680478 0 0 0 0 -141.46213701034245 -220.46024203473559 0 -220.46024203473559 390.94109268137254 0 0 0 0 -77.371770401618051 -112.95625942608376 0 -112.95625942608376 260.77840784593263 0 0 0 0 -75.551817396971529 -148.90258684302634 0 -148.90258684302634 281.99319290429958 0 0 0 0 -99.270093837249988 -147.67914344336941 0 -147.67914344336941 223.63015905716111 0 0 0 0 -19.930326644557681 -109.68129868579513 0 -109.68129868579513 49.510111917121321 0 0 0 0 -16.89986428236989 -65.04868582874451 0 -65.04868582874451 205.61423510080294 0 0 0 0 -251.75540415114983 -88.411410256600448 0 -88.411410256600448 101.45728065707317 0 0 0 0 -0.7758294748955622 -2.7621800267930574 0 -2.7621800267930574 14.325852021813295 0 0 0 0 -83.994740366613541 -113.5467568443255 0 -113.5467568443255 -125.64426301630692 0 0 0 0 -85.921151377271599 -119.42806984956383 0 -119.42806984956383 -49.377139560767318 0 0 0 0 -53.626339028145424 -26.804451261166207 0 -26.804451261166207 100.38752897030827 0 0 0 0 84.248474165194011 -50.890327959315982 0 -50.890327959315982 7.9475965466908747 0 0 0 0 -33.265226608543571 18.292321551466479 0 18.292321551466479 11.901842407757812 0 0 0 0 -5.5658945212693052 3.8512618436383934 0 3.8512618436383934 0.30820143297069524 0 0 0 0 16.768073287698485 45.047181406895596 0 45.047181406895596 16.892789654974663 0 0 0 0 93.883176287493058 18.330822924501916 0 18.330822924501916 13.395877226827389 0 0 0 0 6.3597137213544102 -17.149943021471074 0 -17.149943021471074 -0.64497470237809384 0 0 0 0 -9.4510942686990234 9.5446702823938949 0 9.5446702823938949 172.73279483893913 0 0 0 0 -83.295779230962268 -15.239405169444353 0 -15.239405169444353 77.411355940366974 0 0 0 0 -15.341164252728845 -22.320477343400469 0 -22.320477343400469 10.210963128299884 0 0 0 0 56.47247096645367 -44.553302455110611 0 -44.553302455110611 -23.611168661944532 0 0 0 0 39.106772973963643 -136.88048912253737 0 -136.88048912253737 83.598925626980218 0 0 0 0 48.275636330423097 -105.5879676567946 0 -105.5879676567946 7.7682246635658885 0 0 0 0 -82.814964547830982 -52.025538271339087 0 -52.025538271339087 240.93289209560589 0 0 0 0 -381.15392185880262 -43.533357156923842 0 -43.533357156923842 177.98071600927869 0 0 0 0 -0.19744751588490833 -2.0769559648488256 0 -2.0769559648488256 12.682283006215375 0 0 0 0 -129.82178236260302 70.883859580397029 0 70.883859580397029 -11.511561242799132 0 0 0 0 95.227827052259499 16.190834660755172 0 16.190834660755172 -169.04067525336245 0 0 0 0 -21.781576305717863 -73.214896089960121 0 -73.214896089960121 -20.111412308239323 0 0 0 0 -0.072041388428552011 -0.67884112246449479 0 -0.67884112246449479 2.5536273027567589 0 0 0 0 99.012539696716061 274.67181230400405 0 274.67181230400405 175.25423660648312 0 0 0 0 -50.619110350040046 17.663937825356243 0 17.663937825356243 36.671690438111455 0 0 0 0 -229.1006005164578 104.64928357619635 0 104.64928357619635 167.51660808942506 0 0 0 0 -54.676771417886869 -33.161122416146043 0 -33.161122416146043 6.079247199092606 0 0 0 0 0.80984584951669536 -3.2969350199754834 0 -3.2969350199754834 7.3739753689974625 0 0 0 0 85.68571526268579 -147.35912292932471 0 -147.35912292932471 322.37556590968688 0 0 0 0 -66.725604183326709 -1.8207027017477913 0 -1.8207027017477913 34.402454827097245 0 0 0 0 -13.153577307880823 -6.9184006915106693 0 -6.9184006915106693 -4.9810200162664842 0 0 0 0 -20.91597429191097 20.524897823294395 0 20.524897823294395 20.82995815464119 0 0 0 0 -10.534951274995819 8.0872566157277106 0 8.0872566157277106 26.848001048782862 0 0 0 0 -32.624267417619194 -5.7964952947872916 0 -5.7964952947872916 12.338544838116832 0 0 0 0 -15.610232624572518 11.249365453130622 0 11.249365453130622 15.365854992766344 0 0 0 0 4.0585238661037693 26.603297614006578 0 26.603297614006578 17.788847387480928 0 0 0 0 -22.307984250413028 -6.1919431339520088 0 -6.1919431339520088 6.5864097199837488 0 0 0 0 -22.52925459382368 11.457078801100579 0 11.457078801100579 21.031830223960014 0 0 0 0 -2.4971863949906492 1.9541740004822259 0 1.9541740004822259 15.490913278528751 0 0 0 0 -18.523820599211376 0.4908593075256249 0 0.4908593075256249 16.097592703974442 0 0 0 0 -3.8869800589157961 3.3723664438748928 0 3.3723664438748928 0.79514668764020668 0 0 0 0 -13.27015284147069 7.4242208862692678 0 7.4242208862692678 25.48185487092087 0 0 0 0 -5.195503427522226 -4.4110418920665779 0 -4.4110418920665779 44.098885501789084 0 0 0 0 -4.7079234101061047 9.0075735498244285 0 9.0075735498244285 14.609997695826792 0 0 0 0 56.845082780117764 5.1203090621114598 0 5.1203090621114598 6.5764325439376137 0 0 0 0 0.18844291316582717 -0.086330891746448479 0 -0.086330891746448479 1.5441296183038178 0 0 0 0 -9.3806999857304163 -4.4638514057980956 0 -4.4638514057980956 28.060558750472239 0 0 0 0 -0.12017810314146926 -0.36614911963199126 0 -0.36614911963199126 2.0360745020331596 0 0 0 0 -2.7122099670196622 3.0125926055175198 0 3.0125926055175198 2.0709587687200681 0 0 0 0 -7.9445627736122333 -9.3724099666333132 0 -9.3724099666333132 19.022496244960848 0 0 0 0 16.823770621123572 10.52862906090013 0 10.52862906090013 37.53351244280239 0 0 0 0 1.9595664338646461 -4.5418121923039614 0 -4.5418121923039614 8.7009476426550556 0 0 0 0 -11.130494041461588 -5.6801863572618458 0 -5.6801863572618458 15.968513815806091 0 0 0 0 -7.4316903737534972 -31.69273278427687 0 -31.69273278427687 -71.722702144526011 0 0 0 0 -9.7775972560211812 -0.73988511189645578 0 -0.73988511189645578 2.3752229502069895 0 0 0 0 32.84738689422602 33.917880449300128 0 33.917880449300128 -162.86816204081629 0 0 0 0 19.230912351244115 35.788793723026856 0 35.788793723026856 -9.7472815660694323 0 0 0 0 12.278574063925817 2.3805845145448075 0 2.3805845145448075 -48.655068500842845 0 0 0 0 -16.819090042239282 -18.902042853158036 0 -18.902042853158036 1.3282123314229466 0 0 0 0 6.0296236602939643 -1.7874213971188055 0 -1.7874213971188055 -2.1872869407602593 0 0 0 0 8.4139426204189931 8.4780742817883379 0 8.4780742817883379 7.057464244399398 0 0 0 0 9.3363871055371419 16.742869505544718 0 16.742869505544718 -3.35812025314533 0 0 0 0 4.7682009444045761 32.776797887771906 0 32.776797887771906 18.065645846430243 0 0 0 0 -44.412434555016262 72.104823802790634 0 72.104823802790634 78.027153510314065 0 0 0 0 4.8855715571911347 30.4767205770769 0 30.4767205770769 3.2482752551168232 0 0 0 0 -1.9319870681015345 -38.084238988986385 0 -38.084238988986385 131.44612934939545 0 0 0 0 -11.245462792288322 -7.2050625141806677 0 -7.2050625141806677 35.136926389264318 0 0 0 0 1.4420786608293383 2.0073084192945316 0 2.0073084192945316 41.669817950105653 0 0 0 0 -397.49024073349767 416.39368745738989 0 416.39368745738989 571.93198262536589 0 0 0 0 3.3012364980834263 263.79522457917471 0 263.79522457917471 -130.15457621709288 0 0 0 0 -45.196109063284666 68.546655477620106 0 68.546655477620106 143.51949715915907 0 0 0 0 60.018464551306124 -153.03833046777038 0 -153.03833046777038 256.55406657948561 0 0 0 0 -169.99067393230189 76.791998528711929 0 76.791998528711929 215.00985221250494 0 0 0 0 90.007308171237355 -273.1028203047058 0 -273.1028203047058 380.56033337912891 0 0 0 0 -79.860636970962332 -150.56426132432989 0 -150.56426132432989 608.71098104851262 0 0 0 0 -0.056811328453156298 -0.38474796876993544 0 -0.38474796876993544 5.3506600930459918 0 0 0 0 171.20660599644748 -91.128629370675242 0 -91.128629370675242 -4.7119884857944498 0 0 0 0 216.08206656784392 -171.03306723425922 0 -171.03306723425922 79.781442182968931 0 0 0 0 52.496563262147674 -116.6881596721808 0 -116.6881596721808 110.45867602430508 0 0 0 0 -7.884172255487556 -51.107972482879006 0 -51.107972482879006 107.59023510358497 0 0 0 0 24.121659282526707 -62.431930503501917 0 -62.431930503501917 11.368033626511561 0 0 0 0 2.7320431372055261 -50.234191444109818 0 -50.234191444109818 61.654467724786628 0 0 0 0 2.4362344925413808 -41.147788973547975 0 -41.147788973547975 0.74316139483551069 0 0 0 0 -32.220106801365205 -9.7921770582834142 0 -9.7921770582834142 -27.152678093803814 0 0 0 0 -54.553866957051213 -89.329900876655458 0 -89.329900876655458 -78.228883509522575 0 0 0 0 2.0950692126125556 -2.8103456206065287 0 -2.8103456206065287 2.6798419218806679 0 0 0 0 -21.28191367813497 -12.000870289296131 0 -12.000870289296131 -25.293226899163017 0 0 0 0 -21.636724434844837 -21.569007322304003 0 -21.569007322304003 13.923693275086862 0 0 0 0 -5.6878865867657851 -31.24606707795806 0 -31.24606707795806 -11.531709247409708 0 0 0 0 -4.8923351472510603 15.172750809705576 0 15.172750809705576 11.798966250634294 0 0 0 0 1.0778195653974763 7.143788342401308 0 7.143788342401308 -4.1253307711083522 0 0 0 0 2.8775259111745703 -3.2603128334523128 0 -3.2603128334523128 2.6553807066806847 0 0 0 0 -47.741827791116286 -45.268997524899973 0 -45.268997524899973 -19.033454045104577 0 0 0 0 -23.476984028317311 -41.740743207899101 0 -41.740743207899101 -35.08905560071679 0 0 0 0 -89.72841764642105 -216.58509967806523 0 -216.58509967806523 -124.40595035744745 0 0 0 0 -68.752146788220898 -92.780296657858059 0 -92.780296657858059 -47.329587939670205 0 0 0 0 4.5274828763449477 -18.915819986316706 0 -18.915819986316706 -39.483418847168124 0 0 0 0 10.407850335323246 -132.28445043388172 0 -132.28445043388172 165.17913612673556 0 0 0 0 -68.251028256206581 -4.3068964782266619 0 -4.3068964782266619 100.02058265811138 0 0 0 0 -10.446888278631803 -52.706542530668614 0 -52.706542530668614 79.045558523900127 0 0 0 0 -28.028568398050766 -61.991974783101739 0 -61.991974783101739 74.662624606935651 0 0 0 0 31.798712396581095 -96.48432019190227 0 -96.48432019190227 113.28748389081898 0 0 0 0 38.45885905588591 -100.77798343903837 0 -100.77798343903837 127.83463648732004 0 0 0 0 54.957153108517559 -91.356418008705759 0 -91.356418008705759 114.16800201547301 0 0 0 0 64.531794475054539 -149.45772373714715 0 -149.45772373714715 130.37349629365394 0 0 0 0 26.914046041682695 -137.10096327280493 0 -137.10096327280493 129.74709391415763 0 0 0 0 49.768935044028922 -136.9009303733003 0 -136.9009303733003 119.70077893299708 0 0 0 0 94.048800579095541 -148.69380699747239 0 -148.69380699747239 102.45715464425825 0 0 0 0 21.719810205029717 10.52888275647274 0 10.52888275647274 7.578645424218962 0 0 0 0 6.3863595842601626 1.4274043695800174 0 1.4274043695800174 25.183892503485254 0 0 0 0 7.8259107827998946 11.172968600275155 0 11.172968600275155 11.301014592409956 0 0 0 0 19.119883195682853 -28.812491988912104 0 -28.812491988912104 48.756172392960025 0 0 0 0 5.7317969685752814 -13.289342948137687 0 -13.289342948137687 3.0080936711789263 0 0 0 0 -8.44301634693079 -2.5133750858296935 0 -2.5133750858296935 28.833406856845727 0 0 0 0 39.858194865015776 -37.380557997190181 0 -37.380557997190181 43.391039995120082 0 0 0 0 -1.4835284991816025 -51.286358202226324 0 -51.286358202226324 109.72933375670482 0 0 0 0 47.582680934220889 -86.339205968581496 0 -86.339205968581496 123.50726685469692 0 0 0 0 39.293060175424444 -48.672886186873598 0 -48.672886186873598 109.65910851022892 0 0 0 0 80.628088392617087 -91.240956689068184 0 -91.240956689068184 75.160623658702434 0 0 0 0 44.67711407144111 -69.536502113374127 0 -69.536502113374127 97.657258048859376 0 0 0 0 60.383521379880904 -21.214353339192712 0 -21.214353339192712 -1.7323899534566181 0 0 0 0 54.405845444213355 -26.129357456538628 0 -26.129357456538628 210.56408828022836 0 0 0 0 25.385324456106446 -91.618325239120679 0 -91.618325239120679 208.65461120952773 0 0 0 0 42.59911095086909 -68.663161257692764 0 -68.663161257692764 166.81535170239681 0 0 0 0 73.42288527914161 -49.898972289857284 0 -49.898972289857284 163.11092388600625 0 0 0 0 35.234709361617377 -55.274096756601608 0 -55.274096756601608 210.98657815013757 0 0 0 0 63.352293455174504 -51.866727919797142 0 -51.866727919797142 210.80973819523751 0 0 0 0 44.95761753480997 -45.745364664748081 0 -45.745364664748081 241.44748254703563 0 0 0 0 75.50462855441674 -31.383650852489609 0 -31.383650852489609 205.47293719226582 0 0 0 0 51.199945063755194 -54.631401233592896 0 -54.631401233592896 201.27564429916433 0 0 0 0 87.587889116946371 -53.537251020307224 0 -53.537251020307224 179.08569565846938 0 0 0 0 63.971942431720379 -77.281381799091264 0 -77.281381799091264 171.22477778259827 0 0 0 0 78.657140326900162 -95.503479256286255 0 -95.503479256286255 120.43281249884217 0 0 0 0 70.057549097228275 -111.94193410056937 0 -111.94193410056937 98.943384112756348 0 0 0 0 78.191287872435339 -100.17634970181398 0 -100.17634970181398 75.729899068031045 0 0 0 0 77.228868867345824 -126.65670673522547 0 -126.65670673522547 109.49226859441569 0 0 0 0 77.411568756022291 -125.91972283850122 0 -125.91972283850122 78.860974244304089 0 0 0 0 78.731903233750415 -95.30639406244066 0 -95.30639406244066 133.41559160967927 0 0 0 0 111.6520651733772 -72.009524850973321 0 -72.009524850973321 126.61271708939108 0 0 0 0 84.564481903205888 -108.72565943518475 0 -108.72565943518475 96.830042895172483 0 0 0 0 61.4458181671896 -76.657817501195325 0 -76.657817501195325 156.76894931459037 0 0 0 0 73.763505073871329 -103.66446256158918 0 -103.66446256158918 121.99471697559738 0 0 0 0 50.50402810888022 -96.524829022733115 0 -96.524829022733115 125.27067941287305 0 0 0 0 76.104946656183529 -75.799892272299644 0 -75.799892272299644 152.76036682417157 0 0 0 0 65.377436183434156 -30.445025394958066 0 -30.445025394958066 244.91182906136191 0 0 0 0 62.187378524033193 -54.469759541441476 0 -54.469759541441476 259.99269405404107 0 0 0 0 76.92333196210916 -62.195202136110765 0 -62.195202136110765 181.9560699378726 0 0 0 0 112.74194073064496 -26.099688105306427 0 -26.099688105306427 186.0650481941982 0 0 0 0 129.23774078288193 -44.599663805976093 0 -44.599663805976093 130.43723893422703 0 0 0 0 90.423976465273881 -97.127583209559475 0 -97.127583209559475 113.72672108416373 0 0 0 0 91.144731530483568 -50.880882819839144 0 -50.880882819839144 191.61745170407357 0 0 0 0 151.49336503057066 41.500803348216778 0 41.500803348216778 241.29986096927382 0 0 0 0 122.88707339778443 -29.108415358889602 0 -29.108415358889602 171.17111846771695 0 0 0 0 -35.473923701188141 -49.12452999814127 0 -49.12452999814127 129.83567490912446 0 0 0 0 134.82277223996653 -18.826089535415349 0 -18.826089535415349 133.68675324774449 0 0 0 0 221.54181165074579 67.182618509034455 0 67.182618509034455 3.1973563365874043 0 0 0 0 184.24260833341305 174.09673216971942 0 174.09673216971942 305.67910737268039 0 0 0 0 37.158510488644424 -127.87035010085879 0 -127.87035010085879 78.943236214410149 0 0 0 0 45.470363260088561 -87.088540142769943 0 -87.088540142769943 106.73070238349783 0 0 0 0 62.993901177385624 -60.675542190453825 0 -60.675542190453825 80.394634862505427 0 0 0 0 79.410759731531925 -93.323761949948903 0 -93.323761949948903 111.75458210730937 0 0 0 0 144.45264928597726 -200.99904659549338 0 -200.99904659549338 421.40940169792879 0 0 0 0 25.071419383769125 273.76902154638276 0 273.76902154638276 -81.714719829327237 0 0 0 0 2.2724708825224891 2.5705858366418406 0 2.5705858366418406 3.4126490843719877 0 0 0 0 -331.28129453873134 -559.96427860282017 0 -559.96427860282017 815.08241241512542 0 0 0 0 41.000804983061698 25.038708880646709 0 25.038708880646709 550.87191165454146 0 0 0 0 81.28765712033919 -55.144865801712058 0 -55.144865801712058 334.82931299468714 0 0 0 0 126.80054338114132 -133.06906378719077 0 -133.06906378719077 255.6220514136412 0 0 0 0 76.332969098301049 -27.297497648247571 0 -27.297497648247571 284.31978120746453 0 0 0 0 74.710176956933992 -102.30536879550391 0 -102.30536879550391 341.08598839795127 0 0 0 0 64.971157204155986 -68.305084992179644 0 -68.305084992179644 259.14699189153794 0 0 0 0 114.42240458724746 -99.851316900590064 0 -99.851316900590064 218.3254961171167 0 0 0 0 4.669210625899785 7.1752604531679847 0 7.1752604531679847 9.5765729797431138 0 0 0 0 -7.1731836623700929 22.505724960356247 0 22.505724960356247 256.27474473375474 0 0 0 0 -39.383647850813759 283.66996296857269 0 283.66996296857269 -235.73305799262016 0 0 0 0 -258.12631660424984 175.45325421651506 0 175.45325421651506 23.931520186702073 0 0 0 0 -185.86582009785423 5.8048196682451021 0 5.8048196682451021 -105.98602226281355 0 0 0 0 56.64848724156127 137.51945911898565 0 137.51945911898565 -34.486102311891955 0 0 0 0 77.746790195812991 116.87141586668099 0 116.87141586668099 -211.0619420543444 0 0 0 0 6.5502793072656829 -110.56791698276984 0 -110.56791698276984 237.16269201982777 0 0 0 0 12.02851069173289 -68.307197498303253 0 -68.307197498303253 270.38718308533873 0 0 0 0 57.046471030339717 -56.811309545412087 0 -56.811309545412087 235.17923476027431 0 0 0 0 54.72216522347253 -70.451079928693844 0 -70.451079928693844 263.80194747816915 0 0 0 0 24.765437234049728 -95.493216839972661 0 -95.493216839972661 234.14769570666658 0 0 0 0 115.37455869719997 -82.854560637320446 0 -82.854560637320446 259.77089539498695 0 0 0 0 41.021736429988209 -50.391982016458314 0 -50.391982016458314 345.60468220518214 0 0 0 0 100.92107813164034 -173.46626523514647 0 -173.46626523514647 230.59994706099974 0 0 0 0 -0.19896774481220048 -0.21030428963692516 0 -0.21030428963692516 1.3527179367841642 0 0 0 0 -26.478879195524769 -88.364147896257236 0 -88.364147896257236 237.91297647266401 0 0 0 0 -15.088831887429933 -127.38967234331233 0 -127.38967234331233 192.26047361102269 0 0 0 0 -34.54928247148996 -110.97237507012778 0 -110.97237507012778 239.85836677581847 0 0 0 0 11.988813982980275 -133.32797010776369 0 -133.32797010776369 200.87794376507873 0 0 0 0 41.437719661013489 -109.29308168027399 0 -109.29308168027399 225.55247693364026 0 0 0 0 25.513485132887695 -81.956194648852033 0 -81.956194648852033 89.714293146828936 0 0 0 0 43.896557889872298 -115.3731301582639 0 -115.3731301582639 150.45985129386281 0 0 0 0 131.19679568059064 -218.72683236683292 0 -218.72683236683292 159.84093666377134 0 0 0 0 20.54436412055054 -89.61677444262682 0 -89.61677444262682 371.22700914013876 0 0 0 0 1.7110844411749024 -1.3474749784427145 0 -1.3474749784427145 0.92936169559811521 0 0 0 0 75.46005546937738 -92.8385494914844 0 -92.8385494914844 -80.563728079559723 0 0 0 0 -51.097086038655789 -49.109203545851187 0 -49.109203545851187 417.55688501823261 0 0 0 0 -81.907249395846918 -21.008253922719746 0 -21.008253922719746 126.20277904954264 0 0 0 0 -31.342170431783529 12.400895834268795 0 12.400895834268795 22.8532333170931 0 0 0 0 32.818220863661054 -66.58957954250377 0 -66.58957954250377 117.56998080558697 0 0 0 0 -17.948647561669816 -34.738756218293986 0 -34.738756218293986 120.27100999437198 0 0 0 0 -14.436964001265437 -41.122823937380531 0 -41.122823937380531 75.816684793014247 0 0 0 0 5.5944671718875725 -72.911233992602206 0 -72.911233992602206 123.98850938910118 0 0 0 0 -9.6102090577823276 -20.611688949390157 0 -20.611688949390157 80.911091546425268 0 0 0 0 -19.832713773040155 -4.5434464196140993 0 -4.5434464196140993 116.77497604564246 0 0 0 0 6.0517525233578908 -44.705385196884208 0 -44.705385196884208 111.82834248518571 0 0 0 0 -5.6094309790590842 15.74958254564217 0 15.74958254564217 186.36274013094271 0 0 0 0 54.461530249104271 -83.504208093273974 0 -83.504208093273974 177.64016407145539 0 0 0 0 -1.9062215255108867 -42.137968837490575 0 -42.137968837490575 166.42207459393967 0 0 0 0 -7.2247388729790245 -8.7667509425920827 0 -8.7667509425920827 25.49863644401708 0 0 0 0 -12.075339944844927 -17.571463482370746 0 -17.571463482370746 23.451377946758839 0 0 0 0 1.0873463767043177 -5.642858525057818 0 -5.642858525057818 19.674895714571903 0 0 0 0 -11.437382698754845 -3.3124074569168442 0 -3.3124074569168442 34.484962318736507 0 0 0 0 -0.98376251999990671 -1.3370170204265719 0 -1.3370170204265719 20.063227365767787 0 0 0 0 6.2644582947823437 -4.2693688303625095 0 -4.2693688303625095 13.156367487357784 0 0 0 0 23.234036656523585 -25.44133629020871 0 -25.44133629020871 32.430685297982563 0 0 0 0 -12.460852511706889 -9.7619277372432407 0 -9.7619277372432407 24.018491739479941 0 0 0 0 -13.023354894185129 24.676886897832446 0 24.676886897832446 99.582597394037293 0 0 0 0 -5.4210104053841848 -5.1443092802702193 0 -5.1443092802702193 31.219271170653542 0 0 0 0 -1.0060609372844729 0.08182594427787393 0 0.08182594427787393 8.1288975450963221 0 0 0 0 20.595329232746941 -49.783636178965025 0 -49.783636178965025 32.099061992827046 0 0 0 0 -0.72890123881896263 -5.2866817532994093 0 -5.2866817532994093 3.1355792617402471 0 0 0 0 -9.3672201107824549 -32.81160632036881 0 -32.81160632036881 77.733590747189737 0 0 0 0 -3.7113269932999913 37.48123934785491 0 37.48123934785491 64.812474639675202 0 0 0 0 -3.978665008173178 6.9162832164371117 0 6.9162832164371117 32.708513932582136 0 0 0 0 -2.5957780784503939 0.88286056559809367 0 0.88286056559809367 15.70266769824957 0 0 0 0 50.400457158167455 28.388429934864689 0 28.388429934864689 96.786864545632852 0 0 0 0 -0.26142065589938523 -6.9075638158347772 0 -6.9075638158347772 53.785697249827749 0 0 0 0 -21.483596946684202 3.4509205211361405 0 3.4509205211361405 28.678527873023995 0 0 0 0 -6.6627671426708499 10.465611204995643 0 10.465611204995643 53.966319912230219 0 0 0 0 -7.9853590841231226 22.391941111704032 0 22.391941111704032 49.081502796870296 0 0 0 0 -62.195386050402021 -78.617478238709737 0 -78.617478238709737 -37.065185913706955 0 0 0 0 37.151365998932533 -246.23322004918737 0 -246.23322004918737 -20.862780642040889 0 0 0 0 -350.33574795387182 28.7246389681859 0 28.7246389681859 163.19463748116686 0 0 0 0 -132.69961613326859 52.802549235504557 0 52.802549235504557 115.40681395609136 0 0 0 0 -127.11962529313928 25.293165391383809 0 25.293165391383809 250.29648901674955 0 0 0 0 -3.3573077766910391 -4.7137511109212973 0 -4.7137511109212973 8.3844882767348423 0 0 0 0 87.407128807793981 -13.126618625607989 0 -13.126618625607989 85.783482602098957 0 0 0 0 7.8562248778893036 -62.970323627218022 0 -62.970323627218022 65.451263150505838 0 0 0 0 -352.70633096345841 58.831501798078534 0 58.831501798078534 700.75231323256594 0 0 0 0 -128.03578286132509 165.59580454667434 0 165.59580454667434 126.66466259238496 0 0 0 0 -2.3103968767057736 135.73135269345551 0 135.73135269345551 184.95644183502282 0 0 0 0 -2.035885875066068 117.94415027890273 0 117.94415027890273 30.943290194378733 0 0 0 0 -0.96854932596187548 18.523279193355876 0 18.523279193355876 115.04399651757747 0 0 0 0 -23.385314344701101 60.750355218821596 0 60.750355218821596 70.519287704275484 0 0 0 0 20.65276754821889 85.40568740155777 0 85.40568740155777 39.775015199417339 0 0 0 0 -11.382089100888091 -8.515109529940986 0 -8.515109529940986 30.24696394582233 0 0 0 0 -3.0868026304064875 8.4315542951331715 0 8.4315542951331715 71.697090209617613 0 0 0 0 -2.6142229204095107 16.092188039380702 0 16.092188039380702 7.487533300911263 0 0 0 0 -11.22837471611416 20.756703154552724 0 20.756703154552724 35.184804532804719 0 0 0 0 219.51030687796975 164.95322529709165 0 164.95322529709165 69.245041122929251 0 0 0 0 116.34231936474731 147.23711315802973 0 147.23711315802973 72.884538543442432 0 0 0 0 9.5451574090863005 2.3620233039426637 0 2.3620233039426637 89.864811342084067 0 0 0 0 1.9536541487072141 -0.29137862125894598 0 -0.29137862125894598 0.98452351480236722 0 0 0 0 -48.42633312243106 -33.809669510101457 0 -33.809669510101457 24.878344879586166 0 0 0 0 3.509536473803986 -2.7808711342415151 0 -2.7808711342415151 5.7435069945888975 0 0 0 0 -64.696664165770187 3.1238872482073248 0 3.1238872482073248 67.993844135489326 0 0 0 0 -22.587318434752476 41.085297972069469 0 41.085297972069469 70.889349565973134 0 0 0 0 -18.530031470201834 -2.0260711653972976 0 -2.0260711653972976 13.896165344840369 0 0 0 0 -0.81075388470890175 14.025510900723248 0 14.025510900723248 26.012995227169995 0 0 0 0 -4.0029068177427263 18.917215988019848 0 18.917215988019848 35.318568754209991 0 0 0 0 -8.4462523235563367 10.436905453618238 0 10.436905453618238 34.50825722531772 0 0 0 0 -2.5580441560113862 7.1640128201795976 0 7.1640128201795976 28.6105755826269 0 0 0 0 -15.409570368101299 17.794638763812372 0 17.794638763812372 38.923814476849657 0 0 0 0 -11.05082581526176 15.725479057699886 0 15.725479057699886 38.59983346249237 0 0 0 0 -1.1174785698319409 -2.4653155183359328 0 -2.4653155183359328 32.636215117114254 0 0 0 0 -1.2271700319371064 5.6186609679338089 0 5.6186609679338089 23.360254556480122 0 0 0 0 -6.5485217790146208 4.3259761704057382 0 4.3259761704057382 40.464642525522493 0 0 0 0 1.2976344927666332 0.86289553257392981 0 0.86289553257392981 30.04193888757618 0 0 0 0 2.1918023635994359 -12.010112790239873 0 -12.010112790239873 36.896841069264156 0 0 0 0 -19.938355982277699 -15.523424906472428 0 -15.523424906472428 52.947684283019044 0 0 0 0 -6.0340721965677346 3.8552150692229361 0 3.8552150692229361 23.940809939397695 0 0 0 0 -8.0426785501553013 6.3514430685963816 0 6.3514430685963816 21.388540636662583 0 0 0 0 -5.7911567450167922 1.5752851279323377 0 1.5752851279323377 16.14913615838239 0 0 0 0 -2.1997886812308072 0.65187786781308699 0 0.65187786781308699 16.0482590850132 0 0 0 0 -62.568648884997629 3.9801812513534358 0 3.9801812513534358 38.964496642541235 0 0 0 0 -52.876586803854821 31.548033772338549 0 31.548033772338549 50.922380822962396 0 0 0 0 -6.753855476611534 22.052230418316242 0 22.052230418316242 16.081240647103812 0 0 0 0 13.705692679812046 31.745563190152552 0 31.745563190152552 -6.8843859251917578 0 0 0 0 25.978757426978291 -29.457350121054674 0 -29.457350121054674 32.294696630046246 0 0 0 0 45.691027136725097 -53.815668208541695 0 -53.815668208541695 -11.589710158013162 0 0 0 0 43.556170357859855 -32.789810497931654 0 -32.789810497931654 88.576904142752142 0 0 0 0 46.573404621081863 -84.840827115654236 0 -84.840827115654236 95.099669767347564 0 0 0 0 85.94521752912874 -73.735702909877148 0 -73.735702909877148 76.520431625025083 0 0 0 0 25.329378171261283 -38.184038462657583 0 -38.184038462657583 100.52988136881487 0 0 0 0 0.22598978461643615 -0.96818271090688457 0 -0.96818271090688457 10.423092315343903 0 0 0 0 35.063266868087112 -18.930741082502713 0 -18.930741082502713 -103.33489009849201 0 0 0 0 0.24956226141056514 -0.055521910564273025 0 -0.055521910564273025 1.3071054104834101 0 0 0 0 2.0244746068021868 -58.060339076688997 0 -58.060339076688997 86.668838259786483 0 0 0 0 43.873412285133668 44.530763169063562 0 44.530763169063562 33.952777391310747 0 0 0 0 -102.10008438509931 -23.838920571054143 0 -23.838920571054143 233.96355336787443 0 0 0 0 41.825352925127277 88.814782337454901 0 88.814782337454901 -28.002085378694417 0 0 0 0 108.41045832223739 -114.01108596967094 0 -114.01108596967094 86.027794669971172 0 0 0 0 160.59244504986805 60.854734346496798 0 60.854734346496798 -148.46698128063508 0 0 0 0 0.14482224456470083 -0.28115943666402532 0 -0.28115943666402532 3.7500936019308924 0 0 0 0 137.78555315976337 -115.98931551848426 0 -115.98931551848426 5.1029443413306126 0 0 0 0 73.112141859744753 26.682086873687542 0 26.682086873687542 23.264052600114155 0 0 0 0 79.392410732911458 -44.38249086926777 0 -44.38249086926777 119.26205447534323 0 0 0 0 151.56425384802037 -61.381485922161886 0 -61.381485922161886 -2.9929071774341232 0 0 0 0 213.16749679524696 -22.126430881675049 0 -22.126430881675049 21.977373026806617 0 0 0 0 195.68837687257235 -77.70117263670285 0 -77.70117263670285 -4.4069837352071488 0 0 0 0 150.99279045154435 -45.357732189569198 0 -45.357732189569198 -102.12765144609966 0 0 0 0 83.288586104212527 -10.682243561457616 0 -10.682243561457616 110.51819548322663 0 0 0 0 70.97359077047696 -46.778703228513244 0 -46.778703228513244 50.943468685637555 0 0 0 0 187.50973238220672 -108.59482476421071 0 -108.59482476421071 -49.437618257661015 0 0 0 0 225.95199707057054 -217.94891183540648 0 -217.94891183540648 48.883833098394945 0 0 0 0 241.49773223456583 -35.536021867804664 0 -35.536021867804664 -0.74244148946024779 0 0 0 0 241.33229760697077 -76.921499470429467 0 -76.921499470429467 -33.119160806625516 0 0 0 0 224.07533077463893 -67.442108119774275 0 -67.442108119774275 -37.75020757998584 0 0 0 0 180.48383564338167 -139.90767137013063 0 -139.90767137013063 18.219370157386265 0 0 0 0 270.29038471807797 -44.858857736593336 0 -44.858857736593336 -60.365130508951665 0 0 0 0 228.30504011240441 -101.90829559608096 0 -101.90829559608096 -76.360820870709261 0 0 0 0 169.97805665288681 -22.520705839016721 0 -22.520705839016721 -171.61729781244995 0 0 0 0 1.6231318225686753 -1.4875789565786017 0 -1.4875789565786017 1.0626167736594139 0 0 0 0 246.11274314864744 -179.06698258335342 0 -179.06698258335342 -196.37474705956751 0 0 0 0 99.014166600308727 -239.58735131226899 0 -239.58735131226899 215.74257088854748 0 0 0 0 -43.982691678390253 -110.71705151985719 0 -110.71705151985719 259.9221127353477 0 0 0 0 112.74561923772376 -23.355603812432491 0 -23.355603812432491 138.65886381396899 0 0 0 0 94.315371646037875 -118.34714159007802 0 -118.34714159007802 189.58122886638182 0 0 0 0 227.18839491675385 -62.819440546473345 0 -62.819440546473345 61.744647243198187 0 0 0 0 83.359315312388048 -71.615623289817108 0 -71.615623289817108 59.416961565604652 0 0 0 0 97.424019152772189 -46.446251984444359 0 -46.446251984444359 32.360020247175271 0 0 0 0 48.695056673238469 -9.7145034058370356 0 -9.7145034058370356 46.54714150373195 0 0 0 0 83.249692168362685 -57.02162288935574 0 -57.02162288935574 66.425777242750883 0 0 0 0 108.72856763323284 -138.1527347840489 0 -138.1527347840489 74.494965461186112 0 0 0 0 243.67179325537597 -177.08914188142802 0 -177.08914188142802 78.817444517392914 0 0 0 0 145.4703517947878 -78.121727199168276 0 -78.121727199168276 38.426556826202159 0 0 0 0 92.15554268823854 -124.56493577362824 0 -124.56493577362824 64.761807592895138 0 0 0 0 30.485222651843287 -51.463140807345326 0 -51.463140807345326 38.048994947740255 0 0 0 0 58.731719019863817 -59.08752406979778 0 -59.08752406979778 22.026807374700638 0 0 0 0 52.295116067538856 -75.963846897380336 0 -75.963846897380336 70.916716963462022 0 0 0 0 71.371211162286272 -95.311555374832324 0 -95.311555374832324 54.433740413862097 0 0 0 0 72.900678913043066 -108.56082416157278 0 -108.56082416157278 76.99108082098428 0 0 0 0 82.5603875860823 -76.124436363638324 0 -76.124436363638324 33.059194517533115 0 0 0 0 69.811815729468208 -29.760256287783932 0 -29.760256287783932 15.754497152649492 0 0 0 0 53.680369823627643 -65.582237560017461 0 -65.582237560017461 45.081871596280848 0 0 0 0 34.194243293309228 -23.159492476425612 0 -23.159492476425612 36.864087565831227 0 0 0 0 24.735649381996609 -1.9989745196080548 0 -1.9989745196080548 6.0285947390980255 0 0 0 0 18.73570937196871 -26.741489405446714 0 -26.741489405446714 29.802402204252758 0 0 0 0 36.884304049774641 -1.3635937624954408 0 -1.3635937624954408 -4.6755314161873684 0 0 0 0 -9.4508075230996837 11.126916515804623 0 11.126916515804623 1.9934819899185641 0 0 0 0 -2.8742356929265043 -7.3409724179052773 0 -7.3409724179052773 17.033546333644153 0 0 0 0 29.108974459396677 -58.596342335615702 0 -58.596342335615702 17.867923536555281 0 0 0 0 8.5125343856179825 -50.06720444878647 0 -50.06720444878647 7.2483950547834866 0 0 0 0 9.6706278193574917 -13.600844914992081 0 -13.600844914992081 47.059266126826742 0 0 0 0 8.4206731056124227 -39.942627769090677 0 -39.942627769090677 16.931917146637261 0 0 0 0 38.400557861993548 -47.502145198549897 0 -47.502145198549897 5.2603922822213462 0 0 0 0 -19.672916640957737 -50.740537048945043 0 -50.740537048945043 17.390441644286966 0 0 0 0 -60.716410984524373 16.616368113609269 0 16.616368113609269 14.218838396561296 0 0 0 0 -32.621540150606506 -58.76687796795818 0 -58.76687796795818 1.9524325645627414 0 0 0 0 -54.128776564244617 32.87105212462825 0 32.87105212462825 110.50432988326747 0 0 0 0 -112.05716383939972 -87.040930107902341 0 -87.040930107902341 400.68271525771161 0 0 0 0 -101.15946619875785 -118.6065613248835 0 -118.6065613248835 194.59833778782422 0 0 0 0 -100.53968237569097 20.807633705801436 0 20.807633705801436 191.38152898306754 0 0 0 0 -101.00553057995486 -113.84097436555501 0 -113.84097436555501 319.18978342676928 0 0 0 0 -99.831393662930168 -34.49682065135903 0 -34.49682065135903 288.65279963983403 0 0 0 0 -4.7194732983166432 -23.120362490722982 0 -23.120362490722982 49.333830586602744 0 0 0 0 -1.1691774848885093 -0.55136231327854013 0 -0.55136231327854013 -0.4391437488725729 0 0 0 0 -1.3651459311902834 -1.2604561708723607 0 -1.2604561708723607 -0.65421596578680385 0 0 0 0 -103.11727217283817 -18.962935611540274 0 -18.962935611540274 431.73514470646978 0 0 0 0 154.76538475736879 25.991520685743581 0 25.991520685743581 441.63093931295225 0 0 0 0 9.2761096992342402 -24.272493456407688 0 -24.272493456407688 47.959745812160463 0 0 0 0 39.990396909091942 -14.994754166486928 0 -14.994754166486928 9.2119708737066048 0 0 0 0 33.710746886383276 -41.861118767207245 0 -41.861118767207245 4.1860401318576805 0 0 0 0 42.924126243312458 -28.38534059988865 0 -28.38534059988865 15.237386462708628 0 0 0 0 36.351231878906674 -47.691640277921579 0 -47.691640277921579 30.952552589831612 0 0 0 0 50.209921906312047 -60.825708861357043 0 -60.825708861357043 50.193870714627792 0 0 0 0 43.322810477779896 -45.432298401330357 0 -45.432298401330357 64.486426625046988 0 0 0 0 7.7379355337116067 1.1927829469432254 0 1.1927829469432254 46.082979515801298 0 0 0 0 -87.160908586290589 57.204633042345336 0 57.204633042345336 613.14862369371178 0 0 0 0 1101.3934746760287 143.10423905767584 0 143.10423905767584 448.79565619577352 0 0 0 0 -28.755365264847569 287.86627097695987 0 287.86627097695987 501.30017043529131 0 0 0 0 -75.507633217018565 72.878751489566667 0 72.878751489566667 408.08970634573006 0 0 0 0 -32.439704881867101 51.356896478237033 0 51.356896478237033 368.19823869395287 0 0 0 0 -52.189282763819392 154.9446015308755 0 154.9446015308755 374.81086057270767 0 0 0 0 -29.892917563097768 109.24104452009448 0 109.24104452009448 276.10548985323396 0 0 0 0 14.661529481791206 193.88541951691764 0 193.88541951691764 246.05614836568475 0 0 0 0 32.024330935841306 142.89371946435881 0 142.89371946435881 136.19245841719976 0 0 0 0 72.091694135691114 180.86176495655377 0 180.86176495655377 139.59182840821916 0 0 0 0 81.395334576708706 135.60372663915314 0 135.60372663915314 -42.370571081834214 0 0 0 0 25.785033588341662 304.49243580236288 0 304.49243580236288 237.79856821226804 0 0 0 0 88.579070578225867 281.43341383439406 0 281.43341383439406 75.726157253339579 0 0 0 0 12.31854954074538 183.16531869987227 0 183.16531869987227 280.76755456099681 0 0 0 0 111.0342081597226 112.91374804548286 0 112.91374804548286 -107.74068090071751 0 0 0 0 72.724192960730477 142.73383398086435 0 142.73383398086435 -46.677011072444202 0 0 0 0 31.868948773466172 94.070695662172284 0 94.070695662172284 -8.3382658996838472 0 0 0 0 73.950777525530839 77.264196352288536 0 77.264196352288536 -49.570635027012031 0 0 0 0 97.549877860507792 110.63421351481793 0 110.63421351481793 -5.8950049401034335 0 0 0 0 137.04938907928806 121.54941387265944 0 121.54941387265944 -162.70444646599253 0 0 0 0 78.01785892617886 82.535801808609449 0 82.535801808609449 -97.514065025168293 0 0 0 0 -117.74842562432423 -26.753189256695123 0 -26.753189256695123 -3.4366439847451602 0 0 0 0 48.34239213883302 36.302853036740544 0 36.302853036740544 -74.365281729225217 0 0 0 0 22.058164227751831 -20.38059096145264 0 -20.38059096145264 -195.115300289277 0 0 0 0 -38.036822783600428 41.663975871746629 0 41.663975871746629 48.890076229073998 0 0 0 0 -41.070264582814843 71.34054422396548 0 71.34054422396548 74.228536017442991 0 0 0 0 -109.2221364396446 28.721940724844799 0 28.721940724844799 183.88553846583267 0 0 0 0 13.020079429619614 127.46745759305189 0 127.46745759305189 183.30676407988381 0 0 0 0 -30.941593046180969 98.692521298517192 0 98.692521298517192 177.34411208137521 0 0 0 0 -97.0438856792141 68.761248442243726 0 68.761248442243726 262.01230577078468 0 0 0 0 -92.158475066286428 55.878495061328636 0 55.878495061328636 290.22862422427261 0 0 0 0 -99.208551299019291 0.38783017683533672 0 0.38783017683533672 247.88859703989988 0 0 0 0 -78.159682267060816 37.075614342203153 0 37.075614342203153 270.8684269818325 0 0 0 0 -94.288334095537721 25.649958041269088 0 25.649958041269088 332.91112677884979 0 0 0 0 -100.11081944358443 54.650752349181865 0 54.650752349181865 208.37507801389137 0 0 0 0 -105.58546162478842 28.635909260752577 0 28.635909260752577 228.35113837644974 0 0 0 0 41.853297083498546 77.188914370150371 0 77.188914370150371 144.42536704640997 0 0 0 0 -0.32820602488027406 1.3648785617020698 0 1.3648785617020698 3.3229726830918698 0 0 0 0 -108.70513567332489 34.851563700824698 0 34.851563700824698 253.65056604865413 0 0 0 0 36.80526685240784 -124.47297814184185 0 -124.47297814184185 125.99972493247787 0 0 0 0 131.21444977149531 98.113554053933058 0 98.113554053933058 -291.49790251218133 0 0 0 0 4.5733444327228465 1.5623365190335532 0 1.5623365190335532 -0.13847993665659075 0 0 0 0 -38.520740715907664 -39.589278291200571 0 -39.589278291200571 151.6327151107248 0 0 0 0 225.59916372992438 -73.8222048409325 0 -73.8222048409325 -192.43449913963286 0 0 0 0 -108.60084606252394 83.387907772977769 0 83.387907772977769 -46.145841564294869 0 0 0 0 -31.829197050320545 129.78134101543196 0 129.78134101543196 -70.291625968420703 0 0 0 0 -1.1643178222645378 -1.4326367827719206 0 -1.4326367827719206 7.1833760354431142 0 0 0 0 33.517043802000444 3.6539732922674375 0 3.6539732922674375 56.986855896202087 0 0 0 0 3.5666247578276629 2.2438409525786938 0 2.2438409525786938 9.6889485415910386 0 0 0 0 -89.865358218304664 169.19269768944548 0 169.19269768944548 216.96213015896933 0 0 0 0 127.09898230291719 -87.419265634219443 0 -87.419265634219443 49.289814298552528 0 0 0 0 -32.568704844096828 -93.229106252178894 0 -93.229106252178894 233.56760738615725 0 0 0 0 -74.402711184491181 18.150630415296007 0 18.150630415296007 71.299980088571147 0 0 0 0 -7.670231327816964 -65.720733646632624 0 -65.720733646632624 29.410024248367336 0 0 0 0 -1.8007956679629729 -5.6293641956798695 0 -5.6293641956798695 12.771211089969256 0 0 0 0 -4.9713238378426716 -3.4246475403130221 0 -3.4246475403130221 4.2460248059832164 0 0 0 0 -18.437315928032149 -30.494051193980567 0 -30.494051193980567 22.861633827598268 0 0 0 0 24.315575309452242 -14.048347264224049 0 -14.048347264224049 26.406174632191551 0 0 0 0 9.7999717260352099 25.98396015813546 0 25.98396015813546 -27.427318432554557 0 0 0 0 -3.9241235845935036 -2.2537651648024148 0 -2.2537651648024148 1.0705406067128806 0 0 0 0 -6.4245589891422821 -2.4742641901861764 0 -2.4742641901861764 1.1060792154723749 0 0 0 0 -23.455748085448249 -13.243174419484149 0 -13.243174419484149 -3.7242806729404094 0 0 0 0 1.4830002062035419 -17.592267271174023 0 -17.592267271174023 45.487770744339286 0 0 0 0 -48.537234020118376 26.864006994359272 0 26.864006994359272 12.36314553072225 0 0 0 0 0.79899508520872597 -0.4805732926853814 0 -0.4805732926853814 -0.16963182205268934 0 0 0 0 -1.9145039729883138 -5.4273921785106722 0 -5.4273921785106722 -5.5370304345108252 0 0 0 0 -7.5107447624258779 1.2014035995715524 0 1.2014035995715524 8.1333055019676799 0 0 0 0 4.9207617294823649 -7.643390732177977 0 -7.643390732177977 -22.629511441570003 0 0 0 0 -59.457325274782193 10.805964785113801 0 10.805964785113801 24.594004817925452 0 0 0 0 18.607849014445492 13.594884524780809 0 13.594884524780809 -29.970335534244668 0 0 0 0 -23.452048486715441 -0.71618525757052076 0 -0.71618525757052076 10.981110167478301 0 0 0 0 6.4654450351117703 2.9888549410439964 0 2.9888549410439964 14.434960447658568 0 0 0 0 51.602543000480182 -6.14997743530256 0 -6.14997743530256 2.7066782342985789 0 0 0 0 0.11218763362813888 12.426382174684058 0 12.426382174684058 6.6788531272142109 0 0 0 0 -2.8128286055305471 0.8007989240620601 0 0.8007989240620601 3.5934577622167883 0 0 0 0 -15.672951870814813 -1.648553770913054 0 -1.648553770913054 -1.0742399410262351 0 0 0 0 -26.184531215901643 6.1544727267188364 0 6.1544727267188364 12.571090674135689 0 0 0 0 -6.9532703378990917 3.9642039948553069 0 3.9642039948553069 14.95302730572814 0 0 0 0 0.53429698561558325 -16.112897583610902 0 -16.112897583610902 41.458429617860929 0 0 0 0 -12.655586879427574 4.4223301862506759 0 4.4223301862506759 12.286990830401464 0 0 0 0 -9.9629623406927976 -9.0109568479757094 0 -9.0109568479757094 14.68109643173322 0 0 0 0 -3.7064046985569803 -6.0367617248302849 0 -6.0367617248302849 31.472440290173836 0 0 0 0 -3.9548107874598433 -0.20878886451100787 0 -0.20878886451100787 24.405265167073278 0 0 0 0 -12.426341352137854 3.1244833066129294 0 3.1244833066129294 16.447794541939359 0 0 0 0 -10.859579642615927 5.4620796687382835 0 5.4620796687382835 8.9252014537889295 0 0 0 0 -8.0692312262004187 -0.69609052694624052 0 -0.69609052694624052 11.469391339895923 0 0 0 0 -2.5606063832094685 -3.3255497162648471 0 -3.3255497162648471 7.6836710410280666 0 0 0 0 0.58021696562380498 -14.700140354388992 0 -14.700140354388992 42.099467658752474 0 0 0 0 -2.61790844501229 -2.2544108238034823 0 -2.2544108238034823 53.397669975900499 0 0 0 0 -0.058575998101273008 4.1816756400966106 0 4.1816756400966106 18.199653745126636 0 0 0 0 5.9311681680555921 -8.7336350690748077 0 -8.7336350690748077 37.046181551551854 0 0 0 0 -11.076034414504353 2.5903400488064809 0 2.5903400488064809 18.897123514333632 0 0 0 0 -6.4488145270649966 3.043415434211056 0 3.043415434211056 8.5610147769175455 0 0 0 0 2.6895361708302516 -7.0705032702153403 0 -7.0705032702153403 45.103517059509613 0 0 0 0 2.7205170983694416 3.02099170440124 0 3.02099170440124 41.691447228156449 0 0 0 0 -2.8801998858419395 2.4926804721519318 0 2.4926804721519318 47.872186803644581 0 0 0 0 -2.6907179169328952 3.9481844314510397 0 3.9481844314510397 13.993383248193865 0 0 0 0 -0.30538109082085896 1.1856246082365622 0 1.1856246082365622 25.011037104954859 0 0 0 0 -1.9520264709872492 0.13182532895473287 0 0.13182532895473287 48.456643879357216 0 0 0 0 -65.82192869108394 -43.188708152409731 0 -43.188708152409731 43.656770378639521 0 0 0 0 -2.1078394586972991 1.3343602921395359 0 1.3343602921395359 39.193111114331259 0 0 0 0 -7.8879882526016445 2.6706297166701916 0 2.6706297166701916 48.893214861507658 0 0 0 0 -4.0690186464782583 0.13377383851447977 0 0.13377383851447977 43.699352253649472 0 0 0 0 -3.8361921731707298 2.4475935029877292 0 2.4475935029877292 45.454720209279913 0 0 0 0 -9.805643302928388 -4.0366678306847916 0 -4.0366678306847916 43.368252005631803 0 0 0 0 -0.82211815542499656 0.61736632587115814 0 0.61736632587115814 39.335449402971037 0 0 0 0 -108.43558968113803 -5.1260508859708693 0 -5.1260508859708693 79.057333128326036 0 0 0 0 -2.9622007319785553 -10.669426288373415 0 -10.669426288373415 62.271548314724441 0 0 0 0 -1.6316736338185525 0.97202429088313025 0 0.97202429088313025 23.734475717251943 0 0 0 0 -0.87962545237389378 0.34566245472184498 0 0.34566245472184498 34.149688888201979 0 0 0 0 -3.0500983808992199 2.6851592325737528 0 2.6851592325737528 41.65997394841591 0 0 0 0 -0.13941398108534031 4.8265385128227081 0 4.8265385128227081 41.355315481843718 0 0 0 0 7.8325583867424742 -0.14677886171347154 0 -0.14677886171347154 6.7278671099701235 0 0 0 0 -0.50819062050493358 -17.761134282183775 0 -17.761134282183775 41.096253024938051 0 0 0 0 1.5163839301517328 4.1407721120021961 0 4.1407721120021961 41.463144602881584 0 0 0 0 13.475165869724151 -3.0993648092771764 0 -3.0993648092771764 46.960687753162347 0 0 0 0 -2.07368786069364 5.9185305405661435 0 5.9185305405661435 34.185100027034807 0 0 0 0 -34.526426699545937 11.745092442211899 0 11.745092442211899 44.608464243950039 0 0 0 0 -1.7848706732372432 2.870527086172844 0 2.870527086172844 43.270372340259719 0 0 0 0 2.1900299738792341 -2.8058046029259458 0 -2.8058046029259458 41.486074383235973 0 0 0 0 -29.50565716957999 31.637182441032564 0 31.637182441032564 121.49933345833415 0 0 0 0 -0.28177024320820898 -0.43667397825902299 0 -0.43667397825902299 6.0162327908698998 0 0 0 0 -2.163489411574119 -14.882038750947686 0 -14.882038750947686 101.35548440129241 0 0 0 0 6.2191937852287538 14.671091928154055 0 14.671091928154055 90.801769004730886 0 0 0 0 53.145363756289498 1.1159702872882917 0 1.1159702872882917 13.011767626900109 0 0 0 0 4.1566876386126932 -0.1253541388608852 0 -0.1253541388608852 -1.1328566008920404 0 0 0 0 10.593366672373037 8.1069278818849853 0 8.1069278818849853 7.7208191742311101 0 0 0 0 1.6846519030368654 4.1930735528185323 0 4.1930735528185323 66.754548696332677 0 0 0 0 -3.9691341213722353 -2.9023786613142875 0 -2.9023786613142875 74.922976850088162 0 0 0 0 0.20293599584738331 -7.0872580761497375 0 -7.0872580761497375 63.524829663856508 0 0 0 0 2.2845041284385843 -8.8994197577758314 0 -8.8994197577758314 47.385929629566817 0 0 0 0 -0.18303107179826839 -9.8273601780310855 0 -9.8273601780310855 64.569640373440961 0 0 0 0 24.673776089203784 -29.696365294361385 0 -29.696365294361385 58.495149725549709 0 0 0 0 -1.3215682295388413 5.489896691730106 0 5.489896691730106 1.6883305143512075 0 0 0 0 17.725222817716713 -4.7244396615533333 0 -4.7244396615533333 27.58543661405929 0 0 0 0 0.45747989813764889 2.3621004292417638 0 2.3621004292417638 32.882984272673639 0 0 0 0 -6.0082846521829651 3.8236648074152981 0 3.8236648074152981 20.668950540732112 0 0 0 0 -0.79426483131152414 2.2175348311291305 0 2.2175348311291305 22.377625358856932 0 0 0 0 4.3265848615758387 -0.84307539745896065 0 -0.84307539745896065 27.077561579422763 0 0 0 0 -7.1786000754808157 -2.3668709081749739 0 -2.3668709081749739 27.205976180594007 0 0 0 0 0.32761476928430966 -9.4155670159379952 0 -9.4155670159379952 33.600830130471877 0 0 0 0 -54.499941670027169 33.603602149911239 0 33.603602149911239 136.93682879687003 0 0 0 0 -79.765256734604236 -26.882499889377868 0 -26.882499889377868 81.181582802169032 0 0 0 0 57.933664635946826 54.429860271983671 0 54.429860271983671 62.808146070317889 0 0 0 0 -46.672448034640411 -53.264084276711401 0 -53.264084276711401 -26.745377913208358 0 0 0 0 2.3319966571172848 -4.1300516434161523 0 -4.1300516434161523 4.7765065838831191 0 0 0 0 -17.937735753320908 10.377587758601294 0 10.377587758601294 41.265062829967064 0 0 0 0 -25.915906154469553 25.079435865340201 0 25.079435865340201 54.049857256894029 0 0 0 0 -24.517234289311432 -0.67444873902422842 0 -0.67444873902422842 54.07090092816361 0 0 0 0 -6.0733394445063595 31.405666131075122 0 31.405666131075122 44.652089904250715 0 0 0 0 -7.2555924737156374 35.450152121287829 0 35.450152121287829 67.086030029367976 0 0 0 0 40.505970299907325 37.535959028833531 0 37.535959028833531 42.226326236941532 0 0 0 0 3.4640600599452966 26.583893595785412 0 26.583893595785412 39.460006557850647 0 0 0 0 3.3529535724365758 12.709727991986256 0 12.709727991986256 41.474543204170914 0 0 0 0 -5.8327521506153062 20.710411251318874 0 20.710411251318874 41.01491899071334 0 0 0 0 3.3150683463841979 28.450122063746562 0 28.450122063746562 46.777185409784579 0 0 0 0 -5.8141240192320538 13.130810801726511 0 13.130810801726511 52.00570280654938 0 0 0 0 -3.0490370202913937 15.932894475527064 0 15.932894475527064 47.712586252778237 0 0 0 0 3.4577971712785711 14.263457577200825 0 14.263457577200825 41.505622085183859 0 0 0 0 8.1264899531744277 2.8340032884134416 0 2.8340032884134416 48.943432404561463 0 0 0 0 1.0389541083245604 10.676417548073005 0 10.676417548073005 40.352272170066499 0 0 0 0 -6.5843069628481317 5.7124558221294137 0 5.7124558221294137 30.040319220961919 0 0 0 0 1.6459740825192704 5.4303123773554924 0 5.4303123773554924 34.463120886523058 0 0 0 0 1.2707160295357562 5.3471254188776758 0 5.3471254188776758 36.370442991276192 0 0 0 0 -12.232567911775845 -5.6468679376895921 0 -5.6468679376895921 74.815064703533608 0 0 0 0 1.5443728818090676 15.110829765157632 0 15.110829765157632 53.619431303000056 0 0 0 0 4.769456705151697 31.73682038968218 0 31.73682038968218 68.041127279559078 0 0 0 0 0.96369112128263268 4.6023881612598068 0 4.6023881612598068 28.828143107086362 0 0 0 0 -0.13420299996278118 4.695074446407034 0 4.695074446407034 24.616581849291833 0 0 0 0 3.816931367622812 7.1182874535291516 0 7.1182874535291516 33.256918384119977 0 0 0 0 3.1490560530795051 19.621195815063402 0 19.621195815063402 32.779275907298143 0 0 0 0 5.6800990803677927 11.439357336553979 0 11.439357336553979 12.723107216206778 0 0 0 0 -19.798094691956067 -12.522792537050918 0 -12.522792537050918 24.532285983394104 0 0 0 0 -3.5061886472317383 5.0672784906910238 0 5.0672784906910238 29.571782432089094 0 0 0 0 -14.839982139878771 14.920583674549562 0 14.920583674549562 47.927257382189964 0 0 0 0 28.586419107167274 66.889333867948153 0 66.889333867948153 49.687496760422619 0 0 0 0 3.6372637489646005 -3.251444306048981 0 -3.251444306048981 6.5709603583147427 0 0 0 0 14.682733417333992 -10.448417826795776 0 -10.448417826795776 16.695258763138554 0 0 0 0 2.7331479180236427 -0.59122035426183928 0 -0.59122035426183928 1.6493335099199413 0 0 0 0 89.718350207555432 46.319951627981936 0 46.319951627981936 -52.159224112328957 0 0 0 0 -23.133523857059231 89.060308727518532 0 89.060308727518532 3.0714726947408053 0 0 0 0 77.709725174182026 -5.1912990096880094 0 -5.1912990096880094 24.622994276074678 0 0 0 0 64.235465970421771 36.324074082005609 0 36.324074082005609 -22.807451779917756 0 0 0 0 45.561277584913114 9.626271328853818 0 9.626271328853818 32.377487697812285 0 0 0 0 50.2275494089115 32.340517357032695 0 32.340517357032695 22.360270913135082 0 0 0 0 57.356677540089777 52.786870270315376 0 52.786870270315376 30.203845440095392 0 0 0 0 4.4955674419954166 15.390897356426008 0 15.390897356426008 41.654587409384682 0 0 0 0 16.400825453511857 21.93022012396068 0 21.93022012396068 44.30455841663661 0 0 0 0 0.96635373316439654 34.507878098033189 0 34.507878098033189 81.11969540233531 0 0 0 0 0.21974767508439719 3.4781631457940874 0 3.4781631457940874 8.5401146858948955 0 0 0 0 10.467285813006356 13.338064112500433 0 13.338064112500433 39.158169055868029 0 0 0 0 -2.705235979680765 23.197472698945603 0 23.197472698945603 82.457299123891062 0 0 0 0 0.58101985656969646 17.802511263173358 0 17.802511263173358 89.385452820074534 0 0 0 0 -4.7102837750658182 1.8189143903846343 0 1.8189143903846343 82.220476442018025 0 0 0 0 -9.1864886320781807 21.380355215895179 0 21.380355215895179 109.06720428128673 0 0 0 0 3.1335919423618179 0.39974243512324392 0 0.39974243512324392 81.803326309287058 0 0 0 0 -0.02029291600069083 -1.1399671218047933 0 -1.1399671218047933 -1.0048889497230222 0 0 0 0 -8.9690086999546565 5.2698888686184091 0 5.2698888686184091 187.42999891483532 0 0 0 0 78.682595191688051 -84.584644808142912 0 -84.584644808142912 158.09078340486849 0 0 0 0 9.9006269220162721 -12.964141041432867 0 -12.964141041432867 108.0771448015912 0 0 0 0 6.8932213078119275 -20.507659685156113 0 -20.507659685156113 134.24668655172718 0 0 0 0 -3.4055591995775103 7.4546567955394494 0 7.4546567955394494 137.29483217046936 0 0 0 0 15.497872299808535 38.717632606980487 0 38.717632606980487 75.410758298247856 0 0 0 0 29.49639661454637 44.52513496810343 0 44.52513496810343 77.78569145854317 0 0 0 0 30.901891445965362 61.636145291525281 0 61.636145291525281 156.21099078931184 0 0 0 0 59.654082558455727 36.425344076559213 0 36.425344076559213 67.064101260703865 0 0 0 0 48.905087257014657 64.613052045017412 0 64.613052045017412 50.614565188275492 0 0 0 0 144.31853894229951 120.2785185218986 0 120.2785185218986 132.97408314021777 0 0 0 0 2.2889503750479436 -0.027061770128525175 0 -0.027061770128525175 -0.16039905357427697 0 0 0 0 106.48287194914005 69.538640696782295 0 69.538640696782295 -235.39399650327005 0 0 0 0 17.540742942127167 49.009219822200976 0 49.009219822200976 147.30575483209259 0 0 0 0 -98.208950997149145 34.366850045424144 0 34.366850045424144 356.1571218809122 0 0 0 0 13.690527873512949 48.929116870886219 0 48.929116870886219 194.30185770816934 0 0 0 0 147.41880798345727 189.42940091339597 0 189.42940091339597 34.656690969304691 0 0 0 0 44.866731391024587 2.331829140418904 0 2.331829140418904 208.57617120245095 0 0 0 0 67.967669723720121 154.00068260334137 0 154.00068260334137 370.00930282926493 0 0 0 0 297.64585320773779 96.559521386773213 0 96.559521386773213 107.14472638543793 0 0 0 0 26.38777014221651 -31.452597670716614 0 -31.452597670716614 32.800104792917409 0 0 0 0 94.063558398557916 30.256048524022845 0 30.256048524022845 32.446254544244766 0 0 0 0 76.40236472579906 6.9132617728746482 0 6.9132617728746482 96.175118431281362 0 0 0 0 -1.5833580511544794 0.15112785316936872 0 0.15112785316936872 2.1828931936579608 0 0 0 0 55.349090581227301 36.035304201513554 0 36.035304201513554 4.4179822572059493 0 0 0 0 43.838416046768884 35.943573096249679 0 35.943573096249679 23.154350539593906 0 0 0 0 39.768797802184849 17.037786538528053 0 17.037786538528053 9.6114621482547591 0 0 0 0 -1.2506257237781715 0.28421084414432229 0 0.28421084414432229 1.600879540979232 0 0 0 0 57.538352225738294 90.583847881266593 0 90.583847881266593 51.64717266111893 0 0 0 0 50.187582513415194 33.735282811463009 0 33.735282811463009 30.181687468861128 0 0 0 0 93.480581365634407 39.117715901328665 0 39.117715901328665 13.892696747379887 0 0 0 0 100.48415137432028 66.919030930973349 0 66.919030930973349 16.01109826503216 0 0 0 0 183.63026760987452 16.703713830595916 0 16.703713830595916 17.269260929808297 0 0 0 0 112.22898473746535 96.169884646183164 0 96.169884646183164 14.320608897340207 0 0 0 0 53.303274350452625 68.146622380045301 0 68.146622380045301 28.560659805433716 0 0 0 0 18.620742078824435 129.93968163328009 0 129.93968163328009 82.585235225604265 0 0 0 0 -189.71698273822653 40.084317103197918 0 40.084317103197918 89.374417798011564 0 0 0 0 113.37063040219354 346.87666912490204 0 346.87666912490204 266.51008930887292 0 0 0 0 -451.11758899352225 -190.17246954660669 0 -190.17246954660669 568.82866541618387 0 0 0 0 783.04464852992658 320.41836069365036 0 320.41836069365036 216.00526658409626 0 0 0 0 -108.14215443001713 424.48110979467901 0 424.48110979467901 1492.0679933203555 0 0 0 0 351.86928357047424 104.00938284326185 0 104.00938284326185 14.012845055734488 0 0 0 0 225.01687784623584 -22.097247986079765 0 -22.097247986079765 48.111804521777231 0 0 0 0 701.89535192030223 -1126.6113130502304 0 -1126.6113130502304 1497.0297209418532 0 0 0 0 1.9604242351379975 1.6329008644288123 0 1.6329008644288123 10.191377488188508 0 0 0 0 142.84284350463406 -429.29564941316949 0 -429.29564941316949 638.73877757233095 0 0 0 0 139.58032505684736 -243.3241555686418 0 -243.3241555686418 286.34934982692448 0 0 0 0 128.91398931232084 -390.96266516719788 0 -390.96266516719788 651.6362347543236 0 0 0 0 139.43124465301071 16.433878578167423 0 16.433878578167423 48.270439657112547 0 0 0 0 2.1073792006354863 6.6906909191193371 0 6.6906909191193371 25.951954883215087 0 0 0 0 138.57763125611359 -9.2470420609738539 0 -9.2470420609738539 33.648029618809232 0 0 0 0 91.876322140844877 32.987529450822421 0 32.987529450822421 23.098017468284525 0 0 0 0 -1.0408966638069375 0.28025763605343101 0 0.28025763605343101 1.2197963580474465 0 0 0 0 80.794340834488594 -23.740010523734782 0 -23.740010523734782 30.546157095255921 0 0 0 0 51.326314104468793 10.45715636238856 0 10.45715636238856 31.871062025433275 0 0 0 0 -111.8435552574733 19.546512646357769 0 19.546512646357769 225.17304987138414 0 0 0 0 31.214771842833493 43.79766348312296 0 43.79766348312296 199.83792727814216 0 0 0 0 2.8696628326428177 10.499072674439969 0 10.499072674439969 36.276813271046407 0 0 0 0 118.93143022518024 117.81025301077534 0 117.81025301077534 202.60094647042752 0 0 0 0 64.064530963896971 -143.93342050277897 0 -143.93342050277897 444.33903839326013 0 0 0 0 0.10473735674746359 0.0050264610769419349 0 0.0050264610769419349 0.83914847643256962 0 0 0 0 -30.250074072580354 -137.30129316214652 0 -137.30129316214652 434.76340516992786 0 0 0 0 95.378052157760138 -93.461864818362869 0 -93.461864818362869 444.56817083409624 0 0 0 0 -72.98983329251223 -79.96496447591926 0 -79.96496447591926 774.89310482645215 0 0 0 0 53.64598452431828 -329.49801721477525 0 -329.49801721477525 686.40415647555164 0 0 0 0 97.940458413878446 -112.02587331193786 0 -112.02587331193786 472.75962626971886 0 0 0 0 -21.67706330468323 -284.18957369736563 0 -284.18957369736563 752.46926303363944 0 0 0 0 -165.14719811013401 -463.88084447475194 0 -463.88084447475194 1500.6567025545257 0 0 0 0 84.873417995042018 -600.27246456968396 0 -600.27246456968396 1078.7099698087914 0 0 0 0 -179.9785160610185 -344.43505566727936 0 -344.43505566727936 1096.4349429350859 0 0 0 0 -39.436923383048551 -363.33601500705993 0 -363.33601500705993 1053.1358763530916 0 0 0 0 -192.16017583139822 -269.86142744712743 0 -269.86142744712743 1499.4240853104566 0 0 0 0 -131.46075783744851 -190.22860494033011 0 -190.22860494033011 1123.943893161395 0 0 0 0 -78.853503651762821 -136.55602053628718 0 -136.55602053628718 1124.8328599239392 0 0 0 0 -35.648298474055707 -171.66903674956302 0 -171.66903674956302 1129.918375371406 0 0 0 0 -42.294295426052429 -168.27371246517669 0 -168.27371246517669 940.4859368563375 0 0 0 0 -0.73241376228321542 179.76051086169537 0 179.76051086169537 416.91549112962093 0 0 0 0 58.7130784065561 -97.393896105225622 0 -97.393896105225622 251.6464597887425 0 0 0 0 1.1161095630485052 -1.6559396248712517 0 -1.6559396248712517 2.5571697003736915 0 0 0 0 1.9524096938715161 123.89692787342028 0 123.89692787342028 1246.4220701885761 0 0 0 0 67.079731510576821 -137.15961124667388 0 -137.15961124667388 -78.896275987168337 0 0 0 0 -96.934359013194353 -26.212278979942766 0 -26.212278979942766 147.21579645801239 0 0 0 0 61.996029291399282 -34.710341110348963 0 -34.710341110348963 52.810020814825293 0 0 0 0 -45.245341130547843 18.763544990361083 0 18.763544990361083 -69.974028689114675 0 0 0 0 84.986103112063205 -97.49833827472753 0 -97.49833827472753 41.134368514284688 0 0 0 0 -222.21293165004658 207.7661687452877 0 207.7661687452877 -18.266425543152764 0 0 0 0 -6.8134730398156762 -211.13635485351301 0 -211.13635485351301 111.72284944815306 0 0 0 0 -0.48211488827776405 -0.44585275749639219 0 -0.44585275749639219 -0.83802377459727939 0 0 0 0 -128.03164333157372 -104.10210384920401 0 -104.10210384920401 14.072378936612949 0 0 0 0 -203.54490773047485 -52.406770598899811 0 -52.406770598899811 82.552617903246755 0 0 0 0 -155.89294432438265 -123.24139017165726 0 -123.24139017165726 192.54840259025946 0 0 0 0 -203.93628080912362 17.644049801443686 0 17.644049801443686 134.67821000018921 0 0 0 0 134.2764862699064 24.148511281593301 0 24.148511281593301 -44.200053038780311 0 0 0 0 114.66991153963409 158.73014815616716 0 158.73014815616716 239.6579075819372 0 0 0 0 151.54365709482931 7.5229865312826405 0 7.5229865312826405 120.55387056514053 0 0 0 0 151.83794464378548 99.092510789225571 0 99.092510789225571 318.49209860670391 0 0 0 0 159.07380167961628 95.403147802416342 0 95.403147802416342 318.27648405810578 0 0 0 0 64.2598025800919 -13.267294283893989 0 -13.267294283893989 215.21950637688906 0 0 0 0 103.22847258619254 -83.830465972576803 0 -83.830465972576803 179.6170667056972 0 0 0 0 43.152524069925789 -111.07417216823364 0 -111.07417216823364 241.13819261460731 0 0 0 0 89.359928598292697 -54.826644336542358 0 -54.826644336542358 282.69954466486388 0 0 0 0 60.527788234720674 -172.12491487788316 0 -172.12491487788316 371.87031445298089 0 0 0 0 163.33409803073573 -198.96785605338994 0 -198.96785605338994 202.93693900212884 0 0 0 0 74.483417647622844 -92.239188003597974 0 -92.239188003597974 115.88976777499511 0 0 0 0 -142.34900898831916 -19.323350232542907 0 -19.323350232542907 85.556608495462342 0 0 0 0 -30.764433917393148 -37.214146781234604 0 -37.214146781234604 64.646728073634222 0 0 0 0 -70.58075583258551 -30.293755220325238 0 -30.293755220325238 195.59911167215887 0 0 0 0 -45.013089875210881 -128.69279598561184 0 -128.69279598561184 225.95210246620758 0 0 0 0 -34.562801934879175 -66.064571784525384 0 -66.064571784525384 130.95241817171973 0 0 0 0 -313.05914205791396 219.1928803091655 0 219.1928803091655 67.301062535931123 0 0 0 0 3.474529210433273 8.6927375652833447 0 8.6927375652833447 16.040293624906436 0 0 0 0 70.10026082328045 -98.264098758864748 0 -98.264098758864748 53.34095727127351 0 0 0 0 1.638349848896496 32.614595842420044 0 32.614595842420044 -10.485294832797081 0 0 0 0 52.302621187335603 -21.106648528727078 0 -21.106648528727078 -27.090044012861199 0 0 0 0 -53.73212649036509 -18.292340189829702 0 -18.292340189829702 73.612042067321738 0 0 0 0 0.54486609431952915 2.4429221883624237 0 2.4429221883624237 1.5822737498956503 0 0 0 0 65.406044210887558 -123.58768542408075 0 -123.58768542408075 30.191230449603836 0 0 0 0 -119.35290360682779 82.977939870936098 0 82.977939870936098 28.212627611284859 0 0 0 0 -14.162723735287159 -16.322337765109864 0 -16.322337765109864 -3.6481340973987244 0 0 0 0 -4.4816775562351614 -2.3278072478347474 0 -2.3278072478347474 2.2837982816001947 0 0 0 0 -75.232864963359589 -61.963947080370644 0 -61.963947080370644 147.61391112420188 0 0 0 0 -1.4902706300111435 0.11475550357427622 0 0.11475550357427622 1.8279853469190606 0 0 0 0 -32.479276705406846 82.478141980943747 0 82.478141980943747 33.92615001248214 0 0 0 0 34.927191245568963 54.874347830254976 0 54.874347830254976 33.729732145374328 0 0 0 0 -28.388074455235255 15.064776683831496 0 15.064776683831496 119.21001849203731 0 0 0 0 -35.576505917733812 35.518414330706946 0 35.518414330706946 33.597336979334159 0 0 0 0 -169.56565365505048 167.76606337070416 0 167.76606337070416 1.2367999668222183 0 0 0 0 -117.27956947779302 -92.650465659055897 0 -92.650465659055897 54.5179052444646 0 0 0 0 -48.654072507189085 57.59649055123964 0 57.59649055123964 -331.16536105127648 0 0 0 0 -108.87397707906321 -196.24735007662863 0 -196.24735007662863 172.05609962616563 0 0 0 0 0.42787901327708289 1.1750830350178996 0 1.1750830350178996 2.5581688751677234 0 0 0 0 -18.81380899902706 317.54217454295303 0 317.54217454295303 95.99011368347783 0 0 0 0 -58.576484124006583 60.254989020554603 0 60.254989020554603 81.120586863474273 0 0 0 0 -46.826867796495208 59.9948962416006 0 59.9948962416006 71.218579493534435 0 0 0 0 -10.037176764127253 98.871048306853027 0 98.871048306853027 43.922686931205135 0 0 0 0 -96.512931071879393 104.69245108923405 0 104.69245108923405 29.799832792355119 0 0 0 0 -42.434741114222049 43.807637135735149 0 43.807637135735149 -12.009676661466074 0 0 0 0 -115.92086271718222 6.143296563770491 0 6.143296563770491 45.73018307338225 0 0 0 0 -147.03815706056957 47.502053678238781 0 47.502053678238781 22.746282095866263 0 0 0 0 -62.400116696952637 16.603825335429065 0 16.603825335429065 13.194465725638111 0 0 0 0 -73.58062878731937 -29.767446400303697 0 -29.767446400303697 97.884627338298742 0 0 0 0 4.7134945867524776 11.507735818892836 0 11.507735818892836 22.018412897013683 0 0 0 0 -125.80068120213605 33.382217717545814 0 33.382217717545814 57.081090031175336 0 0 0 0 -42.366513326436689 -2.6330038079977385 0 -2.6330038079977385 29.487396440998054 0 0 0 0 1.0158687187849083 2.7166959945381839 0 2.7166959945381839 8.0902398143375311 0 0 0 0 11.929500577993622 -31.742568928004175 0 -31.742568928004175 19.104011305976314 0 0 0 0 2.5179454355558195 9.4377198506592936 0 9.4377198506592936 21.842390551785204 0 0 0 0 -132.45571778073588 54.493109520881944 0 54.493109520881944 53.976917120398639 0 0 0 0 -46.595278659753944 10.978379156593121 0 10.978379156593121 28.731476802014186 0 0 0 0 81.249224659065078 107.37478318973513 0 107.37478318973513 -63.47879768265102 0 0 0 0 -126.53443129538149 20.062119931368898 0 20.062119931368898 -20.44200936295374 0 0 0 0 -309.52937123594052 208.73592538976982 0 208.73592538976982 -68.961163496489462 0 0 0 0 -19.239210781363454 6.5998126321094333 0 6.5998126321094333 20.165024441340165 0 0 0 0 -33.784182834688863 -45.982513508139633 0 -45.982513508139633 -53.401693130615342 0 0 0 0 -475.26860933113539 -105.86010527687449 0 -105.86010527687449 -10.753547122066266 0 0 0 0 -0.771759893606909 1.4739975240083933 0 1.4739975240083933 3.294933142104941 0 0 0 0 -3.2383178915404827 -3.3278468858425216 0 -3.3278468858425216 2.2070915577561356 0 0 0 0 -421.81055241085915 -91.160077307362599 0 -91.160077307362599 -6.7703667198811672 0 0 0 0 -12.033851001716986 1.8990244518515864 0 1.8990244518515864 18.593795203903021 0 0 0 0 -2.9646463442451672 2.7433079425173625 0 2.7433079425173625 14.766632616232545 0 0 0 0 -99.953097998776002 -4.2563227680700493 0 -4.2563227680700493 31.039532765511467 0 0 0 0 -12.585524754501876 -8.5598611346795224 0 -8.5598611346795224 23.179507562595063 0 0 0 0 -118.60201252479328 -27.6779671180675 0 -27.6779671180675 14.524561115122196 0 0 0 0 -9.0675541471739116 3.2873896010080088 0 3.2873896010080088 9.9193154478842018 0 0 0 0 -122.61079872284131 44.346288819600659 0 44.346288819600659 96.613166217905814 0 0 0 0 -1.7332372627139938 7.2434142383140347 0 7.2434142383140347 23.397816841384177 0 0 0 0 -97.565249364771717 -86.089530058914363 0 -86.089530058914363 0.1998760384668401 0 0 0 0 -121.6793375203365 28.866882794250159 0 28.866882794250159 62.73063679785605 0 0 0 0 -64.005626268258766 71.814962414407546 0 71.814962414407546 74.898090355967724 0 0 0 0 -98.934737552786828 17.425353389473003 0 17.425353389473003 49.522080905760959 0 0 0 0 -106.04966572043895 3.1469517195318986 0 3.1469517195318986 22.5611027105669 0 0 0 0 -107.65042534208351 -2.2545882375643487 0 -2.2545882375643487 42.957379925785062 0 0 0 0 -119.47038409632933 -7.4605708086901359 0 -7.4605708086901359 55.365122121390414 0 0 0 0 -217.92684738399851 40.067228283798613 0 40.067228283798613 138.34483545780677 0 0 0 0 -280.7638884877806 -147.20291386464851 0 -147.20291386464851 -21.278802139692743 0 0 0 0 16.103737674905737 -8.1236901859553825 0 -8.1236901859553825 586.25732297381182 0 0 0 0 -6.0177838152673093 -1.2621391684325829 0 -1.2621391684325829 6.2374080976791646 0 0 0 0 -215.38792539262545 56.845142706251409 0 56.845142706251409 1501.0483696489473 0 0 0 0 70.28398634670603 343.90519049656996 0 343.90519049656996 644.43378166210096 0 0 0 0 155.67311681167919 614.27156929275588 0 614.27156929275588 1498.095670450128 0 0 0 0 -2.7598600791517511 -0.75402488633828746 0 -0.75402488633828746 4.4480492183613372 0 0 0 0 -412.53985805813579 -510.02395970652799 0 -510.02395970652799 -256.04786865086135 0 0 0 0 -99.283359145028726 -5.8517973496137756 0 -5.8517973496137756 204.36311205732272 0 0 0 0 524.08477823931037 201.36011878214174 0 201.36011878214174 -73.251948478288455 0 0 0 0 -4.9168062442905969 -19.484578019492801 0 -19.484578019492801 140.41923992229931 0 0 0 0 29.883230040878349 192.27417403698246 0 192.27417403698246 268.15989594702478 0 0 0 0 -106.57260279518786 -153.48821518281238 0 -153.48821518281238 550.68548035478352 0 0 0 0 2.8085008478521782 3.7666513861884692 0 3.7666513861884692 8.715088041262117 0 0 0 0 1108.7119095323474 658.95255493275545 0 658.95255493275545 284.75762116887563 0 0 0 0 9.225734719560748 -558.94866871493059 0 -558.94866871493059 1495.7476400848236 0 0 0 0 351.17127165076118 1300.4725312825612 0 1300.4725312825612 1488.8596798380422 0 0 0 0 -13.561170344799848 570.65809256787043 0 570.65809256787043 678.01173856828609 0 0 0 0 -3.6762149099477468 1.4908607888832468 0 1.4908607888832468 3.9801776682593921 0 0 0 0 38.285360517638765 488.04864381861853 0 488.04864381861853 731.68776482984936 0 0 0 0 519.24151937333727 900.84507044125735 0 900.84507044125735 1499.6769547651043 0 0 0 0 198.22718160842587 298.83462089666796 0 298.83462089666796 715.02770275777493 0 0 0 0 368.08037759702199 386.39232238502279 0 386.39232238502279 382.39767019808994 0 0 0 0 212.06097075232685 547.64245683421348 0 547.64245683421348 662.6686874925017 0 0 0 0 195.51607945736092 466.5862959110467 0 466.5862959110467 324.28794419771157 0 0 0 0 101.20603926215145 26.888166815532685 0 26.888166815532685 61.862621659266381 0 0 0 0 59.661340145108738 287.05594966428436 0 287.05594966428436 253.66637660414341 0 0 0 0 -170.51240684792083 63.639821959928028 0 63.639821959928028 133.10887314009256 0 0 0 0 -20.004925861058837 72.205006712363229 0 72.205006712363229 157.25270053035723 0 0 0 0 192.17804237485552 190.37653819843297 0 190.37653819843297 322.84795278139921 0 0 0 0 185.45882822286012 177.54731128852572 0 177.54731128852572 265.53314318684841 0 0 0 0 163.7349706324309 422.47845186142905 0 422.47845186142905 421.50154028137968 0 0 0 0 -68.935012058874975 126.77341477837945 0 126.77341477837945 145.4446138066678 0 0 0 0 205.2390720241923 230.79507165533613 0 230.79507165533613 89.842817347742539 0 0 0 0 -104.64619397468172 -54.214812207464206 0 -54.214812207464206 -18.288955267828896 0 0 0 0 -5.0921978528751879 27.003283063129174 0 27.003283063129174 21.560287597725392 0 0 0 0 -238.35331945586211 -165.37042425879599 0 -165.37042425879599 -19.893925146951915 0 0 0 0 -479.36477241019031 -66.523860757516104 0 -66.523860757516104 8.9746314920230361 0 0 0 0 -147.91483252135708 62.213262467100776 0 62.213262467100776 -134.06856970665319 0 0 0 0 -91.82701956966153 -18.99856922076674 0 -18.99856922076674 -84.5824974388388 0 0 0 0 -451.96248549037955 -59.825630101146999 0 -59.825630101146999 10.609976927488333 0 0 0 0 -69.842707069740911 146.19277539484813 0 146.19277539484813 53.050302501328133 0 0 0 0 232.23131004590749 281.25233133154086 0 281.25233133154086 376.27246641341253 0 0 0 0 209.25130372867784 362.13125590853082 0 362.13125590853082 334.37413819066495 0 0 0 0 213.11140583050837 138.44847888640012 0 138.44847888640012 215.72658048628819 0 0 0 0 319.14099913979317 266.35769046480192 0 266.35769046480192 415.72824190408483 0 0 0 0 -8.1368710966835511 1.1217072380872533 0 1.1217072380872533 5.1971605315947444 0 0 0 0 259.68081741597655 439.47478665610311 0 439.47478665610311 525.84857379099276 0 0 0 0 199.01557517567571 497.14829427456232 0 497.14829427456232 996.29835627507816 0 0 0 0 361.78298484975062 697.68633072891259 0 697.68633072891259 1175.4637069445218 0 0 0 0 354.6300399579498 705.11466410651451 0 705.11466410651451 1246.1322640382627 0 0 0 0 242.03583600763079 537.79502148771189 0 537.79502148771189 656.62338862207775 0 0 0 0 -7.4578504211933883 2.059001991463659 0 2.059001991463659 4.4389383411052767 0 0 0 0 463.65919034412906 775.28408543042576 0 775.28408543042576 1264.8543825156087 0 0 0 0 268.51281873347807 734.96458530578423 0 734.96458530578423 1499.8527850318123 0 0 0 0 108.01031289838232 548.39784522240029 0 548.39784522240029 1293.2104313897248 0 0 0 0 39.933622015510792 573.41072728952827 0 573.41072728952827 1499.8624516078462 0 0 0 0 -103.09033615821831 367.84284592360717 0 367.84284592360717 1223.604308468241 0 0 0 0 187.05252201870417 528.99452590242936 0 528.99452590242936 1098.3583471431043 0 0 0 0 -204.57775896611446 226.24476145645153 0 226.24476145645153 1157.8388057261641 0 0 0 0 -204.51006837098379 216.97834667341681 0 216.97834667341681 1142.5789026167597 0 0 0 0 -121.21823768229707 427.99802473940383 0 427.99802473940383 1499.6851105999963 0 0 0 0 15.805190357493288 394.97342617144773 0 394.97342617144773 1013.688750035043 0 0 0 0 -132.93290035229913 172.66705392974859 0 172.66705392974859 1088.3953051862691 0 0 0 0 -27.492639703517071 221.00817231450458 0 221.00817231450458 604.50572998463485 0 0 0 0 51.342946871031188 295.86559101787248 0 295.86559101787248 744.74661103953076 0 0 0 0 -7.0494875124004173 -0.28798095679649194 0 -0.28798095679649194 5.8944209815713577 0 0 0 0 231.64739540265714 350.72746450597197 0 350.72746450597197 541.14239717908254 0 0 0 0 231.38867844614288 250.78308987905552 0 250.78308987905552 427.14426765609301 0 0 0 0 180.21970646576335 203.32624143005251 0 203.32624143005251 491.59564623993947 0 0 0 0 163.21384320643278 218.52658524975823 0 218.52658524975823 478.01898950557768 0 0 0 0 -4.76290178653203 -1.0809734499341932 0 -1.0809734499341932 5.5287515133249281 0 0 0 0 186.9895449492488 364.4696125144809 0 364.4696125144809 741.8910180087878 0 0 0 0 -182.60599906474113 47.518161450355365 0 47.518161450355365 537.80128301670948 0 0 0 0 159.40797491701898 466.73221127613368 0 466.73221127613368 1245.9886663578709 0 0 0 0 92.579375776151437 137.35833838965755 0 137.35833838965755 598.28333452159359 0 0 0 0 94.371767093748531 157.61642111106062 0 157.61642111106062 563.1285719354546 0 0 0 0 134.33283208265038 72.087699653023719 0 72.087699653023719 361.65668464994815 0 0 0 0 6.1133030024340087 62.219771891245955 0 62.219771891245955 209.87280210693461 0 0 0 0 115.45913766736703 -100.77733846666911 0 -100.77733846666911 371.70585265687157 0 0 0 0 -33.883562024886032 -70.066515336556222 0 -70.066515336556222 337.54741586692398 0 0 0 0 120.52848231935457 -20.032011821146398 0 -20.032011821146398 319.67956613254159 0 0 0 0 0.91191393358894857 -120.32124976225327 0 -120.32124976225327 278.21940922258796 0 0 0 0 29.59712210529392 6.307687322382435 0 6.307687322382435 435.78338410555398 0 0 0 0 0.48612966388619638 1.6060251983319094 0 1.6060251983319094 10.771781126027697 0 0 0 0 17.168458073350166 -392.47430436952732 0 -392.47430436952732 695.02362791713131 0 0 0 0 27.348065819582843 315.07884648897539 0 315.07884648897539 1116.2763609210688 0 0 0 0 6.9573254717054454 160.45690486612443 0 160.45690486612443 410.53856333232761 0 0 0 0 167.75698416276401 -59.985080928328898 0 -59.985080928328898 -1.4410772255941993 0 0 0 0 371.27574285349692 367.13092770462345 0 367.13092770462345 289.54762133800341 0 0 0 0 146.38642912330454 -322.11266778569416 0 -322.11266778569416 185.90128733965412 0 0 0 0 -49.563879318797206 -123.44475751755999 0 -123.44475751755999 766.89552194045064 0 0 0 0 -32.565231650032501 -82.015778817063619 0 -82.015778817063619 652.9864696244249 0 0 0 0 -158.7225038378383 -174.32763301874593 0 -174.32763301874593 1187.1393946558892 0 0 0 0 38.991709372161239 284.22010889794137 0 284.22010889794137 1079.3562123508714 0 0 0 0 -1.4555553970594231 -0.39484683856120384 0 -0.39484683856120384 2.5753057659539778 0 0 0 0 -18.875208005988341 255.50677819405166 0 255.50677819405166 539.72701958372454 0 0 0 0 -274.45802527995914 -282.51049432149239 0 -282.51049432149239 270.17018795052172 0 0 0 0 455.16221819286932 94.226726979990417 0 94.226726979990417 645.61377111427794 0 0 0 0 282.91258892573222 -160.83937114275727 0 -160.83937114275727 940.70682016874525 0 0 0 0 -93.002252659910809 -39.808737315455801 0 -39.808737315455801 1237.7405731107383 0 0 0 0 17.366078400184328 92.014541148168064 0 92.014541148168064 701.51769327057627 0 0 0 0 86.309562031912762 -19.942403322144401 0 -19.942403322144401 634.69326247113258 0 0 0 0 182.26893925315795 -5.5647294693478386 0 -5.5647294693478386 584.22512226734671 0 0 0 0 162.39417582088026 153.31621952110299 0 153.31621952110299 636.53794392188968 0 0 0 0 50.845299054744231 1.1325093417935932 0 1.1325093417935932 778.48374260028709 0 0 0 0 69.203275404998976 -54.421955367249836 0 -54.421955367249836 605.49557503395044 0 0 0 0 18.701233423870605 116.53071128642705 0 116.53071128642705 689.43471708968445 0 0 0 0 18.590350228028711 129.56557220864579 0 129.56557220864579 709.46080713158062 0 0 0 0 -99.101080041080962 184.42252509738137 0 184.42252509738137 805.61649483887049 0 0 0 0 -95.454617906736019 31.225566674834226 0 31.225566674834226 897.02690255742527 0 0 0 0 -93.403080049734172 57.90230388018108 0 57.90230388018108 1146.3555792984916 0 0 0 0 -279.38936462602533 -60.972472275503151 0 -60.972472275503151 1499.7002967869075 0 0 0 0 -272.32067777671426 99.27287472614853 0 99.27287472614853 1499.846235869567 0 0 0 0 -274.06519078594772 56.104001157260427 0 56.104001157260427 1174.6113610342054 0 0 0 0 30.122422859173668 -301.63666136490201 0 -301.63666136490201 858.35570696858395 0 0 0 0 -172.78103229151347 -153.91151947698336 0 -153.91151947698336 1199.7200869600783 0 0 0 0 -172.26616868491962 -225.48850949531834 0 -225.48850949531834 947.97312345768023 0 0 0 0 -207.11977401357024 -485.52875371099299 0 -485.52875371099299 1500.0349680305417 0 0 0 0 -142.89745867688825 -585.70735046693835 0 -585.70735046693835 868.26877099201374 0 0 0 0 -154.68209065019227 -558.80355037886193 0 -558.80355037886193 806.93207865416298 0 0 0 0 22.043797526843946 -252.33073917623824 0 -252.33073917623824 557.46339488528974 0 0 0 0 -63.228233660173942 -469.21139133096221 0 -469.21139133096221 825.98748377932179 0 0 0 0 -42.708486845018371 -492.02086001430143 0 -492.02086001430143 360.35487874380124 0 0 0 0 -136.63161861234727 -262.91946945327436 0 -262.91946945327436 79.293607429211988 0 0 0 0 -633.94303343801209 33.660339539117558 0 33.660339539117558 77.144355606322279 0 0 0 0 -151.97934841810047 -339.51015308241767 0 -339.51015308241767 225.14460232097917 0 0 0 0 -44.811023644024161 -353.65627324957222 0 -353.65627324957222 439.17746165908829 0 0 0 0 13.007362364301244 -206.78017473908949 0 -206.78017473908949 20.197171820032054 0 0 0 0 55.213732068280962 -811.02094277283322 0 -811.02094277283322 738.63063260559284 0 0 0 0 246.20679540464494 -330.1418880771148 0 -330.1418880771148 -260.30226020881673 0 0 0 0 396.55015905613033 -656.82483421226607 0 -656.82483421226607 -17.404481717318049 0 0 0 0 2.5739226319957993 -8.8614864352634868 0 -8.8614864352634868 -271.32274316642361 0 0 0 0 652.51257866418723 -663.01527830219902 0 -663.01527830219902 258.30695944611398 0 0 0 0 2.3919696804049311 -1094.3976866836983 0 -1094.3976866836983 1497.4975140219649 0 0 0 0 -0.68822697070883188 2.8533109212791743 0 2.8533109212791743 9.1371137887880884 0 0 0 0 0.92664098280887797 -1.0029562604855493 0 -1.0029562604855493 7.8562782886437077 0 0 0 0 -187.04976464987283 72.827659714779656 0 72.827659714779656 1496.9116407970141 0 0 0 0 213.50228052472335 335.83519672087641 0 335.83519672087641 374.60215365965996 0 0 0 0 130.64408585709813 373.00194804635885 0 373.00194804635885 914.59882760698929 0 0 0 0 -0.25002445286008718 2.2918451958278148 0 2.2918451958278148 3.1961911799828577 0 0 0 0 -108.67292111127804 -460.29870208627995 0 -460.29870208627995 1499.8694345083495 0 0 0 0 -116.50771224647922 -380.29805173308705 0 -380.29805173308705 821.82556571220448 0 0 0 0 -315.13652400491026 138.45183750459233 0 138.45183750459233 286.23162282033445 0 0 0 0 -798.04213623489488 -186.28725878495561 0 -186.28725878495561 189.54428730993823 0 0 0 0 -313.0281977223608 199.76994482997907 0 199.76994482997907 -64.849685413126281 0 0 0 0 -0.85632384943705664 -4.9021045656050033 0 -4.9021045656050033 27.862514083360118 0 0 0 0 -364.04626413490229 72.228455804713803 0 72.228455804713803 129.56160895938228 0 0 0 0 -703.60263443021995 -73.177582871197956 0 -73.177582871197956 56.911607799251215 0 0 0 0 -1.3500466527893682 -0.23627896480766353 0 -0.23627896480766353 3.4255614775809065 0 0 0 0 -778.79409912083815 -251.54316962634221 0 -251.54316962634221 -211.68780306726512 0 0 0 0 -434.42260605094441 -267.72371301026033 0 -267.72371301026033 -154.06737991015689 0 0 0 0 -658.98799789530926 124.82284931774802 0 124.82284931774802 38.378829699749986 0 0 0 0 -280.93220558500059 180.95234249522514 0 180.95234249522514 106.1469537817029 0 0 0 0 -347.59427864176382 -45.194684906491602 0 -45.194684906491602 -37.721938877446519 0 0 0 0 -0.82234214026277774 1.2058763174661635 0 1.2058763174661635 3.9000398865072796 0 0 0 0 -260.97408758267034 -204.81974398314924 0 -204.81974398314924 63.76246351532086 0 0 0 0 -736.70643837026296 -0.7029371646576692 0 -0.7029371646576692 145.87383344927548 0 0 0 0 -902.59892034056134 -236.99941436248946 0 -236.99941436248946 199.61267729449537 0 0 0 0 40.201681322806053 191.47489464267528 0 191.47489464267528 -1275.9752817058543 0 0 0 0 -0.82270066506470663 -3.8625058828328167 0 -3.8625058828328167 27.135575023638658 0 0 0 0 -174.11349218967189 -188.28234521335617 0 -188.28234521335617 -511.32287127979362 0 0 0 0 -407.31519348543543 -385.48266035060988 0 -385.48266035060988 -299.68663921260304 0 0 0 0 -463.99539083429659 -143.31637490336266 0 -143.31637490336266 -62.65128893007568 0 0 0 0 -204.34599930472132 210.71124129842974 0 210.71124129842974 213.39007642596835 0 0 0 0 -321.07962789391615 -91.638518820627723 0 -91.638518820627723 110.86700882419836 0 0 0 0 -131.60844441221639 131.48530473099254 0 131.48530473099254 209.54322087877881 0 0 0 0 -182.19760401817757 102.90299436725172 0 102.90299436725172 407.5304446289847 0 0 0 0 85.67625781797237 4.3736893545104749 0 4.3736893545104749 292.81020814615658 0 0 0 0 -10.71121896880689 -27.11262802674446 0 -27.11262802674446 402.09490717322024 0 0 0 0 -98.178290710641164 258.31387352396632 0 258.31387352396632 557.09073803647607 0 0 0 0 56.147259528543003 -331.48796830461561 0 -331.48796830461561 329.76894043809261 0 0 0 0 -26.910109120874118 -54.80250116060779 0 -54.80250116060779 433.74364006618543 0 0 0 0 -346.26208095436539 -56.521459965475515 0 -56.521459965475515 194.96556267873666 0 0 0 0 -78.043901811133068 -190.51314683457167 0 -190.51314683457167 105.93154117275299 0 0 0 0 619.89077816514168 396.99849210965385 0 396.99849210965385 1230.6926329624439 0 0 0 0 212.6347844681261 57.518386467685559 0 57.518386467685559 989.40945555208964 0 0 0 0 771.76422184236037 263.9745818753413 0 263.9745818753413 1500.5103431472198 0 0 0 0 149.99565414351702 96.875217540256926 0 96.875217540256926 1589.9608466977261 0 0 0 0 426.44477300886649 566.72147754100661 0 566.72147754100661 1439.0767905590019 0 0 0 0 3.0002504534476291 3.3772311499696173 0 3.3772311499696173 4.5851350526191794 0 0 0 0 682.93831165155996 302.5776513548094 0 302.5776513548094 587.39013636170421 0 0 0 0 947.54380320114069 430.26601084717549 0 430.26601084717549 -106.87255089653991 0 0 0 0 102.06332400179275 -21.322942006761878 0 -21.322942006761878 1485.8695650885907 0 0 0 0 110.34308641231353 -216.60491203693891 0 -216.60491203693891 267.44513341609672 0 0 0 0 -80.388144178757202 309.12789578614593 0 309.12789578614593 1496.5961180813847 0 0 0 0 -130.90067134575969 558.36768008321724 0 558.36768008321724 1115.0791422878829 0 0 0 0 -130.9129941094248 526.72623313591612 0 526.72623313591612 -410.35343478837785 0 0 0 0 2.1503161678031644 4.9027390476910497 0 4.9027390476910497 7.7452497432920282 0 0 0 0 28.997031630302573 -75.700208778604747 0 -75.700208778604747 144.76210396011447 0 0 0 0 48.983044870687607 2.8246114044623027 0 2.8246114044623027 39.030661079394122 0 0 0 0 159.31835505225786 -498.44930306242168 0 -498.44930306242168 663.49010757804331 0 0 0 0 216.54209492726477 -841.25401189789773 0 -841.25401189789773 847.41909885831001 0 0 0 0 81.626051851698207 -621.08616343258382 0 -621.08616343258382 492.72501154934798 0 0 0 0 -3.4273865097011367 -455.11784933699528 0 -455.11784933699528 950.03105784203944 0 0 0 0 -253.68167957660876 -129.94532018632526 0 -129.94532018632526 613.70830099218256 0 0 0 0 -340.29831461201928 -504.03845628860017 0 -504.03845628860017 1201.2108002978493 0 0 0 0 501.62787885145235 -564.70731193860411 0 -564.70731193860411 -100.40507549826941 0 0 0 0 1088.8184356467054 288.57163374561696 0 288.57163374561696 1135.1609948843761 0 0 0 0 1312.6985913897133 -344.30772845215324 0 -344.30772845215324 382.34769415512619 0 0 0 0 101.34119846117665 -724.98131738715529 0 -724.98131738715529 1583.3379137808624 0 0 0 0 -0.36602077259358001 0.31411120686347793 0 0.31411120686347793 1.4022663876523822 0 0 0 0 392.74638073719552 -515.05952349190648 0 -515.05952349190648 108.46796287939651 0 0 0 0 767.04688225398991 -722.89637570440027 0 -722.89637570440027 720.09859072464315 0 0 0 0 1.5859599363198229 -5.2909372546429712 0 -5.2909372546429712 12.096705486072295 0 0 0 0 -45.893162842539368 214.87191075660121 0 214.87191075660121 882.44083950257118 0 0 0 0 -44.97122494668298 77.839572130229499 0 77.839572130229499 1251.6119071745634 0 0 0 0 211.38330328747361 -252.27675782550068 0 -252.27675782550068 1319.2022803339605 0 0 0 0 473.89454829458032 -68.174984184310233 0 -68.174984184310233 1049.8802221507067 0 0 0 0 671.13614130279063 -464.0454891115769 0 -464.0454891115769 1214.2319927188801 0 0 0 0 -14.215899659675415 -13.415157817255022 0 -13.415157817255022 9.1520288318252909 0 0 0 0 -182.16176325949118 52.474669988041569 0 52.474669988041569 -63.923599591515085 0 0 0 0 -0.51712764064414873 -8.4071515298696333 0 -8.4071515298696333 17.810957853062078 0 0 0 0 -32.14920540864432 -21.764109851123067 0 -21.764109851123067 9.2264743848267869 0 0 0 0 -195.25835634185131 -202.027828785358 0 -202.027828785358 1.7111705419847567 0 0 0 0 170.10619286231733 177.7937980617653 0 177.7937980617653 -11.427107602590695 0 0 0 0 2.6701087380921376 -8.3652524292406998 0 -8.3652524292406998 10.163577548990716 0 0 0 0 -2.6068055600728837 -4.2052033631365298 0 -4.2052033631365298 20.560097098642203 0 0 0 0 54.956489031335877 -69.237231716057067 0 -69.237231716057067 -94.136407475682063 0 0 0 0 -463.95709921292109 13.212883418491401 0 13.212883418491401 165.08631973989031 0 0 0 0 -160.56483313957142 25.944810843937375 0 25.944810843937375 56.466939450121572 0 0 0 0 -139.77744503878716 -42.064377370130387 0 -42.064377370130387 275.44975353587506 0 0 0 0 -209.3760870648257 89.28808273190225 0 89.28808273190225 89.826892696110008 0 0 0 0 -167.97437336763869 189.17306256668235 0 189.17306256668235 -42.618301531139878 0 0 0 0 -159.11306048111328 146.25823506534653 0 146.25823506534653 165.21362730480905 0 0 0 0 -148.27472846816363 120.56392312497337 0 120.56392312497337 132.15696435059363 0 0 0 0 -109.12168684832523 3.7197438224357029 0 3.7197438224357029 445.5539777954109 0 0 0 0 25.536344868216247 -1.5932783709231444 0 -1.5932783709231444 528.56113074508175 0 0 0 0 25.018376587068289 -111.56951796456752 0 -111.56951796456752 691.74086234530478 0 0 0 0 28.927192220167854 -42.04469694915133 0 -42.04469694915133 275.77113588151406 0 0 0 0 -86.426334512842914 10.231477554351841 0 10.231477554351841 299.75007375475252 0 0 0 0 243.35854602864356 -348.28741322085625 0 -348.28741322085625 221.49735638617358 0 0 0 0 111.56547041517206 -382.14894920628103 0 -382.14894920628103 522.25138849504947 0 0 0 0 137.47742639456374 -380.7734636632058 0 -380.7734636632058 476.40467864952734 0 0 0 0 121.50561629185441 -383.83571913717537 0 -383.83571913717537 806.70120225439678 0 0 0 0 298.3382539511943 -577.71853354074028 0 -577.71853354074028 609.76223955860587 0 0 0 0 145.10939432252621 -366.19803672348826 0 -366.19803672348826 772.46963389859411 0 0 0 0 17.979493414235321 -37.52140744949611 0 -37.52140744949611 1128.0682251894341 0 0 0 0 13.920117343950935 136.66655683447573 0 136.66655683447573 862.48657396728595 0 0 0 0 -47.808001616574302 290.2454740483663 0 290.2454740483663 984.58644217305118 0 0 0 0 -25.160879255832867 330.99202234201152 0 330.99202234201152 696.58928152877706 0 0 0 0 185.56586783783058 371.44053892387819 0 371.44053892387819 518.59940044649011 0 0 0 0 -118.00733398072771 199.09054136678515 0 199.09054136678515 649.6221415519467 0 0 0 0 12.655060925551737 33.387646893838792 0 33.387646893838792 266.12041814867189 0 0 0 0 202.59602122715029 191.17099551042975 0 191.17099551042975 -70.149406740299128 0 0 0 0 -302.68854129567944 88.17049863599641 0 88.17049863599641 1356.4349045084837 0 0 0 0 5.3211176402737941 4.9885692287816781 0 4.9885692287816781 4.3117835600082977 0 0 0 0 70.912819206145286 458.49509952466906 0 458.49509952466906 -347.43235624526824 0 0 0 0 -907.17637361779362 1042.3383927096402 0 1042.3383927096402 889.31382749665681 0 0 0 0 -12.30374032391137 303.79626821077727 0 303.79626821077727 735.77687592406437 0 0 0 0 -30.671434318180104 221.8909982173609 0 221.8909982173609 381.36666885821251 0 0 0 0 -146.6361877729305 317.44181333632332 0 317.44181333632332 329.94720478188174 0 0 0 0 741.57974237417648 5.4228286026582282 0 5.4228286026582282 448.61216113905357 0 0 0 0 -56.848656458968435 210.56434501078002 0 210.56434501078002 -244.17115653692781 0 0 0 0 -7.2280164159400515 -0.18299111596737916 0 -0.18299111596737916 4.0638030653348824 0 0 0 0 -133.57629435586716 364.42387763473562 0 364.42387763473562 -26.827018809028232 0 0 0 0 31.596261811115482 524.50413522013469 0 524.50413522013469 316.81426992763227 0 0 0 0 7.7858876278071421 502.55191808187374 0 502.55191808187374 721.72928249985853 0 0 0 0 31.995915985919964 422.30486543445113 0 422.30486543445113 713.69418230046813 0 0 0 0 97.030009759932 289.03130416120803 0 289.03130416120803 776.71078374112949 0 0 0 0 92.861571561621872 351.15097756619798 0 351.15097756619798 357.24273745728715 0 0 0 0 257.68256272860623 273.98767763984142 0 273.98767763984142 569.56450073627639 0 0 0 0 -9.4277300095586725 415.98193700370302 0 415.98193700370302 816.95770214660843 0 0 0 0 61.698845497008961 -31.336499876265407 0 -31.336499876265407 6.6992977611989772 0 0 0 0 -2.6560261400326719 -0.62273845472929779 0 -0.62273845472929779 2.7526946682492621 0 0 0 0 -127.98455403036769 80.760264991718941 0 80.760264991718941 -146.54003531124181 0 0 0 0 -14.721252486151826 -16.568781479167001 0 -16.568781479167001 14.541004211445397 0 0 0 0 -4.8004173292296439 -10.095323017284496 0 -10.095323017284496 15.123668764567359 0 0 0 0 -320.35095632350425 180.36336735260375 0 180.36336735260375 1060.8887946453306 0 0 0 0 -389.88531438280631 258.42654319904068 0 258.42654319904068 1452.8141115181534 0 0 0 0 -274.04355419380954 -214.07559511920954 0 -214.07559511920954 1390.1604216462681 0 0 0 0 -114.46234059921539 61.557551297075065 0 61.557551297075065 985.08548053363666 0 0 0 0 -272.06768403844467 -12.927715592871209 0 -12.927715592871209 1095.58359231543 0 0 0 0 -240.06182046641868 126.5294832447662 0 126.5294832447662 952.70860080452803 0 0 0 0 -253.8754164590124 110.29035807989931 0 110.29035807989931 1134.7534386582834 0 0 0 0 -126.89201069785068 189.94412944201167 0 189.94412944201167 627.83974119586856 0 0 0 0 -50.316263351130779 42.738980783118677 0 42.738980783118677 907.54919676310055 0 0 0 0 -261.38404456282751 242.56005871415755 0 242.56005871415755 1072.3232203623938 0 0 0 0 -169.95641274872605 481.68814377757553 0 481.68814377757553 613.30145494888347 0 0 0 0 -258.36764864701763 148.87293026350017 0 148.87293026350017 252.22060140256872 0 0 0 0 141.78922593512152 671.41299575856056 0 671.41299575856056 899.11738899546799 0 0 0 0 78.414499760043554 282.22592708929187 0 282.22592708929187 -243.08207835392204 0 0 0 0 5.2366898303635026 588.40164753629506 0 588.40164753629506 179.64484513096613 0 0 0 0 0.059193725795296692 -1.6470217867071426 0 -1.6470217867071426 12.506694840853612 0 0 0 0 -14.931879320976577 -685.65236305099279 0 -685.65236305099279 1156.7147112255043 0 0 0 0 -207.92780264310102 395.864733407318 0 395.864733407318 835.26684949873743 0 0 0 0 -225.34698030778378 590.21772343721545 0 590.21772343721545 1894.9778678815455 0 0 0 0 -196.38090760723844 673.93287273766146 0 673.93287273766146 1110.4571205542779 0 0 0 0 302.54811497297834 -793.32172374533366 0 -793.32172374533366 747.06020726000861 0 0 0 0 -11.691603114266854 -769.16622499402911 0 -769.16622499402911 1276.3900133225143 0 0 0 0 318.40500635600148 -526.11020696473315 0 -526.11020696473315 547.04993752478367 0 0 0 0 293.98044207493587 -431.1617696244848 0 -431.1617696244848 1004.6941410374293 0 0 0 0 150.16844021143186 -432.90869195571076 0 -432.90869195571076 1395.3107035745998 0 0 0 0 575.78572476569298 243.85211244799439 0 243.85211244799439 1962.8694275748021 0 0 0 0 4.2335439248647617 -479.30779137754143 0 -479.30779137754143 1860.983656595552 0 0 0 0 278.60320487146566 -291.51201993105133 0 -291.51201993105133 1225.9750474819466 0 0 0 0 20.835977923471781 51.244112317726774 0 51.244112317726774 1539.7406016980021 0 0 0 0 -403.63447033712373 173.1026081285363 0 173.1026081285363 2316.5283879533545 0 0 0 0 -328.45185501765081 168.52102801753063 0 168.52102801753063 1575.0878320436732 0 0 0 0 220.53031514237568 -563.35794803335557 0 -563.35794803335557 1935.0806958894491 0 0 0 0 1008.4485944383205 354.50655113946505 0 354.50655113946505 1294.6697113967439 0 0 0 0 -153.26033357220535 -87.327779156872566 0 -87.327779156872566 1329.104925431353 0 0 0 0 -172.10462220908187 -409.51410569868222 0 -409.51410569868222 1193.7137996837664 0 0 0 0 -118.79934287907884 -73.638050338979156 0 -73.638050338979156 1132.3239090991688 0 0 0 0 13.009345551935553 -457.69308791201183 0 -457.69308791201183 479.5584794651204 0 0 0 0 484.99358409102939 311.81283662734904 0 311.81283662734904 240.46797635156145 0 0 0 0 0.51160803594994941 1.4489825331335116 0 1.4489825331335116 4.8974615507637935 0 0 0 0 200.73914852896911 476.08374602458389 0 476.08374602458389 1038.5667232503347 0 0 0 0 63.079127053651689 -87.107803746869649 0 -87.107803746869649 -7.5724114619138163 0 0 0 0 145.35953232457086 -330.9993958050527 0 -330.9993958050527 18.507971062590514 0 0 0 0 -66.346662091026474 189.56807112145998 0 189.56807112145998 -138.44274653831008 0 0 0 0 37.838399554123612 -63.129311318230975 0 -63.129311318230975 46.488315602944567 0 0 0 0 -14.844662755637842 4.421194722313885 0 4.421194722313885 374.58944995338481 0 0 0 0 -122.71663817929607 -162.13038066955141 0 -162.13038066955141 502.73166266643784 0 0 0 0 -86.281173761967977 -53.691208216027917 0 -53.691208216027917 375.304215402708 0 0 0 0 -156.49995213480054 -222.14488576634676 0 -222.14488576634676 916.12053563293193 0 0 0 0 -279.30481764024501 -50.335390843266396 0 -50.335390843266396 959.53523051773482 0 0 0 0 -92.102535787769853 71.255353589819606 0 71.255353589819606 910.0762036741512 0 0 0 0 -225.27927131529373 -7.876897765357171 0 -7.876897765357171 941.80117177446482 0 0 0 0 71.713225215429361 71.076165413799572 0 71.076165413799572 397.99152643047296 0 0 0 0 73.49170190781831 6.2389273577286986 0 6.2389273577286986 101.40313692552445 0 0 0 0 77.159722614479847 94.030716358143309 0 94.030716358143309 98.500191579169041 0 0 0 0 70.225051514510881 71.995491189427355 0 71.995491189427355 19.585927185231412 0 0 0 0 67.536925256635982 105.31197948568297 0 105.31197948568297 -47.224758440967889 0 0 0 0 -50.937909811117606 101.39839835896964 0 101.39839835896964 -14.042193879813567 0 0 0 0 -38.011752528875434 126.32264708926141 0 126.32264708926141 -117.42414234937678 0 0 0 0 -262.08296755605124 138.88564955820402 0 138.88564955820402 -16.852167941975495 0 0 0 0 69.395049714590982 42.836550225843894 0 42.836550225843894 -59.846830415305703 0 0 0 0 -171.4110258459317 14.33653279927421 0 14.33653279927421 -69.423861996378037 0 0 0 0 -67.022766265659584 139.79987764567159 0 139.79987764567159 41.046259005250249 0 0 0 0 2.0766527501090142 3.6921182868021027 0 3.6921182868021027 7.3043429980482415 0 0 0 0 -357.90012440078681 201.09157945931202 0 201.09157945931202 53.795351455177297 0 0 0 0 12.14217045878047 -30.761708600046404 0 -30.761708600046404 -43.842370139416744 0 0 0 0 -103.00751259521371 48.908591524974781 0 48.908591524974781 29.378543390066625 0 0 0 0 17.966410585437277 16.193008841595031 0 16.193008841595031 13.463088271327706 0 0 0 0 -73.237323143558115 112.84252781086366 0 112.84252781086366 -35.581139637230081 0 0 0 0 17.349820480768926 33.109382351962267 0 33.109382351962267 -4.8952041757875122 0 0 0 0 12.908756044846911 8.7812534663640704 0 8.7812534663640704 -0.45248974014397447 0 0 0 0 -40.901153815972066 57.080767209028636 0 57.080767209028636 -11.425432528952115 0 0 0 0 -64.915093168105159 68.198331742897608 0 68.198331742897608 8.4525461939520028 0 0 0 0 -47.832481764029581 46.934452244548083 0 46.934452244548083 -1.2778959526403924 0 0 0 0 -31.260711171304138 24.279842122567061 0 24.279842122567061 57.971690952428617 0 0 0 0 -56.846851437427176 69.502529214958486 0 69.502529214958486 32.027948491082498 0 0 0 0 -8.677069467893034 16.756501408795884 0 16.756501408795884 23.260774290185509 0 0 0 0 -10.819853968183679 23.215043352277007 0 23.215043352277007 112.67137366063253 0 0 0 0 -6.1854536959535835 29.643123930703041 0 29.643123930703041 54.361269702472782 0 0 0 0 -35.065254802140771 21.811089519722373 0 21.811089519722373 95.922070320284547 0 0 0 0 -69.083875689728302 27.64347562898547 0 27.64347562898547 40.19797052326976 0 0 0 0 -53.381981777307374 51.916132395666864 0 51.916132395666864 49.185104698954092 0 0 0 0 -31.734873094044815 13.81746116199065 0 13.81746116199065 53.211677310041978 0 0 0 0 -53.841005247174508 40.742527017373504 0 40.742527017373504 46.947675403476751 0 0 0 0 50.955342321349804 51.330370205888357 0 51.330370205888357 -57.727045133220599 0 0 0 0 -90.355473807107501 63.687314539359704 0 63.687314539359704 49.089233661834442 0 0 0 0 10.470284964777631 19.994956900844016 0 19.994956900844016 28.330005707262053 0 0 0 0 -0.37032633232689116 -0.35974465565579905 0 -0.35974465565579905 -1.1492968101131478 0 0 0 0 14.600110056575772 167.37374532743343 0 167.37374532743343 -96.262275619605134 0 0 0 0 88.627127084251015 105.08133979490594 0 105.08133979490594 -314.64229639726 0 0 0 0 -8.5378301599949395 97.850537435385831 0 97.850537435385831 183.12859348125858 0 0 0 0 -67.295667259439824 90.705791301629688 0 90.705791301629688 30.369141642135219 0 0 0 0 -105.552360087848 156.75753465509752 0 156.75753465509752 -15.283765473621088 0 0 0 0 10.881471456403029 20.604028273518637 0 20.604028273518637 27.595350186119802 0 0 0 0 23.212644547974378 108.71404180229501 0 108.71404180229501 10.647245479976846 0 0 0 0 117.29984143905554 -131.45338234428982 0 -131.45338234428982 440.60085855356738 0 0 0 0 167.99732767560999 -94.191589200691851 0 -94.191589200691851 210.89992033536691 0 0 0 0 108.15840416834425 114.2969453387966 0 114.2969453387966 704.92492764635244 0 0 0 0 124.2148921457964 32.868406475225129 0 32.868406475225129 255.92141591959444 0 0 0 0 105.22545050029112 202.79988197753664 0 202.79988197753664 484.84893052862935 0 0 0 0 101.0698678182618 131.969113985224 0 131.969113985224 -30.579323632649903 0 0 0 0 59.618413036471679 -57.906265958257052 0 -57.906265958257052 97.54673764708059 0 0 0 0 59.699322119429098 -63.545893390322817 0 -63.545893390322817 355.32233187188103 0 0 0 0 -11.091615553618794 -126.27796196782947 0 -126.27796196782947 179.3413496362009 0 0 0 0 -58.974186487369934 19.400413181296244 0 19.400413181296244 37.340367258469996 0 0 0 0 -61.608418884711682 39.016760463771789 0 39.016760463771789 194.20482665443888 0 0 0 0 -63.633188501714812 -32.446620772539063 0 -32.446620772539063 -67.851248291230149 0 0 0 0 13.571489341759072 12.273764124575589 0 12.273764124575589 9.7028355714890608 0 0 0 0 -219.19123267662553 171.4143174252622 0 171.4143174252622 -51.55363291863614 0 0 0 0 -21.121516979268563 7.5626488125035394 0 7.5626488125035394 -1.5857799823270398 0 0 0 0 61.346741882836795 -66.568718111700946 0 -66.568718111700946 84.265088515665411 0 0 0 0 -12.806424644696563 27.707794571557315 0 27.707794571557315 65.40925982905901 0 0 0 0 140.56635019735495 43.446478383191788 0 43.446478383191788 119.68348641255216 0 0 0 0 63.756122368769866 -23.816541483694891 0 -23.816541483694891 82.060120693225144 0 0 0 0 165.16217832320672 -209.01979238658896 0 -209.01979238658896 74.467839800676302 0 0 0 0 276.04607666781567 -99.716700259679783 0 -99.716700259679783 46.137349465427178 0 0 0 0 72.354621488007524 -77.593760848418242 0 -77.593760848418242 49.070484550288711 0 0 0 0 109.24583785256652 -164.95021670580036 0 -164.95021670580036 84.472759396208858 0 0 0 0 99.220181640394003 -163.03625661179285 0 -163.03625661179285 85.264664413922219 0 0 0 0 116.75068587422811 -98.695450835299198 0 -98.695450835299198 74.643422678873321 0 0 0 0 68.686841987032494 -164.47972101077175 0 -164.47972101077175 91.084187175249099 0 0 0 0 123.16110881713149 -91.185950105434131 0 -91.185950105434131 14.54412547875836 0 0 0 0 198.66972143195497 -228.16952043585661 0 -228.16952043585661 20.268835652281268 0 0 0 0 99.458131841376371 -176.7398292606249 0 -176.7398292606249 231.92853419472067 0 0 0 0 95.492315192797832 66.8462492729941 0 66.8462492729941 -179.79563721664454 0 0 0 0 23.429075116460247 3.6936416437409392 0 3.6936416437409392 -0.17352637535018545 0 0 0 0 18.780826213460386 -21.93143644867996 0 -21.93143644867996 -24.130584349328274 0 0 0 0 233.14438736720632 165.42901454334333 0 165.42901454334333 -537.96900243931668 0 0 0 0 -118.12156257199126 3.3008035357561312 0 3.3008035357561312 44.584814880968224 0 0 0 0 -23.193441673539382 -172.58180466845533 0 -172.58180466845533 105.70842397015076 0 0 0 0 39.800419366387359 46.629089766778634 0 46.629089766778634 -7.9952274293386836 0 0 0 0 18.762798281493424 1.7147751495797223 0 1.7147751495797223 -0.26861790938969143 0 0 0 0 279.32900601458414 99.495560368266524 0 99.495560368266524 -419.69148497974538 0 0 0 0 162.29422444773297 -261.57044425756339 0 -261.57044425756339 -157.15082765276384 0 0 0 0 43.379657501650399 -11.14058923738412 0 -11.14058923738412 184.46123027246176 0 0 0 0 4.9033586107062757 0.35969294085806069 0 0.35969294085806069 -0.162551836966081 0 0 0 0 7.3086946930133401 -0.21600747238736062 0 -0.21600747238736062 -0.023415890449932419 0 0 0 0 147.65269660922786 88.592898728886212 0 88.592898728886212 148.51505032063869 0 0 0 0 -59.541587064213672 -431.75691811178694 0 -431.75691811178694 40.243553493302898 0 0 0 0 92.638983279504828 2.1920433943651005 0 2.1920433943651005 333.37681657905341 0 0 0 0 -18.382730416482445 92.048327712156606 0 92.048327712156606 269.73539936570887 0 0 0 0 -2.984944766802073 -23.554073150011391 0 -23.554073150011391 454.63429029408508 0 0 0 0 2.2706917535533648 36.427610933851611 0 36.427610933851611 332.01049486531338 0 0 0 0 -51.511090353857071 68.756680196318484 0 68.756680196318484 503.18809289094315 0 0 0 0 -53.295759515056488 62.933365149277961 0 62.933365149277961 493.51710305123561 0 0 0 0 -14.722053951443741 51.794777683895518 0 51.794777683895518 443.45767989732485 0 0 0 0 -40.410844604330123 76.06212802432492 0 76.06212802432492 445.35335246332329 0 0 0 0 -56.953075316368086 78.634967639749448 0 78.634967639749448 538.14655349362874 0 0 0 0 -35.358747508917077 105.91390442421471 0 105.91390442421471 428.18042808501286 0 0 0 0 -41.889997253354522 97.720190092359189 0 97.720190092359189 425.02871450423845 0 0 0 0 -54.492389520677079 6.5287697787562138 0 6.5287697787562138 261.13333916168995 0 0 0 0 -10.380720973208554 100.40506194187947 0 100.40506194187947 313.19557398629695 0 0 0 0 -28.502413689439891 76.55387064532988 0 76.55387064532988 199.2645166024231 0 0 0 0 18.712498852630233 52.385575225824141 0 52.385575225824141 201.47762783188955 0 0 0 0 -47.165648605778188 111.2686725074218 0 111.2686725074218 608.09070463226089 0 0 0 0 67.531585320826707 121.97501735490005 0 121.97501735490005 386.35540278977896 0 0 0 0 10.531492733312916 145.23593897964565 0 145.23593897964565 379.49241735307714 0 0 0 0 -4.7084151154358551 46.87272061515614 0 46.87272061515614 384.19194240331126 0 0 0 0 88.090186823412296 106.58138832284749 0 106.58138832284749 403.83752583440037 0 0 0 0 48.88378630463194 85.292521102623141 0 85.292521102623141 570.45137956263352 0 0 0 0 42.883256431182417 19.061887712365206 0 19.061887712365206 573.4859137920721 0 0 0 0 64.13213502133749 80.869778841752122 0 80.869778841752122 201.05136213189689 0 0 0 0 -27.467124141299792 40.179089254188511 0 40.179089254188511 195.45389488024011 0 0 0 0 -48.26693201875969 13.249554136149982 0 13.249554136149982 69.626246835130587 0 0 0 0 -1.9678413422937524 5.4192183753099243 0 5.4192183753099243 8.9552819505828651 0 0 0 0 196.34663130308036 368.2542667454436 0 368.2542667454436 -737.61490977100766 0 0 0 0 157.378242779852 -21.053898617697996 0 -21.053898617697996 8.3382742492867692 0 0 0 0 11.150901105184055 20.517511589810894 0 20.517511589810894 28.570201062293634 0 0 0 0 168.93096107774849 -55.714019821636612 0 -55.714019821636612 106.27958337470409 0 0 0 0 297.97387159542416 33.043720295940375 0 33.043720295940375 50.428089020606421 0 0 0 0 326.28909486461339 -139.24498460022733 0 -139.24498460022733 150.62036085533327 0 0 0 0 206.75057297030858 68.981499374296618 0 68.981499374296618 46.240648812199652 0 0 0 0 3.4107933660698944 12.076856539564687 0 12.076856539564687 36.970912703636714 0 0 0 0 163.15860980622452 -27.430118176902397 0 -27.430118176902397 -15.952285868126637 0 0 0 0 -33.994700352501241 54.510300077934517 0 54.510300077934517 10.987118867604295 0 0 0 0 3.1319009474918857 8.1866048086703813 0 8.1866048086703813 26.895176100755634 0 0 0 0 -22.310259229599069 -0.81623736564506544 0 -0.81623736564506544 87.175117579623475 0 0 0 0 -10.955043051308166 -2.5148354151315289 0 -2.5148354151315289 65.435158972217323 0 0 0 0 2.5276291374611901 -48.382523696114731 0 -48.382523696114731 103.98692829780794 0 0 0 0 6.9303769620428284 -9.0390103850986634 0 -9.0390103850986634 80.912509264713663 0 0 0 0 22.790701309485485 -46.338445496661734 0 -46.338445496661734 124.76312740483672 0 0 0 0 458.96434337625328 558.51263170657603 0 558.51263170657603 -557.87964465509867 0 0 0 0 7.8522007301864711 3.1099777758201199 0 3.1099777758201199 -0.16853021515971989 0 0 0 0 289.32462398561984 -338.83791829739857 0 -338.83791829739857 -202.39882445081639 0 0 0 0 45.10427720698226 -425.12176542800444 0 -425.12176542800444 91.601128234004136 0 0 0 0 -290.7336672823003 -37.719484858554097 0 -37.719484858554097 97.279179091157857 0 0 0 0 626.3264775611151 -285.82267408665757 0 -285.82267408665757 71.759293966319092 0 0 0 0 274.79551428010564 18.615674400634816 0 18.615674400634816 186.36319641145747 0 0 0 0 200.15215184588305 -199.04295685723991 0 -199.04295685723991 277.23433271699832 0 0 0 0 84.921663867347888 -331.88779435640026 0 -331.88779435640026 326.94791780927517 0 0 0 0 357.51607182901262 -187.71730107825897 0 -187.71730107825897 124.49076889573189 0 0 0 0 -81.949819537912845 35.440237038499617 0 35.440237038499617 562.7603674952843 0 0 0 0 0.35312389664491661 -94.627343851987462 0 -94.627343851987462 643.26114696718651 0 0 0 0 -87.023759315628922 -36.275669723707324 0 -36.275669723707324 1386.4556800895134 0 0 0 0 396.49784106893821 -664.23976317738561 0 -664.23976317738561 930.54866865322947 0 0 0 0 57.673496874183911 -301.9538490878349 0 -301.9538490878349 659.08563718412188 0 0 0 0 800.49660963482711 -541.89179369586236 0 -541.89179369586236 384.42876123618771 0 0 0 0 659.26398880384568 455.67516873503519 0 455.67516873503519 345.0764757820325 0 0 0 0 -68.981038557939428 -79.047496500501438 0 -79.047496500501438 1514.8106685009479 0 0 0 0 160.64207813524445 460.51452541838444 0 460.51452541838444 -523.51188352388272 0 0 0 0 -197.8310805675892 196.50367826543879 0 196.50367826543879 272.25316312937866 0 0 0 0 2.2455075046323563 12.966106236898433 0 12.966106236898433 33.410701269288623 0 0 0 0 -688.5543277170907 560.47990956056492 0 560.47990956056492 385.48917276401698 0 0 0 0 270.12882413022174 -21.19089981232446 0 -21.19089981232446 49.19732647812998 0 0 0 0 -7.1198861722227518 8.3142336547509714 0 8.3142336547509714 13.278764879235968 0 0 0 0 -285.76183621727159 -84.931571445722511 0 -84.931571445722511 -360.97936107170608 0 0 0 0 -86.145915473698324 409.40598605548797 0 409.40598605548797 -161.15198909008177 0 0 0 0 312.46921928215534 -109.30686315446837 0 -109.30686315446837 49.762905137654116 0 0 0 0 200.42469241810014 11.669171674833706 0 11.669171674833706 22.789917378924201 0 0 0 0 -88.338002930057129 89.185068588125432 0 89.185068588125432 86.845586745284891 0 0 0 0 114.44966766950188 157.84439958452094 0 157.84439958452094 -68.692379893747784 0 0 0 0 -143.81571862427887 101.18757561666825 0 101.18757561666825 38.160657200149217 0 0 0 0 37.427633088364502 79.821612337723309 0 79.821612337723309 -54.190809456207717 0 0 0 0 260.93732722240389 -51.491818674621754 0 -51.491818674621754 -0.50355575041976408 0 0 0 0 176.50117724061715 -19.099456033562092 0 -19.099456033562092 -9.2717301839402353 0 0 0 0 52.693663445311415 109.12936086577974 0 109.12936086577974 -4.219523354316209 0 0 0 0 122.28720583489334 28.439200300706943 0 28.439200300706943 143.19712891898234 0 0 0 0 7.6582065699455955 70.76572343152111 0 70.76572343152111 -11.597097035210027 0 0 0 0 80.279530952482006 122.74120893208965 0 122.74120893208965 8.6173810896184477 0 0 0 0 72.345346679583855 6.7188149245084787 0 6.7188149245084787 36.875967379266513 0 0 0 0 119.56250408442548 7.8758274605770566 0 7.8758274605770566 58.662374780134996 0 0 0 0 -59.017048208785297 148.06431101661292 0 148.06431101661292 33.183844492366006 0 0 0 0 -91.636399267439543 88.403394740200838 0 88.403394740200838 -31.320790042584122 0 0 0 0 -2.6815927970021853 125.24137538974901 0 125.24137538974901 -37.033648083606749 0 0 0 0 -52.307193062590926 83.32404569569735 0 83.32404569569735 -67.827136836058344 0 0 0 0 67.581384960727917 72.417689210669778 0 72.417689210669778 -115.75338694914353 0 0 0 0 -5.0199425226458061 -5.6635854633414056 0 -5.6635854633414056 31.935536151657288 0 0 0 0 0.29760994379508254 7.2663618005631756 0 7.2663618005631756 34.632052885657458 0 0 0 0 -22.277941438161008 0.59341173407435122 0 0.59341173407435122 42.996386765469197 0 0 0 0 -114.45263651509441 98.406223902673446 0 98.406223902673446 -11.144169161075297 0 0 0 0 -32.43017603637395 -2.1312112032703681 0 -2.1312112032703681 31.587711772874627 0 0 0 0 -62.591245821681696 -5.6652873617970272 0 -5.6652873617970272 44.608685968820282 0 0 0 0 0.57563023350231179 6.1648847595324625 0 6.1648847595324625 37.645688837717465 0 0 0 0 -425.32802757835077 154.41375296435126 0 154.41375296435126 76.9618094012867 0 0 0 0 -143.48364160065537 235.90570030524111 0 235.90570030524111 -66.992756883384573 0 0 0 0 -102.69097381523082 29.105421189461595 0 29.105421189461595 -145.20217915735566 0 0 0 0 -37.02510686694518 -15.174739631296461 0 -15.174739631296461 33.348873318153437 0 0 0 0 -14.768888475648055 -33.620343267964927 0 -33.620343267964927 45.366632433550762 0 0 0 0 13.653186023058652 -18.372580558232357 0 -18.372580558232357 30.841721169229459 0 0 0 0 -32.242484938076473 -9.0703440179647714 0 -9.0703440179647714 35.216312348424253 0 0 0 0 68.037105021019897 -45.948831792543842 0 -45.948831792543842 40.917249875622929 0 0 0 0 12.823165974233234 -25.013253209787308 0 -25.013253209787308 76.961785753399454 0 0 0 0 52.739061127375862 6.5604034772136401 0 6.5604034772136401 55.120918418223937 0 0 0 0 42.5537098989073 -34.98943453523907 0 -34.98943453523907 27.977706245379522 0 0 0 0 53.161487008221229 30.969806545538631 0 30.969806545538631 12.774159361425518 0 0 0 0 4.018532577192218 37.947391070564208 0 37.947391070564208 62.215812934354176 0 0 0 0 0.18830357679551768 -0.20317982145685054 0 -0.20317982145685054 0.79336097017294804 0 0 0 0 0.90626964558668988 8.5364893278544969 0 8.5364893278544969 6.5811050429035731 0 0 0 0 14.571932243466904 8.2881664696323014 0 8.2881664696323014 4.0490573022398166 0 0 0 0 18.378260146055482 -6.9351314062807887 0 -6.9351314062807887 -1.3014903200778463 0 0 0 0 -2.9629229747131376 -2.5001619973315883 0 -2.5001619973315883 12.088852031786246 0 0 0 0 5.1996905897774468 -5.5473712767181951 0 -5.5473712767181951 11.411472792746281 0 0 0 0 -3.8811058497851718 2.5396006515519751 0 2.5396006515519751 1.3930541123072198 0 0 0 0 -1.1213485250603501 0.63983858810187755 0 0.63983858810187755 2.3510663260391649 0 0 0 0 -0.26094984431335888 7.5351142572417302 0 7.5351142572417302 5.8956220140848927 0 0 0 0 -5.0892732984146534 2.9229288261304669 0 2.9229288261304669 1.8806929376887331 0 0 0 0 -6.7356039596700157 -23.560038324115339 0 -23.560038324115339 34.801410488491157 0 0 0 0 -2.5498398278036802 -18.630262500917524 0 -18.630262500917524 22.055693589897146 0 0 0 0 14.676157714870897 -31.321519636325093 0 -31.321519636325093 29.400691935226973 0 0 0 0 -0.58622597918110841 -9.2965372335643224 0 -9.2965372335643224 22.16648025243904 0 0 0 0 -10.092556973805131 -10.642005975974826 0 -10.642005975974826 35.894364180807315 0 0 0 0 149.3259666680907 17.383803918644048 0 17.383803918644048 -136.15063434778085 0 0 0 0 -3.1186226639355112 2.9508399848494653 0 2.9508399848494653 -0.21148242762579295 0 0 0 0 23.494700027426859 -129.10647703828295 0 -129.10647703828295 61.328334385613289 0 0 0 0 -57.734250361290492 -50.747438530508816 0 -50.747438530508816 243.64728261951313 0 0 0 0 -15.453394674110996 88.515164108770364 0 88.515164108770364 62.916825712984519 0 0 0 0 -1.632945487591178 0.47534900108613543 0 0.47534900108613543 3.6705878774204628 0 0 0 0 -2.4996278377715271 -12.339312428190169 0 -12.339312428190169 36.830878823192734 0 0 0 0 5.7694822442611269 -5.2822264625208106 0 -5.2822264625208106 19.157880662693515 0 0 0 0 -64.919838314876245 -36.472923212340561 0 -36.472923212340561 -4.7737916507835507 0 0 0 0 20.086818828584001 -38.979420638777356 0 -38.979420638777356 -96.54614302803941 0 0 0 0 -94.384998360419331 55.645504086932306 0 55.645504086932306 274.94771603010685 0 0 0 0 -91.549823411302555 54.207174176687658 0 54.207174176687658 162.3425813286608 0 0 0 0 -51.683590798157184 -22.7174772237463 0 -22.7174772237463 -14.209476837241027 0 0 0 0 0.058619880928639942 -0.42638639889314245 0 -0.42638639889314245 1.3717153169156866 0 0 0 0 130.21531643927835 -119.22753176306151 0 -119.22753176306151 78.213072956096767 0 0 0 0 28.854364933397846 -41.292608146378598 0 -41.292608146378598 21.131651537328594 0 0 0 0 -54.848227085959508 -86.631896119440171 0 -86.631896119440171 188.12759461378664 0 0 0 0 3.4315780874576154 -2.6430719644430773 0 -2.6430719644430773 1.4461404521059755 0 0 0 0 142.61523994126856 -86.308688499012533 0 -86.308688499012533 -5.6461537506138484 0 0 0 0 -90.764375356214487 32.100356386297335 0 32.100356386297335 194.54856452045669 0 0 0 0 -74.914751617076718 -57.541631926319155 0 -57.541631926319155 159.28653089526506 0 0 0 0 87.243952685120689 -33.276192374614425 0 -33.276192374614425 144.00599813151439 0 0 0 0 -15.893818982362291 44.01448561532402 0 44.01448561532402 116.03995335480158 0 0 0 0 32.642431211152143 -127.99814279259272 0 -127.99814279259272 -27.829198010043001 0 0 0 0 135.24596631589736 -15.847073781904697 0 -15.847073781904697 57.823088041896426 0 0 0 0 88.501394628999833 2.4628413524987991 0 2.4628413524987991 -152.95965708825224 0 0 0 0 1.763097417588332 -1.1943425773660419 0 -1.1943425773660419 0.75591357341856957 0 0 0 0 136.97758397823191 -115.22332144090706 0 -115.22332144090706 75.49122838221956 0 0 0 0 100.54639686969392 -121.73036940275801 0 -121.73036940275801 176.40153492461968 0 0 0 0 24.942620516347006 -29.999856873806493 0 -29.999856873806493 104.87094080085853 0 0 0 0 10.920812951228754 75.419210442868689 0 75.419210442868689 -5.8440138000721618 0 0 0 0 -196.64934976535167 30.389938548511736 0 30.389938548511736 97.380459221225692 0 0 0 0 78.608006491071933 86.080075349265371 0 86.080075349265371 30.919498895268816 0 0 0 0 0.643180028164136 4.2119526748572618 0 4.2119526748572618 26.128366294765865 0 0 0 0 -50.922721957914419 -8.8010101954406537 0 -8.8010101954406537 58.127940745653177 0 0 0 0 144.67751079428464 12.326529293999101 0 12.326529293999101 -5.0238015049435489 0 0 0 0 207.83728507862995 120.76153928151689 0 120.76153928151689 100.97991245299454 0 0 0 0 76.417204129636048 43.747296843323056 0 43.747296843323056 -19.456695171294996 0 0 0 0 86.191533530899477 8.3549790728275184 0 8.3549790728275184 10.452615671472813 0 0 0 0 -13.923433017179832 6.4295406819796881 0 6.4295406819796881 51.899460091161018 0 0 0 0 26.85884657408559 -3.0585927483352862 0 -3.0585927483352862 15.506410052689944 0 0 0 0 34.076166574886258 33.130285051043757 0 33.130285051043757 57.603491639411914 0 0 0 0 -14.324832784535289 20.004559034343401 0 20.004559034343401 -142.48335917789154 0 0 0 0 -44.59077419912839 93.026327981275699 0 93.026327981275699 -64.64648055476755 0 0 0 0 -2.571790253881423 1.1446561713173828 0 1.1446561713173828 7.7972847486652004 0 0 0 0 -8.0928870706276257 67.961962911265118 0 67.961962911265118 -55.280292611740947 0 0 0 0 -4.2282258757399331 4.0253506471612681 0 4.0253506471612681 8.8077163723853129 0 0 0 0 -104.96845686639986 77.558209361856882 0 77.558209361856882 42.724319683863541 0 0 0 0 -0.07539514780174747 6.5027241675060461 0 6.5027241675060461 33.976041017651305 0 0 0 0 0.92708164529094139 3.5554965459596204 0 3.5554965459596204 6.8025401498648961 0 0 0 0 318.17086525688325 271.1879425964421 0 271.1879425964421 119.80416734076425 0 0 0 0 138.37260482517365 -162.73988749412092 0 -162.73988749412092 961.22541332048058 0 0 0 0 236.58835342119477 50.908926256386621 0 50.908926256386621 922.04683816504257 0 0 0 0 193.34116313519195 454.58489163323111 0 454.58489163323111 1342.0123864105844 0 0 0 0 -232.81558747633073 17.648009783097223 0 17.648009783097223 1030.5922873155796 0 0 0 0 125.29438556316211 -325.26161431567016 0 -325.26161431567016 85.818998357717646 0 0 0 0 -91.342606836344359 -146.7039513608197 0 -146.7039513608197 197.44191914777912 0 0 0 0 -93.15783913327617 -60.847679201775463 0 -60.847679201775463 845.75732980627072 0 0 0 0 -0.11759885857637395 5.451709879531828 0 5.451709879531828 292.56632495674421 0 0 0 0 -0.11558437152547028 135.73970552951323 0 135.73970552951323 652.72652445772474 0 0 0 0 -104.08333942675969 125.91324463566707 0 125.91324463566707 705.81379413230752 0 0 0 0 -110.93100301026736 94.274508479894394 0 94.274508479894394 1283.651338640906 0 0 0 0 219.88068182951386 240.01965626824312 0 240.01965626824312 -94.05921700737963 0 0 0 0 174.31725188102982 442.69919155481693 0 442.69919155481693 726.93418457154985 0 0 0 0 435.10939779349201 437.83860391461349 0 437.83860391461349 1297.234615518486 0 0 0 0 51.955248020143472 -75.013225201229943 0 -75.013225201229943 1120.7956849580096 0 0 0 0 1.2411659484881736 2.1653105944097746 0 2.1653105944097746 3.6915455271788744 0 0 0 0 254.02021654273767 -335.29863754882172 0 -335.29863754882172 158.79121414649853 0 0 0 0 -113.90722824992031 -161.06003189437251 0 -161.06003189437251 939.20664972382656 0 0 0 0 216.12753703274348 -282.85444540020399 0 -282.85444540020399 979.9255326081111 0 0 0 0 -53.714215940858367 -144.89351658541636 0 -144.89351658541636 411.13772957750189 0 0 0 0 -48.195799053596147 -37.274109295431117 0 -37.274109295431117 355.41455954573757 0 0 0 0 -155.21802421977543 -49.674379467764084 0 -49.674379467764084 771.64896685266285 0 0 0 0 -163.1422343482019 142.27417022986992 0 142.27417022986992 686.73700527941401 0 0 0 0 -148.08745081985148 138.14518693806167 0 138.14518693806167 666.58359238864068 0 0 0 0 -71.040660070470949 267.55154240454794 0 267.55154240454794 695.42444170216277 0 0 0 0 -201.25192072092091 113.37225391340326 0 113.37225391340326 664.88437213881116 0 0 0 0 -134.33841995121202 255.5664519233178 0 255.5664519233178 1301.6378760147309 0 0 0 0 229.6036172240731 534.14164106321914 0 534.14164106321914 732.03144872688426 0 0 0 0 184.74181153090217 -46.113518294649111 0 -46.113518294649111 -51.253959466230299 0 0 0 0 119.39797035646905 233.79606463487289 0 233.79606463487289 278.41848926919192 0 0 0 0 48.557235110789406 198.73905740926966 0 198.73905740926966 306.91895727274823 0 0 0 0 -125.08741677045759 72.418610025240923 0 72.418610025240923 344.21108599836589 0 0 0 0 -90.378601877694678 197.11639845337777 0 197.11639845337777 481.24310453239013 0 0 0 0 12.37898379637943 11.171679196884725 0 11.171679196884725 82.685984208263108 0 0 0 0 33.665009302995259 46.900724349634402 0 46.900724349634402 11.218200446404808 0 0 0 0 -29.521343003333925 64.693348536049598 0 64.693348536049598 340.35686940997402 0 0 0 0 69.453638993432946 -5.5913301857635815 0 -5.5913301857635815 -82.564684077064157 0 0 0 0 -6.4492988935305604 -8.0578460849028488 0 -8.0578460849028488 13.580030795623315 0 0 0 0 1.0874059968075187 -7.1516081426707387 0 -7.1516081426707387 12.81898379960694 0 0 0 0 -3.1347128182871344 0.4837253262073844 0 0.4837253262073844 12.979391220519972 0 0 0 0 -102.01539052983321 -101.55376493886433 0 -101.55376493886433 54.166992331520305 0 0 0 0 -1.2551124611597222 -0.56468134210503962 0 -0.56468134210503962 1.8754214170566144 0 0 0 0 0.16674575899757405 2.1283002141224188 0 2.1283002141224188 0.64216035309095787 0 0 0 0 14.533373041066021 -67.411386788662639 0 -67.411386788662639 146.35672609455651 0 0 0 0 6.9876875609077498 30.917623249963071 0 30.917623249963071 14.06203806243866 0 0 0 0 -20.275072032200164 -132.37911048434762 0 -132.37911048434762 189.33922578739293 0 0 0 0 0.09482182760037669 20.677186856257322 0 20.677186856257322 -32.887804562513338 0 0 0 0 0.13852454686422805 0.12135062764691185 0 0.12135062764691185 0.083793231304852611 0 0 0 0 -10.979834569878463 16.421345235779881 0 16.421345235779881 55.357225047283009 0 0 0 0 7.6567865066196177 -23.860254259012436 0 -23.860254259012436 53.91576106283901 0 0 0 0 -3.4065040684876777 3.8199419956872589 0 3.8199419956872589 29.798661612127034 0 0 0 0 0.10130081487066345 27.121238827880006 0 27.121238827880006 32.805959772886126 0 0 0 0 -9.8930856348349892 3.5154231314663775 0 3.5154231314663775 28.55013821745888 0 0 0 0 -4.3283030602005255 6.8179672384103469 0 6.8179672384103469 23.90418197535837 0 0 0 0 -5.1181560956377821 0.89272281809543585 0 0.89272281809543585 3.8626375222200231 0 0 0 0 -6.3742555407780799 5.6837850349620567 0 5.6837850349620567 23.377787227633235 0 0 0 0 14.980801202931957 417.88930194963177 0 417.88930194963177 1021.0118978980754 0 0 0 0 189.88333802510471 50.916189456837856 0 50.916189456837856 22.578118847144651 0 0 0 0 -1.0407717339032101 -0.2372334232174893 0 -0.2372334232174893 -0.063872984149199397 0 0 0 0 7.0459991474492654 12.313478940908681 0 12.313478940908681 6.4056845615123166 0 0 0 0 226.08614250714237 143.39254821358918 0 143.39254821358918 -202.41502858350032 0 0 0 0 0.71321203249244625 -99.658522251763486 0 -99.658522251763486 843.71617901264108 0 0 0 0 0.62990677505105874 -0.89488091715742257 0 -0.89488091715742257 3.7663188077404612 0 0 0 0 165.29346453204948 320.30231596285739 0 320.30231596285739 1656.8437847620576 0 0 0 0 1.5951304247660549 501.88793383771554 0 501.88793383771554 1498.1803433053828 0 0 0 0 -330.52351053140831 208.02005543828636 0 208.02005543828636 1662.9471696762594 0 0 0 0 1.7453551782535579 3.8135767615108875 0 3.8135767615108875 5.1670968747319677 0 0 0 0 103.35327403355691 -244.31580878690511 0 -244.31580878690511 1171.2236470674507 0 0 0 0 -62.953730792067745 326.11968342172258 0 326.11968342172258 1561.7517502260525 0 0 0 0 283.80386706537274 719.76849938439364 0 719.76849938439364 973.88237272181868 0 0 0 0 0.56316326940253503 -0.035172758573025931 0 -0.035172758573025931 982.16978315437154 0 0 0 0 -93.415483715002608 55.417946206034685 0 55.417946206034685 1499.2345038120129 0 0 0 0 -203.55257108762063 89.466028030572488 0 89.466028030572488 1537.4773672417359 0 0 0 0 -138.58746011431688 292.65081930869928 0 292.65081930869928 1203.4047989034661 0 0 0 0 -100.0782292271015 429.78145236477576 0 429.78145236477576 1298.0872184124601 0 0 0 0 32.090434919622645 53.352074097805598 0 53.352074097805598 1192.7664910470194 0 0 0 0 0.95699814195169419 -0.6654510179471842 0 -0.6654510179471842 3.4163472416754246 0 0 0 0 172.06473982563034 233.20977816202503 0 233.20977816202503 681.44894934173499 0 0 0 0 -73.901950493708313 315.7228367153657 0 315.7228367153657 1018.3123665687963 0 0 0 0 64.49612915282232 201.94462315548662 0 201.94462315548662 1081.8681240812293 0 0 0 0 -166.38906421674548 152.10605674884209 0 152.10605674884209 902.9502285311828 0 0 0 0 -3.4989635963024028 229.66339947203414 0 229.66339947203414 897.64126400164969 0 0 0 0 -63.175326480330568 287.99176810252538 0 287.99176810252538 954.47857170425414 0 0 0 0 125.58388285018572 -231.45741678385821 0 -231.45741678385821 494.4703614949758 0 0 0 0 -91.442077299187176 130.07833709356055 0 130.07833709356055 1201.7313925298076 0 0 0 0 -82.559249452439019 92.243347193958471 0 92.243347193958471 533.54615356118302 0 0 0 0 -99.569733829515641 31.097697228137804 0 31.097697228137804 573.3992477683496 0 0 0 0 13.423706324139118 203.76329785539565 0 203.76329785539565 491.65083735909502 0 0 0 0 -115.20609036801385 155.98541501311502 0 155.98541501311502 986.19928632108349 0 0 0 0 -90.7667188854399 410.17541023750528 0 410.17541023750528 807.8245915736079 0 0 0 0 -38.510787084691586 99.250134184176204 0 99.250134184176204 462.27610699339129 0 0 0 0 19.451672099683208 356.11523889919772 0 356.11523889919772 87.876996961618715 0 0 0 0 -0.64497450493894193 0.41402925024049608 0 0.41402925024049608 1.2934652863496723 0 0 0 0 -11.264041285808339 -128.88599351215271 0 -128.88599351215271 -101.91247521559126 0 0 0 0 63.132264191933423 18.083033663300739 0 18.083033663300739 -13.80978473914729 0 0 0 0 2.0579620671642829 6.3131321590481093 0 6.3131321590481093 -11.688863431903883 0 0 0 0 -140.86918458956899 -95.653814810837503 0 -95.653814810837503 318.65870118798557 0 0 0 0 167.1462301571284 -157.18517065040578 0 -157.18517065040578 -165.36163827566634 0 0 0 0 -0.49621001444749241 1.4490121667997045 0 1.4490121667997045 3.9844319458921227 0 0 0 0 -0.3632468299105085 5.3205603096648701 0 5.3205603096648701 17.53667324854905 0 0 0 0 -2.2187552708035345 4.1269449252682477 0 4.1269449252682477 12.857761194667304 0 0 0 0 -2.8593970062142091 3.7629293149293517 0 3.7629293149293517 20.073546346000512 0 0 0 0 -16.97999669909359 -41.709086142916931 0 -41.709086142916931 -21.468922561922227 0 0 0 0 -3.1640065510946283 -1.8608572444293472 0 -1.8608572444293472 15.496457643669729 0 0 0 0 -11.481706753677919 -1.2659848547036745 0 -1.2659848547036745 22.493654635327403 0 0 0 0 -55.470456822136804 -31.203753129393135 0 -31.203753129393135 12.879079016754986 0 0 0 0 -2.2578630454209239 -3.0640088038366216 0 -3.0640088038366216 -0.36100828458239675 0 0 0 0 -55.756660491438325 -26.482256811826232 0 -26.482256811826232 21.008474931761157 0 0 0 0 -14.323037166115455 -4.6400923614964995 0 -4.6400923614964995 -11.33545893376504 0 0 0 0 -87.295452384485145 -9.7803813015307242 0 -9.7803813015307242 25.623349546352983 0 0 0 0 -71.75467386832895 8.6005096765547933 0 8.6005096765547933 26.821697500005939 0 0 0 0 -0.94748305462629634 2.2335884879841483 0 2.2335884879841483 4.4191348879895429 0 0 0 0 36.466865571435761 -69.202727966554448 0 -69.202727966554448 79.025253433035687 0 0 0 0 116.32219864890516 -75.949115842257015 0 -75.949115842257015 -30.269858361823935 0 0 0 0 -0.77522089069152755 5.2584360712873455 0 5.2584360712873455 25.061948737608901 0 0 0 0 -424.53634400054062 41.786545982853568 0 41.786545982853568 243.45053639341495 0 0 0 0 -42.375392846047021 -83.664165358914033 0 -83.664165358914033 -122.55124299577437 0 0 0 0 -152.77110104707694 -54.648039867861371 0 -54.648039867861371 33.867855223048537 0 0 0 0 -135.82792488536523 14.706138415218447 0 14.706138415218447 29.178486318712203 0 0 0 0 -2.6567220949928108 -3.7002437245148272 0 -3.7002437245148272 -0.046477967384518593 0 0 0 0 157.55384651823539 367.63684893238678 0 367.63684893238678 693.07531863787881 0 0 0 0 -229.42278222586924 286.39888696522758 0 286.39888696522758 441.01608813076746 0 0 0 0 0.63349900234960521 0.97266256214054891 0 0.97266256214054891 10.646357984207981 0 0 0 0 -27.020695650161624 222.06574677245771 0 222.06574677245771 459.09425280454161 0 0 0 0 -35.075724678296268 447.80715958135988 0 447.80715958135988 1057.7451235058979 0 0 0 0 150.33481286766141 146.32131278037014 0 146.32131278037014 125.37894858871005 0 0 0 0 24.244089621129945 -107.12039457582796 0 -107.12039457582796 -117.64212588460214 0 0 0 0 533.67007058171794 -870.61839202329156 0 -870.61839202329156 978.73459629265562 0 0 0 0 494.36207711657732 -725.3263649592518 0 -725.3263649592518 468.29333284963286 0 0 0 0 71.968816614330336 -496.81175747670204 0 -496.81175747670204 989.79180611571064 0 0 0 0 197.01742913736916 -785.76346347488288 0 -785.76346347488288 1586.8029979916901 0 0 0 0 193.37375950873289 -560.6799464607393 0 -560.6799464607393 1500.9142982710873 0 0 0 0 1129.0991942166272 69.84353175668366 0 69.84353175668366 1919.5832652514946 0 0 0 0 633.45165276185151 -547.07004274473002 0 -547.07004274473002 1984.7517702266341 0 0 0 0 -52.434281209082314 215.24255107966746 0 215.24255107966746 1033.5365971003844 0 0 0 0 -142.86278983991267 421.37630550717404 0 421.37630550717404 1913.0516374385916 0 0 0 0 168.19113676905602 -564.14259690281688 0 -564.14259690281688 1499.5425609641898 0 0 0 0 177.12043019220386 -555.02390010422278 0 -555.02390010422278 1504.1219270581187 0 0 0 0 -30.809845760907258 -666.9305943203135 0 -666.9305943203135 995.0171010019767 0 0 0 0 -0.7430301451556216 -0.24689961039179309 0 -0.24689961039179309 2.7713525094136102 0 0 0 0 -51.094140800195717 -376.73011712102743 0 -376.73011712102743 910.84405585007971 0 0 0 0 0.63747961522859842 1.1092459625382745 0 1.1092459625382745 3.7063765108027695 0 0 0 0 252.89967176776662 -629.03142828171212 0 -629.03142828171212 525.02813238390809 0 0 0 0 179.78384647221253 -237.48663143025806 0 -237.48663143025806 357.41724002822957 0 0 0 0 -20.270716167240636 -232.2702751014258 0 -232.2702751014258 193.60665987877292 0 0 0 0 -339.6767134260773 -265.46971361697888 0 -265.46971361697888 502.5466478684757 0 0 0 0 -130.1341017870985 -24.270201873372571 0 -24.270201873372571 -101.47501600650867 0 0 0 0 -659.30099881239573 493.66794981474595 0 493.66794981474595 8.2345836917866109 0 0 0 0 -116.04530322667745 -243.43556120934591 0 -243.43556120934591 569.77264462110179 0 0 0 0 -97.730369970040556 526.4670580503398 0 526.4670580503398 1393.9809816949382 0 0 0 0 -65.7902149826146 261.90320574530415 0 261.90320574530415 -337.77874049333332 0 0 0 0 1.7520397460703896 3.6577711046520562 0 3.6577711046520562 4.4268669775863572 0 0 0 0 -146.82096402691485 1193.4277496240406 0 1193.4277496240406 9.107139458792517 0 0 0 0 -44.295910076655218 -220.02052360345442 0 -220.02052360345442 1271.5944684624865 0 0 0 0 -20.33996159743954 -132.80450568152492 0 -132.80450568152492 787.3594495349098 0 0 0 0 0.26262898441302696 23.216233890452713 0 23.216233890452713 1020.9211153831566 0 0 0 0 97.270972480051455 87.071430816005886 0 87.071430816005886 49.902673370972479 0 0 0 0 -671.20097932880583 -76.35586049615813 0 -76.35586049615813 401.64051038228718 0 0 0 0 43.081418298227391 -241.99378762620108 0 -241.99378762620108 457.89936890116223 0 0 0 0 -1.0516617715082626 4.5863942561110562 0 4.5863942561110562 14.844841623401891 0 0 0 0 -7.7184274743176502 3.5177828272353509 0 3.5177828272353509 14.426141938762157 0 0 0 0 0.056798609982799564 0.2632535506449436 0 0.2632535506449436 1.8947914727934005 0 0 0 0 -139.48812610810421 99.163209057249333 0 99.163209057249333 30.620025507636797 0 0 0 0 -0.41149092851277436 -0.43066244224166894 0 -0.43066244224166894 -0.88079076036326853 0 0 0 0 -124.90493082804869 38.578197452188761 0 38.578197452188761 149.9217242594259 0 0 0 0 -232.17641128266848 92.571745139410268 0 92.571745139410268 561.51353484186984 0 0 0 0 -126.38764488438619 202.20466766817481 0 202.20466766817481 571.85756618888263 0 0 0 0 7.7484357069784977 101.00556902348558 0 101.00556902348558 608.76354332850315 0 0 0 0 -107.11053509291122 147.94949787074074 0 147.94949787074074 439.83131435311225 0 0 0 0 -28.994213203550544 256.16470507524718 0 256.16470507524718 589.40427808228515 0 0 0 0 65.937971065069121 170.69060478754909 0 170.69060478754909 388.73314040141122 0 0 0 0 -129.95508456626703 133.48065685153415 0 133.48065685153415 607.25151945734251 0 0 0 0 -205.65014324438107 155.44526507527189 0 155.44526507527189 601.95385651870311 0 0 0 0 -56.490710652627058 27.837262048404227 0 27.837262048404227 278.14744869730202 0 0 0 0 -155.18831582065275 27.944089810913283 0 27.944089810913283 448.6630700893802 0 0 0 0 -78.556045078361421 11.369892675949814 0 11.369892675949814 451.92080885904397 0 0 0 0 -29.947991487618765 140.67373082770428 0 140.67373082770428 438.26314553962038 0 0 0 0 18.387555358000441 108.73920950014508 0 108.73920950014508 232.1872839267744 0 0 0 0 41.291371033843916 129.2287561037374 0 129.2287561037374 209.32176669373803 0 0 0 0 89.941545940505819 70.901625241338479 0 70.901625241338479 260.71248390227993 0 0 0 0 48.687349167747925 194.97436784307138 0 194.97436784307138 371.99171160281549 0 0 0 0 106.51977408043402 29.42398239526301 0 29.42398239526301 13.588302120646404 0 0 0 0 189.52562885048985 542.86418569734451 0 542.86418569734451 985.69040897383184 0 0 0 0 185.92395625210295 -188.80821667520055 0 -188.80821667520055 252.18285027891761 0 0 0 0 159.42622272863167 231.88581902930309 0 231.88581902930309 311.68594180944638 0 0 0 0 89.22498218377109 320.67502852760299 0 320.67502852760299 672.54278451474602 0 0 0 0 -483.56241187119406 90.986696088402823 0 90.986696088402823 324.91888425497018 0 0 0 0 -521.22348358126669 121.56794477195763 0 121.56794477195763 267.92772277656331 0 0 0 0 -0.5495477435970757 3.2303259220413292 0 3.2303259220413292 36.609176056577269 0 0 0 0 -106.51548428402862 -176.66329788485746 0 -176.66329788485746 19.871163219138907 0 0 0 0 -9.6429649785379752 193.08665633119017 0 193.08665633119017 17.281782705223122 0 0 0 0 76.646044508827572 -76.287986909442225 0 -76.287986909442225 -45.680817841326643 0 0 0 0 -347.61990155092172 0.99259465016439208 0 0.99259465016439208 119.48829574320052 0 0 0 0 -31.726429599613596 -294.25649473480917 0 -294.25649473480917 41.585096288995828 0 0 0 0 -4.504723037114104 -396.9587591101099 0 -396.9587591101099 184.5833567595655 0 0 0 0 354.95239256267041 175.94127287796346 0 175.94127287796346 107.34973096115209 0 0 0 0 0.32463799800110715 -0.82965677533414972 0 -0.82965677533414972 3.9208656801185668 0 0 0 0 144.23145307235075 -229.59818886440735 0 -229.59818886440735 604.49693918856792 0 0 0 0 196.14709265670487 -355.3020702830454 0 -355.3020702830454 410.44780063437793 0 0 0 0 255.09416145547786 -215.43460241435969 0 -215.43460241435969 626.42971739081258 0 0 0 0 55.629373399796066 -21.954857668006298 0 -21.954857668006298 447.07729987433595 0 0 0 0 72.74174422946038 143.27608298786618 0 143.27608298786618 1002.8521705388812 0 0 0 0 16.700999124018836 -379.21647246145403 0 -379.21647246145403 1247.3089205966644 0 0 0 0 72.037621657870375 123.12314488255925 0 123.12314488255925 -48.304436594804429 0 0 0 0 183.74080209766157 -615.19062254996606 0 -615.19062254996606 503.30623398434545 0 0 0 0 99.818594826274307 742.82121646924315 0 742.82121646924315 305.54634959750911 0 0 0 0 0.43359519481597708 1.7204238819701523 0 1.7204238819701523 15.431941054732761 0 0 0 0 444.4318758149127 958.76912722825182 0 958.76912722825182 409.45171818221206 0 0 0 0 130.35067153471326 -162.26755640123247 0 -162.26755640123247 609.51262140224935 0 0 0 0 958.4488467815421 -73.757485835340049 0 -73.757485835340049 572.34284514990213 0 0 0 0 290.91313934999562 -646.5626367839759 0 -646.5626367839759 957.09087196120072 0 0 0 0 -91.37915956559084 -97.960494690885753 0 -97.960494690885753 1355.7007776966657 0 0 0 0 2.5083552696409384 3.392609458818626 0 3.392609458818626 4.5426244937599662 0 0 0 0 -46.13020776312743 -133.85464429159219 0 -133.85464429159219 868.37261347182175 0 0 0 0 459.688468246708 -439.2474244842997 0 -439.2474244842997 550.93366977458936 0 0 0 0 58.019056708604694 -399.29373419853255 0 -399.29373419853255 1257.0906956113231 0 0 0 0 72.220506109696402 -377.97559828770045 0 -377.97559828770045 1153.3989251990315 0 0 0 0 -174.22407921508881 -277.0872787592416 0 -277.0872787592416 1499.9232449112715 0 0 0 0 -292.03866393256419 -119.30868287376961 0 -119.30868287376961 1499.7491002798524 0 0 0 0 -203.72293802660707 -170.31548988139957 0 -170.31548988139957 1139.2324691616268 0 0 0 0 -84.392435882322786 -165.66655652719237 0 -165.66655652719237 1137.6785221254877 0 0 0 0 -54.333578526852648 68.038581996506764 0 68.038581996506764 386.76160954736406 0 0 0 0 -101.78860419139508 109.39094487282864 0 109.39094487282864 1108.9580376676495 0 0 0 0 -92.664636214881682 -152.50825139708763 0 -152.50825139708763 1408.9637186573054 0 0 0 0 1.1976713463908681 2.0727633125308884 0 2.0727633125308884 3.1397802591835315 0 0 0 0 -140.89974708230119 227.25754065399087 0 227.25754065399087 915.87437242747046 0 0 0 0 -121.14801508219594 160.99056438269508 0 160.99056438269508 980.89642864443886 0 0 0 0 -154.35580706048785 111.15333291071909 0 111.15333291071909 976.91930654083262 0 0 0 0 -272.3607053436333 -29.709512076969986 0 -29.709512076969986 1114.7962824875885 0 0 0 0 -185.27426276690232 179.48581896757423 0 179.48581896757423 1266.413376669072 0 0 0 0 -170.8722493670133 112.83018778236874 0 112.83018778236874 1273.2658001341351 0 0 0 0 -252.84440451057964 94.79134449519006 0 94.79134449519006 1499.8342922076372 0 0 0 0 161.96948646237462 147.56487157687479 0 147.56487157687479 1298.2159872890043 0 0 0 0 -114.27984354663485 226.22410523200779 0 226.22410523200779 1499.9158143005182 0 0 0 0 -53.99600175733984 218.39454678454058 0 218.39454678454058 1303.2569630901917 0 0 0 0 255.22901012503939 190.970798061398 0 190.970798061398 1085.2831037118522 0 0 0 0 -56.8256240969381 154.385473560631 0 154.385473560631 1083.0866763244194 0 0 0 0 -92.39534259826236 147.21082783574093 0 147.21082783574093 1183.592163827514 0 0 0 0 -101.70199412473329 236.00684302766604 0 236.00684302766604 1021.4111256260985 0 0 0 0 -22.486387683179629 253.41158716142854 0 253.41158716142854 884.50502026706818 0 0 0 0 -125.43726021481928 107.36176701667137 0 107.36176701667137 706.02523818035115 0 0 0 0 -50.654365667173181 192.33709469258974 0 192.33709469258974 713.13221625141159 0 0 0 0 -49.009316249353439 118.00712578003618 0 118.00712578003618 697.01628672096558 0 0 0 0 -51.149243332448236 199.03840015302012 0 199.03840015302012 739.48465133792479 0 0 0 0 63.588025261632495 156.91083157297908 0 156.91083157297908 749.27627335134457 0 0 0 0 38.967743970030313 174.42408989407249 0 174.42408989407249 239.03227239768603 0 0 0 0 -73.048835676523566 10.713292919565902 0 10.713292919565902 267.5866591653903 0 0 0 0 -116.57414708380676 -159.85954416960885 0 -159.85954416960885 -83.322151895125444 0 0 0 0 -36.653526032063979 -19.070422898550532 0 -19.070422898550532 -35.444214092414768 0 0 0 0 31.654524626107595 1.9577580969598785 0 1.9577580969598785 -44.295486905153666 0 0 0 0 -1.4946505402637849 -8.552888781489056 0 -8.552888781489056 15.499224009138345 0 0 0 0 -34.413795808698076 57.20816776656693 0 57.20816776656693 279.22218526485449 0 0 0 0 -16.488702924224242 -100.77542481088858 0 -100.77542481088858 11.06888767241071 0 0 0 0 -116.14336376026768 176.26529931893856 0 176.26529931893856 716.57670413517508 0 0 0 0 -59.108645699483418 -33.262513946585386 0 -33.262513946585386 342.91624950281221 0 0 0 0 135.69581818456459 19.539021080035582 0 19.539021080035582 455.24908917539506 0 0 0 0 -166.22922104013458 10.61757855534961 0 10.61757855534961 862.48774341519174 0 0 0 0 97.684463826357444 -115.66958189878369 0 -115.66958189878369 -466.65407240941931 0 0 0 0 -123.60891321321904 -357.53213907691452 0 -357.53213907691452 444.21252836950225 0 0 0 0 -117.53523012124106 -162.86600453510437 0 -162.86600453510437 132.99450682714087 0 0 0 0 -2.019739949771524 -0.99349084218160755 0 -0.99349084218160755 -0.57628575633203116 0 0 0 0 43.118606831702891 -335.66962797275482 0 -335.66962797275482 665.16626053030359 0 0 0 0 13.604991910740921 -464.45707047660653 0 -464.45707047660653 436.86372650652265 0 0 0 0 306.91630797804191 -596.71806155778359 0 -596.71806155778359 547.43573177196686 0 0 0 0 37.842963926683751 -264.26658604637032 0 -264.26658604637032 397.04079931113665 0 0 0 0 231.02904046907202 11.599430434589976 0 11.599430434589976 9.0081450256329845 0 0 0 0 2.0017395403043494 -3.2296271422605543 0 -3.2296271422605543 7.3208139294382875 0 0 0 0 559.93352217540223 -330.40270829538349 0 -330.40270829538349 59.05401910770729 0 0 0 0 183.84668085989 368.34676262703397 0 368.34676262703397 531.47605381057633 0 0 0 0 -35.722581165205611 -54.408464480184193 0 -54.408464480184193 476.67585790092085 0 0 0 0 2.9405234652055965 -11.489312628591172 0 -11.489312628591172 15.731465918870654 0 0 0 0 -8.184338585005662 -37.810483546540127 0 -37.810483546540127 74.345399931409702 0 0 0 0 -9.3771841669473215 -4.0888555087763905 0 -4.0888555087763905 4.3144272601257487 0 0 0 0 58.112294348512464 -128.04353579227882 0 -128.04353579227882 -245.97851558807633 0 0 0 0 286.79190429393293 142.63439354728871 0 142.63439354728871 402.46151897549328 0 0 0 0 377.45120347708621 -307.67540011187521 0 -307.67540011187521 263.08151702764735 0 0 0 0 155.66309818737415 -31.628816576840109 0 -31.628816576840109 637.2943950288809 0 0 0 0 147.06230568480805 564.54048575853085 0 564.54048575853085 1259.6385165648717 0 0 0 0 255.45819104673183 -370.60784649469679 0 -370.60784649469679 1164.9399367167243 0 0 0 0 910.12728233096686 -43.086845288785298 0 -43.086845288785298 417.31527775954237 0 0 0 0 54.234153574030415 -3.0978312647439452 0 -3.0978312647439452 1253.0912066470046 0 0 0 0 65.341532837003115 -111.82869864181976 0 -111.82869864181976 367.48244126172722 0 0 0 0 -61.288510041106292 -65.764887140077917 0 -65.764887140077917 402.66453089628681 0 0 0 0 -66.721172961209959 120.53174862423032 0 120.53174862423032 521.25458456179695 0 0 0 0 195.15455715291233 -81.892684787316682 0 -81.892684787316682 83.662164444172959 0 0 0 0 202.0708404036161 314.76772685078686 0 314.76772685078686 233.52894254811508 0 0 0 0 -156.41964300962491 153.30624768316193 0 153.30624768316193 171.08576036375052 0 0 0 0 2.4089351633764378 1.16021981238503 0 1.16021981238503 0.1982090816759623 0 0 0 0 -12.078854530652507 260.97705529944506 0 260.97705529944506 136.31989957242331 0 0 0 0 13.375764090747751 30.408716990155881 0 30.408716990155881 -173.24054304480524 0 0 0 0 203.65707452543364 98.144647227250061 0 98.144647227250061 -398.90358045213361 0 0 0 0 -7.4025775653504979 76.345952861882324 0 76.345952861882324 -188.15168286901462 0 0 0 0 5.0359544465280663 1.6773757347734701 0 1.6773757347734701 -0.068515134020341151 0 0 0 0 61.112283606644382 198.50720680097402 0 198.50720680097402 35.221597229970939 0 0 0 0 58.582818381052924 -219.56083409185888 0 -219.56083409185888 -15.0694371936479 0 0 0 0 151.69006328953989 -79.526855232195885 0 -79.526855232195885 134.80732462120886 0 0 0 0 2.8637231827038261 0.13968121571331693 0 0.13968121571331693 -0.46667730255853357 0 0 0 0 206.46086223767813 -91.530120708395771 0 -91.530120708395771 -252.9372574085728 0 0 0 0 -89.134677324175868 58.918380844545027 0 58.918380844545027 -99.524997561530654 0 0 0 0 8.7698484382064095 105.06521158486157 0 105.06521158486157 -294.46589819723522 0 0 0 0 21.649187308286596 4.1184600887260387 0 4.1184600887260387 0.14272932655428683 0 0 0 0 94.29299139477007 26.476815874069871 0 26.476815874069871 -205.47176426897749 0 0 0 0 3.2108192708492425 34.193679776803037 0 34.193679776803037 47.779094907140916 0 0 0 0 26.954535464715264 116.52544435509481 0 116.52544435509481 -31.450935745666357 0 0 0 0 -20.089882281340351 0.47663936365051995 0 0.47663936365051995 79.237153105943435 0 0 0 0 78.726664720214103 97.041624461136962 0 97.041624461136962 119.18809218438219 0 0 0 0 31.467834610229147 36.28066570953888 0 36.28066570953888 282.45870783813007 0 0 0 0 141.5579096839765 21.732692905430667 0 21.732692905430667 48.560828283363662 0 0 0 0 143.10611562548183 91.589534807855671 0 91.589534807855671 266.94272432833623 0 0 0 0 131.07200426258805 149.09136468257384 0 149.09136468257384 466.45363839777565 0 0 0 0 31.737574274408871 124.26340591165354 0 124.26340591165354 519.38947644736618 0 0 0 0 18.113297570867871 40.660513474887921 0 40.660513474887921 545.99219038809679 0 0 0 0 45.90729216737418 68.605030299357168 0 68.605030299357168 385.95125491552608 0 0 0 0 -0.31175073914255336 77.980665933593627 0 77.980665933593627 384.73715278768941 0 0 0 0 42.261034949619898 112.14631722231024 0 112.14631722231024 360.05580761629244 0 0 0 0 24.538998909492875 17.781199937850033 0 17.781199937850033 293.39463436439837 0 0 0 0 2.5439860241426686 -88.673166470001888 0 -88.673166470001888 239.0194506800035 0 0 0 0 96.833399953515254 36.536124056809058 0 36.536124056809058 253.38874068487394 0 0 0 0 62.750585624467931 -0.25885781607030367 0 -0.25885781607030367 260.79112478595016 0 0 0 0 249.43162407308046 7.5601665358808532 0 7.5601665358808532 234.61785182698077 0 0 0 0 0.0041596786531954422 -32.978462328079331 0 -32.978462328079331 97.062379278035223 0 0 0 0 133.41616179080256 -39.547288265303905 0 -39.547288265303905 95.80524719193636 0 0 0 0 -14.471588854939228 -14.569392643765241 0 -14.569392643765241 -21.494197825639276 0 0 0 0 50.005254340655711 -42.108463262879013 0 -42.108463262879013 -20.472716136086092 0 0 0 0 75.785392291620155 -7.1548791397563036 0 -7.1548791397563036 -176.65313966213216 0 0 0 0 52.619465273189689 -78.866095351201693 0 -78.866095351201693 -64.619865326814761 0 0 0 0 16.41504234175828 3.4286515740126902 0 3.4286515740126902 0.17087824249074579 0 0 0 0 -22.229353377567989 64.896002605827562 0 64.896002605827562 -172.72273052194942 0 0 0 0 9.9417839225447651 2.6275021087982893 0 2.6275021087982893 0.89634955966407048 0 0 0 0 -13.29958719873872 56.643189378604802 0 56.643189378604802 -79.319817281018004 0 0 0 0 15.463852653417234 -32.663014998706785 0 -32.663014998706785 -48.351960379564389 0 0 0 0 2.3364287758822804 2.0398009093812348 0 2.0398009093812348 10.360650826093321 0 0 0 0 11.656045117801597 2.1304224738305493 0 2.1304224738305493 -2.7569415304205904 0 0 0 0 -0.55906415840841817 -5.4250880159543158 0 -5.4250880159543158 19.305415198454284 0 0 0 0 1.8346869176951326 2.2017391348180331 0 2.2017391348180331 1.6335652622957184 0 0 0 0 26.990327216061274 -12.417471432111142 0 -12.417471432111142 7.2343156180213555 0 0 0 0 -25.900046178017931 -22.642369784459788 0 -22.642369784459788 13.937160308796592 0 0 0 0 14.266789078296654 -13.348681081442919 0 -13.348681081442919 14.709405041954597 0 0 0 0 -63.751332729668775 3.2572743819964671 0 3.2572743819964671 12.300574268698483 0 0 0 0 5.7279965800639729 -73.201427989304648 0 -73.201427989304648 134.13204237678656 0 0 0 0 -35.460863143433926 -58.464961720690553 0 -58.464961720690553 130.42096937483802 0 0 0 0 0.2421397045016378 0.94868157818527621 0 0.94868157818527621 0.54896020461936246 0 0 0 0 124.51818319324798 -74.94504405828593 0 -74.94504405828593 48.629574346829031 0 0 0 0 -11.905439363662836 -77.598324851460461 0 -77.598324851460461 174.76581183294184 0 0 0 0 -44.409283585897015 -20.080449546378077 0 -20.080449546378077 189.91170527860777 0 0 0 0 -52.570804572503903 67.937647316626681 0 67.937647316626681 65.625354497644366 0 0 0 0 -112.74875054840595 -58.613722322723333 0 -58.613722322723333 209.38597272786865 0 0 0 0 -77.513105310835812 -50.954490195133985 0 -50.954490195133985 18.61203224532801 0 0 0 0 -81.584819591643026 -57.752345083414184 0 -57.752345083414184 36.282952193840174 0 0 0 0 -82.831955843699575 -62.222335650560126 0 -62.222335650560126 20.7690352495556 0 0 0 0 -31.449872672590459 38.759204499187035 0 38.759204499187035 39.714528050355511 0 0 0 0 -47.534601008078084 -32.916879783453624 0 -32.916879783453624 9.9797477185402386 0 0 0 0 -81.741689725504159 -36.013657156243426 0 -36.013657156243426 123.52499085503223 0 0 0 0 -0.55473009274295726 -0.61618512053013852 0 -0.61618512053013852 47.830329298892522 0 0 0 0 -0.51289600250696576 -6.7522615111721258 0 -6.7522615111721258 1.0361022486183913 0 0 0 0 -80.25971931468132 -9.6005059179387899 0 -9.6005059179387899 82.539157898245321 0 0 0 0 -49.872179773516109 7.3002443008840601 0 7.3002443008840601 132.78755798393104 0 0 0 0 -10.501731528367683 -52.250265865068855 0 -52.250265865068855 105.67911468309467 0 0 0 0 -118.8049289450707 -24.046954730900325 0 -24.046954730900325 41.293896683622279 0 0 0 0 -153.96930957805557 -25.424258397764788 0 -25.424258397764788 109.99628061162366 0 0 0 0 -141.21088555889651 0.94003664304273116 0 0.94003664304273116 74.322589535673615 0 0 0 0 -152.06277669643134 18.89111325990234 0 18.89111325990234 59.614728936459869 0 0 0 0 -23.719756628770142 -22.331775037124316 0 -22.331775037124316 23.676000393672439 0 0 0 0 12.147001921173114 -26.958446297665432 0 -26.958446297665432 9.6939945051744871 0 0 0 0 -66.593204541281295 34.59202536844532 0 34.59202536844532 28.488823904925084 0 0 0 0 -0.31775233463637642 1.172132741036819 0 1.172132741036819 22.320608607688101 0 0 0 0 -1.0940427595113404 -0.22926566638724566 0 -0.22926566638724566 31.950156957813007 0 0 0 0 -10.047742831507819 0.23615101559880713 0 0.23615101559880713 18.018700992732192 0 0 0 0 -5.1255485685435058 1.0106203066176036 0 1.0106203066176036 53.947096761215164 0 0 0 0 -238.16179659272819 7.6779498199030058 0 7.6779498199030058 76.665672434173757 0 0 0 0 -151.12835392480832 95.477449027297553 0 95.477449027297553 0.4626136752704042 0 0 0 0 -153.4784320802471 -74.329236640733143 0 -74.329236640733143 35.712904903652088 0 0 0 0 -0.94594270207053599 -0.40457063666725901 0 -0.40457063666725901 11.56491081697019 0 0 0 0 -221.45150245087473 -10.788563905860428 0 -10.788563905860428 47.489075266465079 0 0 0 0 -135.98066020030831 -3.533097771300163 0 -3.533097771300163 42.430666740394372 0 0 0 0 -155.92024481800968 -21.247485365158354 0 -21.247485365158354 45.743811545741664 0 0 0 0 -167.28714422346468 -10.29269440898679 0 -10.29269440898679 45.709655443890369 0 0 0 0 -168.13507063847302 -20.94080637258412 0 -20.94080637258412 45.037625859076797 0 0 0 0 -162.96255469802372 -7.7587449973589173 0 -7.7587449973589173 49.413453529843537 0 0 0 0 23.630658226692276 -77.662256644827721 0 -77.662256644827721 10.121106700847122 0 0 0 0 -91.605727949254401 -39.658805310553362 0 -39.658805310553362 11.211738087469712 0 0 0 0 -58.40891010238547 16.248102743778873 0 16.248102743778873 56.589701798890019 0 0 0 0 13.766481203330159 10.543581715384789 0 10.543581715384789 18.559732039722803 0 0 0 0 -1.7574625560771184 3.0030082654793473 0 3.0030082654793473 22.168717003783627 0 0 0 0 -21.511524594803518 54.319105747973936 0 54.319105747973936 41.453235018641863 0 0 0 0 -0.4322240955208968 2.8115712752745985 0 2.8115712752745985 39.377527084012115 0 0 0 0 40.459108867421847 27.471439122640732 0 27.471439122640732 3.972406550841697 0 0 0 0 1.3818333335435056 2.664688384153723 0 2.664688384153723 1.8453312007169131 0 0 0 0 -87.462312216533178 111.54374311823562 0 111.54374311823562 -116.41230180259299 0 0 0 0 -30.949108382754872 73.166901736693944 0 73.166901736693944 93.391839061492647 0 0 0 0 44.879493217811898 86.023134855468015 0 86.023134855468015 -216.69667215745449 0 0 0 0 60.335860604975494 161.00576284294948 0 161.00576284294948 -108.81363820743354 0 0 0 0 -5.2649148001648882 245.79720879980414 0 245.79720879980414 154.56411375654352 0 0 0 0 6.0667802038247514 -104.36643279265263 0 -104.36643279265263 -178.31456374460322 0 0 0 0 -0.17551822631831454 0.51602229818052869 0 0.51602229818052869 0.84644392580995031 0 0 0 0 -253.08257023818948 -15.064347172810812 0 -15.064347172810812 254.39537270465371 0 0 0 0 -381.02430897144967 135.72769828100991 0 135.72769828100991 208.62512386759772 0 0 0 0 -295.15451222181855 125.95842234367046 0 125.95842234367046 360.7396747566745 0 0 0 0 -230.90660685106855 74.979141750416602 0 74.979141750416602 182.94161914765118 0 0 0 0 -249.23929044635878 -14.17398923779183 0 -14.17398923779183 70.043023712330523 0 0 0 0 -207.70340825363849 -100.61660908007434 0 -100.61660908007434 -229.99732368861987 0 0 0 0 -260.17434541180944 194.14376731632365 0 194.14376731632365 -31.760038240601716 0 0 0 0 -62.786126672581574 115.22656531888106 0 115.22656531888106 105.39440914879015 0 0 0 0 -126.93027537928083 139.23894744345307 0 139.23894744345307 166.40810436140191 0 0 0 0 -127.62375438737271 180.66626732520854 0 180.66626732520854 41.47902143587271 0 0 0 0 -172.49658395680825 91.962273239982096 0 91.962273239982096 213.77458106026825 0 0 0 0 -72.90926638611559 -136.94907573038199 0 -136.94907573038199 134.50355967077849 0 0 0 0 -0.60351367437429548 0.14733560340021068 0 0.14733560340021068 11.846773803547705 0 0 0 0 274.0071002597146 118.43307907440339 0 118.43307907440339 -95.921865986951161 0 0 0 0 -517.48316683122516 -169.05992431274626 0 -169.05992431274626 138.61826921307511 0 0 0 0 46.394323342756479 -85.423534073292103 0 -85.423534073292103 8.5161585355999705 0 0 0 0 -289.98567418100492 75.189940026835757 0 75.189940026835757 113.74627332981981 0 0 0 0 -0.53407382788244184 3.4389225953192009 0 3.4389225953192009 43.239293263012542 0 0 0 0 -499.93039724300138 -76.798929574866634 0 -76.798929574866634 140.64468822348499 0 0 0 0 -208.91209861601249 9.8861929005252023 0 9.8861929005252023 13.160050615508226 0 0 0 0 -160.14761314115754 -72.319400746651809 0 -72.319400746651809 -3.3418611145170871 0 0 0 0 -254.61778265088947 -33.731268482513769 0 -33.731268482513769 53.760915744893282 0 0 0 0 -20.440581136968376 145.55518047340956 0 145.55518047340956 62.655386480475499 0 0 0 0 -1.0861426442786284 1.1647418139496057 0 1.1647418139496057 17.704894673446333 0 0 0 0 -0.11426653062690012 3.188342240987299 0 3.188342240987299 42.836714624262925 0 0 0 0 -143.55595948570397 56.126822840810291 0 56.126822840810291 99.029348253563512 0 0 0 0 126.99547792024168 78.764697061503284 0 78.764697061503284 -17.289747241637087 0 0 0 0 -26.095598357863238 5.1024706172393053 0 5.1024706172393053 28.752151013577532 0 0 0 0 50.32827061918681 -10.297173825812934 0 -10.297173825812934 30.014443518080952 0 0 0 0 7.0953300271591111 -21.922326428722954 0 -21.922326428722954 -2.0477361435405328 0 0 0 0 -136.82743653774955 -25.08539926361027 0 -25.08539926361027 24.122708677838091 0 0 0 0 -47.127704188754464 -73.310008845044649 0 -73.310008845044649 16.900948126548428 0 0 0 0 13.828962871135218 -17.890246768587531 0 -17.890246768587531 5.8705537996556814 0 0 0 0 -161.82809441929425 -91.430152534245281 0 -91.430152534245281 39.271725445163611 0 0 0 0 -20.313714936002157 6.8412547385923972 0 6.8412547385923972 89.744140007205715 0 0 0 0 61.904963595592051 14.289094324791222 0 14.289094324791222 75.813261862731451 0 0 0 0 21.628852862004578 26.156296083012421 0 26.156296083012421 119.93641395901795 0 0 0 0 37.967926947621038 100.42778504893067 0 100.42778504893067 234.76197974565548 0 0 0 0 0.24025143462768028 19.43133919518732 0 19.43133919518732 122.26112015223771 0 0 0 0 -2.3538250809110934 70.901520370834987 0 70.901520370834987 240.92519247413293 0 0 0 0 -18.856533058451987 -17.243872900136921 0 -17.243872900136921 166.28831053589965 0 0 0 0 11.583633617177497 6.488596107763442 0 6.488596107763442 70.879473238848732 0 0 0 0 -43.963965908114119 0.98846538181351207 0 0.98846538181351207 74.396126192972588 0 0 0 0 17.933805763488522 -3.3955772019216965 0 -3.3955772019216965 -34.505826750420965 0 0 0 0 36.63980604638482 19.641159002883796 0 19.641159002883796 47.809902633496677 0 0 0 0 -1.6382344622159053 0.73096846519547398 0 0.73096846519547398 42.098326668408845 0 0 0 0 21.701107430270241 19.791896172098859 0 19.791896172098859 -13.244409381084552 0 0 0 0 -1.5423486712624879 7.7963797606989829 0 7.7963797606989829 -19.764754937248654 0 0 0 0 -5.874736207334081 9.1181217798875878 0 9.1181217798875878 -17.375105319493741 0 0 0 0 -4.0301581027591169 42.562295518544829 0 42.562295518544829 -34.983057463941805 0 0 0 0 2.0401708078683836 2.8230618583397273 0 2.8230618583397273 3.526965356080737 0 0 0 0 -0.34127967889787669 18.688022031281434 0 18.688022031281434 -7.5095425574795627 0 0 0 0 22.895920662483775 3.0315916490562813 0 3.0315916490562813 -8.6728682030079653 0 0 0 0 -22.635535254137153 1.7115609417887754 0 1.7115609417887754 -18.599257350990229 0 0 0 0 1.1106558297472113 1.7380567780656264 0 1.7380567780656264 2.4673918423782055 0 0 0 0 -31.471833036652043 17.497628631290354 0 17.497628631290354 -18.311599983084307 0 0 0 0 -47.103945233963508 -10.827197786094985 0 -10.827197786094985 -3.4233348469824705 0 0 0 0 -51.954576552292878 -5.7279651774133526 0 -5.7279651774133526 1.8338575361995026 0 0 0 0 -124.97971861566782 -46.810663633772492 0 -46.810663633772492 21.410263976903025 0 0 0 0 -109.42170540675627 -1.3418877800286282 0 -1.3418877800286282 2.0299595952183154 0 0 0 0 -116.01164156086614 9.7894864342961228 0 9.7894864342961228 13.905942071294703 0 0 0 0 -176.91283264890842 41.922686914726 0 41.922686914726 -3.04834816994844 0 0 0 0 -101.06239407413325 12.733959106388284 0 12.733959106388284 1.0132697235021624 0 0 0 0 -103.96201047229397 1.4808033544031787 0 1.4808033544031787 -42.615813952910685 0 0 0 0 0.37116105465642829 0.53157038960793557 0 0.53157038960793557 0.8833426284989514 0 0 0 0 -23.61568078730923 -100.42660080736641 0 -100.42660080736641 233.86305350245675 0 0 0 0 -106.16244046347032 25.586236698141875 0 25.586236698141875 8.4301555292186094 0 0 0 0 -160.50515152630237 14.004219488233502 0 14.004219488233502 209.27361295076116 0 0 0 0 -112.84752244001993 -48.620545266117006 0 -48.620545266117006 92.285304407581862 0 0 0 0 -58.244092787009535 -79.990846250919276 0 -79.990846250919276 109.88186974066411 0 0 0 0 -64.016683915841099 -71.380810971171741 0 -71.380810971171741 87.156917524833261 0 0 0 0 -45.598782202394673 -12.459279418601909 0 -12.459279418601909 148.96927364244766 0 0 0 0 -54.890560185250102 -18.132369014458618 0 -18.132369014458618 132.96667619316577 0 0 0 0 -74.015884852675413 -110.07285600312753 0 -110.07285600312753 11.998858921939245 0 0 0 0 -88.912044871391231 -56.834029425233894 0 -56.834029425233894 79.491565488442575 0 0 0 0 -58.299842760210979 -53.060561845377379 0 -53.060561845377379 58.468247850974876 0 0 0 0 -67.065138894483852 -82.83216738027113 0 -82.83216738027113 47.368154025221884 0 0 0 0 -12.306286152912762 -12.438651055721493 0 -12.438651055721493 149.37596148319426 0 0 0 0 -27.28995902800159 -35.454932951706724 0 -35.454932951706724 126.80655677065806 0 0 0 0 -48.533524265248161 -68.882081979631039 0 -68.882081979631039 101.29293178873922 0 0 0 0 -66.894653664353712 -67.126804839954275 0 -67.126804839954275 84.131180715867231 0 0 0 0 -57.989721929462064 -20.570511756417545 0 -20.570511756417545 127.93772082322175 0 0 0 0 -61.25270470074193 -34.230038767651422 0 -34.230038767651422 161.02547237692124 0 0 0 0 -58.457871404714837 -12.755177337137866 0 -12.755177337137866 178.04255352195105 0 0 0 0 -26.892990640695871 -43.860447060931619 0 -43.860447060931619 145.33239218353629 0 0 0 0 -21.24271565746843 -14.263718828342917 0 -14.263718828342917 237.48007860200596 0 0 0 0 -23.84778582301368 0.78957277079643973 0 0.78957277079643973 154.50290534749729 0 0 0 0 -11.226465777759756 -41.000162866408118 0 -41.000162866408118 148.44278501529334 0 0 0 0 -18.701809900447572 -17.568375365199245 0 -17.568375365199245 93.353198404023715 0 0 0 0 -15.165854789353347 24.621482285403545 0 24.621482285403545 87.517886343859573 0 0 0 0 -38.527335487688205 -68.389840704159724 0 -68.389840704159724 104.3139375685314 0 0 0 0 56.53404622423281 59.124438788696352 0 59.124438788696352 74.567412050178973 0 0 0 0 0.052236098334104697 0.23843174174106352 0 0.23843174174106352 1.1656430374512468 0 0 0 0 -37.106719920882512 3.643683840312633 0 3.643683840312633 218.10533983403002 0 0 0 0 -29.96558408598618 -42.910891480278451 0 -42.910891480278451 126.70594686808909 0 0 0 0 26.104507665897131 29.72909591300413 0 29.72909591300413 187.76156838433599 0 0 0 0 -1.8164431407493282 -23.344949178455863 0 -23.344949178455863 158.3106079954814 0 0 0 0 45.562140166015567 -1.5006865032446512 0 -1.5006865032446512 151.61315153293981 0 0 0 0 -3.6824841960347499 11.228720414917916 0 11.228720414917916 176.63881187042352 0 0 0 0 -6.8705789723360455 -8.7286213996874267 0 -8.7286213996874267 196.1575017609357 0 0 0 0 -2.2726240679509715 -39.741833408985258 0 -39.741833408985258 179.17409418182797 0 0 0 0 -7.2920105225105161 -29.145604485262083 0 -29.145604485262083 231.28861618910014 0 0 0 0 -1.8187097093870364 -39.842717805375287 0 -39.842717805375287 178.52278101247794 0 0 0 0 8.9526300658876892 -2.0668429290490167 0 -2.0668429290490167 190.58084251183027 0 0 0 0 -7.6259227500028146 -54.009122507653956 0 -54.009122507653956 144.22954960152492 0 0 0 0 23.968813217477614 -42.645866247483355 0 -42.645866247483355 253.92175285774556 0 0 0 0 -8.7497144706158529 -25.048835863308341 0 -25.048835863308341 255.20141296382053 0 0 0 0 2.0351031281994834 3.6240242628846318 0 3.6240242628846318 208.23929363014031 0 0 0 0 -3.613036867880183 -35.561343846460659 0 -35.561343846460659 237.41421294124666 0 0 0 0 -0.19207592698593495 3.3833167598586442 0 3.3833167598586442 200.65323891949811 0 0 0 0 0.049425924935380443 -2.3618562217343424 0 -2.3618562217343424 120.24443075943418 0 0 0 0 -9.7648236840294587 -34.221303758178692 0 -34.221303758178692 164.61330535287198 0 0 0 0 -10.839372363737734 2.7188870531135763 0 2.7188870531135763 183.35971568688183 0 0 0 0 -11.376129484110706 -11.135542946063651 0 -11.135542946063651 90.69371432468688 0 0 0 0 0.943554053550403 -37.201050786332416 0 -37.201050786332416 70.588669087661401 0 0 0 0 -0.033533424687169522 -1.1175346518102742 0 -1.1175346518102742 31.732770679038367 0 0 0 0 1.2582125528180708 -8.4807137049192534 0 -8.4807137049192534 50.185031452747353 0 0 0 0 15.79011590128245 9.7480099606327713 0 9.7480099606327713 36.842161626787856 0 0 0 0 20.044944250034934 3.7745607968900003 0 3.7745607968900003 1.1833095664987923 0 0 0 0 -3.639056633591899 -23.709789020154858 0 -23.709789020154858 17.292471850683796 0 0 0 0 -114.75875741660792 12.765901111739367 0 12.765901111739367 30.606217739281419 0 0 0 0 -19.210384677933281 -39.06137385902548 0 -39.06137385902548 39.794174908813147 0 0 0 0 -26.99925580636641 17.162330029852683 0 17.162330029852683 -20.642255610277061 0 0 0 0 -25.492440574697255 7.969483121392841 0 7.969483121392841 2.1573998337626108 0 0 0 0 15.963986071273467 -0.34812366611913603 0 -0.34812366611913603 -3.9552698827574204 0 0 0 0 12.913427509308008 -6.8368066060193087 0 -6.8368066060193087 10.516509149092599 0 0 0 0 -0.066754573855069971 0.49851303632272348 0 0.49851303632272348 2.7913633787288177 0 0 0 0 -0.62989518424222979 -3.7014102606262895 0 -3.7014102606262895 5.0594769900853862 0 0 0 0 -60.279737665265301 27.195991287178913 0 27.195991287178913 -9.5163309569652483 0 0 0 0 -57.674822258711671 -16.780391977801628 0 -16.780391977801628 -0.97612971495982492 0 0 0 0 1.0942154128614687 2.076816685178775 0 2.076816685178775 2.9876417966429472 0 0 0 0 -116.29315935139124 22.277400810293329 0 22.277400810293329 24.019150178421114 0 0 0 0 -69.958371214153573 5.2184870769051486 0 5.2184870769051486 -0.061518744012573734 0 0 0 0 -17.101493217808297 72.138673840011506 0 72.138673840011506 9.6917465851511224 0 0 0 0 7.3312823729779097 9.1407441316059703 0 9.1407441316059703 -4.3894654722371342 0 0 0 0 2.0387402595558104 3.1886913627134916 0 3.1886913627134916 4.7287147268010301 0 0 0 0 6.6489174997111604 -127.99833022953317 0 -127.99833022953317 208.65936175588286 0 0 0 0 -14.675295558410653 -21.520035207133333 0 -21.520035207133333 228.06140650501766 0 0 0 0 35.649847622382822 -36.263715120310735 0 -36.263715120310735 -8.4275541746974341 0 0 0 0 -29.089609258052633 -67.509923392255587 0 -67.509923392255587 233.80403147030302 0 0 0 0 1.3564387130886444 1.4886183512955373 0 1.4886183512955373 -0.8927898959057643 0 0 0 0 15.304566864768844 16.295260613434039 0 16.295260613434039 -34.380436276012915 0 0 0 0 -153.19023640873047 106.18906828768741 0 106.18906828768741 -3.9409754357204747 0 0 0 0 2.8789453643402871 5.1599810424518466 0 5.1599810424518466 7.4306993647807644 0 0 0 0 56.067741361645631 -18.288326396086632 0 -18.288326396086632 7.5543896758863411 0 0 0 0 -125.65083993913422 -11.472745393435616 0 -11.472745393435616 115.31478347546363 0 0 0 0 153.19195375980507 180.49299386504208 0 180.49299386504208 82.419403059197066 0 0 0 0 55.173290681623399 100.69135392494718 0 100.69135392494718 147.42284401280085 0 0 0 0 0.21730761801912712 6.9968239054528905 0 6.9968239054528905 48.999858647424844 0 0 0 0 -64.573358237670092 18.700303444080419 0 18.700303444080419 31.621447082514351 0 0 0 0 -36.156290640103137 -19.800759336693773 0 -19.800759336693773 25.265905193562503 0 0 0 0 1.6135081998697436 4.3615001289090731 0 4.3615001289090731 9.2009554153350734 0 0 0 0 8.0718849673041859 12.31360288198448 0 12.31360288198448 10.120035645169992 0 0 0 0 3.6698873952873328 4.377905770248617 0 4.377905770248617 12.894048467756875 0 0 0 0 0.039928299736895108 31.914017885846988 0 31.914017885846988 10.529957432383526 0 0 0 0 -12.076321977122443 19.618772882322446 0 19.618772882322446 2.560325187692797 0 0 0 0 -31.382923485430172 11.157519407470318 0 11.157519407470318 8.0271949357847916 0 0 0 0 -51.24272605591193 8.4466924408407067 0 8.4466924408407067 45.605256566475873 0 0 0 0 -26.886501583039191 32.357194389456708 0 32.357194389456708 36.944446261055418 0 0 0 0 -40.120022569766348 -3.6687755130842561 0 -3.6687755130842561 15.719866841725889 0 0 0 0 1.499347371400745 5.312060551961622 0 5.312060551961622 8.9584089827840216 0 0 0 0 -25.259601687769944 18.641991276897897 0 18.641991276897897 15.723583981736738 0 0 0 0 -25.933677345902652 -3.804710350210371 0 -3.804710350210371 -23.674084314647189 0 0 0 0 -25.856123557278131 5.7130985490666717 0 5.7130985490666717 10.064553896518191 0 0 0 0 -44.967468423122824 -8.1239379995604395 0 -8.1239379995604395 13.343670603739156 0 0 0 0 0.60024717346679179 1.1082375926550014 0 1.1082375926550014 1.1750770262234767 0 0 0 0 3.0584420102982639 2.7219579050032792 0 2.7219579050032792 3.3073063700984306 0 0 0 0 -5.2513173152619856 21.483940630991128 0 21.483940630991128 65.37954832741525 0 0 0 0 110.19160028118245 73.286057497796719 0 73.286057497796719 18.493006976879769 0 0 0 0 3.0933775353140618 13.623031205963343 0 13.623031205963343 -16.007880276811193 0 0 0 0 2.6970112152570707 3.6815757211318214 0 3.6815757211318214 3.8438769092396683 0 0 0 0 2.9362180155101498 -47.570885670047574 0 -47.570885670047574 0.91569972282741219 0 0 0 0 0.80045625266575371 2.2664760477782693 0 2.2664760477782693 2.7337087636115029 0 0 0 0 2.7369296980468691 2.6185232651582027 0 2.6185232651582027 2.4571209912854783 0 0 0 0 0.73337789345761351 0.22926170148975089 0 0.22926170148975089 -0.13999417990382312 0 0 0 0 56.967952385549324 107.14565556823072 0 107.14565556823072 192.2152025096002 0 0 0 0 62.642613949919678 134.9125076141936 0 134.9125076141936 144.14412903387711 0 0 0 0 40.448367260748967 87.391777108576207 0 87.391777108576207 149.35350761766313 0 0 0 0 41.390545302709938 124.49221975960972 0 124.49221975960972 197.50942063607363 0 0 0 0 67.769457618794831 134.78014542402525 0 134.78014542402525 161.38031001984564 0 0 0 0 54.775424564327224 76.527211763739615 0 76.527211763739615 129.46632276096352 0 0 0 0 4.3565257827043506 1.8245184519077497 0 1.8245184519077497 -1.2617464290469513 0 0 0 0 27.136787385020952 63.578965667926241 0 63.578965667926241 178.2789096579736 0 0 0 0 66.318117339653114 101.86313936388979 0 101.86313936388979 212.78484549261339 0 0 0 0 31.759970528552714 100.53568896347133 0 100.53568896347133 228.99992356342409 0 0 0 0 36.680070100542338 90.188230569423467 0 90.188230569423467 202.70931374973588 0 0 0 0 9.5496318183575397 76.103839019520819 0 76.103839019520819 222.44610091712093 0 0 0 0 24.401005429412312 103.82164325278063 0 103.82164325278063 219.24164354142704 0 0 0 0 3.5885057564756551 1.6640601162378914 0 1.6640601162378914 -1.2611391655982231 0 0 0 0 6.3987514834737453 4.3838133772223955 0 4.3838133772223955 0.92899885529914172 0 0 0 0 5.1276581900632436 5.0141516057901754 0 5.0141516057901754 4.8819386323957588 0 0 0 0 0.71442162907121265 1.0298021935755628 0 1.0298021935755628 1.4795552714103195 0 0 0 0 5.9482833825197758 6.3301951808789454 0 6.3301951808789454 6.8034157065994805 0 0 0 0 10.827102421649442 22.896297856312231 0 22.896297856312231 33.256775510628358 0 0 0 0 10.521803889266238 7.8692709069967464 0 7.8692709069967464 14.385221807060589 0 0 0 0 -0.25786310946610502 -0.027177376345015603 0 -0.027177376345015603 0.20449390412329649 0 0 0 0 2.8512092042972199 4.5885096815582074 0 4.5885096815582074 5.2111094968440739 0 0 0 0 2.3159224544276924 3.9442479842100511 0 3.9442479842100511 17.555661659738689 0 0 0 0 11.169138015012095 19.375183011226909 0 19.375183011226909 30.551673053592822 0 0 0 0 -3.4472804628505882 -2.0544072776583278 0 -2.0544072776583278 2.3697875469580651 0 0 0 0 -1.7596117779405915 -24.763060226925518 0 -24.763060226925518 112.1410078564295 0 0 0 0 -20.343243096474538 13.408034950658475 0 13.408034950658475 88.029669877942069 0 0 0 0 16.015933813466141 -8.009776941187738 0 -8.009776941187738 2.055504593095975 0 0 0 0 -10.632365528188028 13.919527116441714 0 13.919527116441714 19.121244343834405 0 0 0 0 -5.3909058120377722 7.6364585074261413 0 7.6364585074261413 18.977822953020222 0 0 0 0 -4.9670447922733381 -0.32157289226830699 0 -0.32157289226830699 3.8526697013290416 0 0 0 0 3.6440976779683751 10.577782417734852 0 10.577782417734852 19.935167768227984 0 0 0 0 0.26081115344541389 4.2476525266260818 0 4.2476525266260818 10.466767367064591 0 0 0 0 0.19017370478249371 0.80285231418740466 0 0.80285231418740466 2.1344886547550317 0 0 0 0 -2.7865566242205504 12.083618315089552 0 12.083618315089552 -4.8565991505529382 0 0 0 0 -0.0012483545554241014 1.0704791759999353 0 1.0704791759999353 7.9976069500044105 0 0 0 0 -0.85848563675586798 0.18942314189212439 0 0.18942314189212439 6.1186074644752466 0 0 0 0 -0.57621028881955705 -0.16438615492097597 0 -0.16438615492097597 6.0904694044875214 0 0 0 0 15.504044637795914 -55.158052394335755 0 -55.158052394335755 101.64503795131895 0 0 0 0 -0.00013026813766960782 0.65192095782367687 0 0.65192095782367687 5.2454784592282522 0 0 0 0 -0.16184285847999452 -0.0048830903278691551 0 -0.0048830903278691551 4.5102536595350102 0 0 0 0 -0.53194586421407142 -0.27004729757754831 0 -0.27004729757754831 3.6471407868812094 0 0 0 0 -5.8183732967209636 -49.263178075631004 0 -49.263178075631004 136.61813914514642 0 0 0 0 35.524364142675722 -43.239223880045756 0 -43.239223880045756 29.362580313238141 0 0 0 0 54.219773737892311 -129.08305170019139 0 -129.08305170019139 173.50466529053665 0 0 0 0 32.351928095722087 -59.93946200952314 0 -59.93946200952314 93.325839880293643 0 0 0 0 -0.00043854816210676787 0.070469996409883606 0 0.070469996409883606 3.2364610911899945 0 0 0 0 138.87566677150994 -175.37567755573764 0 -175.37567755573764 172.2404848729675 0 0 0 0 245.89895933392751 -335.69477168432695 0 -335.69477168432695 385.02898153739079 0 0 0 0 0.038080599460791953 -0.45150857708026138 0 -0.45150857708026138 1.9625651775772326 0 0 0 0 -7.6483375201446098 -118.52945895173252 0 -118.52945895173252 497.1088247258831 0 0 0 0 -18.758950758899196 -164.25557305363327 0 -164.25557305363327 400.42970495315967 0 0 0 0 -25.135308381802993 -134.63060010007212 0 -134.63060010007212 265.86590277925279 0 0 0 0 -19.93675505756633 -61.59227621831451 0 -61.59227621831451 342.99968300496039 0 0 0 0 -22.920647059850367 -76.647582000841794 0 -76.647582000841794 317.85865010200359 0 0 0 0 -1.6751936311841753 -14.207290505599303 0 -14.207290505599303 284.22661263718328 0 0 0 0 0.77968113186577603 -4.360004362930697 0 -4.360004362930697 349.93582818711729 0 0 0 0 -19.854010081607242 -84.882919188054075 0 -84.882919188054075 232.72030943662685 0 0 0 0 -11.631082648743046 -88.017658712800767 0 -88.017658712800767 165.97307815873501 0 0 0 0 -10.674713028848089 -94.990589299455678 0 -94.990589299455678 187.20276519373147 0 0 0 0 -23.869232548053006 -70.295375898920611 0 -70.295375898920611 286.77419540434494 0 0 0 0 -22.336623830611643 -84.804339731799701 0 -84.804339731799701 246.60650415812052 0 0 0 0 -43.585035099902996 -124.80375719458971 0 -124.80375719458971 310.31304578453819 0 0 0 0 -41.819317414035922 -124.15490343139118 0 -124.15490343139118 273.26699147908221 0 0 0 0 -64.44052808014527 -122.74685401434544 0 -122.74685401434544 277.09621616452205 0 0 0 0 -37.00217588762564 -131.15706394625886 0 -131.15706394625886 258.52500029719522 0 0 0 0 -15.136062539747286 -161.79384629194828 0 -161.79384629194828 168.82883612535807 0 0 0 0 -33.654793790781412 -135.59541379241455 0 -135.59541379241455 251.45536046517373 0 0 0 0 -51.403352439373464 -167.08727938377706 0 -167.08727938377706 270.79613927692844 0 0 0 0 -60.801240842246727 -137.40332270805447 0 -137.40332270805447 326.34998907629779 0 0 0 0 -70.15790976840367 -94.209281322688184 0 -94.209281322688184 303.53590063975389 0 0 0 0 -81.84950773652173 -96.570956619325443 0 -96.570956619325443 367.17017181131814 0 0 0 0 -33.109973080054061 -115.36413700250705 0 -115.36413700250705 257.37100235686557 0 0 0 0 -33.08322768677013 -117.3406950701501 0 -117.3406950701501 275.0257451159996 0 0 0 0 -50.764414137180722 -84.478009463840863 0 -84.478009463840863 231.79995830363623 0 0 0 0 4.1513915674890711 -52.443537826229658 0 -52.443537826229658 113.46319303320342 0 0 0 0 -25.134618471091756 -44.165799705275276 0 -44.165799705275276 244.24529413715209 0 0 0 0 -14.507686152012269 -6.2679046396278864 0 -6.2679046396278864 123.03864431699549 0 0 0 0 -36.854496831082429 25.434197010366915 0 25.434197010366915 258.37594701558555 0 0 0 0 -37.315263139032481 14.285943085449617 0 14.285943085449617 44.751257642696146 0 0 0 0 -37.87085233204732 38.74117393400229 0 38.74117393400229 411.35451247334822 0 0 0 0 31.655526882283169 22.245063746853702 0 22.245063746853702 301.33368634717044 0 0 0 0 -1.8548597576785113 -2.298980147672026 0 -2.298980147672026 2.8961433135091568 0 0 0 0 47.241326866668814 130.26601978130702 0 130.26601978130702 464.76687945121375 0 0 0 0 32.170994436067858 85.91573907214979 0 85.91573907214979 837.91123734383291 0 0 0 0 -60.48863422492559 -30.387831231324526 0 -30.387831231324526 776.56780332410563 0 0 0 0 33.62090009043402 -222.02852851899661 0 -222.02852851899661 674.1612776654656 0 0 0 0 -4.581635703023494 -113.73869876650588 0 -113.73869876650588 868.78463812352857 0 0 0 0 -69.985035548415226 -72.865560933460074 0 -72.865560933460074 378.97468553245562 0 0 0 0 -63.56347511568589 -5.6319800180735911 0 -5.6319800180735911 598.73208083906502 0 0 0 0 -79.741298947092105 -225.49960099426971 0 -225.49960099426971 498.56867636022798 0 0 0 0 -74.292925348505207 -79.13032998003473 0 -79.13032998003473 406.19187121219875 0 0 0 0 -85.251949097021338 -215.43216139363358 0 -215.43216139363358 383.87916349065563 0 0 0 0 -51.538100397034235 -165.8654784261239 0 -165.8654784261239 261.52972860149748 0 0 0 0 -12.00511841886879 -194.89111619408504 0 -194.89111619408504 243.57875297815553 0 0 0 0 -4.0445734833468237 -179.77719795065423 0 -179.77719795065423 67.087196633787244 0 0 0 0 22.215356886130792 -210.79437702476207 0 -210.79437702476207 -35.450828504632227 0 0 0 0 -5.3043119454623593 -202.47277453181596 0 -202.47277453181596 134.32495945272967 0 0 0 0 -83.365605447080497 -205.5601691965494 0 -205.5601691965494 435.40675324678887 0 0 0 0 -93.518362385440014 -376.50013216619845 0 -376.50013216619845 551.92426125409838 0 0 0 0 -40.741943429094135 -346.08570633210184 0 -346.08570633210184 189.14846069710256 0 0 0 0 10.426858321038139 -141.72008972112963 0 -141.72008972112963 531.82636866893154 0 0 0 0 0.21444611381132694 -0.79762910716424074 0 -0.79762910716424074 2.4062628076104744 0 0 0 0 -127.2610369175336 -342.35880292468937 0 -342.35880292468937 -879.69411608975497 0 0 0 0 -34.800024091863463 -94.035497876113368 0 -94.035497876113368 1244.3141676282248 0 0 0 0 -1.1266318267930728 -477.5277741941245 0 -477.5277741941245 -795.34102875150711 0 0 0 0 -44.372701470002426 -562.94953010258178 0 -562.94953010258178 -98.851215110131307 0 0 0 0 -223.52519089440011 -388.19081108008686 0 -388.19081108008686 -679.32915647789923 0 0 0 0 -0.14741925116853194 -0.082549948225789649 0 -0.082549948225789649 1.2923378451025656 0 0 0 0 -205.5054568748759 -119.61541483876499 0 -119.61541483876499 -32.68912976908905 0 0 0 0 -70.097207630029288 -139.71401488675474 0 -139.71401488675474 -291.86606249804026 0 0 0 0 -92.79863461055379 -123.88813640708395 0 -123.88813640708395 -86.053589377213484 0 0 0 0 -142.08378115361069 -124.56917845664793 0 -124.56917845664793 -339.22317178719095 0 0 0 0 -131.50271005935838 -236.48965516514727 0 -236.48965516514727 -244.48120622696297 0 0 0 0 -127.19225954255876 -151.6717316484428 0 -151.6717316484428 -19.797044272312633 0 0 0 0 -50.723289267310065 -78.69244349777 0 -78.69244349777 -9.0642347506855003 0 0 0 0 -84.936197615816241 -73.677472904120805 0 -73.677472904120805 20.823654355190229 0 0 0 0 -143.82210536974944 -118.69800927435062 0 -118.69800927435062 37.498121924923907 0 0 0 0 -78.325550988390447 -94.720132259722391 0 -94.720132259722391 30.238040703945444 0 0 0 0 -71.500677345167446 -108.10972671475611 0 -108.10972671475611 59.760973326086969 0 0 0 0 -81.863028614883731 -47.085523622226901 0 -47.085523622226901 87.069965408561984 0 0 0 0 -7.4496645753481516 -102.29596761427092 0 -102.29596761427092 118.74340415650386 0 0 0 0 -16.975835000098186 -142.65507615781098 0 -142.65507615781098 112.09267572748649 0 0 0 0 -36.450872041387129 -65.343994672944973 0 -65.343994672944973 73.366799467432429 0 0 0 0 -50.828187050354643 -66.214855017324226 0 -66.214855017324226 -11.268786774555338 0 0 0 0 -51.998762509438336 -62.421541823925509 0 -62.421541823925509 -20.29091060643259 0 0 0 0 -66.319190436277552 -64.062714291751035 0 -64.062714291751035 20.808275548391407 0 0 0 0 -42.735789698775307 -111.94451754719557 0 -111.94451754719557 -138.72161677412078 0 0 0 0 -0.6383170688193458 -5.5390983615167215 0 -5.5390983615167215 1.9784708907481985 0 0 0 0 0.48461048420629615 2.3089404019037261 0 2.3089404019037261 2.2419068306028489 0 0 0 0 -66.558152118500942 -165.34595634450397 0 -165.34595634450397 -162.48955496874623 0 0 0 0 27.891243021155788 -78.24882947349397 0 -78.24882947349397 907.33672689227569 0 0 0 0 1.3813937030258785 -0.20748619329970097 0 -0.20748619329970097 33.074896220088704 0 0 0 0 20.523113512222096 -103.56763819818298 0 -103.56763819818298 854.61050810472079 0 0 0 0 2.1090439002660508 1.703920048167916 0 1.703920048167916 3.4187376838192698 0 0 0 0 0.62714921188262451 2.7425788649534297 0 2.7425788649534297 23.731393318346818 0 0 0 0 -15.847788385796605 -96.714821951125487 0 -96.714821951125487 885.06724623527407 0 0 0 0 25.652175989301668 24.441478886252298 0 24.441478886252298 756.05017345411397 0 0 0 0 -12.149196630325491 54.777664595865645 0 54.777664595865645 1057.8804165039583 0 0 0 0 -14.411508978252105 -81.610310397572903 0 -81.610310397572903 933.83228030607279 0 0 0 0 -18.398639971210514 12.130166651975742 0 12.130166651975742 44.442974674080688 0 0 0 0 -0.60594895493763756 -1.1494905624921756 0 -1.1494905624921756 1.8243965130372288 0 0 0 0 -57.370458066214837 -224.38047101296979 0 -224.38047101296979 38.807444098049018 0 0 0 0 87.43288138905433 80.783050006008125 0 80.783050006008125 376.32451071825926 0 0 0 0 -65.356498623730232 -181.0748352898529 0 -181.0748352898529 615.8630327711362 0 0 0 0 -20.386942292710614 -33.417080372211785 0 -33.417080372211785 286.88162394632673 0 0 0 0 2.243431915518272 58.278815101635701 0 58.278815101635701 143.40229076115065 0 0 0 0 103.12224964096561 191.90215781510233 0 191.90215781510233 16.514058423061215 0 0 0 0 135.76394357651975 97.4446654259973 0 97.4446654259973 154.6710043717685 0 0 0 0 44.053566661854738 118.94298269631781 0 118.94298269631781 131.44262953355792 0 0 0 0 152.08709094471931 112.12006172482324 0 112.12006172482324 129.01201534648135 0 0 0 0 0.6415017249663314 0.51234077821767698 0 0.51234077821767698 -0.051594822067258406 0 0 0 0 67.208216800743116 30.591489000944421 0 30.591489000944421 -197.24290591939643 0 0 0 0 53.882129776406146 281.60385965482419 0 281.60385965482419 463.08570123732716 0 0 0 0 -18.511737390354483 27.178384153436127 0 27.178384153436127 -16.001078055727703 0 0 0 0 -50.398364439698298 46.200182307307841 0 46.200182307307841 95.010334994105506 0 0 0 0 -4.4202808894567198 94.213439458226276 0 94.213439458226276 26.556048407313938 0 0 0 0 -54.762072710780785 29.438867435592329 0 29.438867435592329 41.928817288586288 0 0 0 0 -24.303240307799115 20.597413930416224 0 20.597413930416224 29.75925020503928 0 0 0 0 -8.3603246868140104 2.2621316199256398 0 2.2621316199256398 36.571074804185628 0 0 0 0 14.076953716011644 20.718146898954728 0 20.718146898954728 20.262563239339215 0 0 0 0 3.926109882146875 10.72215801553466 0 10.72215801553466 6.484240801546548 0 0 0 0 3.9875504511101099 10.271758314254839 0 10.271758314254839 -21.464775747073872 0 0 0 0 -16.360397014095824 36.999880563764691 0 36.999880563764691 13.744431623294076 0 0 0 0 73.593768703063944 149.83921674302474 0 149.83921674302474 303.16843488931409 0 0 0 0 2.2510858423987909 1.4164127940735654 0 1.4164127940735654 -0.79337137219542342 0 0 0 0 76.902938761533051 163.23010654331483 0 163.23010654331483 262.49373860243941 0 0 0 0 34.941875469311626 100.74925669042386 0 100.74925669042386 241.17097554968495 0 0 0 0 67.356441790314449 88.532714270484576 0 88.532714270484576 202.46754910162417 0 0 0 0 119.40058062008406 134.88786755370165 0 134.88786755370165 230.25959478292498 0 0 0 0 66.426730352550592 97.87050524368351 0 97.87050524368351 228.13510210887762 0 0 0 0 89.975749070849645 153.90656324862357 0 153.90656324862357 260.05475983743236 0 0 0 0 0.4737405140756854 0.058821044553432955 0 0.058821044553432955 0.37024711405234711 0 0 0 0 34.079980160954555 83.657068503154733 0 83.657068503154733 163.53082574607834 0 0 0 0 39.629777294586177 53.900800018713198 0 53.900800018713198 136.86378884821352 0 0 0 0 56.107283316627274 75.396732569843152 0 75.396732569843152 127.46885853533604 0 0 0 0 51.744073322800091 107.9921159169171 0 107.9921159169171 162.70760303594761 0 0 0 0 88.017455435934039 86.283730120852852 0 86.283730120852852 96.525384164902789 0 0 0 0 37.93657909961405 39.148115738527849 0 39.148115738527849 93.592884230696654 0 0 0 0 1.0195237810063071 -0.084053017930528995 0 -0.084053017930528995 0.4711544616027652 0 0 0 0 134.94670632935268 118.65168553762851 0 118.65168553762851 183.67988695017993 0 0 0 0 143.34982540092557 300.17816910945112 0 300.17816910945112 284.36993243556935 0 0 0 0 60.392362581283173 110.68604494467081 0 110.68604494467081 379.61525662072381 0 0 0 0 167.20624518972761 16.32953229226041 0 16.32953229226041 55.892126850347267 0 0 0 0 107.24412016990175 158.1852305746288 0 158.1852305746288 192.33545343816513 0 0 0 0 0.31894488585797975 -0.23045292087628866 0 -0.23045292087628866 0.59280033736655469 0 0 0 0 52.86977544361298 45.585595762517187 0 45.585595762517187 108.9948823894556 0 0 0 0 53.020290282113365 76.358999917378242 0 76.358999917378242 67.608254732731439 0 0 0 0 36.004477068615415 6.4373556818827637 0 6.4373556818827637 19.516010858191294 0 0 0 0 -32.17752937134469 65.187456829626171 0 65.187456829626171 60.186938110422489 0 0 0 0 52.456976024659411 12.986305155323578 0 12.986305155323578 -44.934205294346611 0 0 0 0 -152.71318277423097 -202.61181683875475 0 -202.61181683875475 100.47647571398375 0 0 0 0 -0.16466178446361157 0.32356934190772524 0 0.32356934190772524 1.8858863834229425 0 0 0 0 101.77943437244676 70.449748439368705 0 70.449748439368705 -308.8183419212437 0 0 0 0 1.9106721990614188 -11.446255631536527 0 -11.446255631536527 43.516924406028096 0 0 0 0 -243.30015283964735 -350.70674577925729 0 -350.70674577925729 169.05658767376372 0 0 0 0 -55.670750556570056 -77.127620865510835 0 -77.127620865510835 100.67797212367805 0 0 0 0 302.13476091561961 72.598142512182676 0 72.598142512182676 -174.22666241126535 0 0 0 0 0.64831070863961338 -1.4190922864198185 0 -1.4190922864198185 3.3016438358888536 0 0 0 0 -116.12169979453404 -45.853170503226465 0 -45.853170503226465 141.74329879674769 0 0 0 0 31.880901271832613 -89.724737894932332 0 -89.724737894932332 127.70305262403053 0 0 0 0 189.94791206168031 -89.608071419882435 0 -89.608071419882435 40.569136687234277 0 0 0 0 230.48615676914056 -23.874739221591881 0 -23.874739221591881 146.96354298728693 0 0 0 0 -456.03668531285257 -128.7811650548465 0 -128.7811650548465 95.863347051626079 0 0 0 0 23.037351943560793 116.68334813778438 0 116.68334813778438 47.295740784858936 0 0 0 0 -6.5243619712998679 -16.254135697497986 0 -16.254135697497986 225.17031939263688 0 0 0 0 -42.948688938121222 82.756792941964704 0 82.756792941964704 -2.2018933594445116 0 0 0 0 241.53502523244106 84.344267854125064 0 84.344267854125064 39.695523195834568 0 0 0 0 229.92727808545567 32.781214799992085 0 32.781214799992085 256.89919119714614 0 0 0 0 315.30192397628412 61.7696696627645 0 61.7696696627645 134.63319211006319 0 0 0 0 201.35167302373549 108.08705085371548 0 108.08705085371548 292.29109634887573 0 0 0 0 168.62874455864312 21.43027139716105 0 21.43027139716105 129.71647915584617 0 0 0 0 129.43248201825105 42.202846142354247 0 42.202846142354247 67.311498381455749 0 0 0 0 234.57891376814956 89.304333903284714 0 89.304333903284714 85.764835433607004 0 0 0 0 138.36917364257636 102.70030062381193 0 102.70030062381193 157.11142877626844 0 0 0 0 245.99692062261985 102.09299244329304 0 102.09299244329304 153.34742158801782 0 0 0 0 109.27723153262386 60.926495726203029 0 60.926495726203029 287.81519542759634 0 0 0 0 211.35147405096038 133.49994149146733 0 133.49994149146733 326.14993694643636 0 0 0 0 237.00418121453589 24.206779546125745 0 24.206779546125745 331.09768935673492 0 0 0 0 166.30948422029104 -6.7214815886472934 0 -6.7214815886472934 701.01252850347373 0 0 0 0 154.47206822416018 87.185491181764519 0 87.185491181764519 597.69150753367285 0 0 0 0 158.21046971778588 -22.555177647089295 0 -22.555177647089295 469.86593302710025 0 0 0 0 256.21308796801975 175.01307134212038 0 175.01307134212038 483.67306096632092 0 0 0 0 208.28980412438059 105.1755619122996 0 105.1755619122996 626.73346742133435 0 0 0 0 38.835416345940416 94.111835345000145 0 94.111835345000145 1004.3665895790473 0 0 0 0 5.1631215630993665 152.32064958521778 0 152.32064958521778 1740.8905969208427 0 0 0 0 321.89192229034063 171.69882369786137 0 171.69882369786137 617.2737740792727 0 0 0 0 101.04526046914776 62.978686319098415 0 62.978686319098415 783.90512931255216 0 0 0 0 107.43187939602073 102.87971638252202 0 102.87971638252202 1009.9340918194503 0 0 0 0 10.454462386313025 94.776923033845378 0 94.776923033845378 1021.5402923425609 0 0 0 0 123.76616639302563 -59.497996399521071 0 -59.497996399521071 738.07116867085278 0 0 0 0 18.960616542531312 12.716412594525536 0 12.716412594525536 868.99520648410544 0 0 0 0 231.04836875291869 24.645262900339731 0 24.645262900339731 795.46919531546155 0 0 0 0 -15.742055923867269 225.41635053919163 0 225.41635053919163 1275.7144605629292 0 0 0 0 139.50401757333452 -95.625870754487551 0 -95.625870754487551 1083.2917036684375 0 0 0 0 1.5640494100516487 2.1180525724706563 0 2.1180525724706563 1.5633447011080364 0 0 0 0 -12.988872854499277 -341.92379667847126 0 -341.92379667847126 1263.1340077073837 0 0 0 0 122.39092141698586 102.20562662102748 0 102.20562662102748 942.70496102746984 0 0 0 0 -0.41243145320959229 3.7222479667980224 0 3.7222479667980224 24.840676378182252 0 0 0 0 -2.5988563275788876 -3.5393151302895802 0 -3.5393151302895802 8.9348448125310966 0 0 0 0 0.46149743523437792 8.3945525053823076 0 8.3945525053823076 29.676319074977073 0 0 0 0 -1.9111220163225258 4.7732035523978666 0 4.7732035523978666 17.629488031217733 0 0 0 0 -26.094038811696919 45.146992267527821 0 45.146992267527821 -6.6921053261876295 0 0 0 0 12.028156107534633 3.7327161070700043 0 3.7327161070700043 2.7181766637591274 0 0 0 0 -43.667097135002678 28.539330800140306 0 28.539330800140306 78.287295185553376 0 0 0 0 -16.264788985509313 -16.086016760098573 0 -16.086016760098573 66.439353226283856 0 0 0 0 -52.114910074496152 19.620808439688517 0 19.620808439688517 50.700365322678408 0 0 0 0 -31.315346693073252 11.099973715496162 0 11.099973715496162 39.300864970893599 0 0 0 0 0.21386986039294342 25.097858988707003 0 25.097858988707003 31.633839058849844 0 0 0 0 -8.1631060707882011 1.8065987286543432 0 1.8065987286543432 8.7562251325874101 0 0 0 0 -29.281195719043353 3.5643883890988945 0 3.5643883890988945 37.103706585374312 0 0 0 0 -73.69874249730718 -49.691416085019227 0 -49.691416085019227 -5.3457876118191052 0 0 0 0 -52.523722050189086 -60.029847441415768 0 -60.029847441415768 -22.526414027241117 0 0 0 0 -2.6837774631152804 -1.5988913534494511 0 -1.5988913534494511 40.268214120946809 0 0 0 0 23.616512704181332 191.75562294711744 0 191.75562294711744 157.70271657002741 0 0 0 0 -152.62145211827431 295.81386638495587 0 295.81386638495587 559.11145472879434 0 0 0 0 10.179929637191435 -91.265192680055407 0 -91.265192680055407 154.57554554556191 0 0 0 0 -3.3799889835432269 -1.1344559441485984 0 -1.1344559441485984 0.47998987354100819 0 0 0 0 -0.80747088084235941 38.679655247647361 0 38.679655247647361 -10.393778023699269 0 0 0 0 -19.38196065449165 -24.166142264493828 0 -24.166142264493828 58.461708339273173 0 0 0 0 17.064316720360239 83.845643592117995 0 83.845643592117995 173.25868712938245 0 0 0 0 135.64456582401533 42.263043033097347 0 42.263043033097347 -136.17858125102794 0 0 0 0 361.16397115946233 262.41247784800726 0 262.41247784800726 62.578501713434889 0 0 0 0 -126.96881431216025 330.19830605907555 0 330.19830605907555 558.72679881648946 0 0 0 0 -58.31224778215983 507.796609539766 0 507.796609539766 939.73034938437195 0 0 0 0 183.3699337597792 87.175239967800735 0 87.175239967800735 604.23845023651666 0 0 0 0 -136.16206757286682 154.34834016740206 0 154.34834016740206 624.74582726655717 0 0 0 0 4.3947494839957635 -0.018249389837492913 0 -0.018249389837492913 0.89420363847043127 0 0 0 0 474.79457005803033 364.02317429852701 0 364.02317429852701 507.10256510866748 0 0 0 0 290.97391736893201 529.73834782233098 0 529.73834782233098 1144.1376626496858 0 0 0 0 344.55771473923596 204.93395808077548 0 204.93395808077548 267.60745211855829 0 0 0 0 201.45290122530309 59.000750569412048 0 59.000750569412048 578.25357599199106 0 0 0 0 -173.60790207829905 309.45437511407636 0 309.45437511407636 -15.753506389417453 0 0 0 0 213.66266574381916 158.13230388471129 0 158.13230388471129 98.833532572309196 0 0 0 0 -1.3135968808900294 -2.6283426672845307 0 -2.6283426672845307 17.620770508768288 0 0 0 0 -20.739331971592037 -10.907696667652999 0 -10.907696667652999 19.554543499187275 0 0 0 0 -408.12032764276137 -58.53863659565468 0 -58.53863659565468 177.67679161358501 0 0 0 0 -1.3405633252180422 -11.640846772957623 0 -11.640846772957623 6.9980733591674209 0 0 0 0 0.093782831366337582 -9.6133617224693531 0 -9.6133617224693531 19.343061607122934 0 0 0 0 -26.077600066302693 -23.625680478407958 0 -23.625680478407958 23.255377131386922 0 0 0 0 -25.326682089843871 -31.553813562828509 0 -31.553813562828509 23.454737667601876 0 0 0 0 -0.43052891164811546 0.81540868168547753 0 0.81540868168547753 3.7267991986798279 0 0 0 0 83.47494101686334 -55.47594918575669 0 -55.47594918575669 -13.846698860794277 0 0 0 0 173.72452913651887 330.56559413777541 0 330.56559413777541 654.22103398093168 0 0 0 0 1.2318098212804998 -1.8989072541592975 0 -1.8989072541592975 0.37227952569257639 0 0 0 0 -109.22051665398521 252.3049947171512 0 252.3049947171512 816.77150972433446 0 0 0 0 206.50766481828668 255.69381793330103 0 255.69381793330103 570.05692255822942 0 0 0 0 0.91238927485264831 -2.0777607986174065 0 -2.0777607986174065 8.375511053143768 0 0 0 0 123.90423920102899 409.31906765378744 0 409.31906765378744 1056.4757746378818 0 0 0 0 136.5157262449502 439.25009531891192 0 439.25009531891192 850.67545455983782 0 0 0 0 159.5153740951655 343.77088889608422 0 343.77088889608422 1003.5528844233704 0 0 0 0 275.67877626128029 74.080775123155036 0 74.080775123155036 1199.0351855695772 0 0 0 0 187.71918609309159 292.63079928743355 0 292.63079928743355 698.96155721683317 0 0 0 0 311.64450670948281 -31.14990157090142 0 -31.14990157090142 652.0133432628727 0 0 0 0 179.11984055967037 116.77774929824841 0 116.77774929824841 489.5063175455216 0 0 0 0 289.02139228832004 250.5964630457172 0 250.5964630457172 629.24999919976108 0 0 0 0 731.58610998592485 113.96739115469973 0 113.96739115469973 664.19123042243518 0 0 0 0 166.78605295042263 -27.738642309232887 0 -27.738642309232887 312.44607085420284 0 0 0 0 13.597913452883404 158.10151928374398 0 158.10151928374398 649.12235337091079 0 0 0 0 -197.75475095516413 73.353434215598099 0 73.353434215598099 788.3806300487413 0 0 0 0 -65.436874577520484 37.104519284598609 0 37.104519284598609 727.50005664260243 0 0 0 0 -44.695381391283036 -67.113200861595942 0 -67.113200861595942 849.83125250923331 0 0 0 0 -21.507065270268868 124.07781233735659 0 124.07781233735659 642.35596674549379 0 0 0 0 90.609181266071573 274.33664986472468 0 274.33664986472468 713.92938531265827 0 0 0 0 -13.324950514892407 129.10512815135007 0 129.10512815135007 519.37130573217291 0 0 0 0 233.42548529539999 129.28387364491209 0 129.28387364491209 467.97733024066474 0 0 0 0 -132.72748270012198 195.45878682103648 0 195.45878682103648 908.24547503296344 0 0 0 0 -112.04281293744498 240.73500542410329 0 240.73500542410329 740.95599660565858 0 0 0 0 -377.9160404041013 -110.6589102534972 0 -110.6589102534972 802.1876438403342 0 0 0 0 322.35578712284769 -316.44420870670911 0 -316.44420870670911 139.95233299746178 0 0 0 0 -525.54848214698177 326.63873643758416 0 326.63873643758416 1491.4686788074905 0 0 0 0 390.33071016760914 597.41168474200822 0 597.41168474200822 961.46168956168549 0 0 0 0 -82.627137683492947 -21.402497889344886 0 -21.402497889344886 244.94674050275717 0 0 0 0 -5.4480478196269218 0.84936100364885903 0 0.84936100364885903 -0.4258151726715127 0 0 0 0 -85.151414635399306 -8.3623127562586888 0 -8.3623127562586888 457.13096532966301 0 0 0 0 -75.832921269804501 167.81495582151911 0 167.81495582151911 650.74946673134764 0 0 0 0 11.391224723584855 21.091761197563756 0 21.091761197563756 135.5857110331342 0 0 0 0 -39.348132789415104 9.1511414815395256 0 9.1511414815395256 210.8994014015334 0 0 0 0 -33.008996505341202 1.9084461306301819 0 1.9084461306301819 86.440768267769272 0 0 0 0 -37.149011245387555 -16.156507504547335 0 -16.156507504547335 133.58702107488989 0 0 0 0 -43.140665758911382 -25.263060513883829 0 -25.263060513883829 55.05016754317262 0 0 0 0 -78.117413253097766 -90.057839535740641 0 -90.057839535740641 48.225508952287782 0 0 0 0 -46.450270815828844 -39.073956315280157 0 -39.073956315280157 104.18129421025878 0 0 0 0 -82.340572131020053 -72.350698604608624 0 -72.350698604608624 175.68270110252342 0 0 0 0 -44.854345203066032 -22.153541368319566 0 -22.153541368319566 61.539928993963258 0 0 0 0 -35.917346646672499 -28.614258141392916 0 -28.614258141392916 34.909132199893065 0 0 0 0 -36.111195002111344 13.079993491579444 0 13.079993491579444 40.544813206162871 0 0 0 0 -61.475936525603856 -33.450377651836334 0 -33.450377651836334 -52.807106843811198 0 0 0 0 28.910467556495064 -47.850285237235767 0 -47.850285237235767 45.625803869777883 0 0 0 0 -5.2768523375798893 -3.431968885342755 0 -3.431968885342755 -2.4627744211325506 0 0 0 0 -75.436183617505776 18.971401011294802 0 18.971401011294802 -5.4053329096173002 0 0 0 0 -27.705551800100693 -3.7830748297074024 0 -3.7830748297074024 1.7894856448474457 0 0 0 0 -6.9497355596130852 -9.1471833365940043 0 -9.1471833365940043 -0.74262717161424519 0 0 0 0 -28.452760560802744 1.9849547885787615 0 1.9849547885787615 15.430154401505661 0 0 0 0 -3.6427190422468811 -39.790690729645576 0 -39.790690729645576 17.658271060601692 0 0 0 0 -19.991767646263725 -9.1012536714770249 0 -9.1012536714770249 13.836506435472984 0 0 0 0 -0.3835341522862139 -7.7394975800673116 0 -7.7394975800673116 21.352873076030619 0 0 0 0 -17.896677327378711 -19.981378990822122 0 -19.981378990822122 20.761305057852951 0 0 0 0 -46.533646861931629 -20.985387137103316 0 -20.985387137103316 19.279478759344784 0 0 0 0 -1.6312371830119741 -1.9482274419525609 0 -1.9482274419525609 23.07346242269216 0 0 0 0 1.2829679627972057 -10.001148872894177 0 -10.001148872894177 23.936295623479111 0 0 0 0 -46.45262550512507 -38.482644226925913 0 -38.482644226925913 27.187520240480808 0 0 0 0 -14.009716448857034 -17.305047042151273 0 -17.305047042151273 24.029567705248155 0 0 0 0 20.966692018263529 -26.065932011590121 0 -26.065932011590121 20.017234257265955 0 0 0 0 9.5202863746380899 -26.503780000522966 0 -26.503780000522966 38.094430055825796 0 0 0 0 -17.701844368139064 -17.115895606684717 0 -17.115895606684717 40.577792530237275 0 0 0 0 -48.841781576912581 -17.806906670815806 0 -17.806906670815806 40.128901363692421 0 0 0 0 -16.04158699720665 9.0713947893236764 0 9.0713947893236764 14.525487845841781 0 0 0 0 1.5425920924865144 -7.4014812390961868 0 -7.4014812390961868 2.7058285228687424 0 0 0 0 -61.600555099411849 -39.067564491253506 0 -39.067564491253506 13.307624028791906 0 0 0 0 -53.368348927626585 31.04135070137454 0 31.04135070137454 102.67826936205893 0 0 0 0 -19.639586823196623 -4.0373351015441585 0 -4.0373351015441585 3.4075095839934875 0 0 0 0 -40.100105167433867 -32.635753908623883 0 -32.635753908623883 153.83330683064014 0 0 0 0 -16.142365016843087 -5.6561617112556632 0 -5.6561617112556632 71.935792954325734 0 0 0 0 -37.160672645604791 -5.1482612485378922 0 -5.1482612485378922 72.864380069075196 0 0 0 0 -11.390445840562506 -3.2477576971932649 0 -3.2477576971932649 51.393830385841284 0 0 0 0 -2.1817142150221116 -19.000550226342966 0 -19.000550226342966 77.879014542734694 0 0 0 0 -3.210732175958583 -1.1571630625403486 0 -1.1571630625403486 69.692179395905441 0 0 0 0 9.6139971728507589 -25.302900877382854 0 -25.302900877382854 72.855643720609805 0 0 0 0 37.387582272141003 -78.564359414943738 0 -78.564359414943738 124.41021126915075 0 0 0 0 -27.155043031081732 -5.4237706253297802 0 -5.4237706253297802 116.17829138910747 0 0 0 0 -43.814882114173997 -2.2363878379928792 0 -2.2363878379928792 -80.261625898247075 0 0 0 0 -2.160019941246647 -1.1730309984528731 0 -1.1730309984528731 -0.020963257247984757 0 0 0 0 10.040052238957287 -22.985933375071909 0 -22.985933375071909 53.488507634720008 0 0 0 0 19.74677662742954 -24.520094902222809 0 -24.520094902222809 51.977558000387944 0 0 0 0 0.016689448082489733 -0.061436686737259549 0 -0.061436686737259549 0.1217335404302915 0 0 0 0 11.219074791301864 -5.8341868059633271 0 -5.8341868059633271 90.490570341813509 0 0 0 0 -2.1933521090218164 14.495680859440654 0 14.495680859440654 38.898564749135403 0 0 0 0 3.9823073440347798 -34.334339906079549 0 -34.334339906079549 10.720659969209009 0 0 0 0 -2.1425125137044461 -22.988346243327669 0 -22.988346243327669 62.404911573827121 0 0 0 0 -10.968519240102978 -14.979873754915388 0 -14.979873754915388 57.21968088201902 0 0 0 0 -10.543481160542257 -20.923492871183043 0 -20.923492871183043 82.210252388689696 0 0 0 0 -0.81493389526076498 -36.430852374516689 0 -36.430852374516689 65.006374854421665 0 0 0 0 34.620589746823498 -94.305594133960767 0 -94.305594133960767 95.504059533310283 0 0 0 0 -0.78586557416324609 -33.797460232820484 0 -33.797460232820484 28.928532835201622 0 0 0 0 -0.040101263047290558 -15.822719342201708 0 -15.822719342201708 38.049903142236872 0 0 0 0 -0.85734114787692306 -16.941479927172622 0 -16.941479927172622 45.998272874709073 0 0 0 0 -5.3616082300009111 -20.28774796612197 0 -20.28774796612197 69.252288197825692 0 0 0 0 -5.7135203405514403 -17.669053938359866 0 -17.669053938359866 50.113549708612481 0 0 0 0 -1.761267491533772 -6.2364093341207081 0 -6.2364093341207081 47.341248583477864 0 0 0 0 -7.8394285414078695 -0.11810924619021534 0 -0.11810924619021534 44.280997970065073 0 0 0 0 -5.0035309817876623 0.18174776527666836 0 0.18174776527666836 41.258798603716969 0 0 0 0 -9.1243317314941663 5.5501879737768718 0 5.5501879737768718 41.220586947329139 0 0 0 0 -9.0264292359997853 1.2200498970723856 0 1.2200498970723856 48.212736980648401 0 0 0 0 -6.6332695057340061 0.0035491444741637679 0 0.0035491444741637679 52.112456986810685 0 0 0 0 -0.87418388567948568 -2.9564174086663115 0 -2.9564174086663115 53.902502878620908 0 0 0 0 -0.61286526003189579 -16.784919418396157 0 -16.784919418396157 80.590703326284711 0 0 0 0 2.5246389119348009 -25.886080141662433 0 -25.886080141662433 122.31261953516514 0 0 0 0 -5.6008092662013951 31.058397969522048 0 31.058397969522048 53.658359142949848 0 0 0 0 -0.60576490252879012 -0.36479154790140456 0 -0.36479154790140456 51.339704816113226 0 0 0 0 8.6805786780823837 -2.3470356624493434 0 -2.3470356624493434 3.1596026440929563 0 0 0 0 -6.1001873858604085 -3.782218278000073 0 -3.782218278000073 9.1749512103815505 0 0 0 0 -3.7205412791686285 9.2480167299825098 0 9.2480167299825098 24.927836445764115 0 0 0 0 -15.840909712657833 0.54933967335784928 0 0.54933967335784928 44.976771385438042 0 0 0 0 -13.798787529740366 -15.781407661139383 0 -15.781407661139383 24.020881028412987 0 0 0 0 -8.3254552857860133 -0.62427112224008852 0 -0.62427112224008852 2.7254586994079624 0 0 0 0 -16.047862448666137 -12.455129793808737 0 -12.455129793808737 33.211007869493187 0 0 0 0 -11.318525551344692 5.0359788930952618 0 5.0359788930952618 19.632281741178303 0 0 0 0 -6.9881805173578186 -9.3928376737831059 0 -9.3928376737831059 9.3191494154689281 0 0 0 0 -25.788485383056184 -41.702149053244057 0 -41.702149053244057 -44.433704473320176 0 0 0 0 -32.031506507565325 -4.1355182567688189 0 -4.1355182567688189 37.382967117970111 0 0 0 0 -28.427495596552035 10.05057293478967 0 10.05057293478967 31.104133375414676 0 0 0 0 -18.287323236690099 3.2861658552901645 0 3.2861658552901645 20.868538281593828 0 0 0 0 -1.6107238247068389 0.49282336087894407 0 0.49282336087894407 3.0517617308500107 0 0 0 0 -4.4400138356254502 2.9705891949197394 0 2.9705891949197394 28.353509642025529 0 0 0 0 -10.880869930268318 -39.977675911937695 0 -39.977675911937695 -11.958072292713041 0 0 0 0 24.568145306272527 19.146602018998237 0 19.146602018998237 -23.549064424153585 0 0 0 0 25.085965495719506 43.84627005471566 0 43.84627005471566 20.901818029211427 0 0 0 0 -4.8520688171365691 14.875476321816677 0 14.875476321816677 54.229607864484933 0 0 0 0 0.07379069138621297 0.23643492439126135 0 0.23643492439126135 -0.70394748980999822 0 0 0 0 4.2755794414197226 8.4322491779930715 0 8.4322491779930715 30.903473925418439 0 0 0 0 -5.9203183229151364 -1.9393509622423153 0 -1.9393509622423153 35.002683559343495 0 0 0 0 -3.9032595139044588 -1.9580423051193065 0 -1.9580423051193065 31.073850927319654 0 0 0 0 -3.6961334761829221 1.4816173988547234 0 1.4816173988547234 35.629835666190047 0 0 0 0 -6.8603732339007966 0.82623255793973271 0 0.82623255793973271 0.060731178251007378 0 0 0 0 -5.2668888256078592 0.96475495178954418 0 0.96475495178954418 -0.16721045939922163 0 0 0 0 -8.4861599418218248 4.781377903333123 0 4.781377903333123 38.586375063001014 0 0 0 0 -3.4976441289377309 -0.01597200770365248 0 -0.01597200770365248 4.8149350442457841 0 0 0 0 -9.5417170709488346 -3.4487339246807096 0 -3.4487339246807096 47.344990497043909 0 0 0 0 -22.430264092339485 98.833526088645158 0 98.833526088645158 29.88529888656376 0 0 0 0 -5.7453421694560802 -1.5327283351662118 0 -1.5327283351662118 28.619983577302264 0 0 0 0 -3.5012131168311336 2.3555475464379469 0 2.3555475464379469 20.772922891290705 0 0 0 0 -3.3843301276260718 -2.5285758120685387 0 -2.5285758120685387 24.665997989093739 0 0 0 0 -7.9756981274053942 7.6420831588002329 0 7.6420831588002329 25.904691263408267 0 0 0 0 -2.9952077942414035 1.2816159147188912 0 1.2816159147188912 23.360714553280673 0 0 0 0 -88.501866272948291 -18.864002481139323 0 -18.864002481139323 82.428527032563579 0 0 0 0 9.8085691828439394 8.3218029021045368 0 8.3218029021045368 -39.223483101304737 0 0 0 0 -5.1541662239360448 -27.177670464992843 0 -27.177670464992843 14.257860361417443 0 0 0 0 2.1398264089657459 -38.367032928003027 0 -38.367032928003027 9.7271743610199337 0 0 0 0 0.39578957235467627 -0.78311157625221384 0 -0.78311157625221384 2.8844944685362464 0 0 0 0 -84.806689054006256 103.08669555877714 0 103.08669555877714 231.86568736385379 0 0 0 0 -89.183638613151743 120.4280630601861 0 120.4280630601861 232.53608181176969 0 0 0 0 -73.973433430684054 115.25402787973144 0 115.25402787973144 229.04251962056151 0 0 0 0 214.87252955190684 -187.12953048387135 0 -187.12953048387135 -115.91428380413345 0 0 0 0 143.11393241067799 12.471978480636608 0 12.471978480636608 -158.96256833254301 0 0 0 0 82.584021919903535 -21.251615852725081 0 -21.251615852725081 7.8849320487588557 0 0 0 0 2.2195014422413806 -4.6068319371188409 0 -4.6068319371188409 4.4833166878397606 0 0 0 0 23.694071202577561 -87.680158109337754 0 -87.680158109337754 93.605245383587317 0 0 0 0 20.164632089907172 63.582785892100219 0 63.582785892100219 255.39207411589086 0 0 0 0 329.8960829645448 69.246764134117257 0 69.246764134117257 -12.20484042337921 0 0 0 0 96.573652410383147 -93.65586112037272 0 -93.65586112037272 210.97598661198026 0 0 0 0 -0.010116283445082086 -3.8700375749709117 0 -3.8700375749709117 28.213621399219804 0 0 0 0 0.42117265653688529 -1.2470044785063816 0 -1.2470044785063816 3.8682691142144989 0 0 0 0 72.237177795051593 0.75285520989382348 0 0.75285520989382348 -193.68410420531291 0 0 0 0 -57.788130317722789 83.932230615100707 0 83.932230615100707 238.80206504155922 0 0 0 0 -61.98863047023724 110.75162262734739 0 110.75162262734739 206.13923998590326 0 0 0 0 -3.3534552842136236 125.62610842986032 0 125.62610842986032 -105.24771506866091 0 0 0 0 36.148290484139579 23.535036112087255 0 23.535036112087255 -10.605297593610885 0 0 0 0 -62.982343807262851 79.987988972534367 0 79.987988972534367 127.27103147958405 0 0 0 0 -83.645052038546169 5.6761696515841322 0 5.6761696515841322 105.80467304165359 0 0 0 0 -71.067223778344214 105.59220818203903 0 105.59220818203903 203.67050394549005 0 0 0 0 -75.744247087218355 99.48777258987684 0 99.48777258987684 227.57898744870909 0 0 0 0 -0.2634837486083097 -1.6220266123520801 0 -1.6220266123520801 5.4929143840884507 0 0 0 0 -0.061346265056897664 -0.92333579073419969 0 -0.92333579073419969 24.348076682865212 0 0 0 0 26.688153460893858 -37.448652943357956 0 -37.448652943357956 -29.990959029120859 0 0 0 0 0.37762369359404102 -3.2328349454590004 0 -3.2328349454590004 4.5300848393841733 0 0 0 0 -62.103960559532425 -70.063709698657476 0 -70.063709698657476 -38.782200126253883 0 0 0 0 -23.201302103384478 -1.4441883466897707 0 -1.4441883466897707 -39.673974681551044 0 0 0 0 229.03361917060829 -98.826737677853089 0 -98.826737677853089 -136.33685560448794 0 0 0 0 31.730011356624345 -101.28041691878752 0 -101.28041691878752 -81.036713852219691 0 0 0 0 18.136153422196003 36.041132688216749 0 36.041132688216749 3.6447731254083919 0 0 0 0 -21.197053759009577 5.4916294437098259 0 5.4916294437098259 -18.731301096508105 0 0 0 0 -6.9783034903152839 -4.7983294079313055 0 -4.7983294079313055 5.1929288875835482 0 0 0 0 -31.543078597310341 0.24890651126133889 0 0.24890651126133889 -20.44550533760048 0 0 0 0 -5.9442265721693275 -7.0537879667426751 0 -7.0537879667426751 10.844264132257194 0 0 0 0 -2.659923069380409 -1.7034164480349645 0 -1.7034164480349645 14.193763003304724 0 0 0 0 -9.1848212844856789 -6.4827655919943936 0 -6.4827655919943936 10.543006904367758 0 0 0 0 -3.4919920513543321 -3.1960948536328431 0 -3.1960948536328431 21.947848894214303 0 0 0 0 0.55628434636628299 -5.9194788794166016 0 -5.9194788794166016 37.200658140100131 0 0 0 0 -3.8077163003614727 -1.5268738636772667 0 -1.5268738636772667 19.490574376145375 0 0 0 0 -4.901543279966063 -3.0342100094057969 0 -3.0342100094057969 14.426067045837954 0 0 0 0 -1.9020120422844462 -2.1781445780536082 0 -2.1781445780536082 20.493660277678856 0 0 0 0 -18.949459173277774 -11.920052792043862 0 -11.920052792043862 19.117523023625836 0 0 0 0 -0.55981606645782644 -3.024952824138289 0 -3.024952824138289 21.923554002328075 0 0 0 0 -4.6533362816267427 -4.5214502024083103 0 -4.5214502024083103 23.39963965960483 0 0 0 0 -2.3911744397857433 -15.001811815541259 0 -15.001811815541259 3.103196381838643 0 0 0 0 1.0112925584524541 -5.1781660423457794 0 -5.1781660423457794 10.453067149281082 0 0 0 0 -5.0469785295730958 -17.647011399663825 0 -17.647011399663825 7.8294665194916888 0 0 0 0 0.80428904414743485 -1.043468839020008 0 -1.043468839020008 0.56982264940256755 0 0 0 0 -41.029756486598671 -15.009872635382635 0 -15.009872635382635 7.6761428726676968 0 0 0 0 -37.003462256930106 -2.7577279603647185 0 -2.7577279603647185 20.623808481868764 0 0 0 0 0.99488254793993747 -25.593670558904705 0 -25.593670558904705 -11.109725375346898 0 0 0 0 6.9391739738066462 -19.284377593066893 0 -19.284377593066893 -16.186501538752054 0 0 0 0 -24.636951810835882 -87.022659341620511 0 -87.022659341620511 53.908497667100164 0 0 0 0 2.3433235340727103 -8.414594622664989 0 -8.414594622664989 18.591660015066552 0 0 0 0 -31.454305225129019 -3.0147293852933217 0 -3.0147293852933217 -3.4433181378990412 0 0 0 0 -4.2235288006437486 -10.947630990025573 0 -10.947630990025573 -3.2464762790914392 0 0 0 0 0.96502898595978448 -0.66007516372351915 0 -0.66007516372351915 0.30744745297877785 0 0 0 0 -43.587228825702311 -42.786278642816342 0 -42.786278642816342 79.349033234961098 0 0 0 0 -25.355849885772614 -20.393691436877816 0 -20.393691436877816 30.47931079589398 0 0 0 0 0.78457941085478744 -9.1838110311512473 0 -9.1838110311512473 32.784903964726411 0 0 0 0 -5.9845861894657446 -6.9518985489703482 0 -6.9518985489703482 10.627519039466279 0 0 0 0 3.5399588057282134 -9.033688125924364 0 -9.033688125924364 0.19283900383750563 0 0 0 0 -0.8648177735991136 -6.1003298634317673 0 -6.1003298634317673 12.40327216854709 0 0 0 0 -12.387906535390357 -9.1375269441723503 0 -9.1375269441723503 19.143366881078691 0 0 0 0 0.63799749444343057 -16.794789708720266 0 -16.794789708720266 12.956110775766575 0 0 0 0 -11.414331133683845 -7.2666575169969292 0 -7.2666575169969292 42.908214116454474 0 0 0 0 -11.395012576570934 -10.518835627011867 0 -10.518835627011867 37.775540210049485 0 0 0 0 -10.56474644040145 -5.2516932503185672 0 -5.2516932503185672 40.065286986287902 0 0 0 0 -20.460540885894261 -0.80075536785079748 0 -0.80075536785079748 41.921920364125526 0 0 0 0 -4.6624092601182383 -0.017866417764707876 0 -0.017866417764707876 41.954063718410907 0 0 0 0 -9.04931936676644 3.9093628113178056 0 3.9093628113178056 35.608695096168958 0 0 0 0 -25.500494509594319 9.2888926991090557 0 9.2888926991090557 34.404721782799243 0 0 0 0 -12.012742970861154 -7.6147869086944411 0 -7.6147869086944411 36.230986671733262 0 0 0 0 -29.385545016090873 -12.890696098675107 0 -12.890696098675107 34.632383772524918 0 0 0 0 -70.582338919158246 -6.6924385731472285 0 -6.6924385731472285 38.110762010977851 0 0 0 0 -67.106120899386497 -68.070554756206548 0 -68.070554756206548 81.955681698855187 0 0 0 0 3.4549129799227742 -12.342429872995083 0 -12.342429872995083 38.508924615885761 0 0 0 0 -32.252274170135024 33.092731209724661 0 33.092731209724661 -7.1920069842308294 0 0 0 0 8.9557734163981877 -5.9799159383037477 0 -5.9799159383037477 18.934591844395982 0 0 0 0 -107.79840937200402 -148.72185185014496 0 -148.72185185014496 303.49552442775166 0 0 0 0 3.8746420910486381 -14.303637327194574 0 -14.303637327194574 42.714047557475979 0 0 0 0 47.284959683914849 -38.298908240503351 0 -38.298908240503351 -35.004027256200061 0 0 0 0 111.24097928304946 -1.9927409660040212 0 -1.9927409660040212 -102.87480293553745 0 0 0 0 1.9029026055036971 -4.7800034988773596 0 -4.7800034988773596 10.664609599954161 0 0 0 0 -115.03654732998939 -34.700722857374785 0 -34.700722857374785 20.811119944824895 0 0 0 0 -10.857836641253698 -59.302633375391451 0 -59.302633375391451 -30.310615518939812 0 0 0 0 3.610968429172658 12.866533056991557 0 12.866533056991557 28.043555152806221 0 0 0 0 58.238044570266283 45.280302475579447 0 45.280302475579447 51.119108760431118 0 0 0 0 29.678919801987263 2.8006419088087569 0 2.8006419088087569 42.639547307546309 0 0 0 0 31.717587459934293 8.4323140705455444 0 8.4323140705455444 28.971054046371137 0 0 0 0 26.80424502463211 -6.9254111326445127 0 -6.9254111326445127 -9.3618664380264818 0 0 0 0 15.06780926778606 -34.031932617763232 0 -34.031932617763232 0.75582090795433032 0 0 0 0 -11.542493364924212 -49.908433339769545 0 -49.908433339769545 12.844895654649008 0 0 0 0 18.696281791284719 -26.660252964320534 0 -26.660252964320534 13.220789137412794 0 0 0 0 28.125062406266181 -9.3677135834259389 0 -9.3677135834259389 26.535403778136242 0 0 0 0 12.839290115469339 -21.794516770540213 0 -21.794516770540213 21.209570300776249 0 0 0 0 3.4970923732424808 -30.67387947289717 0 -30.67387947289717 37.434203741839156 0 0 0 0 -2.6429664330749176 -19.380246796183201 0 -19.380246796183201 31.649519902362954 0 0 0 0 10.530645137283955 -84.420294874849787 0 -84.420294874849787 65.884316850562755 0 0 0 0 101.09649330757202 -53.055620775929128 0 -53.055620775929128 -78.849484668869991 0 0 0 0 -11.063333606282185 14.401252413197653 0 14.401252413197653 -35.746414383786032 0 0 0 0 36.897745314761664 9.3532627356471494 0 9.3532627356471494 40.06470681007977 0 0 0 0 13.11631244944283 -9.9759281351180107 0 -9.9759281351180107 42.639569656016192 0 0 0 0 19.789289239249797 -18.05160254690054 0 -18.05160254690054 10.101710627102875 0 0 0 0 17.80868681710416 -3.9781881889794022 0 -3.9781881889794022 48.064501268498134 0 0 0 0 62.534707967733425 58.796808247823719 0 58.796808247823719 85.120674201491056 0 0 0 0 25.716975887838487 25.759938916538886 0 25.759938916538886 94.950091227205121 0 0 0 0 49.945239658745209 20.20187204562535 0 20.20187204562535 43.134169130124064 0 0 0 0 30.533045216409143 33.920939333405727 0 33.920939333405727 104.98269436247938 0 0 0 0 28.69222475691106 4.4990783459215891 0 4.4990783459215891 60.907352229085518 0 0 0 0 46.945959750425999 71.457129037469713 0 71.457129037469713 157.7075023274665 0 0 0 0 17.60194794556665 57.961840978066903 0 57.961840978066903 187.54720201470627 0 0 0 0 18.005379174070185 26.921437126973615 0 26.921437126973615 119.82977429753646 0 0 0 0 68.896232518966357 114.1328961026411 0 114.1328961026411 234.07783718327482 0 0 0 0 112.57741344822909 146.10618958817213 0 146.10618958817213 211.92138692731533 0 0 0 0 -6.7469489201305066 59.159892580166343 0 59.159892580166343 253.30027549007173 0 0 0 0 165.68620798602259 84.895252976079064 0 84.895252976079064 235.32733332552016 0 0 0 0 111.93859882277107 128.82847406183214 0 128.82847406183214 136.13612147617096 0 0 0 0 -43.011678877425112 -23.674394894989746 0 -23.674394894989746 134.50416602018959 0 0 0 0 21.5081141405566 -30.62347726074222 0 -30.62347726074222 4.8691956134935026 0 0 0 0 0.051391994655388448 0.43541281919282593 0 0.43541281919282593 1.3154017762734043 0 0 0 0 21.977713223608433 -19.364630325875623 0 -19.364630325875623 52.147485826371849 0 0 0 0 15.533381453035275 8.640619604033418 0 8.640619604033418 111.96193311225579 0 0 0 0 4.6095979806554617 -1.6153425952679754 0 -1.6153425952679754 126.48729449231178 0 0 0 0 29.432644727550894 -12.208400355928461 0 -12.208400355928461 -4.4772396766638849 0 0 0 0 7.9373544323207739 22.638156361481379 0 22.638156361481379 -16.412067146769914 0 0 0 0 -23.371763675013113 15.152798724482466 0 15.152798724482466 -4.1616056033526547 0 0 0 0 -0.093018581909397227 0.41952276719722559 0 0.41952276719722559 2.8171703498155409 0 0 0 0 0.41893114807499821 -1.5903664971224032 0 -1.5903664971224032 0.74587049283027618 0 0 0 0 -2.0590406061935482 4.4313713390947669 0 4.4313713390947669 -7.2813400171626199 0 0 0 0 4.559956108574994 7.6991559105590568 0 7.6991559105590568 -12.503541576810676 0 0 0 0 18.430671167088818 -3.1626290144358791 0 -3.1626290144358791 -20.874099642060173 0 0 0 0 24.565826499435246 -19.453265951123512 0 -19.453265951123512 11.810984246090811 0 0 0 0 21.705032623720854 4.6075518953693972 0 4.6075518953693972 29.336835897871424 0 0 0 0 -0.02737906930262568 -18.855239910869841 0 -18.855239910869841 13.653376319140079 0 0 0 0 16.042391790269221 -9.220933387936384 0 -9.220933387936384 1.1695446170633659 0 0 0 0 18.473461025580946 -18.301045271662588 0 -18.301045271662588 -0.7633548176381737 0 0 0 0 7.112813652120451 -19.527979913342278 0 -19.527979913342278 -0.82578728590942774 0 0 0 0 4.7074327830794118 -9.991964526965603 0 -9.991964526965603 1.2790390370782916 0 0 0 0 2.6625018088685639 -1.8994081051459943 0 -1.8994081051459943 4.298188388504677 0 0 0 0 0.051022358170257576 1.9468491107036243 0 1.9468491107036243 25.314106536410691 0 0 0 0 -0.24807715083125004 0.64895658197201556 0 0.64895658197201556 22.331414486242466 0 0 0 0 3.4888011866459863 3.3354662003694102 0 3.3354662003694102 13.84749201820523 0 0 0 0 1.6383363408877814 -1.5916964246415262 0 -1.5916964246415262 -0.81687978753773294 0 0 0 0 -3.9770888650152756 2.3533352672675392 0 2.3533352672675392 25.353975177658867 0 0 0 0 -2.6138511518867062 0.0018113774167431984 0 0.0018113774167431984 25.876895419805805 0 0 0 0 -7.7247435926080925 -4.1571378237058525 0 -4.1571378237058525 30.782398456696683 0 0 0 0 -7.7431460316577159 -3.7973908383974049 0 -3.7973908383974049 31.327154841448646 0 0 0 0 -7.6112367673994186 -5.9700659502159397 0 -5.9700659502159397 44.678345023472502 0 0 0 0 -6.3373096491732781 3.4790906316957262 0 3.4790906316957262 32.446971109544393 0 0 0 0 -11.502056399948572 -7.3655185995485226 0 -7.3655185995485226 47.431917389112641 0 0 0 0 -0.60084625968613636 -23.477493216065341 0 -23.477493216065341 46.211054957933584 0 0 0 0 -1.2308184155781541 -5.6405598103691545 0 -5.6405598103691545 32.16567415035621 0 0 0 0 -81.059481826895535 -20.469090431386576 0 -20.469090431386576 33.655892435344867 0 0 0 0 -9.2664223277156452 -11.390016004737845 0 -11.390016004737845 38.90482333476757 0 0 0 0 -92.718636127992113 -10.540542908067437 0 -10.540542908067437 510.11081085075421 0 0 0 0 105.44530805485614 63.540933642812888 0 63.540933642812888 -10.570794228755403 0 0 0 0 -21.310297723157674 -73.130960731872619 0 -73.130960731872619 92.697546665858681 0 0 0 0 -13.216077314909171 22.828192630371632 0 22.828192630371632 134.44888128315142 0 0 0 0 -8.1122571746397156 8.0943199378648387 0 8.0943199378648387 54.204986221120635 0 0 0 0 -20.133432943809737 -1.9907896445911319 0 -1.9907896445911319 47.108677869975509 0 0 0 0 31.658488952721907 38.541646231453342 0 38.541646231453342 46.748970378190279 0 0 0 0 49.205791783527687 -53.536568816884596 0 -53.536568816884596 50.461567955971987 0 0 0 0 0.087704173964491081 0.20313965707861964 0 0.20313965707861964 1.7549715165077373 0 0 0 0 15.232030581419735 3.4713440915165847 0 3.4713440915165847 -4.7854232110948942 0 0 0 0 12.262608738577114 18.448364271142054 0 18.448364271142054 24.013060170051176 0 0 0 0 3.4053363514692592 -0.83080564987176331 0 -0.83080564987176331 4.494422341020254 0 0 0 0 1.2151457951969746 0.045850621194404084 0 0.045850621194404084 11.364128023342346 0 0 0 0 -6.2208581592616099 -4.0524155806093063 0 -4.0524155806093063 10.378097576496657 0 0 0 0 -3.4289578236341103 -1.5278259207175324 0 -1.5278259207175324 16.031448359630303 0 0 0 0 -0.2208056624890776 0.050738357867741835 0 0.050738357867741835 4.8554742088727494 0 0 0 0 2.3143305734919721 1.5998803622715059 0 1.5998803622715059 1.7981112835441309 0 0 0 0 6.2897058996417172 -10.267794633033191 0 -10.267794633033191 20.719247825310958 0 0 0 0 -1.763966193241373 -1.3300999858620344 0 -1.3300999858620344 20.449549949802531 0 0 0 0 7.4904661160058694 -22.698437355462374 0 -22.698437355462374 36.374292613063517 0 0 0 0 5.9190422639049416 -8.136761696971007 0 -8.136761696971007 6.1913675798277836 0 0 0 0 -2.1446213445795181 -9.7120899464734975 0 -9.7120899464734975 61.940946333894317 0 0 0 0 1.1936194108204961 0.014652361569488903 0 0.014652361569488903 0.21123386775499853 0 0 0 0 7.7652596646232723 -34.30933185068352 0 -34.30933185068352 97.134331108643892 0 0 0 0 -26.667027089334724 -3.3551033227537346 0 -3.3551033227537346 62.890386497558211 0 0 0 0 -23.332159620506694 -38.128307204551675 0 -38.128307204551675 113.77049041766077 0 0 0 0 0.30428213518859981 -0.080765552279189023 0 -0.080765552279189023 0.16009761829855762 0 0 0 0 0.02688309791433896 -45.834083205791103 0 -45.834083205791103 72.557209625054384 0 0 0 0 -12.422123031154136 -40.229530593307572 0 -40.229530593307572 130.4936278512705 0 0 0 0 0.89950653333331099 -14.639718855430147 0 -14.639718855430147 55.190025246651203 0 0 0 0 -6.8194290090276688 -16.18228001332136 0 -16.18228001332136 82.310076858724642 0 0 0 0 0.019126188669439693 -2.0383106343342661 0 -2.0383106343342661 56.835346179792396 0 0 0 0 1.3501981441717761 -11.677541874518283 0 -11.677541874518283 36.497087525582174 0 0 0 0 0.50253293283839695 -1.6153585846677743 0 -1.6153585846677743 39.003973287341068 0 0 0 0 -0.0050788146606245083 -1.0417018103071314 0 -1.0417018103071314 27.013281356668813 0 0 0 0 7.5662106414614998 -5.3645262304235075 0 -5.3645262304235075 6.077053289176547 0 0 0 0 28.502840716718936 68.77971236333542 0 68.77971236333542 159.41642002635126 0 0 0 0 0.22294235477439173 0.23655592334691278 0 0.23655592334691278 0.19136327671431097 0 0 0 0 0.083300911027418184 68.507151828789574 0 68.507151828789574 179.48706703511198 0 0 0 0 21.973014823413308 107.678962459373 0 107.678962459373 243.7016162869113 0 0 0 0 44.962454885884796 76.116955451390822 0 76.116955451390822 134.88622752947254 0 0 0 0 -26.211014224507139 19.289811177884985 0 19.289811177884985 131.55327941336873 0 0 0 0 19.488769332701906 56.450427747682852 0 56.450427747682852 207.53693293820834 0 0 0 0 1.6778713205711355 3.3410395330001847 0 3.3410395330001847 7.4818751418679312 0 0 0 0 39.620178549704747 25.912016677895735 0 25.912016677895735 6.1539475653407862 0 0 0 0 0.29760722086876157 0.31103836050975531 0 0.31103836050975531 -0.0078084786741943191 0 0 0 0 -9.519443752919976 26.897755696898457 0 26.897755696898457 81.760904892216786 0 0 0 0 -0.47661300379040356 0.10137384217925671 0 0.10137384217925671 1.1292933407266723 0 0 0 0 20.276394259682263 -9.1131325399364869 0 -9.1131325399364869 -15.324262035419451 0 0 0 0 88.464730179649649 57.689025698557089 0 57.689025698557089 -7.1701857337320689 0 0 0 0 -20.176873069423777 -14.259538979616906 0 -14.259538979616906 26.62030290295661 0 0 0 0 -4.90057980027008 58.94710477528497 0 58.94710477528497 199.87502914209472 0 0 0 0 38.596372468136764 56.948131111203111 0 56.948131111203111 72.949037511669303 0 0 0 0 37.998916314138455 97.368172475937172 0 97.368172475937172 190.84478986166505 0 0 0 0 4.8272150878923838 95.623180349002723 0 95.623180349002723 249.26062324811937 0 0 0 0 19.097180430642503 82.672975342058635 0 82.672975342058635 169.38557526455406 0 0 0 0 31.517090502615133 90.158614161951846 0 90.158614161951846 165.92427760998362 0 0 0 0 33.36831313862978 120.37377405927327 0 120.37377405927327 279.87262420219486 0 0 0 0 33.145901822541092 125.65192126335887 0 125.65192126335887 230.66004716642783 0 0 0 0 10.471907930866664 110.2224829426068 0 110.2224829426068 242.38810979602567 0 0 0 0 18.920213557763162 92.636495855971589 0 92.636495855971589 263.40273336671089 0 0 0 0 71.383671781425377 89.752509616004318 0 89.752509616004318 227.65396546728152 0 0 0 0 35.80574599033082 117.43714294290112 0 117.43714294290112 236.13561344314076 0 0 0 0 20.080127313504562 118.55660045545665 0 118.55660045545665 245.415729392721 0 0 0 0 20.210922268727259 108.98986773979414 0 108.98986773979414 233.01722198969219 0 0 0 0 20.534341739497819 107.17299653634109 0 107.17299653634109 243.18771563176415 0 0 0 0 44.082780523745043 116.18174848038871 0 116.18174848038871 205.44107428463758 0 0 0 0 -54.844975430008517 -25.449955422438507 0 -25.449955422438507 9.4574978487617045 0 0 0 0 137.65522168113273 123.86453923996305 0 123.86453923996305 192.88974301897542 0 0 0 0 77.71076633519732 150.54969912453089 0 150.54969912453089 240.06374497333309 0 0 0 0 130.6877745136789 232.76622925526272 0 232.76622925526272 301.34455908015661 0 0 0 0 0.52401957906845054 0.44958007233414321 0 0.44958007233414321 2.0625908808975026 0 0 0 0 231.88251132524127 222.01081187055479 0 222.01081187055479 215.12249546571547 0 0 0 0 32.571876183407625 184.95442165017812 0 184.95442165017812 375.90031059624744 0 0 0 0 31.24856852036838 123.73743955068494 0 123.73743955068494 263.06382470775861 0 0 0 0 89.526727072401627 166.02428765046352 0 166.02428765046352 277.09040475911752 0 0 0 0 -0.13673081718632504 111.03342840604455 0 111.03342840604455 254.09651851285889 0 0 0 0 -61.741237159803987 -18.71934241308918 0 -18.71934241308918 23.667699706946223 0 0 0 0 -62.025064499170966 -7.0011379832103557 0 -7.0011379832103557 32.55179667813718 0 0 0 0 29.017470133566988 70.212333231747834 0 70.212333231747834 332.00310411400278 0 0 0 0 58.835177584403937 93.845853276645357 0 93.845853276645357 238.57451012919773 0 0 0 0 50.387414748195567 118.11078082849417 0 118.11078082849417 237.23410617066475 0 0 0 0 46.674018781911968 105.15149788729468 0 105.15149788729468 269.07572646508015 0 0 0 0 14.303115011474262 92.564490721284528 0 92.564490721284528 284.99776333838236 0 0 0 0 17.344574163476523 138.51851491065463 0 138.51851491065463 386.8521354810473 0 0 0 0 11.03952814954414 -127.71745237181131 0 -127.71745237181131 443.88948611248111 0 0 0 0 -45.537023112155907 76.355130585902316 0 76.355130585902316 508.88926490432709 0 0 0 0 596.59670948711982 41.459385408265234 0 41.459385408265234 264.29848731738457 0 0 0 0 431.72814150420345 -602.83869202378764 0 -602.83869202378764 532.12478629805537 0 0 0 0 -34.365952808562866 -27.169186910116878 0 -27.169186910116878 393.46487737207644 0 0 0 0 94.092643112259452 95.799072848174092 0 95.799072848174092 1006.0083865808783 0 0 0 0 -130.06874787065431 -125.4749610263998 0 -125.4749610263998 549.23101093877267 0 0 0 0 -167.802973938371 -60.916619091130997 0 -60.916619091130997 417.87559764467733 0 0 0 0 -113.15036140245297 -147.37396091835762 0 -147.37396091835762 340.89514521480123 0 0 0 0 -157.83853432599835 -91.526126462182674 0 -91.526126462182674 301.61012870068043 0 0 0 0 -212.34303827294707 -154.93573767836006 0 -154.93573767836006 311.97723738964305 0 0 0 0 -162.34459253241494 -43.182728044780561 0 -43.182728044780561 242.7302801085516 0 0 0 0 -91.96186252519874 -133.3717296298455 0 -133.3717296298455 311.67169669341456 0 0 0 0 -75.061581931455748 -31.43995743802725 0 -31.43995743802725 169.75300439345665 0 0 0 0 -204.75608625739915 50.719274459786902 0 50.719274459786902 189.84245005016783 0 0 0 0 -176.61134690698236 36.022663588772957 0 36.022663588772957 195.42481566217975 0 0 0 0 -140.55750175578282 -33.52038599853131 0 -33.52038599853131 240.68559679025748 0 0 0 0 -153.79678674797219 -65.078868851613606 0 -65.078868851613606 298.6154049983852 0 0 0 0 -159.19929641825343 15.333135364588088 0 15.333135364588088 285.2215758603561 0 0 0 0 -161.35894778201373 -0.49764723807220435 0 -0.49764723807220435 246.73565854381923 0 0 0 0 -168.63228141489799 77.021557352809396 0 77.021557352809396 181.40406707284365 0 0 0 0 -157.1946030510735 76.437163615862119 0 76.437163615862119 95.904979488455865 0 0 0 0 -195.97110986200732 10.717680235246007 0 10.717680235246007 169.36429342914562 0 0 0 0 -101.75984511500269 -72.648187273295207 0 -72.648187273295207 386.31938915578394 0 0 0 0 -130.55436668998982 4.1147652868276055 0 4.1147652868276055 316.67425747641028 0 0 0 0 -131.54164853089355 -11.91451975142536 0 -11.91451975142536 264.6351074569011 0 0 0 0 -168.02410909894343 40.42625228338693 0 40.42625228338693 291.20759621841671 0 0 0 0 -144.16446485384569 68.715113440382083 0 68.715113440382083 328.7977917806586 0 0 0 0 -144.34885294849823 35.911991068923271 0 35.911991068923271 228.13309339636544 0 0 0 0 -220.15133923857093 109.2047240660786 0 109.2047240660786 203.4311211932245 0 0 0 0 -171.02163472165671 101.2223266414685 0 101.2223266414685 191.84497898196787 0 0 0 0 -147.45968001030269 88.62050650020683 0 88.62050650020683 157.53746536689323 0 0 0 0 -194.32963234776116 158.55984675112722 0 158.55984675112722 114.0016818819895 0 0 0 0 -200.24886783767715 137.34458009225636 0 137.34458009225636 112.8144603555138 0 0 0 0 -175.43339654151032 135.87445574327194 0 135.87445574327194 109.90770387888188 0 0 0 0 -189.01753496206999 189.00156260637698 0 189.00156260637698 25.684595665014058 0 0 0 0 -190.23165790804478 191.34553206192322 0 191.34553206192322 -15.685141236535856 0 0 0 0 -191.30861928737932 190.15318815766113 0 190.15318815766113 25.664896108516245 0 0 0 0 -251.18291481422034 190.84813642793779 0 190.84813642793779 61.789966299797015 0 0 0 0 -226.69699507299327 144.47699536353412 0 144.47699536353412 46.461187202039582 0 0 0 0 -290.73785877480861 89.143503844285078 0 89.143503844285078 134.36517868239389 0 0 0 0 -235.65048119748681 123.56910369365778 0 123.56910369365778 43.15110759192612 0 0 0 0 -146.23495143948341 88.037365793272784 0 88.037365793272784 130.96286564599359 0 0 0 0 -142.6239551055769 64.00542304740793 0 64.00542304740793 75.311085728316357 0 0 0 0 -122.31323547006468 105.80849416175852 0 105.80849416175852 16.068928469969251 0 0 0 0 -125.49008845815843 107.74130599136788 0 107.74130599136788 71.632700739767643 0 0 0 0 -163.95428180938279 128.40760694402343 0 128.40760694402343 105.03734621738658 0 0 0 0 -154.28393064990303 63.891088390108507 0 63.891088390108507 149.97933033588015 0 0 0 0 -141.85596818694597 162.28721545010634 0 162.28721545010634 20.537184905688264 0 0 0 0 -78.029112797211383 127.31117493866623 0 127.31117493866623 0.95727873444957368 0 0 0 0 -143.86931710268891 133.53616681454514 0 133.53616681454514 87.536159353247058 0 0 0 0 -84.988687624618251 91.758568320412451 0 91.758568320412451 -0.74311396051371048 0 0 0 0 -1.6672746252167845 11.542761827252466 0 11.542761827252466 -2.8240431792118574 0 0 0 0 -52.556396164276066 100.91101145816219 0 100.91101145816219 -103.75607465867074 0 0 0 0 -83.487055959078702 110.48808610697267 0 110.48808610697267 -38.10252509305883 0 0 0 0 -63.430041515594894 101.68368915538395 0 101.68368915538395 -48.701673794211672 0 0 0 0 -109.16840876353581 167.90870265674857 0 167.90870265674857 -44.123498052251307 0 0 0 0 -107.59699428808105 179.85996986425357 0 179.85996986425357 -86.804647016913805 0 0 0 0 -80.640383322323487 148.08187555822042 0 148.08187555822042 -159.17469327284743 0 0 0 0 -23.56578555422675 86.66554776311159 0 86.66554776311159 -115.38358103845758 0 0 0 0 -3.1367786192625178 11.242167309940523 0 11.242167309940523 25.537896361540724 0 0 0 0 -10.359015799181634 27.530124683366012 0 27.530124683366012 -8.2987503461974939 0 0 0 0 -326.02870570948346 83.384631812456064 0 83.384631812456064 -187.34212704964648 0 0 0 0 -519.45829642271349 54.321276503795161 0 54.321276503795161 -19.08253804449123 0 0 0 0 -543.53870870303194 253.24604645732052 0 253.24604645732052 -71.03251004627964 0 0 0 0 -1080.4511976711069 471.10081562003688 0 471.10081562003688 -248.47474972177861 0 0 0 0 -847.88353094034642 -23.357227828999385 0 -23.357227828999385 -202.70563558100821 0 0 0 0 -216.42616550772613 -45.01117308595758 0 -45.01117308595758 -320.84002373474686 0 0 0 0 -335.69749971170825 41.945071232334158 0 41.945071232334158 -18.717352794326871 0 0 0 0 -352.17253850640066 199.65474957526749 0 199.65474957526749 -0.24476146275264909 0 0 0 0 -343.62652417097161 176.9335588632166 0 176.9335588632166 41.811146537682362 0 0 0 0 -251.48661032653064 209.43694337000034 0 209.43694337000034 -30.039016017341055 0 0 0 0 -260.69479008557573 247.84329325084627 0 247.84329325084627 -55.982124160382227 0 0 0 0 -222.78019894708086 221.58515148861807 0 221.58515148861807 -78.986172539725885 0 0 0 0 -366.6843009810018 171.75553306431721 0 171.75553306431721 -34.153649382475123 0 0 0 0 -384.78946536397598 255.39192141661988 0 255.39192141661988 -45.876003354122076 0 0 0 0 -115.44821963059621 169.4108384165329 0 169.4108384165329 -80.417035976582156 0 0 0 0 -125.89819212012702 237.01885583142803 0 237.01885583142803 -292.74522370369232 0 0 0 0 105.16036344698318 208.28343609414333 0 208.28343609414333 -662.58163049442737 0 0 0 0 -40.095150477797915 61.32287365751472 0 61.32287365751472 -183.91817526243085 0 0 0 0 -433.47272387150429 338.72107503757979 0 338.72107503757979 -161.90494384958765 0 0 0 0 -248.30113176099758 281.897690863143 0 281.897690863143 -145.50426178207636 0 0 0 0 -414.43207151885258 263.83589220515569 0 263.83589220515569 -193.37908761586732 0 0 0 0 -0.15094308003051704 1.2140450361001394 0 1.2140450361001394 1.4482151035812452 0 0 0 0 -60.77061143028974 738.92582920475479 0 738.92582920475479 -1364.2542234974608 0 0 0 0 -93.514604637989123 77.065200706465475 0 77.065200706465475 -112.84055356990848 0 0 0 0 -951.10980977322993 451.69872224652045 0 451.69872224652045 -86.312534974687878 0 0 0 0 -279.9252643258551 86.478407976290327 0 86.478407976290327 -111.56482210216473 0 0 0 0 -382.80418397617723 -78.0555642636009 0 -78.0555642636009 -284.60153107579845 0 0 0 0 -6.2645573977961249 121.11050455570785 0 121.11050455570785 -232.18017588152543 0 0 0 0 97.516603288247325 64.796651821705382 0 64.796651821705382 -103.43985197813481 0 0 0 0 -6.1486903325951516 102.20000435235488 0 102.20000435235488 -75.11423092008954 0 0 0 0 15.185245731168379 -18.032926426085396 0 -18.032926426085396 -67.672498435153102 0 0 0 0 -2.7536568390439697 82.766734840648496 0 82.766734840648496 -108.61436206651615 0 0 0 0 -165.34083640954248 62.549326917738199 0 62.549326917738199 -100.28152798987685 0 0 0 0 15.727299324840942 73.802808744570029 0 73.802808744570029 74.777965030374617 0 0 0 0 -181.08525273659512 -17.286505427631823 0 -17.286505427631823 33.644652133472846 0 0 0 0 140.037636176462 77.921910260441564 0 77.921910260441564 0.26589380314453592 0 0 0 0 6.9013192200082472 -2.0985086563535447 0 -2.0985086563535447 153.46985519118425 0 0 0 0 246.25816141956307 87.745085416112488 0 87.745085416112488 187.07227589011472 0 0 0 0 -64.559972137649936 1.7474946555039423 0 1.7474946555039423 250.81879175822905 0 0 0 0 -173.20651199886362 56.654003856336431 0 56.654003856336431 264.59153980044357 0 0 0 0 303.24303737024388 -7.7910764212931554 0 -7.7910764212931554 72.933498523674189 0 0 0 0 231.49181804815862 -98.648764880472299 0 -98.648764880472299 214.25696914292166 0 0 0 0 177.32922613260084 -87.800625666235987 0 -87.800625666235987 22.759238378693226 0 0 0 0 71.102190037957143 32.931777242858516 0 32.931777242858516 0.45662389876270026 0 0 0 0 127.93116977422096 -87.897882814543664 0 -87.897882814543664 94.695638212866129 0 0 0 0 143.28529751520682 -89.753415012165078 0 -89.753415012165078 11.32772823595019 0 0 0 0 0.7041392353239706 -0.25762859309648523 0 -0.25762859309648523 0.22322792985065387 0 0 0 0 69.003462125400119 -162.00437804402418 0 -162.00437804402418 339.22273267262926 0 0 0 0 167.1439493307214 -125.39928456159851 0 -125.39928456159851 104.07278675050611 0 0 0 0 198.16952728168172 -195.83011221014476 0 -195.83011221014476 252.54221207681985 0 0 0 0 1.1912227601885634 -0.72273848607706626 0 -0.72273848607706626 0.57059648887158598 0 0 0 0 -23.644073576638675 -25.52362472810546 0 -25.52362472810546 182.24347199315059 0 0 0 0 -27.99751013517789 1.5303674419069466 0 1.5303674419069466 139.11510942261521 0 0 0 0 -60.285982196921054 -31.393566078979347 0 -31.393566078979347 305.75785559585483 0 0 0 0 -87.932992063994789 -20.291536055145116 0 -20.291536055145116 310.54457773616571 0 0 0 0 -89.176273560935442 -11.916832115365423 0 -11.916832115365423 424.47086279779205 0 0 0 0 -68.665748835220256 -59.490427833700551 0 -59.490427833700551 368.81151296605731 0 0 0 0 -87.095481896345518 -48.175920830165524 0 -48.175920830165524 376.05149739617082 0 0 0 0 -52.012925512224456 -12.117551905933396 0 -12.117551905933396 328.8053392101242 0 0 0 0 -51.607850965908938 -24.622904740119793 0 -24.622904740119793 273.53904173880119 0 0 0 0 -85.965710694120162 -63.703488035498367 0 -63.703488035498367 327.71060683621545 0 0 0 0 -84.997809898039577 -71.230493052032671 0 -71.230493052032671 381.67919557867071 0 0 0 0 512.74796796174712 -294.03161587717756 0 -294.03161587717756 267.86763405701458 0 0 0 0 -10.690724610155939 -35.60493575674468 0 -35.60493575674468 363.31264925615596 0 0 0 0 -58.797029308851222 -39.082125992562283 0 -39.082125992562283 400.0070414545371 0 0 0 0 -48.007025887208556 -28.84063585566264 0 -28.84063585566264 395.92742023577648 0 0 0 0 -18.125452177581565 -177.54344972310491 0 -177.54344972310491 905.67302451956539 0 0 0 0 61.562400920355003 69.092184604191999 0 69.092184604191999 34.332290306177129 0 0 0 0 43.793655461495305 157.24517371880046 0 157.24517371880046 296.16126392069282 0 0 0 0 -21.780218364575205 -61.592629671704572 0 -61.592629671704572 237.36265732159154 0 0 0 0 40.221298867345922 25.451163624803485 0 25.451163624803485 118.63480372574941 0 0 0 0 85.051492260393331 35.395217750277205 0 35.395217750277205 103.5015151582511 0 0 0 0 38.271303671680016 36.433237106310116 0 36.433237106310116 124.97896473377023 0 0 0 0 32.343105429795287 27.813846482331655 0 27.813846482331655 134.58716784147714 0 0 0 0 37.627165841712156 9.6975112021629855 0 9.6975112021629855 59.067198333546912 0 0 0 0 -23.131884360041646 -31.198731789343029 0 -31.198731789343029 82.794940665616195 0 0 0 0 -38.016772065859982 -31.910212466081248 0 -31.910212466081248 33.525858067505851 0 0 0 0 15.309891860643461 25.285734306564393 0 25.285734306564393 30.708471847943656 0 0 0 0 4.0226021865598796 33.780303519345125 0 33.780303519345125 118.01624239051716 0 0 0 0 18.384675026809646 2.9583935684145217 0 2.9583935684145217 33.874510630590862 0 0 0 0 16.755511726281156 2.4833278050375611 0 2.4833278050375611 71.802259764376231 0 0 0 0 -111.99986033998698 1.8629583035085489 0 1.8629583035085489 52.109291905180157 0 0 0 0 -185.79829212428922 182.26632693895226 0 182.26632693895226 35.675361467769108 0 0 0 0 -718.36230436472522 148.21129177406988 0 148.21129177406988 312.13203563842035 0 0 0 0 -0.35908174298366247 4.2629358999728062 0 4.2629358999728062 36.846770230063292 0 0 0 0 -126.50272572376343 -357.47703217664366 0 -357.47703217664366 180.28181505884459 0 0 0 0 -0.59986049246905182 1.2017350054740927 0 1.2017350054740927 28.231317834460562 0 0 0 0 -142.95836064715468 -16.680040127873781 0 -16.680040127873781 72.797509532378626 0 0 0 0 -397.82700646359478 -230.01210845838989 0 -230.01210845838989 270.13917614362799 0 0 0 0 -45.96235729271541 -225.50510242153632 0 -225.50510242153632 94.070982046395329 0 0 0 0 222.00772194452932 -303.63474275537601 0 -303.63474275537601 105.32474155356613 0 0 0 0 -7.2156313352177222 262.43461365907888 0 262.43461365907888 369.44078497937335 0 0 0 0 0.0013066336437559389 -0.51193654385730847 0 -0.51193654385730847 10.849742528652197 0 0 0 0 -407.11141864765432 43.392008539319249 0 43.392008539319249 237.09202871550224 0 0 0 0 -1.6123661381539556 -1.0826373551170256 0 -1.0826373551170256 2.6204309708974911 0 0 0 0 -173.08916613838744 44.38507523503381 0 44.38507523503381 8.7018430075531796 0 0 0 0 -84.623160101974463 -201.63990491083132 0 -201.63990491083132 256.31699198742353 0 0 0 0 67.878528371753646 -356.54938744713036 0 -356.54938744713036 358.69863093286403 0 0 0 0 -5.9655940034229502 -205.7660372660057 0 -205.7660372660057 74.877535038354836 0 0 0 0 211.82293369836111 -439.14561295069598 0 -439.14561295069598 179.56885991357012 0 0 0 0 336.22670099384806 -236.41831881264307 0 -236.41831881264307 -27.517717189883115 0 0 0 0 198.49424753293715 -197.44012207594096 0 -197.44012207594096 -17.122735785345867 0 0 0 0 95.534365554745477 -38.406448087270519 0 -38.406448087270519 -71.323505223963366 0 0 0 0 19.329153972944823 -233.40050162891657 0 -233.40050162891657 86.548599842256408 0 0 0 0 -48.482942950643519 -89.862497634701867 0 -89.862497634701867 9.7381444894890592 0 0 0 0 210.02185143131192 -2.7372859153401805 0 -2.7372859153401805 4.0832754924667825 0 0 0 0 -59.258722448686228 -14.31053629618998 0 -14.31053629618998 32.689661722153687 0 0 0 0 286.35355535431063 21.555540898692925 0 21.555540898692925 -119.87626459137937 0 0 0 0 0.77065532876025422 1.8637012273628173 0 1.8637012273628173 0.46184524970975738 0 0 0 0 861.77336940758391 -305.37200129219855 0 -305.37200129219855 -77.671127317701576 0 0 0 0 1975.6678031942301 -277.23922499779655 0 -277.23922499779655 593.11195829981079 0 0 0 0 132.35150701578823 -56.880805990238514 0 -56.880805990238514 1841.7727027578021 0 0 0 0 -523.65173180882539 -470.0719687250039 0 -470.0719687250039 1481.9554071108178 0 0 0 0 -23.939767257989885 -251.24050764938511 0 -251.24050764938511 212.97259285982022 0 0 0 0 285.11294955148492 -684.61738099161175 0 -684.61738099161175 808.66132554121214 0 0 0 0 130.75485404161168 -2.0517568872273841 0 -2.0517568872273841 449.57620452398987 0 0 0 0 -102.0017714305408 -105.24129112094715 0 -105.24129112094715 479.2141460671919 0 0 0 0 343.09609300540126 275.02110730612912 0 275.02110730612912 117.35900365710768 0 0 0 0 691.99301818915228 134.00791532294897 0 134.00791532294897 173.80887740277103 0 0 0 0 1.0586738823454791 2.7901223511636655 0 2.7901223511636655 14.87239035115018 0 0 0 0 -145.70725732381197 -672.84636061163383 0 -672.84636061163383 903.48332558091352 0 0 0 0 146.64001167896913 -515.13427396206316 0 -515.13427396206316 682.83162075958171 0 0 0 0 -25.886187441791662 -330.45302164188979 0 -330.45302164188979 671.67931154097096 0 0 0 0 -124.42352097373441 -692.74545765280709 0 -692.74545765280709 609.32055655324621 0 0 0 0 -348.89272019869577 -138.06428900360243 0 -138.06428900360243 629.27386744444084 0 0 0 0 299.64571081928261 -381.61761297505655 0 -381.61761297505655 498.35104458345813 0 0 0 0 7.2492968352471507 -154.59792833661231 0 -154.59792833661231 429.32645259353376 0 0 0 0 -56.815467343596026 -42.365797145447743 0 -42.365797145447743 -15.69228273270528 0 0 0 0 -1.979668458185607 2.0799582345143115 0 2.0799582345143115 6.6632183236097271 0 0 0 0 189.00360677096796 2.9256059557683329 0 2.9256059557683329 -158.57812756274473 0 0 0 0 95.508412284027145 -15.761676547348543 0 -15.761676547348543 57.039385856116496 0 0 0 0 -178.36926860590393 2.0373171564642689 0 2.0373171564642689 188.81779803269455 0 0 0 0 -9.4344482164330401 -18.695758456770111 0 -18.695758456770111 4.9418727891264158 0 0 0 0 -3.5930854545554247 4.6756208674410331 0 4.6756208674410331 32.556476496445057 0 0 0 0 263.24197472404103 236.03840136604413 0 236.03840136604413 -20.166573435686587 0 0 0 0 947.10871861438864 -1170.7632680961942 0 -1170.7632680961942 1034.4721079774363 0 0 0 0 0.93860375943819108 2.1901274003300415 0 2.1901274003300415 10.360667340157434 0 0 0 0 145.50528402694908 409.55408011796681 0 409.55408011796681 708.0739551610568 0 0 0 0 0.23381869905460917 -34.01971199743457 0 -34.01971199743457 193.04312879915051 0 0 0 0 -43.090271986742664 41.626002973931463 0 41.626002973931463 554.70832075838916 0 0 0 0 15.176063286054159 179.62240087396094 0 179.62240087396094 449.3140631728329 0 0 0 0 36.930318813723716 73.716535599696726 0 73.716535599696726 273.89253473778263 0 0 0 0 12.264464022424363 -57.14708711959247 0 -57.14708711959247 -14.350409135491645 0 0 0 0 1.4467969681063835 -20.475064146749418 0 -20.475064146749418 -0.2461885366243638 0 0 0 0 -113.27720899034239 -53.685764588787379 0 -53.685764588787379 399.42420665474128 0 0 0 0 232.56855870115123 109.28822239012061 0 109.28822239012061 -49.641391111101257 0 0 0 0 -2.0664289312711119 -0.11694578116232712 0 -0.11694578116232712 10.918719785801738 0 0 0 0 -87.446296100692052 -115.52662684021516 0 -115.52662684021516 149.13402383656648 0 0 0 0 61.646705775394366 -34.404970031375342 0 -34.404970031375342 54.082991530100117 0 0 0 0 -17.553771574308485 116.5983644152966 0 116.5983644152966 305.58700423708342 0 0 0 0 -25.244882488793088 15.936106828356564 0 15.936106828356564 28.809641326314349 0 0 0 0 -26.446276635266258 -131.78197450245534 0 -131.78197450245534 75.632889102111221 0 0 0 0 -15.054966530447928 -16.466534222744485 0 -16.466534222744485 164.09655973556437 0 0 0 0 -18.868167825854471 28.608146953489268 0 28.608146953489268 352.72067777856137 0 0 0 0 -38.058410457205355 -31.06861191250573 0 -31.06861191250573 217.19059976095741 0 0 0 0 -18.912655765958334 -40.448356536042411 0 -40.448356536042411 115.88212597177971 0 0 0 0 3.8443927165710736 -5.4758315592357363 0 -5.4758315592357363 15.204264068954359 0 0 0 0 47.141749824961153 66.360694753242569 0 66.360694753242569 212.4358733910849 0 0 0 0 47.411865323156235 61.316775637758838 0 61.316775637758838 248.8866005656364 0 0 0 0 -1.9869645284024173 6.5967742099324127 0 6.5967742099324127 -9.0850487272433327 0 0 0 0 2.0321193442126813 -4.7931167384628317 0 -4.7931167384628317 10.600806257538906 0 0 0 0 -12.253425983329848 6.1840236737653953 0 6.1840236737653953 42.819079987053748 0 0 0 0 -11.340572511790015 -5.6732556630604449 0 -5.6732556630604449 65.720528647812898 0 0 0 0 77.071095130255998 -87.843342009595233 0 -87.843342009595233 85.754799629525223 0 0 0 0 -9.7512806800368708 14.796863327443134 0 14.796863327443134 33.93648926199603 0 0 0 0 75.255313523437508 -22.064633951687938 0 -22.064633951687938 42.602739372989163 0 0 0 0 -4.208679526404012 2.7784631526137673 0 2.7784631526137673 72.21110706176205 0 0 0 0 -1.492490515955069 -49.650825475959209 0 -49.650825475959209 88.911649726996188 0 0 0 0 -23.111544726478314 -61.079546655400009 0 -61.079546655400009 151.33403018774698 0 0 0 0 19.338137498679316 -107.22204379304549 0 -107.22204379304549 117.00116438145233 0 0 0 0 24.497365090104722 -116.71545467684973 0 -116.71545467684973 133.06060017939717 0 0 0 0 110.52352759906034 -276.09551098050997 0 -276.09551098050997 271.97517428320498 0 0 0 0 93.417018938108868 -151.16164827828288 0 -151.16164827828288 128.51197204487107 0 0 0 0 35.769784300420724 -97.597924757809778 0 -97.597924757809778 80.480410110812954 0 0 0 0 -115.91984436610801 13.221142996923845 0 13.221142996923845 108.28906619893496 0 0 0 0 -109.30764535427534 -11.136372852551176 0 -11.136372852551176 41.968408963383808 0 0 0 0 -4.4670900292033506 -4.1291343865056014 0 -4.1291343865056014 6.6958032604460485 0 0 0 0 157.09144857301362 -185.99595591324351 0 -185.99595591324351 144.94627605409732 0 0 0 0 -67.183127712115493 -87.543139718478415 0 -87.543139718478415 95.937726731548537 0 0 0 0 -6.2538056234507167 40.19068152742966 0 40.19068152742966 337.10628814398478 0 0 0 0 -17.430663028040417 -0.7804182128927053 0 -0.7804182128927053 8.1160028750788271 0 0 0 0 85.166441569710059 77.915488623625151 0 77.915488623625151 87.254748100924189 0 0 0 0 -110.17530246591832 187.25832822643679 0 187.25832822643679 905.89315086235729 0 0 0 0 197.20584806767874 -6.4158600562514039 0 -6.4158600562514039 556.48398346208705 0 0 0 0 163.33972572772109 103.12936682082 0 103.12936682082 559.08828836398607 0 0 0 0 11.339598396012661 -39.3545451980699 0 -39.3545451980699 591.97242357696791 0 0 0 0 -22.848555992772162 -4.93176996787588 0 -4.93176996787588 985.82765244085749 0 0 0 0 1.8876447608384019 0.95209508252520436 0 0.95209508252520436 7.9115474247009701 0 0 0 0 13.180444497098506 -55.663853591155203 0 -55.663853591155203 122.66631800019564 0 0 0 0 -21.858935375079454 23.336697105416533 0 23.336697105416533 500.60330977515696 0 0 0 0 8.0125073169868806 -22.987247480038128 0 -22.987247480038128 6.5032925658941823 0 0 0 0 -10.024263447546673 18.302051451771149 0 18.302051451771149 501.25795154921798 0 0 0 0 -31.615635427777306 17.652525147110282 0 17.652525147110282 535.40159203718281 0 0 0 0 -46.519558486823371 43.719378091136605 0 43.719378091136605 494.25508625415387 0 0 0 0 -44.963073431989471 75.87102777234827 0 75.87102777234827 486.75383611077268 0 0 0 0 -33.300416661873896 51.87880150572164 0 51.87880150572164 493.86557356816047 0 0 0 0 -38.526012429243565 64.963213309572893 0 64.963213309572893 462.43024675365859 0 0 0 0 -24.593973452525461 32.88274986057877 0 32.88274986057877 466.38026072194361 0 0 0 0 -30.324770381101189 21.640193931394606 0 21.640193931394606 502.5951286956597 0 0 0 0 -44.123748752112078 -49.904334479094359 0 -49.904334479094359 144.02157210183577 0 0 0 0 -11.035769993746726 -10.725616538925351 0 -10.725616538925351 116.67515099552111 0 0 0 0 -14.148978536724144 -37.261766476116463 0 -37.261766476116463 72.596834436791596 0 0 0 0 -7.902027739287405 -47.558879070187686 0 -47.558879070187686 73.838031177634548 0 0 0 0 -31.252006990279142 -12.232651099451687 0 -12.232651099451687 55.613141004856971 0 0 0 0 14.407056348692549 -32.568053859889005 0 -32.568053859889005 59.927860859945213 0 0 0 0 -25.12209328639301 -19.753741017728316 0 -19.753741017728316 48.962622380559878 0 0 0 0 -12.719684772390792 -28.856803545815637 0 -28.856803545815637 51.063983659587393 0 0 0 0 -23.703355601074236 -35.465468757391136 0 -35.465468757391136 119.0467158885549 0 0 0 0 -27.52743807794743 16.949930006703834 0 16.949930006703834 29.300501547488164 0 0 0 0 -24.666869952035768 -7.9506272399894442 0 -7.9506272399894442 104.59153574882657 0 0 0 0 -11.856264066213953 -12.761468733647234 0 -12.761468733647234 102.19343786051104 0 0 0 0 -32.500232571122524 -24.392765594318007 0 -24.392765594318007 101.05048532624278 0 0 0 0 -12.712407692452416 -35.338546169794427 0 -35.338546169794427 45.859415256030843 0 0 0 0 -28.867426401373905 -2.2352112660810235 0 -2.2352112660810235 71.26884705368866 0 0 0 0 2.9508190039932742 -29.33418929378422 0 -29.33418929378422 86.828282996910275 0 0 0 0 19.173268632691702 -3.1115530545662295 0 -3.1115530545662295 106.63295605466556 0 0 0 0 -24.588668838272497 -27.322219784324261 0 -27.322219784324261 153.11507244260213 0 0 0 0 -63.89781964876147 -18.091101639285625 0 -18.091101639285625 -1.9245792672227253 0 0 0 0 -31.162870729117685 -46.127795123366468 0 -46.127795123366468 -47.232017437509057 0 0 0 0 -35.787403970538946 -40.409699175954074 0 -40.409699175954074 4.800581511168275 0 0 0 0 -31.248031325365446 -7.1243206264698529 0 -7.1243206264698529 1.7443827243914711 0 0 0 0 -24.652489830729792 -14.161725456244312 0 -14.161725456244312 34.168864536728506 0 0 0 0 -30.176296811143402 -26.160897067135011 0 -26.160897067135011 -1.8581628344982164 0 0 0 0 -13.334285939638107 -34.854095692087867 0 -34.854095692087867 0.95172421177994693 0 0 0 0 -16.08327413184179 -21.107617266286979 0 -21.107617266286979 -29.41317999185776 0 0 0 0 79.804402412831223 -77.672398184949998 0 -77.672398184949998 128.97182163544494 0 0 0 0 6.1456790269287973 -4.7273695087955936 0 -4.7273695087955936 2.3657686358971972 0 0 0 0 -2.2775223956577975 92.147962801420363 0 92.147962801420363 154.74301038713838 0 0 0 0 -0.51278635654159643 -16.606992018851088 0 -16.606992018851088 -17.987752749111678 0 0 0 0 -19.516437039197001 -51.850295575692599 0 -51.850295575692599 -23.433191501193505 0 0 0 0 -17.336973132138155 -44.941920536828547 0 -44.941920536828547 279.19514402201457 0 0 0 0 15.489574365516887 105.43790571625595 0 105.43790571625595 161.72293052326495 0 0 0 0 -11.608631046307437 95.162744327872133 0 95.162744327872133 7.0200034257213701 0 0 0 0 -0.048874119496042923 0.40352943299780364 0 0.40352943299780364 2.0932039538014067 0 0 0 0 111.35411041990346 -138.73435668908314 0 -138.73435668908314 169.80173798232136 0 0 0 0 -84.770419375316578 19.34062421456747 0 19.34062421456747 20.549961783792241 0 0 0 0 -40.674151193255057 -14.467138435763445 0 -14.467138435763445 1.9787494490847166 0 0 0 0 -10.273305479703595 14.282643201151586 0 14.282643201151586 8.0221924924180712 0 0 0 0 -0.049333802490533429 0.044781278386224699 0 0.044781278386224699 0.092866200793025655 0 0 0 0 -14.5182866037444 16.526198764094261 0 16.526198764094261 24.965806072039413 0 0 0 0 8.2569673031180173 114.75379433055605 0 114.75379433055605 118.27217632089378 0 0 0 0 -21.540548888197009 105.57689027119523 0 105.57689027119523 145.39427811970018 0 0 0 0 27.681532844446792 102.93480262443336 0 102.93480262443336 125.39176599415441 0 0 0 0 -9.3724194622764117 141.53862812618354 0 141.53862812618354 286.35678431815541 0 0 0 0 1.6879317119313519 -1.5669262073344079 0 -1.5669262073344079 1.8685028339565832 0 0 0 0 33.876509468797849 26.17113537714431 0 26.17113537714431 82.533088456830228 0 0 0 0 32.509353227662132 30.464333117298793 0 30.464333117298793 114.21989050162665 0 0 0 0 -38.890582165468004 51.596565837699018 0 51.596565837699018 32.11872718194536 0 0 0 0 32.86971417875111 -17.32536653592615 0 -17.32536653592615 -34.177906917080691 0 0 0 0 -135.98991437870882 -172.59332195420211 0 -172.59332195420211 134.45670635275746 0 0 0 0 -61.450088874894391 -32.586400604892333 0 -32.586400604892333 -50.170369819955795 0 0 0 0 -98.875807591568446 -41.056306197187951 0 -41.056306197187951 300.97334779639277 0 0 0 0 -201.95053471206847 264.67748844754533 0 264.67748844754533 206.72758035026345 0 0 0 0 -8.4208647490827104 12.690852791665238 0 12.690852791665238 54.43182506253784 0 0 0 0 13.114957228596268 63.726414577908372 0 63.726414577908372 7.9228990663709737 0 0 0 0 -261.44330651736232 -25.616573955908734 0 -25.616573955908734 154.56349749845049 0 0 0 0 -185.68843503110259 -17.552910266102799 0 -17.552910266102799 47.90209188652625 0 0 0 0 14.976294064651938 82.800181298598091 0 82.800181298598091 145.55297939671797 0 0 0 0 -1.396665685233959 4.6444932837496964 0 4.6444932837496964 2.9075881403707875 0 0 0 0 -27.637597633264591 -68.13061020526834 0 -68.13061020526834 243.81219271111695 0 0 0 0 -38.448990080794829 -30.21846741794343 0 -30.21846741794343 160.88558853716461 0 0 0 0 -165.76346146425112 -120.68502041375723 0 -120.68502041375723 423.64829945483143 0 0 0 0 -62.179784172411132 37.25111951527208 0 37.25111951527208 76.433186317541185 0 0 0 0 -20.409275145131915 -43.721619388530257 0 -43.721619388530257 106.00282860748484 0 0 0 0 -58.387303093733863 -11.515865392845626 0 -11.515865392845626 169.81016374290266 0 0 0 0 4.656705712324765 -44.243390357865792 0 -44.243390357865792 63.803804784374734 0 0 0 0 -16.973453414498181 27.009602795813407 0 27.009602795813407 20.926691584650143 0 0 0 0 -65.788572057363581 39.564910772809526 0 39.564910772809526 68.824433324454731 0 0 0 0 -10.309260100211389 10.987611399161253 0 10.987611399161253 47.22411262507142 0 0 0 0 -17.770158977315532 52.206345865708499 0 52.206345865708499 14.944290747727791 0 0 0 0 35.244096367800012 43.578529692149459 0 43.578529692149459 7.5029925226988325 0 0 0 0 -3.527865908946751 18.232168075563095 0 18.232168075563095 5.6989107033077744 0 0 0 0 -7.0228722133406336 62.20058656391484 0 62.20058656391484 86.307652710791444 0 0 0 0 -31.690553337366055 2.2900918416835339 0 2.2900918416835339 121.02850145835873 0 0 0 0 -8.3751186784356833 3.3447737162514386 0 3.3447737162514386 112.25495793556911 0 0 0 0 -31.589753458243194 29.663685482324581 0 29.663685482324581 60.042285462599466 0 0 0 0 -19.490993128385526 -11.939485520808375 0 -11.939485520808375 69.86446987698946 0 0 0 0 -30.58086934387029 -7.5338663037455262 0 -7.5338663037455262 87.217521484950339 0 0 0 0 49.284652295968954 -46.125343159448676 0 -46.125343159448676 47.286432806289277 0 0 0 0 -11.495037695801216 -41.779099706858688 0 -41.779099706858688 138.37823303405094 0 0 0 0 21.385892713449266 -23.148286903709959 0 -23.148286903709959 31.058454571520997 0 0 0 0 24.116747989008672 -30.023662329896979 0 -30.023662329896979 47.277616592263456 0 0 0 0 0.24360562787050455 1.5389773290360154 0 1.5389773290360154 4.9706370890290117 0 0 0 0 -9.184084796431307 -19.996252869947057 0 -19.996252869947057 72.994939614225586 0 0 0 0 -16.939996110023571 -2.5670121255016056 0 -2.5670121255016056 35.130858176737092 0 0 0 0 -26.199358328119615 -0.78666345122746861 0 -0.78666345122746861 70.00542486156337 0 0 0 0 -5.1766044137103862 -0.28545876602345821 0 -0.28545876602345821 37.435554078608604 0 0 0 0 -35.274169300465473 2.4468439607690016 0 2.4468439607690016 69.120955299320485 0 0 0 0 -124.37452769503034 23.751924880956722 0 23.751924880956722 -17.685450570748799 0 0 0 0 -6.8154333823766118 2.9511627979291895 0 2.9511627979291895 27.623465086500953 0 0 0 0 -58.180870763528219 45.677276948013059 0 45.677276948013059 -15.409935105128625 0 0 0 0 -7.6420979444519617 4.7810429679821027 0 4.7810429679821027 33.792416490199685 0 0 0 0 -10.972321819436729 10.964330083600544 0 10.964330083600544 23.236705739953322 0 0 0 0 -13.232005131773235 0.50441910187146277 0 0.50441910187146277 30.01478638298795 0 0 0 0 -2.8145288944878644 8.2409474131766274 0 8.2409474131766274 34.934492438420421 0 0 0 0 -4.147166526719567 -5.1710332162293593 0 -5.1710332162293593 9.320674933003728 0 0 0 0 -4.2427337318631544 8.7313620106233429 0 8.7313620106233429 46.449720216152855 0 0 0 0 0.65058652088328017 0.2940597061169683 0 0.2940597061169683 29.87682141016785 0 0 0 0 -0.61574377466564556 5.3423614911134791 0 5.3423614911134791 45.085513607651592 0 0 0 0 3.4460411576754808 3.8644010984039596 0 3.8644010984039596 31.632568280785563 0 0 0 0 6.9284801282240966 5.8095413081141487 0 5.8095413081141487 37.95437561527433 0 0 0 0 1.0717055123912651 6.904520674235755 0 6.904520674235755 48.627189735774209 0 0 0 0 -2.8839995422420563 -4.9222158567849927 0 -4.9222158567849927 24.306533755900524 0 0 0 0 0.80837878217686243 0.13777894302575078 0 0.13777894302575078 29.175899025001854 0 0 0 0 -1.4826702439346704 -4.4137349584420988 0 -4.4137349584420988 12.263120039691582 0 0 0 0 5.675231971280482 -21.199959314011721 0 -21.199959314011721 29.774078074367935 0 0 0 0 -13.325199943828466 -12.718122292739281 0 -12.718122292739281 26.600123857180733 0 0 0 0 -1.086308178036461 -9.9575539331435721 0 -9.9575539331435721 23.487465571080975 0 0 0 0 -0.12547199576071044 2.0695176930392556 0 2.0695176930392556 7.7983863838664149 0 0 0 0 6.0738154862565352 -11.373553733374138 0 -11.373553733374138 20.010422227243907 0 0 0 0 -27.702061961133495 -8.7120875409855216 0 -8.7120875409855216 6.7127126938321453 0 0 0 0 -42.375826615263577 -16.96899051186665 0 -16.96899051186665 3.6549449465010184 0 0 0 0 -0.80586577993126163 1.5700170523556878 0 1.5700170523556878 2.5499579644497032 0 0 0 0 -3.6340736447132542 -1.7033468191316654 0 -1.7033468191316654 27.019809263132835 0 0 0 0 -7.3395835770309077 1.2422264644155803 0 1.2422264644155803 21.209213353358791 0 0 0 0 -2.8948243699820386 0.94636377507335112 0 0.94636377507335112 20.266389936990681 0 0 0 0 5.9062559984727159 -10.570545038795899 0 -10.570545038795899 19.71463081168622 0 0 0 0 -3.6585399898277755 2.3544859291125384 0 2.3544859291125384 25.540733968301595 0 0 0 0 -10.103155906140898 -1.0256679790795715 0 -1.0256679790795715 20.424812721197668 0 0 0 0 -2.6004417562946687 1.4936265889116349 0 1.4936265889116349 21.559207685840441 0 0 0 0 -74.335764823322734 -37.033421851672756 0 -37.033421851672756 97.159983346951776 0 0 0 0 -2.8268314733929705 1.1210783472365442 0 1.1210783472365442 25.720770373500208 0 0 0 0 -38.38014568894414 42.86873430133528 0 42.86873430133528 16.912789277223055 0 0 0 0 34.544083715855322 -4.5466463657503482 0 -4.5466463657503482 -1.9709140745653713 0 0 0 0 157.96715433318923 39.104971899883822 0 39.104971899883822 2.5259840335638728 0 0 0 0 -40.385709360269175 -7.447945345815242 0 -7.447945345815242 34.28880507265967 0 0 0 0 -18.321726625192696 40.84916979071113 0 40.84916979071113 137.87695114218513 0 0 0 0 0.087549255720310692 0.39908517944369315 0 0.39908517944369315 1.3873796143895021 0 0 0 0 72.843855350034573 -22.465397064270292 0 -22.465397064270292 -30.840668047836516 0 0 0 0 -70.756636293192969 -17.094950343780511 0 -17.094950343780511 148.60689393804751 0 0 0 0 -1.3414790462646238 -3.642198212054609 0 -3.642198212054609 21.19768016208036 0 0 0 0 -1.4217771220353086 -1.3656090991516976 0 -1.3656090991516976 22.427047281123663 0 0 0 0 -0.46613343609322255 1.0837790631197493 0 1.0837790631197493 14.760611353028928 0 0 0 0 -1.8447588353135984 -2.5505842531065355 0 -2.5505842531065355 23.7415392383773 0 0 0 0 -4.1057892308995747 -0.45547322018865088 0 -0.45547322018865088 23.195671001000846 0 0 0 0 0.78651852765244712 -2.894665320817694 0 -2.894665320817694 18.047737824377691 0 0 0 0 0.84235774797163288 -5.1279309059773368 0 -5.1279309059773368 26.835172043921375 0 0 0 0 -1.287641241880074 1.8485920102019691 0 1.8485920102019691 34.994224223719357 0 0 0 0 3.4940797368793106 -0.18946758333640901 0 -0.18946758333640901 22.465832261171187 0 0 0 0 1.7262345697832622 -4.4781896797799163 0 -4.4781896797799163 38.354312179944827 0 0 0 0 7.5969504854087972 6.0535100679230709 0 6.0535100679230709 52.609869598625664 0 0 0 0 20.294038865830771 11.167464499851121 0 11.167464499851121 26.865571409482072 0 0 0 0 -17.208599020619204 6.1515009888416898 0 6.1515009888416898 92.197120993227145 0 0 0 0 -0.070144127380629584 -0.047487408063844327 0 -0.047487408063844327 0.21523712469852541 0 0 0 0 12.956355410560718 14.045519526967837 0 14.045519526967837 28.609875466383528 0 0 0 0 -4.3850399796820057 3.8435117461485788 0 3.8435117461485788 21.490832084027716 0 0 0 0 12.889528672180631 15.295269140281562 0 15.295269140281562 20.018421715503791 0 0 0 0 -3.0766091897353363 3.2705451795463887 0 3.2705451795463887 27.676961813082016 0 0 0 0 9.3265582987392008 16.573365932988963 0 16.573365932988963 41.254737426650536 0 0 0 0 -8.7951923900427573 11.302731888750714 0 11.302731888750714 23.244849970968062 0 0 0 0 -26.807779593737905 -8.0329914137091691 0 -8.0329914137091691 35.694424846879883 0 0 0 0 -14.334295045961426 13.161780087069928 0 13.161780087069928 20.281823063487536 0 0 0 0 -30.915192625037889 -1.6514607106582844 0 -1.6514607106582844 14.994075579636046 0 0 0 0 -32.989656217115225 4.2105403743553325 0 4.2105403743553325 27.147367936744558 0 0 0 0 -33.508819506977943 -0.31289384448609781 0 -0.31289384448609781 19.809227124431345 0 0 0 0 -43.485720872178717 12.289220063092216 0 12.289220063092216 8.3396348686328565 0 0 0 0 -40.654509808322473 2.485885647318355 0 2.485885647318355 15.408164306216349 0 0 0 0 -46.519293719489724 5.7248693036344775 0 5.7248693036344775 22.703981329010276 0 0 0 0 -56.378252610923482 -7.2992973321797763 0 -7.2992973321797763 23.514873812195219 0 0 0 0 -42.398118197046188 3.8663444306348538 0 3.8663444306348538 21.680826337174949 0 0 0 0 -161.71700699656139 -21.039508781230325 0 -21.039508781230325 132.59274561102211 0 0 0 0 -38.174609245387728 54.002625124106999 0 54.002625124106999 126.25344131123734 0 0 0 0 -54.477443739775481 -47.720044701351071 0 -47.720044701351071 23.46486082364936 0 0 0 0 22.183635534345399 55.59613299554394 0 55.59613299554394 49.919529058039188 0 0 0 0 -6.4134127412589805 17.280744905347092 0 17.280744905347092 4.9709460070880596 0 0 0 0 -9.0686664035680451 34.244121135360501 0 34.244121135360501 63.725493805664883 0 0 0 0 -34.938555495506989 3.4590997733212134 0 3.4590997733212134 33.47091764463039 0 0 0 0 -70.246495189495363 14.878398363875021 0 14.878398363875021 78.746187318785815 0 0 0 0 -16.56348376989763 -17.966163767581747 0 -17.966163767581747 35.484311812240776 0 0 0 0 -60.47019585560156 -16.395814173231429 0 -16.395814173231429 60.669314632617898 0 0 0 0 -22.098460000514024 -15.286036279605469 0 -15.286036279605469 59.51718370267281 0 0 0 0 -32.02087259742575 4.3714279451905895 0 4.3714279451905895 6.3918523994943826 0 0 0 0 -30.58325146081097 -17.055223282208317 0 -17.055223282208317 52.145072827788681 0 0 0 0 2.1489412388345954 -4.6736078464036837 0 -4.6736078464036837 49.017155058990284 0 0 0 0 -6.3389864874698105 7.0908051533242542 0 7.0908051533242542 45.561226500456542 0 0 0 0 -28.025341714690967 -21.667676880459112 0 -21.667676880459112 58.331156415042642 0 0 0 0 0.21176713394288527 -39.046368431787414 0 -39.046368431787414 61.686814949875043 0 0 0 0 -6.9536409111160538 -14.481879456194292 0 -14.481879456194292 54.888382854573138 0 0 0 0 0.045262117077860875 0.16637827795964277 0 0.16637827795964277 0.56447084931714642 0 0 0 0 62.509701147020678 -67.585163975285468 0 -67.585163975285468 59.693615626018072 0 0 0 0 21.90338805304782 -22.075340308398154 0 -22.075340308398154 13.316150199349067 0 0 0 0 -3.3520996867259782 -29.445191344915202 0 -29.445191344915202 115.9472591197773 0 0 0 0 48.946746649328816 -24.108791325390484 0 -24.108791325390484 71.677755372331376 0 0 0 0 21.514041862373688 18.183508119260296 0 18.183508119260296 75.991268466637848 0 0 0 0 -8.4777780745221207 -5.712483600384985 0 -5.712483600384985 20.872132026257532 0 0 0 0 2.6620735091200913 -14.977425996672309 0 -14.977425996672309 17.162032652322523 0 0 0 0 -0.60342563337302879 -1.6874105498711671 0 -1.6874105498711671 1.7991397171944072 0 0 0 0 8.5628457352090663 -14.476661158694696 0 -14.476661158694696 12.709297797977342 0 0 0 0 -2.4964579563788902 -12.146502686720851 0 -12.146502686720851 21.528440802074329 0 0 0 0 -1.0178370376608346 -6.7798246125577251 0 -6.7798246125577251 -0.27526448407237325 0 0 0 0 -5.5158742770395293 -7.8402264020533039 0 -7.8402264020533039 19.142012229038301 0 0 0 0 -13.763327426790738 -9.3638336018830159 0 -9.3638336018830159 27.395371015780256 0 0 0 0 -9.5864454178226879 -16.60395522746694 0 -16.60395522746694 35.065690370451193 0 0 0 0 -32.148408298877712 -8.658049007794034 0 -8.658049007794034 24.936698802637693 0 0 0 0 -17.50728528909076 -3.2289485676847107 0 -3.2289485676847107 35.866110293734891 0 0 0 0 -15.200629772189131 -8.3653687211408396 0 -8.3653687211408396 7.0988768288736992 0 0 0 0 -17.708491980724375 -10.608768020367279 0 -10.608768020367279 29.885680681940357 0 0 0 0 -13.221377459241012 -11.314808324004844 0 -11.314808324004844 18.931480084789655 0 0 0 0 -4.0063725519390232 -8.1118548939912216 0 -8.1118548939912216 16.860705099750703 0 0 0 0 -14.058145707231915 -7.5053031174466014 0 -7.5053031174466014 18.291277630635705 0 0 0 0 -10.530935126435391 -6.6709344528094903 0 -6.6709344528094903 1.6602042803884398 0 0 0 0 -2.5471850766178856 -0.78036893459972134 0 -0.78036893459972134 -0.17479909032004315 0 0 0 0 -13.568466006446442 5.1725427194014628 0 5.1725427194014628 14.358541885685554 0 0 0 0 -1.8077638919576202 -8.7347141258360352 0 -8.7347141258360352 15.728670294536641 0 0 0 0 -3.5919341576640136 -9.031632600975172 0 -9.031632600975172 18.475689587874513 0 0 0 0 14.161662722126977 -9.2702092098841149 0 -9.2702092098841149 -0.14941072279179934 0 0 0 0 -11.424838258953514 -17.045072965133841 0 -17.045072965133841 55.180910526956723 0 0 0 0 8.2463210396597333 -26.940161628033366 0 -26.940161628033366 32.807801517497865 0 0 0 0 -4.4410825276968353 -9.9166213567341401 0 -9.9166213567341401 33.806229641755635 0 0 0 0 -8.7977302142056715 -14.32186573513718 0 -14.32186573513718 42.897167374773744 0 0 0 0 -0.5759161067204559 -14.053061867046154 0 -14.053061867046154 23.330561364098685 0 0 0 0 -11.166550021010153 -3.1925024766778733 0 -3.1925024766778733 39.642036375503267 0 0 0 0 -4.4878514129012785 -10.715503496326846 0 -10.715503496326846 24.608599821705866 0 0 0 0 -17.353159771573729 -0.1650784124758502 0 -0.1650784124758502 28.816433015825169 0 0 0 0 -2.0494813917676926 -5.6364208561187352 0 -5.6364208561187352 29.945200163321331 0 0 0 0 -2.467169882784674 -10.76976190430014 0 -10.76976190430014 24.207980668814344 0 0 0 0 -1.8768219016708061 -7.0457133678837787 0 -7.0457133678837787 21.222401160260176 0 0 0 0 -1.8873618712314055 -1.9494726444636399 0 -1.9494726444636399 34.152850664171638 0 0 0 0 -1.7736454864999756 0.45788085241277088 0 0.45788085241277088 5.8267928280595305 0 0 0 0 -1.957477478007263 -1.890252961020451 0 -1.890252961020451 34.106598448272052 0 0 0 0 -2.0361057909942701 -1.8713290252853767 0 -1.8713290252853767 34.180598382472454 0 0 0 0 -7.2271197585794198 -0.86337840494161355 0 -0.86337840494161355 42.836249606229785 0 0 0 0 3.8224589150198085 -5.8905346220653882 0 -5.8905346220653882 25.361127339751874 0 0 0 0 -4.1386996098900974 2.6494206008469305 0 2.6494206008469305 24.221279822136076 0 0 0 0 -0.059938345263370163 -0.96808126703707487 0 -0.96808126703707487 8.5655228433475852 0 0 0 0 -0.67346918465571326 -4.9880576316102498 0 -4.9880576316102498 7.3737627221111239 0 0 0 0 -0.72820094588269058 1.8802712341325787 0 1.8802712341325787 33.450781695105434 0 0 0 0 -2.0113750880441899 -1.942272978044457 0 -1.942272978044457 34.262967181191925 0 0 0 0 -0.94853048105568716 -0.14298091390821099 0 -0.14298091390821099 6.7175579119647821 0 0 0 0 -9.665864567175646 -1.2157224580298589 0 -1.2157224580298589 33.995629153316258 0 0 0 0 -6.5101089978717823 -0.24849130056463764 0 -0.24849130056463764 34.065158603484178 0 0 0 0 -2.9944565379554158 -4.3123360936008019 0 -4.3123360936008019 4.7094497713083001 0 0 0 0 -37.139578100001927 -47.056094699093592 0 -47.056094699093592 10.960235476406524 0 0 0 0 -3.3501373466670339 -1.2611208355030659 0 -1.2611208355030659 24.791922120709444 0 0 0 0 -10.626447985484589 -4.4347829472101239 0 -4.4347829472101239 34.0775838902955 0 0 0 0 -7.1453781310324302 -4.7642884911492729 0 -4.7642884911492729 32.90352090325905 0 0 0 0 -12.554924138647266 -4.7344198123191745 0 -4.7344198123191745 6.1670731733611319 0 0 0 0 -8.9069143684055572 -4.495514088229374 0 -4.495514088229374 17.149568101526128 0 0 0 0 -7.4683960559097411 -2.1969842409376703 0 -2.1969842409376703 14.833002613190331 0 0 0 0 -4.3699650216273689 1.6602900106573202 0 1.6602900106573202 33.019126296669128 0 0 0 0 -6.817474916689207 5.2384667229198385 0 5.2384667229198385 0.55285982222994789 0 0 0 0 -9.4172785958535705 3.1680695770668237 0 3.1680695770668237 22.680645638587151 0 0 0 0 -5.4856735759054915 1.0500212446207868 0 1.0500212446207868 3.8282084816638369 0 0 0 0 -7.0657753653339341 -1.8574775456745556 0 -1.8574775456745556 38.615887461922284 0 0 0 0 -13.018244099456297 -8.5955228650727804 0 -8.5955228650727804 6.804238229735347 0 0 0 0 -1.9132075869289338 -2.202767879212729 0 -2.202767879212729 34.651666622827179 0 0 0 0 -2.4862410575406102 -13.802876414389175 0 -13.802876414389175 7.8240650939551415 0 0 0 0 -27.991745706334882 -11.967934117858931 0 -11.967934117858931 17.204787714341364 0 0 0 0 -1.9407314579106658 -0.60675623829191938 0 -0.60675623829191938 13.701444406289291 0 0 0 0 -19.794193324492767 -0.70541638060967671 0 -0.70541638060967671 22.360282747691599 0 0 0 0 -3.9163690836769547 -15.428869003445925 0 -15.428869003445925 -3.7387690726682195 0 0 0 0 -13.893982108609407 42.822479600688894 0 42.822479600688894 72.746845352865421 0 0 0 0 7.6490125664943207 6.731576615477934 0 6.731576615477934 20.557364435700947 0 0 0 0 13.862035790387836 -28.098787199705839 0 -28.098787199705839 101.5286779558719 0 0 0 0 62.91672999651496 1.0097093559988934 0 1.0097093559988934 6.2182079168992459 0 0 0 0 19.3403886635258 6.0766313766989697 0 6.0766313766989697 -14.525812483158234 0 0 0 0 -28.72926109179889 55.910963913759588 0 55.910963913759588 21.591680076675402 0 0 0 0 -13.463095265948596 4.8826041435595471 0 4.8826041435595471 13.452062632655725 0 0 0 0 -3.0762647242010952 4.781899140264688 0 4.781899140264688 26.932563137750641 0 0 0 0 28.845420241495503 53.949724530028107 0 53.949724530028107 10.121764643553433 0 0 0 0 -112.14605439749221 -114.10806025753982 0 -114.10806025753982 221.66581512883977 0 0 0 0 333.05621486615746 90.583716210443527 0 90.583716210443527 -50.037073769266499 0 0 0 0 -38.105776976704533 8.6337216451599943 0 8.6337216451599943 20.829804607524693 0 0 0 0 -41.548554693714777 7.6150589264129849 0 7.6150589264129849 23.976001480484683 0 0 0 0 26.64875648693328 -197.19804980444951 0 -197.19804980444951 316.61058306710947 0 0 0 0 0.12594033640197516 -0.45106892726962666 0 -0.45106892726962666 3.4502848077046231 0 0 0 0 14.623981968219937 82.192856412080118 0 82.192856412080118 55.352377593358142 0 0 0 0 6.044881410156222 79.635184893306587 0 79.635184893306587 109.56655556995247 0 0 0 0 -1.5273824375437117 0.48678805448332874 0 0.48678805448332874 1.6526872079271291 0 0 0 0 55.25093968895635 169.41795293778955 0 169.41795293778955 54.701481873444209 0 0 0 0 66.395293261160077 -0.31147684047436996 0 -0.31147684047436996 -0.23418858039258339 0 0 0 0 125.54568900749405 -60.47243945935179 0 -60.47243945935179 16.193367583955478 0 0 0 0 -40.533908151428705 -61.112013337291501 0 -61.112013337291501 61.989563482388803 0 0 0 0 -119.52393317982251 13.982932905679263 0 13.982932905679263 85.71381552121602 0 0 0 0 -35.811688990470202 -18.729697545641102 0 -18.729697545641102 -27.241094102088027 0 0 0 0 93.990541945708173 -90.80165756221686 0 -90.80165756221686 68.54070897049678 0 0 0 0 3.5786510256960042 -5.3572386747408132 0 -5.3572386747408132 5.5477317758443405 0 0 0 0 -2.3251785027546532 -12.427883386924464 0 -12.427883386924464 10.014500673119574 0 0 0 0 2.4938425974357497 -5.1248330465923324 0 -5.1248330465923324 8.7129044478357489 0 0 0 0 27.906667332873212 23.128108803140549 0 23.128108803140549 71.227369793461548 0 0 0 0 3.4338005085079431 -8.3526982557471001 0 -8.3526982557471001 2.2300560450370313 0 0 0 0 2.3511544938887896 -2.7291695379550651 0 -2.7291695379550651 3.6236105138099299 0 0 0 0 0.35713963378926405 -0.5714634334212807 0 -0.5714634334212807 1.6510862369052894 0 0 0 0 10.19711089602356 -6.7133536702342553 0 -6.7133536702342553 6.5165276240427374 0 0 0 0 110.59510039086268 107.61619635010481 0 107.61619635010481 56.457383475921233 0 0 0 0 -37.063804767259313 35.921008954992999 0 35.921008954992999 151.51448898994659 0 0 0 0 84.680990055446699 121.21743242159801 0 121.21743242159801 65.911369912603732 0 0 0 0 40.867762424313241 -19.270843821492235 0 -19.270843821492235 40.992003571155237 0 0 0 0 -14.680761907519013 -16.739190696078367 0 -16.739190696078367 18.401014625589596 0 0 0 0 -3.3543730025892273 -13.927017451876509 0 -13.927017451876509 13.460744059639183 0 0 0 0 -7.1721377716728512 -20.622082840768144 0 -20.622082840768144 1.7371008395475656 0 0 0 0 -95.506026185161318 2.7741224702742784 0 2.7741224702742784 73.093654891929873 0 0 0 0 0.091136760185063281 -0.9316252625066852 0 -0.9316252625066852 9.9528270968373391 0 0 0 0 33.704413483416602 25.43297524267939 0 25.43297524267939 2.2396116210074979 0 0 0 0 -13.775577807382888 -7.0187604873838723 0 -7.0187604873838723 -0.74252901834324803 0 0 0 0 -11.154343237986268 -11.602372715724414 0 -11.602372715724414 23.198120706505506 0 0 0 0 -1.03192444539593 -0.39640052204731546 0 -0.39640052204731546 17.132265202076269 0 0 0 0 -4.09894747056771 -1.134821130306424 0 -1.134821130306424 27.175001977162538 0 0 0 0 -13.182324710256808 2.0895100979155359 0 2.0895100979155359 26.263238021489997 0 0 0 0 -5.7791978134941795 -1.8790312832055136 0 -1.8790312832055136 8.2696001609379444 0 0 0 0 -2.1324274058550827 -3.5005300368301278 0 -3.5005300368301278 23.313903161008056 0 0 0 0 -10.733830679434107 -1.1209403822099375 0 -1.1209403822099375 28.378855727465634 0 0 0 0 -1.6422551632261706 1.2610205237590733 0 1.2610205237590733 25.54341255592378 0 0 0 0 -54.298790551810498 56.102415456127119 0 56.102415456127119 -21.176663734767999 0 0 0 0 -16.975660531191352 -7.4041248627768255 0 -7.4041248627768255 26.978640389008433 0 0 0 0 -1.3708958834034157 -2.036535150593445 0 -2.036535150593445 15.57986329626906 0 0 0 0 -66.063072762620095 -23.986984105154079 0 -23.986984105154079 30.137358273751488 0 0 0 0 -1.5299177408143079 1.3360961163233176 0 1.3360961163233176 4.9087433838785994 0 0 0 0 -59.191300751014865 -68.689301641054044 0 -68.689301641054044 -30.910251378764315 0 0 0 0 -119.49265507335554 6.704460422563443 0 6.704460422563443 37.462660432333564 0 0 0 0 -5.1848885875077713 113.8566610814928 0 113.8566610814928 -31.414567932672981 0 0 0 0 48.005143543800841 60.615586371705604 0 60.615586371705604 8.5633145357728608 0 0 0 0 -27.759526177120165 2.88874256023405 0 2.88874256023405 -33.811480804855364 0 0 0 0 67.024455273795184 57.490682872556363 0 57.490682872556363 -99.813556107504155 0 0 0 0 -116.77762606097521 54.977322987656351 0 54.977322987656351 23.960659887344264 0 0 0 0 -100.73635704512844 82.466860708525587 0 82.466860708525587 5.8323867612416507 0 0 0 0 103.061547327992 47.594147286428097 0 47.594147286428097 -41.541849416145851 0 0 0 0 -2.8617750656631529 51.381771252968292 0 51.381771252968292 20.93490922917772 0 0 0 0 153.71669353063794 5.7755744000453433 0 5.7755744000453433 -44.035360402632705 0 0 0 0 -139.2148830932716 113.8004689866131 0 113.8004689866131 -9.169520514154101 0 0 0 0 -142.54164657069555 152.48177508317326 0 152.48177508317326 -83.118963099490657 0 0 0 0 0.86618636883031286 60.546520471346412 0 60.546520471346412 -19.882509574958249 0 0 0 0 -285.00631836704247 81.298102057952974 0 81.298102057952974 30.927027913315214 0 0 0 0 -1.3842356079324123 2.048888865496997 0 2.048888865496997 21.549738839076241 0 0 0 0 -21.557547396832433 4.5911980442060667 0 4.5911980442060667 41.62724056083789 0 0 0 0 2.6110487551533197 9.5340852375957184 0 9.5340852375957184 4.6224166501524451 0 0 0 0 -1.0105627842347644 2.1254984939841961 0 2.1254984939841961 59.785378312635657 0 0 0 0 -0.66075481986208251 0.25643833145624839 0 0.25643833145624839 0.089456392121185502 0 0 0 0 -3.3095967320272166 13.785805573563266 0 13.785805573563266 46.433345774234112 0 0 0 0 -2.0983062664831493 12.460278719346661 0 12.460278719346661 22.205890990830085 0 0 0 0 0.11493919309515377 6.6445131693685653 0 6.6445131693685653 25.631792528238293 0 0 0 0 -2.4288476889895492 2.6039188056038256 0 2.6039188056038256 30.624209972813333 0 0 0 0 -3.8863754931289805 -4.6204778327969507 0 -4.6204778327969507 14.456191609577218 0 0 0 0 17.470126666785745 4.0636009768827535 0 4.0636009768827535 69.07890796709728 0 0 0 0 17.017879742303649 -10.834657637998816 0 -10.834657637998816 43.032448457596729 0 0 0 0 30.620725987764303 7.5703082586374819 0 7.5703082586374819 55.900157763532206 0 0 0 0 7.3837119988468203 -5.8791919055761355 0 -5.8791919055761355 82.672907470780046 0 0 0 0 28.753106601105799 18.142136008270057 0 18.142136008270057 63.840376067935722 0 0 0 0 57.926352827466417 -59.444767219981259 0 -59.444767219981259 206.88153989033037 0 0 0 0 144.68831779597895 -78.46542432692786 0 -78.46542432692786 97.615648805122419 0 0 0 0 188.77045392555897 -4.7550763668671152 0 -4.7550763668671152 -11.910871784938308 0 0 0 0 96.230114509116447 6.3156694124991191 0 6.3156694124991191 8.1835226054379291 0 0 0 0 0.014263885479017809 0.20729266783743006 0 0.20729266783743006 -0.060954618043561837 0 0 0 0 164.4659686190472 26.746690513560793 0 26.746690513560793 -41.372966988600183 0 0 0 0 72.187918312067239 26.284624528575691 0 26.284624528575691 4.4147743771300156 0 0 0 0 51.821955304380936 63.977401740792857 0 63.977401740792857 -10.332899174153795 0 0 0 0 15.90116314226043 -6.5567973101873349 0 -6.5567973101873349 -7.46156871814037 0 0 0 0 1.0010564255148529 -0.25628242047718919 0 -0.25628242047718919 0.081584921485127637 0 0 0 0 28.25809087009884 -6.9752500292241848 0 -6.9752500292241848 -15.779084492719448 0 0 0 0 -2.1340408192122595 -20.326658238241635 0 -20.326658238241635 -11.566608619511499 0 0 0 0 35.630850739224641 -14.625078991680482 0 -14.625078991680482 18.916491282177049 0 0 0 0 21.270511469361736 3.3263897651249863 0 3.3263897651249863 1.767828874200859 0 0 0 0 16.156138390723982 5.9217698501286122 0 5.9217698501286122 17.067876305906793 0 0 0 0 13.348492974833789 -15.378514633277973 0 -15.378514633277973 10.172310570984337 0 0 0 0 19.565754043500874 -7.8237350294953103 0 -7.8237350294953103 -29.823250093797014 0 0 0 0 12.636735063827977 -8.3907041273317873 0 -8.3907041273317873 5.0543868208581291 0 0 0 0 19.678266818009888 -19.623942441508461 0 -19.623942441508461 -28.690078002281837 0 0 0 0 4.3792313721863945 -1.8002252789092008 0 -1.8002252789092008 -2.1244702082564793 0 0 0 0 -27.22080925812952 -21.185631999579812 0 -21.185631999579812 9.1770363225671474 0 0 0 0 -11.383717171318892 -58.703464363359522 0 -58.703464363359522 -27.06675504485343 0 0 0 0 5.874048940206448 -4.4574029400615212 0 -4.4574029400615212 3.4367090458332017 0 0 0 0 15.581042101281014 -7.3371249944568717 0 -7.3371249944568717 -3.9882488705711694 0 0 0 0 5.4960141148364983 -5.3761416091861065 0 -5.3761416091861065 4.0687779875443084 0 0 0 0 -31.777003065834379 -28.678629401313287 0 -28.678629401313287 9.5747652923708984 0 0 0 0 5.3598092857616333 -5.8415437638295771 0 -5.8415437638295771 4.5279529166221035 0 0 0 0 -16.13989017341828 -20.797870737708195 0 -20.797870737708195 5.7050545632773151 0 0 0 0 -23.57001258096625 -28.570422339901597 0 -28.570422339901597 5.084214506100011 0 0 0 0 -11.956903614248859 21.593504299071128 0 21.593504299071128 120.64181055819631 0 0 0 0 63.033968606191252 40.342025953653433 0 40.342025953653433 31.00760538084478 0 0 0 0 5.7793176882489661 -4.7435072687292461 0 -4.7435072687292461 5.3157508502611108 0 0 0 0 5.4798421782079458 -5.0247113438171027 0 -5.0247113438171027 -1.1744385574763783 0 0 0 0 1.6593982972571477 -3.0285659379011411 0 -3.0285659379011411 2.3285803191770413 0 0 0 0 7.6155971136536209 6.0800217052646985 0 6.0800217052646985 14.905811566775469 0 0 0 0 3.0313068875071707 -3.0026306192919971 0 -3.0026306192919971 2.2841552314272828 0 0 0 0 5.4283904752516605 -1.2618139212248707 0 -1.2618139212248707 1.6988681761815769 0 0 0 0 2.9691922649646472 -1.8343538686079341 0 -1.8343538686079341 5.4433663383217663 0 0 0 0 4.4676887578854121 -2.5236905879523377 0 -2.5236905879523377 3.3243034835921321 0 0 0 0 1.3032464565806687 -2.8131382218032837 0 -2.8131382218032837 4.5790986471930086 0 0 0 0 5.6007153854422427 -3.2411081853675796 0 -3.2411081853675796 5.4715459586054749 0 0 0 0 1.6646640106883146 -5.08188304594277 0 -5.08188304594277 4.5315553106630135 0 0 0 0 -1.0562136796849018 -2.0024903511109642 0 -2.0024903511109642 9.6364875531002099 0 0 0 0 4.624824509392397 -1.823851335508607 0 -1.823851335508607 9.4882136999879094 0 0 0 0 4.8281369120621811 -3.3460369076658409 0 -3.3460369076658409 6.3754261406184014 0 0 0 0 -5.9058827441692756 3.5023187898565311 0 3.5023187898565311 8.1004802415257871 0 0 0 0 -11.546980953505681 9.5647039091219312 0 9.5647039091219312 28.073080585807929 0 0 0 0 1.9118166212993479 -4.5934873151881668 0 -4.5934873151881668 4.4841137881807898 0 0 0 0 -24.769220348700287 -10.134391705357643 0 -10.134391705357643 17.42057546844012 0 0 0 0 -5.9666893207609348 -1.0545054020261793 0 -1.0545054020261793 4.0817673186952383 0 0 0 0 -10.952651259860431 5.2729682491083167 0 5.2729682491083167 13.963004805686865 0 0 0 0 -24.493963684858528 -18.955420846552869 0 -18.955420846552869 9.7523972168241926 0 0 0 0 -25.398159089227306 -19.280477674559506 0 -19.280477674559506 -2.5047732581829223 0 0 0 0 -23.737951015221384 -24.421532648693102 0 -24.421532648693102 8.4430530128474857 0 0 0 0 -23.361840001851533 -18.139494281996122 0 -18.139494281996122 7.6639751638018652 0 0 0 0 -37.327394161415768 -5.4477317317240477 0 -5.4477317317240477 18.831633868240715 0 0 0 0 -35.821046168022576 -23.398199645202112 0 -23.398199645202112 12.601418010971429 0 0 0 0 -30.675514085161922 -22.735339508521065 0 -22.735339508521065 -9.3100476574272761 0 0 0 0 -27.245697892915814 -13.5857558408984 0 -13.5857558408984 15.094610868496602 0 0 0 0 -59.647433689404807 -3.9552236786475987 0 -3.9552236786475987 11.481477605521832 0 0 0 0 -22.520950037273224 -17.356389576589663 0 -17.356389576589663 16.378578509576982 0 0 0 0 -11.492842676866985 -6.4447800474822543 0 -6.4447800474822543 22.241359400981764 0 0 0 0 -13.705057219905939 -19.27104041104144 0 -19.27104041104144 9.7128727299786988 0 0 0 0 -21.36150335996706 -23.218796860460998 0 -23.218796860460998 18.465918569412224 0 0 0 0 0.039361292615502919 -0.21571389999284474 0 -0.21571389999284474 1.0141282361376052 0 0 0 0 -1.0369735783219198 -2.4802210921504866 0 -2.4802210921504866 51.9995762275978 0 0 0 0 8.1735522681545945 2.309212992255766 0 2.309212992255766 6.6186230294904362 0 0 0 0 15.209122621112869 -2.0074982720777257 0 -2.0074982720777257 5.0104965125162835 0 0 0 0 -24.816804787718866 -12.337209095544722 0 -12.337209095544722 11.773101288061298 0 0 0 0 -1.7839645857239355 -2.589516861225543 0 -2.589516861225543 15.658916444772798 0 0 0 0 -0.58391566008781548 0.6434369363283412 0 0.6434369363283412 0.64590175045687381 0 0 0 0 -6.0426686356905748 0.41898432967968802 0 0.41898432967968802 -0.32088570709925079 0 0 0 0 -8.3596098993332362 -4.6268469003351811 0 -4.6268469003351811 4.2084767505734249 0 0 0 0 -7.8403988733034709 0.27217605932064304 0 0.27217605932064304 9.5166536006737186 0 0 0 0 -1.3912242466272475 -2.315203210545012 0 -2.315203210545012 5.916587568335939 0 0 0 0 3.5693365411037936 -8.32363539095706 0 -8.32363539095706 3.2859481260589813 0 0 0 0 -14.264629382399644 -6.9647101081109701 0 -6.9647101081109701 40.970191962755052 0 0 0 0 7.3273661422822443 -7.8080479401913863 0 -7.8080479401913863 -0.5093372168487349 0 0 0 0 -85.366807526191678 -0.27107591758613125 0 -0.27107591758613125 32.332431152599383 0 0 0 0 -0.50033508222285272 -1.5144067298088748 0 -1.5144067298088748 2.7731091992523913 0 0 0 0 -69.494410293103101 -44.916579155505133 0 -44.916579155505133 -10.162524971137145 0 0 0 0 -0.21532951018417634 -23.574069148393505 0 -23.574069148393505 47.846269625894564 0 0 0 0 -12.837272848724012 -0.43960063294298379 0 -0.43960063294298379 55.711911526038648 0 0 0 0 21.675787520530776 -13.385073457448016 0 -13.385073457448016 -0.25433983287587125 0 0 0 0 -3.0330913975862757 -45.646405770553088 0 -45.646405770553088 85.44033428056855 0 0 0 0 -18.459196435249225 15.175493833688165 0 15.175493833688165 53.345652375907775 0 0 0 0 19.638283690914363 -34.277809177018071 0 -34.277809177018071 16.099000150715938 0 0 0 0 -0.078840761158744499 -6.9991122505375643 0 -6.9991122505375643 6.5272729403859557 0 0 0 0 1.3151691153449747 -3.3958312204184962 0 -3.3958312204184962 -0.10403501621871314 0 0 0 0 -57.862044879964238 -27.999973098009818 0 -27.999973098009818 11.120782525214963 0 0 0 0 -3.0043742971728875 1.8767925976681887 0 1.8767925976681887 29.016077769363051 0 0 0 0 -8.9487403874622942 -3.7523835241574091 0 -3.7523835241574091 48.272389003119642 0 0 0 0 -3.5005358846325407 0.80280412285356562 0 0.80280412285356562 30.834111639687279 0 0 0 0 -5.9659594772786901 4.5562183924569917 0 4.5562183924569917 2.292162997306511 0 0 0 0 -18.057741519787669 -6.3907537833207471 0 -6.3907537833207471 39.811247639732755 0 0 0 0 -7.8619257260197344 12.417601061946215 0 12.417601061946215 54.309362177973981 0 0 0 0 -24.844702596216166 6.7430541225203342 0 6.7430541225203342 35.971604427848888 0 0 0 0 -1.9711755296273168 -9.1025993125106197 0 -9.1025993125106197 45.33437104805671 0 0 0 0 -16.921943159942202 -8.1607124670817939 0 -8.1607124670817939 3.4582700284777275 0 0 0 0 -42.372626082061743 -32.56839565471364 0 -32.56839565471364 11.897902326676558 0 0 0 0 -35.90884204344303 -16.648869553577697 0 -16.648869553577697 110.28020554332466 0 0 0 0 -5.9672953424443422 4.6218992407614241 0 4.6218992407614241 3.1229511379290162 0 0 0 0 -12.199173002599139 9.5640926729604416 0 9.5640926729604416 64.052588043455671 0 0 0 0 -4.9952135253269931 5.0641901656355257 0 5.0641901656355257 2.8169676847565706 0 0 0 0 4.5343374434755219 -11.200419507981429 0 -11.200419507981429 31.257481231590248 0 0 0 0 4.6937919175392011 1.8120772216973826 0 1.8120772216973826 15.720150325756521 0 0 0 0 4.6044260921058324 2.3290089966189997 0 2.3290089966189997 21.074778165611519 0 0 0 0 -0.97595318582461354 -0.11246065442723044 0 -0.11246065442723044 0.12369611025693349 0 0 0 0 -22.536162483021599 -0.66126595940074395 0 -0.66126595940074395 22.684268052851714 0 0 0 0 -13.101057112457283 9.2881542545067362 0 9.2881542545067362 13.419859563404003 0 0 0 0 -42.123994894834141 7.3120848623651113 0 7.3120848623651113 44.720039592182815 0 0 0 0 16.906509747340124 -6.1611461226441691 0 -6.1611461226441691 -1.4375142404315397 0 0 0 0 -23.602740330312997 -21.637802674336449 0 -21.637802674336449 -1.0037024352471065 0 0 0 0 -0.030643449996659911 5.5896443221464267 0 5.5896443221464267 40.745605185333098 0 0 0 0 -0.21955704291881428 0.15782542702743962 0 0.15782542702743962 -0.55816679204474484 0 0 0 0 -3.0706191941802672 4.0022614979098989 0 4.0022614979098989 24.356007166246044 0 0 0 0 1.9524552712723562 9.2637908865174126 0 9.2637908865174126 29.835825736637645 0 0 0 0 -1.4563467112529862 0.11800559290501378 0 0.11800559290501378 4.629506613171559 0 0 0 0 -18.572352537437382 -3.2792110484650898 0 -3.2792110484650898 26.53239598460101 0 0 0 0 -7.5267097079756695 -12.751609506376834 0 -12.751609506376834 0.45295083581373063 0 0 0 0 3.5176025587279582 -4.1291588320235562 0 -4.1291588320235562 6.2675659636247936 0 0 0 0 -0.3894582353629481 -0.081849634910642455 0 -0.081849634910642455 0.058312753555915989 0 0 0 0 -12.006209137787891 9.6159320117782592 0 9.6159320117782592 47.63219245316008 0 0 0 0 -1.6576669010460137 0.62873686750560864 0 0.62873686750560864 25.692102026791801 0 0 0 0 -11.013640244836097 1.218010393875204 0 1.218010393875204 50.055741811144593 0 0 0 0 9.8982532146811764 -9.3759787530260219 0 -9.3759787530260219 3.3071327192042759 0 0 0 0 -37.237318436953274 -0.18205947810264256 0 -0.18205947810264256 89.069297538534812 0 0 0 0 -13.587624107271949 10.64329002702209 0 10.64329002702209 48.567732731459927 0 0 0 0 -11.852935294916733 -8.7592056175814932 0 -8.7592056175814932 20.147200721010606 0 0 0 0 -1.5669591890954253 -1.9461079948746551 0 -1.9461079948746551 6.5890152397673303 0 0 0 0 -4.7307093326676295 1.5605007008338134 0 1.5605007008338134 13.551709724645207 0 0 0 0 -2.486006835502959 -0.75644849317571117 0 -0.75644849317571117 12.707282055020656 0 0 0 0 -10.91245773711421 -1.8149727532309967 0 -1.8149727532309967 26.078633685574914 0 0 0 0 -3.6355254317736891 1.6467397777020196 0 1.6467397777020196 10.849971198768195 0 0 0 0 -2.5127747655513986 -0.39226566155871723 0 -0.39226566155871723 11.354189187393416 0 0 0 0 -10.164803374445 4.9321418819896579 0 4.9321418819896579 14.479064293656464 0 0 0 0 -7.0527665869253724 2.9823494113866929 0 2.9823494113866929 26.205114612650327 0 0 0 0 -1.2566146429964533 -1.4727426865261677 0 -1.4727426865261677 15.231981992492337 0 0 0 0 0.83423760954383397 5.4942681664399089 0 5.4942681664399089 22.774242360999011 0 0 0 0 -3.4289092329697723 0.50860674582543908 0 0.50860674582543908 15.374267125581987 0 0 0 0 -6.4405177980978578 -5.6272404359760095 0 -5.6272404359760095 26.924272960568629 0 0 0 0 4.0610115927487414 3.9781738027314617 0 3.9781738027314617 27.949782505909354 0 0 0 0 9.8401927242828151 6.0847235461458595 0 6.0847235461458595 35.892289390285995 0 0 0 0 -7.4820306719182099 1.4595678119061972 0 1.4595678119061972 47.613768874666633 0 0 0 0 -7.1914519521833427 0.40110122962055783 0 0.40110122962055783 34.239180650576145 0 0 0 0 -13.314591698235034 -21.732749600974671 0 -21.732749600974671 12.754602913197232 0 0 0 0 -4.6442988058965966 10.757670597466586 0 10.757670597466586 53.398282822742658 0 0 0 0 -13.971344483195026 -20.261948612025662 0 -20.261948612025662 36.033924697539987 0 0 0 0 1.9537552543094936 -1.3813287363517635 0 -1.3813287363517635 1.2417335962521339 0 0 0 0 -11.070502261835827 -5.9337930317979044 0 -5.9337930317979044 10.750603065599989 0 0 0 0 -0.89485588315955589 -0.40385048046363003 0 -0.40385048046363003 1.4360726912381852 0 0 0 0 23.504397392029659 -41.784799349567038 0 -41.784799349567038 -78.337222935800128 0 0 0 0 -0.38059610283466938 -3.8177084866082023 0 -3.8177084866082023 2.1978375178807483 0 0 0 0 0.62798070713324705 -0.57015609875998052 0 -0.57015609875998052 18.763605873436745 0 0 0 0 2.3228514586107849 -1.7072366729048554 0 -1.7072366729048554 34.475689724372842 0 0 0 0 0.30977150020295774 1.9474664579498304 0 1.9474664579498304 2.1245278341484028 0 0 0 0 0.68071060326906263 -0.14161676500475551 0 -0.14161676500475551 15.203492598175671 0 0 0 0 -0.70569582072585035 -1.1701333706869264 0 -1.1701333706869264 14.686397005538311 0 0 0 0 0.25233715163267334 -1.2047258023080758 0 -1.2047258023080758 12.803327603681396 0 0 0 0 -1.1485077336524387 1.9320149398955735 0 1.9320149398955735 0.58162362285766189 0 0 0 0 -1.048961510859499 -2.4159411417399497 0 -2.4159411417399497 17.271658561040795 0 0 0 0 -0.56478167836764115 -4.0171980708787833 0 -4.0171980708787833 5.2188521180458967 0 0 0 0 -2.8532752775545305 -7.5995180726631588 0 -7.5995180726631588 20.086311743159968 0 0 0 0 -2.3450025935981103 0.023872743197443924 0 0.023872743197443924 26.348094074194705 0 0 0 0 -10.189550171637848 -5.9029095007842898 0 -5.9029095007842898 32.675959654457984 0 0 0 0 -7.6850280281751111 3.0430573480216481 0 3.0430573480216481 42.130375186589845 0 0 0 0 -1.168588878851649 -0.32325499436715432 0 -0.32325499436715432 5.8400704671738941 0 0 0 0 -10.485565748886529 -3.3756368895506057 0 -3.3756368895506057 22.371727492846276 0 0 0 0 -3.3706893619435796 2.5491271412911409 0 2.5491271412911409 18.624523654394562 0 0 0 0 -3.058627845694891 1.9469382579805505 0 1.9469382579805505 18.875122058404713 0 0 0 0 -7.6412105506826151 8.1009861066916606 0 8.1009861066916606 22.667404827948417 0 0 0 0 -5.9514108906710135 -3.1684762733989373 0 -3.1684762733989373 21.779306076239209 0 0 0 0 -13.847445168237755 0.36798831916030394 0 0.36798831916030394 24.029496407836632 0 0 0 0 -26.182559490899166 -2.7946684026901494 0 -2.7946684026901494 30.928617672389009 0 0 0 0 -8.2011689745004333 7.6297593805156794 0 7.6297593805156794 32.961252989479362 0 0 0 0 0.6176785005200145 8.1090397889947781 0 8.1090397889947781 26.383498993519424 0 0 0 0 -9.6029252288933549 -2.7651585347782657 0 -2.7651585347782657 17.39319598270049 0 0 0 0 0.030962423251608584 0.22180698750668881 0 0.22180698750668881 -0.32893198797714351 0 0 0 0 -22.784848778719606 -34.58855533037422 0 -34.58855533037422 -6.7122918874006245 0 0 0 0 -9.9615788747487386 -15.235826214888675 0 -15.235826214888675 33.066354366902033 0 0 0 0 -39.721843407473898 -14.353351396144944 0 -14.353351396144944 57.089249806131193 0 0 0 0 -5.7144113054400805 19.511392316750971 0 19.511392316750971 48.266056625275496 0 0 0 0 5.4953101870696628 22.149681938565834 0 22.149681938565834 35.457800437434344 0 0 0 0 2.9935399048783893 17.184835090913111 0 17.184835090913111 35.93011308705718 0 0 0 0 31.869883432045754 22.133440473536666 0 22.133440473536666 21.630478012108597 0 0 0 0 -19.919783182608171 -30.61958197913691 0 -30.61958197913691 2.9969345153403992 0 0 0 0 4.1646110416086231 6.757971304298735 0 6.757971304298735 15.190131681129969 0 0 0 0 -6.0446003144952556 8.6357222841761541 0 8.6357222841761541 27.223479405391117 0 0 0 0 -6.1798452601111649 7.7479041882292563 0 7.7479041882292563 21.444237271056409 0 0 0 0 -2.1490132370699939 6.6525927499715181 0 6.6525927499715181 18.450796579710186 0 0 0 0 3.01517467678309 9.6882946046664529 0 9.6882946046664529 19.980073155615173 0 0 0 0 -4.1518868322000344 5.489637482976832 0 5.489637482976832 15.744492378170435 0 0 0 0 -4.6300301424275858 4.004037920619794 0 4.004037920619794 17.051955293197352 0 0 0 0 -1.289305876781782 -5.1460318057663699 0 -5.1460318057663699 20.166330772120091 0 0 0 0 -3.5134858922398315 0.55548441379093116 0 0.55548441379093116 12.560954294360208 0 0 0 0 -6.5414988062883532 2.8305177784931246 0 2.8305177784931246 19.09023908604803 0 0 0 0 0.042526938320388119 -6.9060425340085239 0 -6.9060425340085239 13.673579715260589 0 0 0 0 -0.39111116036697879 -1.2925607597473423 0 -1.2925607597473423 2.9846639664415209 0 0 0 0 -0.5318866506690938 1.7678915361370855 0 1.7678915361370855 14.006670505870716 0 0 0 0 7.569226066727424 -13.185547058810698 0 -13.185547058810698 17.655765522738875 0 0 0 0 -3.5404166796458716 -2.8082209219176519 0 -2.8082209219176519 14.242172793892767 0 0 0 0 3.8919119066358689 6.037254383322761 0 6.037254383322761 15.93348052571946 0 0 0 0 7.4483154679146537 4.5935065296926041 0 4.5935065296926041 10.117459761633654 0 0 0 0 -11.679961293347333 -10.317089686219333 0 -10.317089686219333 17.96943841947359 0 0 0 0 0.99009027127491223 -3.8895993634560764 0 -3.8895993634560764 6.4508372261868701 0 0 0 0 -0.17773950659557158 0.9564191087602012 0 0.9564191087602012 -13.11528772566453 0 0 0 0 3.6952251793582036 4.561782310255694 0 4.561782310255694 14.196310819053906 0 0 0 0 -2.3916968351413743 -1.0645993464330274 0 -1.0645993464330274 20.308987507000982 0 0 0 0 -10.485769329426603 7.793192970696964 0 7.793192970696964 22.423383538047347 0 0 0 0 -4.1685441877670888 3.0016931264860434 0 3.0016931264860434 17.310896795047153 0 0 0 0 -6.3036184648044582 -0.53628744687883767 0 -0.53628744687883767 23.789653066332178 0 0 0 0 -5.4595163586748185 -20.503054286094084 0 -20.503054286094084 66.831231778545316 0 0 0 0 2.1497801670088039 -8.9655640514710377 0 -8.9655640514710377 6.6994972915711077 0 0 0 0 -4.7844731671095095 3.1583214530882797 0 3.1583214530882797 7.2475825269376148 0 0 0 0 6.409528971293696 -5.557066112447842 0 -5.557066112447842 56.389409571439501 0 0 0 0 3.2453533324513817 -8.2472278767066438 0 -8.2472278767066438 1.7327440052277929 0 0 0 0 23.634964544366312 -11.434530530653774 0 -11.434530530653774 24.692429946343509 0 0 0 0 -1.6978748502023677 2.2807255912429127 0 2.2807255912429127 35.591934663402981 0 0 0 0 20.472708182174387 3.7136536175365507 0 3.7136536175365507 2.1494087953462895 0 0 0 0 -2.4127030602298021 -3.3788817928037815 0 -3.3788817928037815 18.864343602124165 0 0 0 0 -2.4947123511111045 -1.0773813124576463 0 -1.0773813124576463 22.880166487469978 0 0 0 0 -7.1511467730931457 -1.6816012238747646 0 -1.6816012238747646 26.161280376073137 0 0 0 0 -0.21131579337190942 -6.1879675168304402 0 -6.1879675168304402 10.218362786951925 0 0 0 0 14.912432141060805 -14.092240625271927 0 -14.092240625271927 11.884926418721875 0 0 0 0 1.2407094485400592 -11.87081822117932 0 -11.87081822117932 32.444589128267125 0 0 0 0 29.014119123383523 -1.1356152706200646 0 -1.1356152706200646 -10.049498575212056 0 0 0 0 -5.2839528452877653 -6.6242876999166675 0 -6.6242876999166675 3.6406696174702624 0 0 0 0 0.56376460898863634 -0.9781481466632016 0 -0.9781481466632016 -0.99783178767810199 0 0 0 0 -4.5520780970866781 -14.379916704189782 0 -14.379916704189782 1.5804378725060815 0 0 0 0 20.112087020292165 -41.963829001531849 0 -41.963829001531849 -25.783268573399255 0 0 0 0 -25.032515739738301 -51.783557177870534 0 -51.783557177870534 -9.6942879869493481 0 0 0 0 -3.7300219572862261 -6.671108931703202 0 -6.671108931703202 19.630054978740873 0 0 0 0 -1.6226035239436887 -6.6130819352547805 0 -6.6130819352547805 23.643745441410367 0 0 0 0 -1.6851953116807827 -3.9442110038687996 0 -3.9442110038687996 15.738581482660654 0 0 0 0 -1.5524937531870364 -5.6468035111445829 0 -5.6468035111445829 24.840192882124029 0 0 0 0 -3.9252452453961268 -8.0711319524343708 0 -8.0711319524343708 18.002156184004434 0 0 0 0 1.0282074252284241 -2.1040613860418387 0 -2.1040613860418387 11.543457774103649 0 0 0 0 -12.392981216517455 -50.950923226165742 0 -50.950923226165742 9.5598907846471093 0 0 0 0 -8.1844283451884436 -4.7553061219063011 0 -4.7553061219063011 24.991865048904401 0 0 0 0 -58.17446823706581 -25.871707642504589 0 -25.871707642504589 97.184505655164685 0 0 0 0 -35.601141567705781 52.297402166910615 0 52.297402166910615 104.49120266539467 0 0 0 0 -1.8624200586055277 3.2360864451320785 0 3.2360864451320785 28.77550465490885 0 0 0 0 -7.9758416807674166 90.699720621804545 0 90.699720621804545 -26.70059426500984 0 0 0 0 -33.265854871262718 -50.912759537637157 0 -50.912759537637157 108.16673539975636 0 0 0 0 20.993993491698802 -50.121877139147728 0 -50.121877139147728 66.06886261782347 0 0 0 0 -12.631170618798535 4.0674346501042464 0 4.0674346501042464 25.359192309981154 0 0 0 0 -10.858717803158015 -8.3424393020659409 0 -8.3424393020659409 98.591630341438872 0 0 0 0 -0.15910015333520278 -1.9247968597892395 0 -1.9247968597892395 9.3455813116715944 0 0 0 0 -1.6431081006492931 -0.067506261549315383 0 -0.067506261549315383 1.8106875257857489 0 0 0 0 19.860725837714654 2.9394821109535769 0 2.9394821109535769 -8.7073395059687755 0 0 0 0 0.30644385925492745 -0.69665833656158682 0 -0.69665833656158682 0.68712998539144365 0 0 0 0 15.913752829747523 -23.000254020236525 0 -23.000254020236525 5.6957084740861319 0 0 0 0 1.2198287790263294 42.70984126289477 0 42.70984126289477 118.87696150556712 0 0 0 0 -11.24875335036711 15.792439934511094 0 15.792439934511094 95.935888390617038 0 0 0 0 -16.281553746532722 24.303381115722004 0 24.303381115722004 92.482347407170892 0 0 0 0 0.14561195833492921 -0.827443162721887 0 -0.827443162721887 4.8512647353361089 0 0 0 0 47.980893156548518 -56.485823054927096 0 -56.485823054927096 60.879871435332461 0 0 0 0 -27.933472573434074 36.552267140295044 0 36.552267140295044 103.85560018510296 0 0 0 0 30.820611879408716 -69.877137990584743 0 -69.877137990584743 92.041791885973907 0 0 0 0 -16.685731233432989 4.9219685195457714 0 4.9219685195457714 165.0928839590415 0 0 0 0 -26.15015221227759 27.611570321478212 0 27.611570321478212 117.31545897358592 0 0 0 0 221.0207553175278 -386.0415598731779 0 -386.0415598731779 444.27476381393353 0 0 0 0 -117.57713485509828 123.31904493930415 0 123.31904493930415 264.91495665453476 0 0 0 0 -24.895521400535586 451.46469187295406 0 451.46469187295406 -56.047877839388093 0 0 0 0 49.415738957415215 -20.289260185530566 0 -20.289260185530566 -47.959250943104962 0 0 0 0 0.23012232231894814 0.94456181004352402 0 0.94456181004352402 23.056073930547427 0 0 0 0 2.8153429124778668 7.2597464133352858 0 7.2597464133352858 2.38861539546388 0 0 0 0 -50.487701777999291 30.702849925770352 0 30.702849925770352 113.55194883490185 0 0 0 0 -21.631603779283523 12.937711376769585 0 12.937711376769585 -41.016568673902498 0 0 0 0 1.318925768814097 -0.60513738014924456 0 -0.60513738014924456 20.908416771311749 0 0 0 0 4.9798788345783578 1.1398723937036266 0 1.1398723937036266 19.229572130832821 0 0 0 0 5.8849941884068357 5.0742818354356132 0 5.0742818354356132 62.88366747319742 0 0 0 0 -10.616858143952413 5.4278821132174926 0 5.4278821132174926 -14.971073148986761 0 0 0 0 -3.1659444163093617 -0.68593730325025248 0 -0.68593730325025248 0.19513840088761825 0 0 0 0 1.2388095690285059 0.84055978302163226 0 0.84055978302163226 6.9646368134467878 0 0 0 0 0.10061877194114377 -3.2597588425957582 0 -3.2597588425957582 9.4005486619948115 0 0 0 0 1.4038279689261799 3.6705702160325018 0 3.6705702160325018 21.585952322091543 0 0 0 0 -0.35203203696846685 -3.5611300074660903 0 -3.5611300074660903 9.3273733043133689 0 0 0 0 -0.68588972339443899 -2.2451981254353086 0 -2.2451981254353086 14.683795837934667 0 0 0 0 -0.16687208748192006 -3.0519798023169642 0 -3.0519798023169642 10.644978285379693 0 0 0 0 0.52748681580806078 -1.5559866119056096 0 -1.5559866119056096 10.335091627903921 0 0 0 0 1.1912456007116816 0.10373033399901033 0 0.10373033399901033 13.40077693080093 0 0 0 0 0.28287017540856141 -0.46972222089607385 0 -0.46972222089607385 18.883018016153983 0 0 0 0 2.9846167270351316 0.38920770038203045 0 0.38920770038203045 12.568744222018722 0 0 0 0 1.714284739552113 3.2283184275747772 0 3.2283184275747772 17.568664659420392 0 0 0 0 -0.93649740349854849 -2.9513615739317292 0 -2.9513615739317292 7.7069004154305532 0 0 0 0 -1.0526109660740559 1.5860166613526872 0 1.5860166613526872 12.583888181841758 0 0 0 0 -1.7128182291382927 -3.0496079622716934 0 -3.0496079622716934 12.575346507873785 0 0 0 0 -1.9929542228398986 -1.7601218899917512 0 -1.7601218899917512 17.909916258662633 0 0 0 0 -0.27750429021504353 -1.4515020213329244 0 -1.4515020213329244 4.7817296667875944 0 0 0 0 0.35803586730253301 -2.7486184804283766 0 -2.7486184804283766 13.39953415049149 0 0 0 0 -1.7969504915211019 -1.3152013630115107 0 -1.3152013630115107 15.464167848991565 0 0 0 0 -0.79161293848464087 -1.6301495788669484 0 -1.6301495788669484 4.729541102292405 0 0 0 0 1.369449271704525 0.16418099277962028 0 0.16418099277962028 9.954012003079697 0 0 0 0 -1.6169767498527108 -6.2019549106034901 0 -6.2019549106034901 -16.179698481370906 0 0 0 0 -8.3791848178871078 -19.737130799194802 0 -19.737130799194802 1.5681571916684334 0 0 0 0 -0.62826944175070665 -3.3228175564402616 0 -3.3228175564402616 6.6553150897920332 0 0 0 0 0.86842365447955672 -20.926331124306671 0 -20.926331124306671 -26.576650081298794 0 0 0 0 -4.2783178988147483 -1.3944013122259094 0 -1.3944013122259094 11.58122936689233 0 0 0 0 -2.6970845963878674 -7.7638287231034155 0 -7.7638287231034155 -8.7215796628145199 0 0 0 0 -12.568273584539384 -34.47268380904552 0 -34.47268380904552 -2.7762812375440262 0 0 0 0 -4.4387066043298091 -1.3485536888117622 0 -1.3485536888117622 23.099857031105785 0 0 0 0 -0.10766651483346656 0.87492600888706384 0 0.87492600888706384 2.4389944650159618 0 0 0 0 -0.18817622990627569 -2.9194285418479922 0 -2.9194285418479922 9.9092318649973095 0 0 0 0 -2.192114054923378 -5.0285473695076739 0 -5.0285473695076739 8.2755036638137796 0 0 0 0 -27.718607491022794 1.5390786569168995 0 1.5390786569168995 34.820356558226194 0 0 0 0 -1.5712005853326301 1.0063673105612141 0 1.0063673105612141 23.941291502791209 0 0 0 0 -34.074725524071255 7.6981395273032831 0 7.6981395273032831 29.172288313246099 0 0 0 0 -21.750059773574321 -2.7030041308717045 0 -2.7030041308717045 35.674730046135664 0 0 0 0 -22.558174281371066 1.5236354544631467 0 1.5236354544631467 35.136132227134567 0 0 0 0 -29.784988713383427 -3.0155607620345108 0 -3.0155607620345108 38.547832939498221 0 0 0 0 0.24107281276954584 -1.3707016864529464 0 -1.3707016864529464 5.4194098067535705 0 0 0 0 -11.899590351624511 -7.1972109081098097 0 -7.1972109081098097 47.174413252916565 0 0 0 0 -7.706422884962179 5.4486756066894451 0 5.4486756066894451 7.0546954016743779 0 0 0 0 -5.7138888054116705 2.3908418669398088 0 2.3908418669398088 27.788473053809184 0 0 0 0 -3.778591534846214 3.832286737747836 0 3.832286737747836 24.88974986134599 0 0 0 0 -4.4150605497900415 0.56770469169896387 0 0.56770469169896387 25.844546036430984 0 0 0 0 -5.2442333742277185 0.50866820359806297 0 0.50866820359806297 27.258351852582564 0 0 0 0 -3.2830622902617961 3.1874767232011436 0 3.1874767232011436 23.663372985403839 0 0 0 0 -7.031747797876335 0.28821927743138076 0 0.28821927743138076 57.569574185316014 0 0 0 0 -12.371970211596818 -23.50947556367737 0 -23.50947556367737 73.624714597055572 0 0 0 0 -32.602396855800862 49.003403332681046 0 49.003403332681046 95.995616746393353 0 0 0 0 -30.282060280124483 -45.638631930218253 0 -45.638631930218253 192.39936605032199 0 0 0 0 -2.4002280256378365 7.4071589638355491 0 7.4071589638355491 1.1557746785233842 0 0 0 0 -4.3849942349490902 5.0988810567196197 0 5.0988810567196197 32.456419915921742 0 0 0 0 -11.614545626588779 15.829409588295675 0 15.829409588295675 37.646042397567726 0 0 0 0 4.5415637367958439 5.6048622905645971 0 5.6048622905645971 21.537457496880961 0 0 0 0 2.108278963569262 2.3742841749772197 0 2.3742841749772197 16.495780015589844 0 0 0 0 -1.0865936017532931 -0.71204139466499328 0 -0.71204139466499328 15.717117517808219 0 0 0 0 -0.9538521608518522 2.1258684738204465 0 2.1258684738204465 18.161577122626113 0 0 0 0 -0.51427020194819306 1.9057528502416972 0 1.9057528502416972 21.242105767149951 0 0 0 0 -0.079481775250712872 2.44255885484381 0 2.44255885484381 17.920495220299927 0 0 0 0 -4.4924146189145375 3.3046825434066704 0 3.3046825434066704 26.694430873810688 0 0 0 0 -2.8029606740843747 -1.6343144651054899 0 -1.6343144651054899 14.350540861618356 0 0 0 0 -1.7235694167107738 0.31060425390023738 0 0.31060425390023738 15.929306944985001 0 0 0 0 -6.6382790891394734 -4.7488725123912445 0 -4.7488725123912445 12.801826609978889 0 0 0 0 0.89654420607052998 1.3057357315301488 0 1.3057357315301488 9.3119125395387528 0 0 0 0 0.96475398512973243 -0.84324830069454038 0 -0.84324830069454038 7.0529867196346459 0 0 0 0 -1.9049385711607556 -6.5219562788279291 0 -6.5219562788279291 4.968758626869203 0 0 0 0 -1.305898330724574 -0.15806293786954484 0 -0.15806293786954484 30.924245321294165 0 0 0 0 -0.086268458332615705 1.1551982811724208 0 1.1551982811724208 2.4055973623333635 0 0 0 0 -2.0822389694638668 -4.8621376355189163 0 -4.8621376355189163 9.6460326223317026 0 0 0 0 -15.818484730757064 -8.7151361281539721 0 -8.7151361281539721 17.669327705276373 0 0 0 0 -8.4644487256352932 -4.7055418467934942 0 -4.7055418467934942 16.067956773218611 0 0 0 0 -17.109793760071028 8.7082887625083458 0 8.7082887625083458 44.88150494061847 0 0 0 0 10.242686752394775 -3.7802694415886435 0 -3.7802694415886435 -10.436432949834852 0 0 0 0 -13.417250045802007 2.4047856562783636 0 2.4047856562783636 25.022804331110819 0 0 0 0 -16.644408730084365 -1.4293221869904755 0 -1.4293221869904755 23.535644446055812 0 0 0 0 -3.5491678197620331 3.8194346628697531 0 3.8194346628697531 22.168322037912731 0 0 0 0 -7.8777130944008604 3.0171752932606068 0 3.0171752932606068 24.113979376259522 0 0 0 0 -6.2597204586398902 -0.19672433790401556 0 -0.19672433790401556 19.031448221261599 0 0 0 0 -5.9314528365019896 -0.90075787446767208 0 -0.90075787446767208 19.400314146500023 0 0 0 0 -6.6066793279013609 0.15791944445845729 0 0.15791944445845729 20.845497897895257 0 0 0 0 -4.0299947188179885 2.4003692715323268 0 2.4003692715323268 21.879228112673445 0 0 0 0 -2.9334997465669517 1.9773017616585093 0 1.9773017616585093 24.251106348418034 0 0 0 0 -0.7168527806354632 3.5146852243851754 0 3.5146852243851754 25.285014611959923 0 0 0 0 -3.7105399645855641 -9.1091198449125841 0 -9.1091198449125841 36.78887620417845 0 0 0 0 -3.3583862650121112 0.2092602170982758 0 0.2092602170982758 7.2718702360118677 0 0 0 0 -6.3362331260189313 -0.93953965368055492 0 -0.93953965368055492 5.8371025506051666 0 0 0 0 -1.3820718820550264 -0.053098979088272102 0 -0.053098979088272102 25.747013259677729 0 0 0 0 -13.396508625532078 -7.615623973266338 0 -7.615623973266338 37.543197810362472 0 0 0 0 -11.733317730535617 -9.7108384831844887 0 -9.7108384831844887 30.033928530341655 0 0 0 0 -17.694537092368591 2.9132706475920713 0 2.9132706475920713 25.525384446267708 0 0 0 0 -14.956708527023238 53.273326672377152 0 53.273326672377152 -12.364724132599349 0 0 0 0 -115.26326166624091 61.709149503291087 0 61.709149503291087 78.63639443478678 0 0 0 0 -10.572627731896192 3.4904523765213327 0 3.4904523765213327 11.63825168267574 0 0 0 0 -2.9057098306917304 -2.5131657896911785 0 -2.5131657896911785 27.110117179674894 0 0 0 0 -8.3546485918174049 -5.4012296941185696 0 -5.4012296941185696 42.526001295991591 0 0 0 0 -6.4487962042890103 -6.7705145640411502 0 -6.7705145640411502 33.737553524640589 0 0 0 0 -2.1196657935223584 -6.7235377363704174 0 -6.7235377363704174 30.500166570526744 0 0 0 0 -3.958857972412035 -6.5502509959446611 0 -6.5502509959446611 59.773409645990469 0 0 0 0 -5.2698019889191743 -9.6258648419418051 0 -9.6258648419418051 8.8328419670900349 0 0 0 0 59.691452364109864 -4.2480767622764688 0 -4.2480767622764688 -17.424742049004635 0 0 0 0 -167.68984558339668 -88.975553254256283 0 -88.975553254256283 84.925482986501265 0 0 0 0 -0.74296251510645561 -11.82713713126077 0 -11.82713713126077 7.5619956538985207 0 0 0 0 30.402892802564679 46.40792187626046 0 46.40792187626046 105.38571246102856 0 0 0 0 2.2303816483001659 -3.0899510668016656 0 -3.0899510668016656 0.5029317303909373 0 0 0 0 -3.3577586584287928 0.71081449712255562 0 0.71081449712255562 68.926447324761739 0 0 0 0 2.822495850854466 32.758103836309147 0 32.758103836309147 43.200465797050128 0 0 0 0 28.465143047881156 -14.008348562192623 0 -14.008348562192623 -43.016833572430187 0 0 0 0 -0.026696799345304001 -0.11620337569818417 0 -0.11620337569818417 1.3596557674506875 0 0 0 0 -5.0115096758520448 0.72969957209429026 0 0.72969957209429026 5.4225851605150339 0 0 0 0 -4.6709635302229344 -9.6616991030987265 0 -9.6616991030987265 32.124119236446859 0 0 0 0 -11.916563052565152 -16.615072770496226 0 -16.615072770496226 8.440105949415738 0 0 0 0 -1.2803930301580602 -10.682088552931202 0 -10.682088552931202 16.204948068928562 0 0 0 0 -6.7669696418297463 -20.685284481004146 0 -20.685284481004146 9.6082222696513782 0 0 0 0 -5.3004161651313098 -7.2602004984063342 0 -7.2602004984063342 29.248727859707287 0 0 0 0 -0.4713235261851878 -5.6648301106752115 0 -5.6648301106752115 26.92638077202264 0 0 0 0 -3.5263132851283814 5.0333055974336389 0 5.0333055974336389 43.341837569574636 0 0 0 0 -3.4326478714374389 0.65858074244351883 0 0.65858074244351883 35.698974755718154 0 0 0 0 12.703702932746637 11.336977965251208 0 11.336977965251208 4.463836112023273 0 0 0 0 -7.0760438862973842 15.063117842276966 0 15.063117842276966 50.967827089960338 0 0 0 0 -7.4358334861708499 7.980723162949289 0 7.980723162949289 71.469620791282068 0 0 0 0 -8.2299964879198342 6.3423847523154109 0 6.3423847523154109 76.517062746988813 0 0 0 0 -7.8909418236698912 0.24979191210513818 0 0.24979191210513818 62.463878948287856 0 0 0 0 -8.9030853150870826 3.169258892167818 0 3.169258892167818 61.210262220472941 0 0 0 0 -4.1272391498382603 -1.3174443899379185 0 -1.3174443899379185 47.006492954653368 0 0 0 0 -10.138753934998476 -8.1459130818975609 0 -8.1459130818975609 70.015539605554295 0 0 0 0 -6.7910863489603202 -7.3752737310954615 0 -7.3752737310954615 68.538002369394235 0 0 0 0 -14.274248024792541 -7.3826992002450424 0 -7.3826992002450424 107.14593349073402 0 0 0 0 -9.3836655559480278 -11.189177809786997 0 -11.189177809786997 80.74883362024525 0 0 0 0 -4.058434955158873 -27.850424811158064 0 -27.850424811158064 74.664761851276126 0 0 0 0 1.8107428984189937 -23.720951270995101 0 -23.720951270995101 73.967401111100799 0 0 0 0 8.078435145249216 -31.048183773735559 0 -31.048183773735559 61.852500564144066 0 0 0 0 15.106822877949526 -39.205241447102253 0 -39.205241447102253 71.29689207125648 0 0 0 0 15.013404778231859 -43.834576789887251 0 -43.834576789887251 42.661516926666991 0 0 0 0 21.256279400927724 -30.607278229177609 0 -30.607278229177609 54.193476660391298 0 0 0 0 3.9428726170576738 -85.006148197779112 0 -85.006148197779112 84.800414700727742 0 0 0 0 -21.191088456484067 -51.469310087338272 0 -51.469310087338272 180.53068691639692 0 0 0 0 -5.3107405140322754 17.198652966479699 0 17.198652966479699 164.44491414543154 0 0 0 0 -5.9130647270703776 -35.217014464863496 0 -35.217014464863496 93.848814227458206 0 0 0 0 -5.2485256193867826 -30.281361453512545 0 -30.281361453512545 121.39145761705004 0 0 0 0 -3.9609785570619351 6.6577718512962747 0 6.6577718512962747 84.795247565476529 0 0 0 0 152.29066393182165 -386.23517865339636 0 -386.23517865339636 142.80470933795732 0 0 0 0 -0.78156885839007373 -80.226613215319048 0 -80.226613215319048 148.69241532781234 0 0 0 0 371.83556552914433 130.47783348164739 0 130.47783348164739 -101.13849391440453 0 0 0 0 -1.4518269212040247 -5.8743205596525074 0 -5.8743205596525074 58.69381143314834 0 0 0 0 -161.1632005037755 28.590128967246301 0 28.590128967246301 84.737694802859096 0 0 0 0 -198.49712851470258 2.462879906714079 0 2.462879906714079 155.10739513070439 0 0 0 0 -45.135527282871863 22.055902463471284 0 22.055902463471284 31.958676253059821 0 0 0 0 -23.195961812596352 -2.5103454713553219 0 -2.5103454713553219 37.130104443782329 0 0 0 0 2.3773757348767504 -56.684105357931912 0 -56.684105357931912 140.77674480461792 0 0 0 0 54.77997697791011 -27.233794910434654 0 -27.233794910434654 15.266363976724278 0 0 0 0 -37.318583682023245 -0.15769167306962117 0 -0.15769167306962117 163.39599033292325 0 0 0 0 0.50221690279048481 -0.70851530059462142 0 -0.70851530059462142 1.314963085337773 0 0 0 0 75.75110584326012 80.256240611565318 0 80.256240611565318 87.739495690781951 0 0 0 0 0.94855428296062527 -1.8354500799117925 0 -1.8354500799117925 4.2353382663028363 0 0 0 0 -4.2470389081081521 -9.9267296793095738 0 -9.9267296793095738 -4.0318295372326247 0 0 0 0 17.196479568451196 -0.96336865495413804 0 -0.96336865495413804 -0.40282957702311251 0 0 0 0 -23.784808440027973 -21.685116651431599 0 -21.685116651431599 2.0185529944697009 0 0 0 0 13.843891516676905 -42.385735617850003 0 -42.385735617850003 9.0813961430048948 0 0 0 0 -15.384473292901362 -0.55823630169675198 0 -0.55823630169675198 5.9583068387728417 0 0 0 0 -0.65002210708779717 -4.4195694297091208 0 -4.4195694297091208 5.6233469431462666 0 0 0 0 -2.2464090863281854 -6.7062868199564036 0 -6.7062868199564036 10.045281491878541 0 0 0 0 -0.40263106843802721 0.018157190211237406 0 0.018157190211237406 1.3205236075671873 0 0 0 0 -3.9081229046250883 -17.381175114317557 0 -17.381175114317557 15.299311993676838 0 0 0 0 -1.8162943521716191 -5.4298859485503339 0 -5.4298859485503339 3.7314446202132885 0 0 0 0 4.3417148017833824 -9.8422380775564307 0 -9.8422380775564307 12.969875504231823 0 0 0 0 -0.67576540357640624 -3.0980286240719579 0 -3.0980286240719579 13.712187108571925 0 0 0 0 3.0573470256922519 -31.739204451688238 0 -31.739204451688238 28.572442376562321 0 0 0 0 -3.562008757053718 -7.3274409838531938 0 -7.3274409838531938 57.016133449116751 0 0 0 0 0.85061206537243539 -0.38064595908223176 0 -0.38064595908223176 -1.4302013236581921 0 0 0 0 2.2231317645605486 -4.3787663222383344 0 -4.3787663222383344 44.004564394917907 0 0 0 0 -1.4049651820614599 -0.10833152743998653 0 -0.10833152743998653 39.006938161616517 0 0 0 0 -0.78520940159478414 -14.464422949538971 0 -14.464422949538971 48.442291531062438 0 0 0 0 -5.3508765800743276 -2.7737183193348756 0 -2.7737183193348756 58.419210303931322 0 0 0 0 -3.5272927240871468 -1.8428748136284412 0 -1.8428748136284412 46.067099238666287 0 0 0 0 -42.415370791542045 -33.724644261927551 0 -33.724644261927551 62.418727233904065 0 0 0 0 -23.088002963097097 -12.233409242053767 0 -12.233409242053767 54.424653874151772 0 0 0 0 -25.128727890855771 -2.100817594014643 0 -2.100817594014643 94.992822475242974 0 0 0 0 -9.5341932072701638 26.508077245791355 0 26.508077245791355 67.0474878835862 0 0 0 0 -4.7265020188569906 8.3019039269674977 0 8.3019039269674977 38.113572697526251 0 0 0 0 -5.9606832389722513 -8.5058158415695289 0 -8.5058158415695289 64.514437193925005 0 0 0 0 -6.6698751281668933 -3.6640498819466529 0 -3.6640498819466529 57.875542266992852 0 0 0 0 -1.3758543561898477 0.16615400630234944 0 0.16615400630234944 60.668450929449136 0 0 0 0 -11.47348220148433 -2.5947096411860002 0 -2.5947096411860002 60.047991187217121 0 0 0 0 -4.7886243055559135 7.8781836365196796 0 7.8781836365196796 51.12271008627522 0 0 0 0 -1.1709743763431106 -14.502940204738479 0 -14.502940204738479 55.525620263581004 0 0 0 0 13.626942695223988 -25.386430696642492 0 -25.386430696642492 62.527693725317022 0 0 0 0 17.682609397212104 -10.404949533535046 0 -10.404949533535046 34.258173036054359 0 0 0 0 8.2366932968838 -30.34315179782169 0 -30.34315179782169 58.337783180615588 0 0 0 0 8.4654152018310924 5.9772159591161653 0 5.9772159591161653 10.958051137246912 0 0 0 0 31.410453626745038 -62.130111611573284 0 -62.130111611573284 14.633347225181865 0 0 0 0 -4.2253327971307044 8.4748729831571836 0 8.4748729831571836 37.99363192972578 0 0 0 0 10.690660483023294 3.0910933886418661 0 3.0910933886418661 -22.937258315445433 0 0 0 0 6.0691186007406941 -45.503930120680707 0 -45.503930120680707 -55.102228968354666 0 0 0 0 -27.519774823983425 -8.1710252690754714 0 -8.1710252690754714 -16.599112880656776 0 0 0 0 27.25718473492816 43.768425868122449 0 43.768425868122449 31.871630308922249 0 0 0 0 -7.8616215281870154 22.276036466371465 0 22.276036466371465 42.455677028172431 0 0 0 0 31.751295342320191 101.13907496134379 0 101.13907496134379 166.05472786988912 0 0 0 0 -67.175588251680892 -15.996471890272005 0 -15.996471890272005 42.0051243665539 0 0 0 0 95.49065106532089 -78.155249670747253 0 -78.155249670747253 63.777035666776101 0 0 0 0 65.927259349878568 -12.88822715978813 0 -12.88822715978813 -90.681231727367049 0 0 0 0 -37.487925979850843 -56.56435368649818 0 -56.56435368649818 -55.798161834635721 0 0 0 0 -0.90326427555896771 10.257229245689132 0 10.257229245689132 78.004639267875973 0 0 0 0 1.0911969128655983 -0.56718872958640532 0 -0.56718872958640532 113.06729388146505 0 0 0 0 1.4362999892487061 -0.93312368025540593 0 -0.93312368025540593 0.43394745750921349 0 0 0 0 5.6819202068909362 -16.851596147114947 0 -16.851596147114947 83.670427334591295 0 0 0 0 1.7794605153892462 -16.798003464463591 0 -16.798003464463591 111.58170755964966 0 0 0 0 19.995641232227172 -48.526890510531302 0 -48.526890510531302 105.02727689111651 0 0 0 0 14.375389608054775 -34.171928647345169 0 -34.171928647345169 77.679834209833643 0 0 0 0 22.881310623569789 -44.914529938423584 0 -44.914529938423584 106.87299036063337 0 0 0 0 -4.6355280381553712 -10.344972084574692 0 -10.344972084574692 105.61147607197017 0 0 0 0 -2.7230817775665628 5.870926832129868 0 5.870926832129868 238.97584357877713 0 0 0 0 0.65707864656540238 -0.2160861488047594 0 -0.2160861488047594 0.15427824163162818 0 0 0 0 29.503215625338953 -30.40659614268634 0 -30.40659614268634 -92.037205957873994 0 0 0 0 6.2497128340506833 -54.797008783882575 0 -54.797008783882575 112.19575490613261 0 0 0 0 2.3945344327761404 2.7711002888133862 0 2.7711002888133862 120.33638436838282 0 0 0 0 8.5433729006813337 -33.436535421425106 0 -33.436535421425106 59.243573227853176 0 0 0 0 -0.91999964615069985 -78.726531654566315 0 -78.726531654566315 164.03817719752942 0 0 0 0 44.649849511542698 -26.268318868114875 0 -26.268318868114875 88.712599648679316 0 0 0 0 -6.6960484899132098 -37.031087307145413 0 -37.031087307145413 72.580682743978286 0 0 0 0 -36.150050859630483 -19.708024089597075 0 -19.708024089597075 69.509472907780548 0 0 0 0 -21.091245776877713 -21.533660360297745 0 -21.533660360297745 92.29600010157435 0 0 0 0 0.82094327382333177 -9.5123903393905493 0 -9.5123903393905493 52.70780982827273 0 0 0 0 -14.016781438011094 -9.5805539597263305 0 -9.5805539597263305 54.224959407085407 0 0 0 0 -16.279079949947572 12.103079244421679 0 12.103079244421679 20.339522252815641 0 0 0 0 16.881567138431194 -35.379701217715365 0 -35.379701217715365 58.699521441864817 0 0 0 0 10.056019753867645 -44.677535046525691 0 -44.677535046525691 82.380519420684777 0 0 0 0 -0.71729172630864824 -0.11553701012413153 0 -0.11553701012413153 0.35832517215003534 0 0 0 0 -0.44615455362024115 0.00023495124086103658 0 0.00023495124086103658 0.3527763810006519 0 0 0 0 -27.39761983355038 -32.960915597297571 0 -32.960915597297571 36.14286649168389 0 0 0 0 -29.212498373138487 -76.445248961146717 0 -76.445248961146717 50.964041061226453 0 0 0 0 13.605701492863773 -45.643974994931341 0 -45.643974994931341 31.38455904192142 0 0 0 0 -120.20108152207808 20.015053664774996 0 20.015053664774996 68.685622882185612 0 0 0 0 -109.51784384980829 -25.42268990563025 0 -25.42268990563025 62.687661645308253 0 0 0 0 -1.4958200868180394 -6.6253799354645828 0 -6.6253799354645828 52.368854690127918 0 0 0 0 12.069616995704251 41.464858782980343 0 41.464858782980343 117.07875852315829 0 0 0 0 6.5950950204484364 -80.268372296196389 0 -80.268372296196389 116.29842298842595 0 0 0 0 -3.5030454961411124 6.8479529736100631 0 6.8479529736100631 62.514511157439074 0 0 0 0 13.095127108572797 -30.249865683992311 0 -30.249865683992311 65.755448344336401 0 0 0 0 8.4209470018395223 -34.181674891680814 0 -34.181674891680814 62.483475947192119 0 0 0 0 -19.400709545513109 -7.3701276650369891 0 -7.3701276650369891 105.13932022474728 0 0 0 0 -1.0154893395879299 -4.4587628893939382 0 -4.4587628893939382 105.5961084681594 0 0 0 0 -30.255186659599076 -22.361781404837529 0 -22.361781404837529 137.62447030269129 0 0 0 0 -13.582584894416868 -3.6772951868729251 0 -3.6772951868729251 50.109547528038966 0 0 0 0 -18.66546339243007 -20.920107341745052 0 -20.920107341745052 50.287565382899629 0 0 0 0 -9.5919283208102115 -0.96790010801021253 0 -0.96790010801021253 5.1714287178911036 0 0 0 0 -5.8908580878461407 -0.67598894431364442 0 -0.67598894431364442 18.569070335483048 0 0 0 0 -3.6860614234242126 1.6278103860204682 0 1.6278103860204682 3.9338233935612479 0 0 0 0 0.2100597589105746 18.57746022472611 0 18.57746022472611 -0.20267177161713334 0 0 0 0 -39.107461150094309 7.351301572291959 0 7.351301572291959 15.552008554838721 0 0 0 0 -33.086156860791789 5.5736077129022306 0 5.5736077129022306 12.095744689182993 0 0 0 0 -22.386838653850305 -42.94170383777373 0 -42.94170383777373 40.150411174347937 0 0 0 0 0.40445459755787827 -0.78711607055026178 0 -0.78711607055026178 0.73493169493703547 0 0 0 0 88.437002871392707 99.765688199688498 0 99.765688199688498 0.89751806371623388 0 0 0 0 -22.995038187090813 15.940929010300806 0 15.940929010300806 -6.6045990275051736 0 0 0 0 -3.1071787523222447 -6.4011361318578404 0 -6.4011361318578404 43.301512392145895 0 0 0 0 -91.832546499776981 44.822163441880775 0 44.822163441880775 58.223183930765117 0 0 0 0 -16.683881906347352 -34.471734754469367 0 -34.471734754469367 58.085016401671965 0 0 0 0 -9.2430981445423228 -0.75402490613798712 0 -0.75402490613798712 25.38197984590996 0 0 0 0 7.6277665798554608 -51.46346443803759 0 -51.46346443803759 56.012940200294906 0 0 0 0 1.315366192600143 -6.5018234198584963 0 -6.5018234198584963 -3.5358864887904993 0 0 0 0 35.379820170284802 -21.568599091679971 0 -21.568599091679971 21.909445294319084 0 0 0 0 3.1279871069668843 -24.659834113431316 0 -24.659834113431316 40.79265988059251 0 0 0 0 40.553402708026169 -84.149961814354356 0 -84.149961814354356 89.15161015063677 0 0 0 0 93.859301197970126 -157.48600300008275 0 -157.48600300008275 188.64786364448537 0 0 0 0 186.65112954331335 -98.370836462647276 0 -98.370836462647276 38.630396849901445 0 0 0 0 76.526945206856283 -93.12127297206689 0 -93.12127297206689 72.580151271169598 0 0 0 0 66.707153753968441 -29.574740295594893 0 -29.574740295594893 24.284289442024601 0 0 0 0 -2.1384355311666727 -2.8291810451724828 0 -2.8291810451724828 16.220523507303056 0 0 0 0 -21.024285462986427 -15.747614770827568 0 -15.747614770827568 63.383470807544654 0 0 0 0 17.74609408836659 -31.45171418908285 0 -31.45171418908285 39.60365684309636 0 0 0 0 65.293333196001186 -26.266301924834806 0 -26.266301924834806 37.741776987261801 0 0 0 0 -2.9994990418706493 2.7644017897498543 0 2.7644017897498543 -9.7055594293415197 0 0 0 0 -0.81285141764837565 -0.44747287526427471 0 -0.44747287526427471 0.15686833900382879 0 0 0 0 -7.9461938991053103 15.878603285442296 0 15.878603285442296 42.845294332148114 0 0 0 0 118.19275117121742 0.68640041289518194 0 0.68640041289518194 -19.840410756547499 0 0 0 0 3.6399964457805254 -20.688374201492479 0 -20.688374201492479 54.966772883016333 0 0 0 0 4.0269800701444183 -0.69416443819091 0 -0.69416443819091 33.63673070747609 0 0 0 0 -10.210830897993219 -11.526713479830505 0 -11.526713479830505 54.721740347131004 0 0 0 0 -18.12990928999443 -3.5366123009750936 0 -3.5366123009750936 46.97256306233794 0 0 0 0 -8.1809337817132395 -0.92447298446419524 0 -0.92447298446419524 5.7469197059342312 0 0 0 0 -7.4225180389007619 5.9742657213073471 0 5.9742657213073471 33.769523308592397 0 0 0 0 -18.549935408705551 13.677301063138657 0 13.677301063138657 5.7040606094764144 0 0 0 0 -21.835169837761441 6.9124985234641372 0 6.9124985234641372 17.717850417489899 0 0 0 0 10.823648368399517 -8.8763270005001687 0 -8.8763270005001687 41.137542074082376 0 0 0 0 -19.519894918098316 -12.415321337361775 0 -12.415321337361775 261.95221708113422 0 0 0 0 -35.67298639272758 -104.2268465669531 0 -104.2268465669531 246.48439768648404 0 0 0 0 -88.301429790793463 -151.53769439363009 0 -151.53769439363009 227.24846823118241 0 0 0 0 -99.826058539528731 -173.60632885457335 0 -173.60632885457335 601.08504842755133 0 0 0 0 34.178049595610446 174.8664476254944 0 174.8664476254944 359.45473293003488 0 0 0 0 1.1458368343869663 -2.249521054776384 0 -2.249521054776384 5.4859708630280224 0 0 0 0 318.82504439524519 -181.48220773723779 0 -181.48220773723779 102.77291039044985 0 0 0 0 74.273667631420267 261.88568742990424 0 261.88568742990424 213.41155781685529 0 0 0 0 58.105628150797088 -313.05470662846807 0 -313.05470662846807 155.22966237605124 0 0 0 0 -29.943412351998631 114.47974870787084 0 114.47974870787084 591.00265547097376 0 0 0 0 89.619802870938884 -250.07123121586756 0 -250.07123121586756 496.63367925420334 0 0 0 0 16.413017669297915 -87.469121169035134 0 -87.469121169035134 198.38517176224877 0 0 0 0 4.5679192695513393 -22.57674559995462 0 -22.57674559995462 57.082203183681031 0 0 0 0 -57.592954878543424 59.02898833917402 0 59.02898833917402 -23.202153596469088 0 0 0 0 -1.1804226149708619 -0.21371879442401154 0 -0.21371879442401154 0.32203545379746856 0 0 0 0 19.050446825532163 -36.372062927735328 0 -36.372062927735328 50.32430910578978 0 0 0 0 -0.69936447523363121 0.011292858559559971 0 0.011292858559559971 0.33902401493259937 0 0 0 0 -9.6167985267508129 -1.9960166804945629 0 -1.9960166804945629 5.4333930535112813 0 0 0 0 -5.6073580757943091 -15.4299467920182 0 -15.4299467920182 113.60463562093128 0 0 0 0 -6.2994546348775557 1.2072941643925885 0 1.2072941643925885 3.5357536024642382 0 0 0 0 -42.175798810791093 14.424237436662452 0 14.424237436662452 -2.7313043608810403 0 0 0 0 -48.026239229974863 28.960352832183048 0 28.960352832183048 -0.28117716158953954 0 0 0 0 -4.4029134497115283 1.7016580546964346 0 1.7016580546964346 4.0597156077734837 0 0 0 0 17.301826469105919 -86.519231606415914 0 -86.519231606415914 204.04448668540726 0 0 0 0 17.513441721348954 -97.879860312050369 0 -97.879860312050369 220.19084348351089 0 0 0 0 -33.882874077339807 -109.04072755196842 0 -109.04072755196842 232.82640975261984 0 0 0 0 18.948679477245605 -105.36599608111055 0 -105.36599608111055 213.86456021112053 0 0 0 0 27.342992547049562 -70.402653389344778 0 -70.402653389344778 263.87398331176109 0 0 0 0 55.365806166687889 -110.92584972409031 0 -110.92584972409031 215.84777477924172 0 0 0 0 53.011189943315912 -124.19469758933923 0 -124.19469758933923 320.72943647274997 0 0 0 0 -26.898897802799581 -16.996978850814514 0 -16.996978850814514 33.660978367559437 0 0 0 0 -81.721492872054114 105.12954026937405 0 105.12954026937405 -49.537177232342628 0 0 0 0 -2.4075753070630412 1.6826773353115785 0 1.6826773353115785 3.326689838114028 0 0 0 0 -2.9456550930183312 -70.194771505557867 0 -70.194771505557867 62.073518141726709 0 0 0 0 -98.350306259767876 10.187105710433116 0 10.187105710433116 46.449349756855611 0 0 0 0 -142.05033168453065 153.238497796812 0 153.238497796812 -72.594094351239391 0 0 0 0 -0.637108886695124 -0.16443921027767616 0 -0.16443921027767616 0.16805946853895026 0 0 0 0 4.006664479772553 -45.354345835052015 0 -45.354345835052015 60.299006081937023 0 0 0 0 -15.819681911492808 -14.833101031616707 0 -14.833101031616707 45.389197886594729 0 0 0 0 -21.722396453759757 -49.04520313949115 0 -49.04520313949115 65.250629646662787 0 0 0 0 -0.44392402125533259 -0.031624826144564633 0 -0.031624826144564633 0.28528570388250785 0 0 0 0 10.988353554186233 -60.7347538347708 0 -60.7347538347708 69.234164416603221 0 0 0 0 21.200171816051352 -22.24517974809396 0 -22.24517974809396 66.637463355332784 0 0 0 0 26.533394297192444 -60.67937581949991 0 -60.67937581949991 50.138684207439383 0 0 0 0 -22.802868929657734 -55.143786461060742 0 -55.143786461060742 65.534856078682424 0 0 0 0 61.559918713007846 -65.469216377640578 0 -65.469216377640578 64.568524746947105 0 0 0 0 -38.689653081021788 -81.62683138933653 0 -81.62683138933653 116.82804229941803 0 0 0 0 35.359175575979407 -19.356700097260727 0 -19.356700097260727 94.938283517492323 0 0 0 0 -106.48323924777924 37.616676857536959 0 37.616676857536959 295.44930251527103 0 0 0 0 19.735671745857644 -41.44380021188033 0 -41.44380021188033 272.64487411055825 0 0 0 0 82.232693772727544 -32.395541060472851 0 -32.395541060472851 154.46297911041131 0 0 0 0 119.67611231606566 -49.001992196809738 0 -49.001992196809738 46.192415496605008 0 0 0 0 52.017011116170579 -69.911592440392496 0 -69.911592440392496 142.67755665403388 0 0 0 0 13.456274354354264 -75.587947780911236 0 -75.587947780911236 322.54095420002841 0 0 0 0 142.7212529752984 -49.413691398493313 0 -49.413691398493313 15.860542662404896 0 0 0 0 107.65044437186089 -148.71575652685726 0 -148.71575652685726 186.62797185533498 0 0 0 0 80.173618311173868 -4.6118495765592797 0 -4.6118495765592797 92.611027967017208 0 0 0 0 -29.061929476500381 79.167741643697696 0 79.167741643697696 10.539527960183477 0 0 0 0 -5.9611894540907997 13.18512505819308 0 13.18512505819308 21.362558465586972 0 0 0 0 85.830292133927287 -2.0586645953235347 0 -2.0586645953235347 -0.39171189692297048 0 0 0 0 65.76237718933362 -42.281900247789622 0 -42.281900247789622 34.958058427436754 0 0 0 0 3.2644670804391005 10.597449068902424 0 10.597449068902424 28.125244937637007 0 0 0 0 -58.199791909351006 29.341639917535531 0 29.341639917535531 34.010578021170659 0 0 0 0 50.99197612933267 -43.15077759679275 0 -43.15077759679275 52.589199066492029 0 0 0 0 51.645535209129775 -31.584994364260297 0 -31.584994364260297 33.816922066870575 0 0 0 0 42.769727920448531 -24.682195725428755 0 -24.682195725428755 42.21000894215922 0 0 0 0 58.290349443795094 -11.702874844900521 0 -11.702874844900521 27.320098972626511 0 0 0 0 33.914173211941943 -14.044937092210148 0 -14.044937092210148 18.948348811406959 0 0 0 0 0.0037363215137453665 1.8972584242801691 0 1.8972584242801691 4.8828510474597788 0 0 0 0 -1.5939920787814117 14.708558643401375 0 14.708558643401375 47.836974864370404 0 0 0 0 9.5615350778684842 -35.505415296609613 0 -35.505415296609613 52.902941104852289 0 0 0 0 -33.347443600643601 14.576171278537004 0 14.576171278537004 31.506643052261552 0 0 0 0 1.7056806785077878 9.7372051963435986 0 9.7372051963435986 28.760453527650242 0 0 0 0 -26.612326006148123 7.5172906021956578 0 7.5172906021956578 38.864238119072979 0 0 0 0 -16.733409061749626 1.7413920378232888 0 1.7413920378232888 36.473433929191174 0 0 0 0 -8.0606346839444001 -1.9021647440515252 0 -1.9021647440515252 14.337332558164791 0 0 0 0 -6.0348614911786171 -0.91393551727706779 0 -0.91393551727706779 18.921051778846788 0 0 0 0 -8.2257445546715644 0.10279243436612262 0 0.10279243436612262 15.00294106369293 0 0 0 0 -7.5241041020344088 1.5342113473678123 0 1.5342113473678123 5.915429941331773 0 0 0 0 -4.6155243628192011 0.33595829637800634 0 0.33595829637800634 7.6883099817357987 0 0 0 0 -11.544059005349993 -10.470795557094061 0 -10.470795557094061 10.342223656079028 0 0 0 0 -5.7254079630585126 -5.6383503075312298 0 -5.6383503075312298 10.362977171441671 0 0 0 0 -1.615747439434017 -1.0743336105317667 0 -1.0743336105317667 26.820453452462516 0 0 0 0 -3.5512287456517271 0.91834592155643602 0 0.91834592155643602 13.691545654941931 0 0 0 0 -6.4083998019507931 0.43387171496773647 0 0.43387171496773647 16.402774918370937 0 0 0 0 -3.0517386446155115 3.0134373783316732 0 3.0134373783316732 10.094349970150077 0 0 0 0 -4.9791977698150198 -0.64838944981183821 0 -0.64838944981183821 4.981219098247931 0 0 0 0 -2.3105803817820618 0.56494723308689831 0 0.56494723308689831 3.4915621275194026 0 0 0 0 9.58901908419557 -7.2658438598718931 0 -7.2658438598718931 20.136666618239815 0 0 0 0 -2.6122479685734561 -2.3820409979058468 0 -2.3820409979058468 15.601328528975046 0 0 0 0 2.104874618004942 -12.254658052358991 0 -12.254658052358991 31.365284975855957 0 0 0 0 0.39951464883415611 -14.800891308937935 0 -14.800891308937935 44.185404414575714 0 0 0 0 0.54973294178080323 -17.755535528195651 0 -17.755535528195651 41.122086729174953 0 0 0 0 2.9785026480421948 -24.213588666516898 0 -24.213588666516898 52.037072994246273 0 0 0 0 -4.1469322922778247 -24.867937062836802 0 -24.867937062836802 57.516448857672003 0 0 0 0 -2.4218900823752847 -9.9920404851377498 0 -9.9920404851377498 48.157741804346188 0 0 0 0 -1.1180592963744402 -13.663810596131157 0 -13.663810596131157 51.919510569511658 0 0 0 0 0.80508481446759106 -14.753986043427631 0 -14.753986043427631 61.878681943545217 0 0 0 0 5.5846342434015241 -2.9528307500750088 0 -2.9528307500750088 47.158532925300733 0 0 0 0 -1.7495717535159656 -0.77832623290464653 0 -0.77832623290464653 60.473422987372942 0 0 0 0 -3.4527494855760779 -14.262072434450602 0 -14.262072434450602 87.495526971250911 0 0 0 0 -3.6958127784002954 -10.127599974597842 0 -10.127599974597842 61.773763077281274 0 0 0 0 -3.8494072319144834 -27.11753836129742 0 -27.11753836129742 72.529349336978385 0 0 0 0 9.5675693770469934 -38.204514083763115 0 -38.204514083763115 85.601294354182301 0 0 0 0 9.5276603663887727 -25.217417322347046 0 -25.217417322347046 61.750214464006149 0 0 0 0 -10.473239843333999 -20.220542130092895 0 -20.220542130092895 71.779100295474564 0 0 0 0 -26.371008552573812 -44.344379159872062 0 -44.344379159872062 65.088219670264607 0 0 0 0 6.8899458614987452 -31.423582208203129 0 -31.423582208203129 48.570712753790303 0 0 0 0 -0.81371685816202444 -35.698534263069178 0 -35.698534263069178 67.661255311655623 0 0 0 0 -2.7742730220974008 -1.4225790323772429 0 -1.4225790323772429 6.371513141164229 0 0 0 0 -4.2766557393035782 1.4754704039223725 0 1.4754704039223725 9.8722481739314389 0 0 0 0 1.6154455673530492 4.7873611321047065 0 4.7873611321047065 14.776784517620399 0 0 0 0 3.1828849375893924 6.2001743567670928 0 6.2001743567670928 14.336592453405501 0 0 0 0 -1.9719779668255468 1.0108471272942552 0 1.0108471272942552 3.1453256484892336 0 0 0 0 -4.145826361300692 -1.4515677803392464 0 -1.4515677803392464 6.1661260426299123 0 0 0 0 0.31958617881174267 -0.87989066117448544 0 -0.87989066117448544 2.1994252121688334 0 0 0 0 -2.4130470315588819 -0.31325709732723794 0 -0.31325709732723794 4.4959454109984733 0 0 0 0 -0.85521047703986464 0.87602838658780868 0 0.87602838658780868 3.2857552431655108 0 0 0 0 -2.1200275617228286 1.4120541593620146 0 1.4120541593620146 5.5228299706432153 0 0 0 0 0.21468831549181924 0.46451290359811637 0 0.46451290359811637 0.43697152611079559 0 0 0 0 0.00019409644649403352 5.6741681739295018 0 5.6741681739295018 -4.1257164473063312 0 0 0 0 -0.49309856514416939 2.847571861372721 0 2.847571861372721 2.1124624624812753 0 0 0 0 10.213421461223987 7.1018319587019505 0 7.1018319587019505 0.65709522986435331 0 0 0 0 -1.6362826706288263 0.33212266558439296 0 0.33212266558439296 2.5210932516638422 0 0 0 0 -8.0009701127627721 7.1952277478885662 0 7.1952277478885662 -2.7062582726648543 0 0 0 0 0.058031389835020777 0.28901931436090678 0 0.28901931436090678 0.5166790587688439 0 0 0 0 1.368577813415726 4.5082978210593865 0 4.5082978210593865 1.2670600832425407 0 0 0 0 5.6820311824081564 11.616712313065364 0 11.616712313065364 0.45020343305077404 0 0 0 0 2.0551842559546296 6.3347697462828734 0 6.3347697462828734 5.7455730929974109 0 0 0 0 -1.998224993727078 13.151988394387445 0 13.151988394387445 4.8782440499489894 0 0 0 0 1.5308413070631937 5.7454626437688106 0 5.7454626437688106 8.5347621376015326 0 0 0 0 -4.0174146143409573 10.906473846967856 0 10.906473846967856 13.27391750625975 0 0 0 0 2.3084326838959441 5.9535792726055661 0 5.9535792726055661 8.2463588841128512 0 0 0 0 -7.8671637329425721 7.0574870837663184 0 7.0574870837663184 36.678547866324152 0 0 0 0 0.089001955387853215 5.3473568531578781 0 5.3473568531578781 14.993198238981194 0 0 0 0 -6.8692002524821874 -0.56685891256347531 0 -0.56685891256347531 14.150641972817539 0 0 0 0 0.67689480535562807 3.4974549598653084 0 3.4974549598653084 1.2627610445537982 0 0 0 0 20.012046402773194 25.392592618634808 0 25.392592618634808 8.1653684997982054 0 0 0 0 7.4028727250535873 10.886143924571961 0 10.886143924571961 14.372509651890631 0 0 0 0 2.0413491263142305 12.458451051060365 0 12.458451051060365 18.062122379662469 0 0 0 0 0.36645162932882158 5.1579929509753129 0 5.1579929509753129 13.151459731539944 0 0 0 0 2.4476038473673043 3.16403680590156 0 3.16403680590156 14.674784604383603 0 0 0 0 3.5007605114544731 2.5136571144284972 0 2.5136571144284972 13.716894533741652 0 0 0 0 0.96909279830492778 -2.2870403622146114 0 -2.2870403622146114 11.834319941830472 0 0 0 0 -0.39937606697465428 -1.6003718927060575 0 -1.6003718927060575 9.2511448130201899 0 0 0 0 -1.7643259330015448 0.48359514171393059 0 0.48359514171393059 15.652831863738783 0 0 0 0 -9.749449478292604 -0.53506215104289367 0 -0.53506215104289367 18.040642521125847 0 0 0 0 -9.4459114453027269 -11.936815283886972 0 -11.936815283886972 53.814207959469059 0 0 0 0 5.4099577125808054 -9.1662193623851635 0 -9.1662193623851635 9.0375206435710425 0 0 0 0 -3.5775592841369814 -17.649542266151911 0 -17.649542266151911 29.378980474546552 0 0 0 0 8.519987687695119 -9.0923712998417159 0 -9.0923712998417159 -9.8217322641066858 0 0 0 0 -2.4493590352932699 3.4940313255392539 0 3.4940313255392539 2.2918975934735499 0 0 0 0 8.0716767711016359 -15.496277339138032 0 -15.496277339138032 21.09254782347125 0 0 0 0 -5.9853205688563662 -7.3593680628182483 0 -7.3593680628182483 0.61448779327474767 0 0 0 0 -8.9765754549335952 -3.7138931721474364 0 -3.7138931721474364 8.6314783716661623 0 0 0 0 -0.57074130022013991 -1.2957705422267338 0 -1.2957705422267338 4.3156767848889501 0 0 0 0 -2.6992759662898607 -2.4267614132058952 0 -2.4267614132058952 6.2223677914371365 0 0 0 0 -0.0032961893378594645 -1.5071545352091751 0 -1.5071545352091751 3.6441358438751195 0 0 0 0 -0.33257674052412511 -0.92628134676488116 0 -0.92628134676488116 5.0464814898623445 0 0 0 0 -0.97761000277259003 -0.14466550741854434 0 -0.14466550741854434 2.0905531447668579 0 0 0 0 16.074614225493924 -27.536415926660993 0 -27.536415926660993 48.986615489367978 0 0 0 0 0.42789156143896734 -0.334316502804473 0 -0.334316502804473 0.37002491358086331 0 0 0 0 1.994339719957601 -1.5264427324113541 0 -1.5264427324113541 1.2896303708997294 0 0 0 0 -6.1493382109885104e-06 -0.82294969494068937 0 -0.82294969494068937 1.7681111113342922 0 0 0 0 15.725776349099103 -24.076313216559356 0 -24.076313216559356 29.682076553195657 0 0 0 0 0.0071823429429555483 -0.8148853182210587 0 -0.8148853182210587 1.6804319318616763 0 0 0 0 0.04717998068970615 -19.335728938052853 0 -19.335728938052853 91.924720926908776 0 0 0 0 3.009366099565451 -13.82268087445118 0 -13.82268087445118 85.581215600570431 0 0 0 0 -6.4104241042230345 1.0247112404103973 0 1.0247112404103973 78.219484439214284 0 0 0 0 -8.1850849876850162 -6.5685740792177967 0 -6.5685740792177967 99.694186802378681 0 0 0 0 0.65347238673067665 -1.0277760461467551 0 -1.0277760461467551 36.020627646652429 0 0 0 0 -5.6149326924814247 19.40253867728461 0 19.40253867728461 86.994788824173156 0 0 0 0 -7.9802203581767088 12.997026893535804 0 12.997026893535804 74.112844047835097 0 0 0 0 -15.223709331065194 -5.9244971277657896 0 -5.9244971277657896 82.260501426015253 0 0 0 0 -12.947973769097601 -23.713872400308901 0 -23.713872400308901 50.170279364869202 0 0 0 0 -15.919322457426372 -11.295544814725872 0 -11.295544814725872 100.84044748298766 0 0 0 0 -13.505364645064954 -8.4102898038909188 0 -8.4102898038909188 64.839145987687516 0 0 0 0 -10.851869080168477 -7.3466664001307436 0 -7.3466664001307436 62.965629444966908 0 0 0 0 -10.504399045028888 -5.7894130322256387 0 -5.7894130322256387 60.589031718525803 0 0 0 0 -1.7030339649459663 -12.868920080894895 0 -12.868920080894895 53.669505490281153 0 0 0 0 2.5821557928737562 -12.087155449706188 0 -12.087155449706188 41.028877839518827 0 0 0 0 -3.2441533952170793 -2.4057079881910255 0 -2.4057079881910255 11.247307233603131 0 0 0 0 0.071529662275943859 4.5468617722799536 0 4.5468617722799536 69.602075006376253 0 0 0 0 1.0270684550824487 1.5942321188304049 0 1.5942321188304049 52.350739324654569 0 0 0 0 -13.595998677449552 -1.3635725791755249 0 -1.3635725791755249 79.538387288965168 0 0 0 0 -13.675424648554197 -2.7933589829553966 0 -2.7933589829553966 66.716108829408768 0 0 0 0 -5.3786737384084358 0.2147318751704006 0 0.2147318751704006 47.612728060434165 0 0 0 0 -8.287312946029644 -10.229719274968375 0 -10.229719274968375 40.556905418248789 0 0 0 0 -15.2051758380429 -1.2394632906343759 0 -1.2394632906343759 31.461179118297878 0 0 0 0 -0.051192266970727957 -20.76513209595214 0 -20.76513209595214 -10.494814850288094 0 0 0 0 0.05183754756979897 -0.26072254463797151 0 -0.26072254463797151 -0.40599108612742896 0 0 0 0 -6.687392961098455 6.0287840999371838 0 6.0287840999371838 17.318387775754672 0 0 0 0 13.218437389237693 -13.143380297828116 0 -13.143380297828116 14.977565242224955 0 0 0 0 -0.23412021812811901 -11.968135764298495 0 -11.968135764298495 19.649170091739506 0 0 0 0 0.75421231168349667 -4.303636241772665 0 -4.303636241772665 8.1956727921747472 0 0 0 0 19.109370162473965 -13.340603046159231 0 -13.340603046159231 22.266528043826838 0 0 0 0 19.572066279207434 -25.475187806739996 0 -25.475187806739996 27.570480121568835 0 0 0 0 6.5897943774466654 -24.485780209689437 0 -24.485780209689437 30.632916904258309 0 0 0 0 20.833159078054035 -22.026189994780225 0 -22.026189994780225 61.213556627197249 0 0 0 0 22.187240866633495 -40.130101696807287 0 -40.130101696807287 54.884483566042036 0 0 0 0 5.0854827888773286 -34.564111168630916 0 -34.564111168630916 53.164794994161639 0 0 0 0 -25.298372064490078 -20.723443603554188 0 -20.723443603554188 58.377042208740022 0 0 0 0 9.7589810382706901 -39.511023567225493 0 -39.511023567225493 16.311554463497487 0 0 0 0 5.2128518074363797 -28.744053854985395 0 -28.744053854985395 74.137103699969884 0 0 0 0 19.622602278974995 -26.298290376362274 0 -26.298290376362274 51.921751655645494 0 0 0 0 8.0302469680791546 -25.305436712042138 0 -25.305436712042138 57.480412527603221 0 0 0 0 15.73879323320279 -26.772655788270846 0 -26.772655788270846 20.467108091884548 0 0 0 0 11.146888436718314 -28.675039923124132 0 -28.675039923124132 27.663597921713517 0 0 0 0 24.602008687841078 -23.763026448159508 0 -23.763026448159508 29.121788654276315 0 0 0 0 8.7949032118880268 -18.937763664856902 0 -18.937763664856902 52.279266489133306 0 0 0 0 3.898102918988684 -14.673964861917284 0 -14.673964861917284 94.300955748432898 0 0 0 0 15.088638914390117 -44.702642430895139 0 -44.702642430895139 76.428394888145704 0 0 0 0 78.760378196169484 9.4069245343343937 0 9.4069245343343937 3.7220115622985759 0 0 0 0 -15.92013133995084 14.396344631932678 0 14.396344631932678 30.672747587446324 0 0 0 0 -18.517633935124426 -17.26782137995724 0 -17.26782137995724 115.69712034525583 0 0 0 0 0.91142671756282967 -0.46217991594042473 0 -0.46217991594042473 0.28423082198258953 0 0 0 0 12.401907172287792 -34.15990930551925 0 -34.15990930551925 -5.4363443696711329 0 0 0 0 -18.571471015729557 26.628699925457113 0 26.628699925457113 137.77989778763003 0 0 0 0 -17.545847389201533 19.486279107420671 0 19.486279107420671 27.720905099522028 0 0 0 0 -31.74927301445797 5.7234503192048578 0 5.7234503192048578 47.445184585201787 0 0 0 0 -49.538460816432149 -14.403562757268446 0 -14.403562757268446 92.185807720627054 0 0 0 0 -38.28946783001868 -50.334976476369775 0 -50.334976476369775 192.79428753965476 0 0 0 0 17.366205792978093 -51.881846016949567 0 -51.881846016949567 46.160264668025775 0 0 0 0 6.8585461207892955 -42.194856391091207 0 -42.194856391091207 58.475020874349866 0 0 0 0 6.0210013168355658 -27.821168674272485 0 -27.821168674272485 10.324316110360087 0 0 0 0 -12.444501066122939 -51.208670820569751 0 -51.208670820569751 111.34122320860843 0 0 0 0 -12.051712528911594 -45.307302844676087 0 -45.307302844676087 99.082847928715637 0 0 0 0 -1.9354906387925439 21.573648685754961 0 21.573648685754961 109.31862951549328 0 0 0 0 11.418574490854553 -62.075358305472037 0 -62.075358305472037 92.169626093174884 0 0 0 0 -7.7602486498035432 -56.055770344999473 0 -56.055770344999473 117.54717082405159 0 0 0 0 13.916119135271117 -49.481271892140967 0 -49.481271892140967 79.028586678337888 0 0 0 0 -0.60746460865811969 -39.208273835145519 0 -39.208273835145519 69.310764914797801 0 0 0 0 8.0056881637328843 -52.614461987835966 0 -52.614461987835966 73.355616407854541 0 0 0 0 13.892229043132716 -28.707492702187665 0 -28.707492702187665 39.414296674171055 0 0 0 0 8.4861130452986799 -46.206358544848626 0 -46.206358544848626 22.065868092286109 0 0 0 0 12.505464588611751 -24.422776960596522 0 -24.422776960596522 16.014013069933384 0 0 0 0 24.538772447021074 -43.598247233592701 0 -43.598247233592701 -15.988489906330869 0 0 0 0 20.392005615591188 -24.93341320739728 0 -24.93341320739728 2.4267830265816883 0 0 0 0 4.0404296616939632 -34.82346500003041 0 -34.82346500003041 2.9407335121286451 0 0 0 0 2.374182188561468 -1.880478747700451 0 -1.880478747700451 7.9417270220909302 0 0 0 0 7.838492060277316 -22.663553844799111 0 -22.663553844799111 14.144250159267493 0 0 0 0 8.0230856461452902 -17.015290599849322 0 -17.015290599849322 63.447995394057216 0 0 0 0 11.506722433431605 -10.310308567204629 0 -10.310308567204629 54.142872012682346 0 0 0 0 2.1980137543253186 0.069251868468299449 0 0.069251868468299449 -1.0857740652693124 0 0 0 0 3.8457062132981719 14.940240580683167 0 14.940240580683167 37.885223893150396 0 0 0 0 2.2643979371732961 -6.2031366263335457 0 -6.2031366263335457 7.3319146182803614 0 0 0 0 -26.305377145572038 -15.646188373837504 0 -15.646188373837504 39.591825071060612 0 0 0 0 -30.076196757864182 -29.124366683994594 0 -29.124366683994594 -6.9946834468282759 0 0 0 0 -56.56005736392035 -8.9834055976680247 0 -8.9834055976680247 99.450295654911315 0 0 0 0 -45.132567041196694 26.556667232427571 0 26.556667232427571 -152.77269590079959 0 0 0 0 -2.3750517748716415 -1.7914059247421505 0 -1.7914059247421505 6.4809869206842663 0 0 0 0 1.9250790110406744 -15.94646872217595 0 -15.94646872217595 12.224461495650822 0 0 0 0 -3.9892099262240208 -15.277692557188857 0 -15.277692557188857 27.956887336629734 0 0 0 0 7.8307024931627893 -6.898850422596297 0 -6.898850422596297 -3.0295353365072515 0 0 0 0 16.434041091931249 -12.481856952592352 0 -12.481856952592352 0.58697936721364385 0 0 0 0 17.166028955383609 -3.1408524220801155 0 -3.1408524220801155 -3.9199789699268877 0 0 0 0 -5.3740481304948844 -5.7188573915082088 0 -5.7188573915082088 5.0877141416003724 0 0 0 0 9.3991377745337559 -6.4717661484255586 0 -6.4717661484255586 -5.706258602647722 0 0 0 0 1.6536356794825342 -2.5449151792014533 0 -2.5449151792014533 3.3363923390320025 0 0 0 0 -2.391954880273488 -7.9581406423822045 0 -7.9581406423822045 -4.4619277495112328 0 0 0 0 -1.9749821399909706 -7.4018747824302409 0 -7.4018747824302409 -5.7187084691540804 0 0 0 0 0.84445857351238374 -3.7471905553356919 0 -3.7471905553356919 3.5553939585806802 0 0 0 0 -0.32105162901248185 -0.1002569261912214 0 -0.1002569261912214 1.1517129199078155 0 0 0 0 1.8272875029686717 -4.1841967721539923 0 -4.1841967721539923 -0.87271489105020805 0 0 0 0 9.3674992082687822 7.1624961190227623 0 7.1624961190227623 23.149582315978478 0 0 0 0 23.385795162120303 8.1041217182973924 0 8.1041217182973924 22.203645973888342 0 0 0 0 -5.837547723507214 -4.6389076567684242 0 -4.6389076567684242 11.521776031629997 0 0 0 0 134.97689345961317 -48.533066602620238 0 -48.533066602620238 20.270196637537083 0 0 0 0 69.851408906326924 -16.223631356591795 0 -16.223631356591795 -8.6707634051053901 0 0 0 0 43.666740125591332 -67.469619570483701 0 -67.469619570483701 71.51116618611195 0 0 0 0 28.583272098191173 13.656625344719941 0 13.656625344719941 -2.0153922674508067 0 0 0 0 62.087408432327265 -131.06302936939028 0 -131.06302936939028 207.0892571288714 0 0 0 0 -9.957208728956175 39.132215041227028 0 39.132215041227028 202.2216027846589 0 0 0 0 0.90385589501934804 -1.0437345454806781 0 -1.0437345454806781 1.0427447332497479 0 0 0 0 26.665658198393203 57.895033923516166 0 57.895033923516166 149.23909477873895 0 0 0 0 31.462692102921665 -103.24119234694808 0 -103.24119234694808 205.55291029088858 0 0 0 0 42.71839048358072 -84.398164286481006 0 -84.398164286481006 95.121593136642332 0 0 0 0 7.3484139530784205 -53.667873472088104 0 -53.667873472088104 103.66954654469009 0 0 0 0 71.077441459647503 -49.986109717310228 0 -49.986109717310228 39.783004540593538 0 0 0 0 -9.5141315350377482 9.0778815822773851 0 9.0778815822773851 13.793501092779003 0 0 0 0 -4.4599402179684375 -11.468813014598709 0 -11.468813014598709 40.349109385213524 0 0 0 0 145.30644497971934 -108.70324255806372 0 -108.70324255806372 65.098831094706838 0 0 0 0 -14.484950126486904 2.9386892085754752 0 2.9386892085754752 18.295231721130477 0 0 0 0 -11.31463338857634 -5.0949872548499116 0 -5.0949872548499116 36.108718068899179 0 0 0 0 -5.8409611496271712 -8.1242979955270798 0 -8.1242979955270798 24.190350085925218 0 0 0 0 -11.786899621138446 -7.4661884808465402 0 -7.4661884808465402 24.20352513169928 0 0 0 0 -10.779677080716738 1.7858882901728066 0 1.7858882901728066 27.671166392846317 0 0 0 0 -10.903697936112621 0.99105135895297281 0 0.99105135895297281 33.23951652948017 0 0 0 0 -9.2765401861865939 1.4193440559156443 0 1.4193440559156443 32.860835968579522 0 0 0 0 -19.311205675632777 7.9456726162743507 0 7.9456726162743507 30.575349739607191 0 0 0 0 -17.610261845450395 7.6974626868159248 0 7.6974626868159248 29.757918366374724 0 0 0 0 -13.632025843734482 19.583871480841481 0 19.583871480841481 34.233877995127841 0 0 0 0 -20.567149182124354 14.013583776421001 0 14.013583776421001 20.610070209280821 0 0 0 0 -14.782443081781082 -3.5887527924960523 0 -3.5887527924960523 25.82467220689432 0 0 0 0 -31.285025112194035 3.7540405353756796 0 3.7540405353756796 36.418271925544872 0 0 0 0 -18.33942527177112 -6.4969655353816052 0 -6.4969655353816052 46.348558873682123 0 0 0 0 6.9919223110702049 -15.057597931166129 0 -15.057597931166129 36.126954302810191 0 0 0 0 -11.059617868017796 -4.7335282808880947 0 -4.7335282808880947 36.5088166095411 0 0 0 0 -11.701106954451348 -4.1015768718607433 0 -4.1015768718607433 38.691563578726345 0 0 0 0 7.2076109004369044 -20.434398738416348 0 -20.434398738416348 -4.159908541252662 0 0 0 0 -4.6813595695967285 12.021070533092249 0 12.021070533092249 17.246374075780913 0 0 0 0 33.616112862889622 -5.0846448993215745 0 -5.0846448993215745 62.843162630406368 0 0 0 0 -48.509996095309617 26.10186611866061 0 26.10186611866061 113.25025063097564 0 0 0 0 -31.012239435335914 -47.435964434411289 0 -47.435964434411289 52.636356328024704 0 0 0 0 2.7546001082532712 66.256266082662478 0 66.256266082662478 127.15524818141967 0 0 0 0 233.01179862752747 127.68414798742378 0 127.68414798742378 -33.554658879213093 0 0 0 0 -0.46302583286501564 15.695906446437704 0 15.695906446437704 19.012320728339468 0 0 0 0 -8.5146889242300006 -46.829039992057005 0 -46.829039992057005 158.07895740426102 0 0 0 0 8.6710040211820996 -48.170401481575936 0 -48.170401481575936 88.811612497334863 0 0 0 0 -1.2590366299464222 -45.999715190004281 0 -45.999715190004281 135.35791414862979 0 0 0 0 -3.5023775051363373 -52.996321514394367 0 -52.996321514394367 133.31876175674552 0 0 0 0 4.9701118469834 -35.568977627832282 0 -35.568977627832282 135.6873671135877 0 0 0 0 4.1494811406155918 -45.173680679058634 0 -45.173680679058634 101.3943816439787 0 0 0 0 -3.1636443294868286 -49.352842099173358 0 -49.352842099173358 138.66208706687758 0 0 0 0 -8.2573332571122364 -43.350295012569404 0 -43.350295012569404 102.76957792337907 0 0 0 0 -1.5241453721111746 -23.656644075865188 0 -23.656644075865188 78.727990719238733 0 0 0 0 -2.6823377813599465 5.8147253713915319 0 5.8147253713915319 3.0305555560888866 0 0 0 0 16.005085404120273 -5.2845245554808571 0 -5.2845245554808571 -12.025194494461175 0 0 0 0 3.6597202075609658 -46.515619345269442 0 -46.515619345269442 46.141021465587983 0 0 0 0 -19.053527163646095 -14.396534844632697 0 -14.396534844632697 71.525324371428724 0 0 0 0 9.2643398770374006 -29.525308519576356 0 -29.525308519576356 59.905063408306887 0 0 0 0 -0.23960983610102615 0.71025135286798502 0 0.71025135286798502 1.3890010795927168 0 0 0 0 -37.304418918223746 -25.21141677936248 0 -25.21141677936248 84.564465279419096 0 0 0 0 30.062932887424495 -49.061061031097779 0 -49.061061031097779 84.327194015928399 0 0 0 0 45.319137519833248 -45.13878915281748 0 -45.13878915281748 99.33552861258795 0 0 0 0 3.5047454892987275 -44.734327705124997 0 -44.734327705124997 101.45440767746913 0 0 0 0 33.177406361403655 -77.754366040528112 0 -77.754366040528112 125.92466998572309 0 0 0 0 3.7375303522512695 -49.193066587096837 0 -49.193066587096837 115.68577131006168 0 0 0 0 18.725354123403463 -56.04665653957727 0 -56.04665653957727 41.014630347657658 0 0 0 0 -18.850397441035057 20.45977715033041 0 20.45977715033041 73.134348551883704 0 0 0 0 20.775749108409741 -28.270984410883102 0 -28.270984410883102 45.437174214130209 0 0 0 0 -0.75229213379223747 0.15913086532528098 0 0.15913086532528098 1.8618852072621923 0 0 0 0 -0.6808934763275829 -10.247565339264838 0 -10.247565339264838 -8.0364827448829601 0 0 0 0 -34.486788741883856 -17.556944501828184 0 -17.556944501828184 25.132765207850753 0 0 0 0 -4.3905472850854039 3.8198534051298338 0 3.8198534051298338 31.107402866473876 0 0 0 0 19.50675829115653 24.328935178888059 0 24.328935178888059 33.136750236008083 0 0 0 0 -0.65209269528031655 14.168831221075379 0 14.168831221075379 28.396217162407993 0 0 0 0 11.444257228177662 10.672508046131043 0 10.672508046131043 18.073383207927691 0 0 0 0 1.7181969197963554 5.3007457309290658 0 5.3007457309290658 26.781172023860563 0 0 0 0 -1.3829983796485346 4.9994719728450931 0 4.9994719728450931 6.1341390836832375 0 0 0 0 -6.1585113743875581 6.6671945940433943 0 6.6671945940433943 26.61300964588736 0 0 0 0 0.1039086078208129 -0.094395044197881361 0 -0.094395044197881361 8.9692720469683991 0 0 0 0 1.3293864485649864 -1.4519666187013485 0 -1.4519666187013485 4.6479624488243871 0 0 0 0 -1.4704307033241184 -7.9361760308232903 0 -7.9361760308232903 11.322563475674215 0 0 0 0 -2.897795088812245 -1.1971113777699429 0 -1.1971113777699429 39.838691098695563 0 0 0 0 2.0431949979406454 -8.2275545967586368 0 -8.2275545967586368 34.600229552060227 0 0 0 0 8.510805194004206 -2.7454720050618562 0 -2.7454720050618562 -6.8804291824126267 0 0 0 0 0.60530921622132805 -10.755604533051013 0 -10.755604533051013 9.1570747208455288 0 0 0 0 10.049331278998579 -8.1136061736287957 0 -8.1136061736287957 -16.935882988735102 0 0 0 0 5.1339572400565885 -16.027305041061481 0 -16.027305041061481 -16.881924193381565 0 0 0 0 1.1049656330551718 -4.5291478970323631 0 -4.5291478970323631 3.8294539396900262 0 0 0 0 3.0064132226962101 -12.897015767626726 0 -12.897015767626726 -3.9735868926800322 0 0 0 0 -8.8619425315223452 -86.164584468169778 0 -86.164584468169778 -105.65984650803148 0 0 0 0 3.6177822042400294 -9.1198726270849875 0 -9.1198726270849875 -8.5954769508971367 0 0 0 0 -10.111132853618983 -8.7785089628632704 0 -8.7785089628632704 -0.73409152717249526 0 0 0 0 -73.67506888231992 -29.696341723758451 0 -29.696341723758451 40.760072178076371 0 0 0 0 11.962253885816608 -20.730322938521567 0 -20.730322938521567 21.957469562220581 0 0 0 0 -0.24840578012182535 -2.7789087243649355 0 -2.7789087243649355 2.9112090532267274 0 0 0 0 -0.55847399848948953 -11.837261410870269 0 -11.837261410870269 21.542327756247687 0 0 0 0 0.48092060583257989 -3.7873056548996828 0 -3.7873056548996828 21.753715962369824 0 0 0 0 2.1957218089981554 -11.450213471888304 0 -11.450213471888304 11.30820002818237 0 0 0 0 7.0131844695465588 -18.003670473699458 0 -18.003670473699458 15.684379612284829 0 0 0 0 -3.0852755558488436 5.0102720347622949 0 5.0102720347622949 2.7424788357849366 0 0 0 0 -6.203350530939133 -5.4650154056907922 0 -5.4650154056907922 50.606495784752042 0 0 0 0 0.41505655713217493 -20.890932832435283 0 -20.890932832435283 44.329159551758494 0 0 0 0 -7.8727148987163673 -7.9688258163587307 0 -7.9688258163587307 46.920989314088729 0 0 0 0 3.8513056429687822 4.4997776177497144 0 4.4997776177497144 34.055523028928292 0 0 0 0 34.078479405789267 -55.213785909854778 0 -55.213785909854778 72.841735323941975 0 0 0 0 -18.24899932547396 16.122507950753061 0 16.122507950753061 106.69982254474598 0 0 0 0 -5.1058109684971669 -7.8849204308444314 0 -7.8849204308444314 25.155821353568172 0 0 0 0 -4.5854296787101054 4.1791542018565124 0 4.1791542018565124 4.6346490421704267 0 0 0 0 -8.6009586995651262 -7.1446323906784528 0 -7.1446323906784528 14.193166894860042 0 0 0 0 -0.81413848128801281 -4.2279014903405283 0 -4.2279014903405283 10.301291405589794 0 0 0 0 2.3007930222729556 -3.5574863691736027 0 -3.5574863691736027 12.130511047493201 0 0 0 0 -11.729792611326275 -5.3249694962860303 0 -5.3249694962860303 36.189125619137485 0 0 0 0 -4.7697791453110767 -7.2798072300975036 0 -7.2798072300975036 11.059162337307498 0 0 0 0 0.32825818068797075 -3.8945440190646714 0 -3.8945440190646714 9.9339474500440232 0 0 0 0 -5.9030738724205776 -2.5111766146383161 0 -2.5111766146383161 26.301392309635048 0 0 0 0 0.98092629161124023 -2.9933163281148154 0 -2.9933163281148154 15.413523148041349 0 0 0 0 -6.6792376059087246 0.71677341871873068 0 0.71677341871873068 39.378331909381814 0 0 0 0 -4.9992140883531135 -8.0139256794236644 0 -8.0139256794236644 22.301655433109772 0 0 0 0 4.3535117668678183 -20.654133900394427 0 -20.654133900394427 31.978181711223442 0 0 0 0 -6.4199095207317312 -0.30557215666568283 0 -0.30557215666568283 2.3178294237646035 0 0 0 0 1.1319796233368606 0.24223097969661467 0 0.24223097969661467 9.7496959716208949 0 0 0 0 -7.8956614507897029 -5.4228858840924659 0 -5.4228858840924659 14.731059861815993 0 0 0 0 -0.74439609580615418 -0.95426870397443864 0 -0.95426870397443864 3.3000801865691543 0 0 0 0 5.9136541504672095 -7.6138224298683781 0 -7.6138224298683781 65.602345415376476 0 0 0 0 -64.572518944720969 96.69008369772564 0 96.69008369772564 35.698636430810438 0 0 0 0 0.35351296114147335 0.2609925832370763 0 0.2609925832370763 -0.079621341036002491 0 0 0 0 -7.9955819717451959 11.349595649458934 0 11.349595649458934 51.118375665986605 0 0 0 0 0.67434172333682074 -0.46128316450801776 0 -0.46128316450801776 0.28062431365933094 0 0 0 0 4.6446863412284074 0.1491495163700165 0 0.1491495163700165 9.6705754574468301 0 0 0 0 9.9938887677960793 -52.627667074301826 0 -52.627667074301826 73.588496241914982 0 0 0 0 36.510121589141818 -36.260783717430968 0 -36.260783717430968 4.958002461872411 0 0 0 0 -19.29509490297869 6.18976020003538 0 6.18976020003538 112.75611405516975 0 0 0 0 -10.302665102872879 -59.792647845520605 0 -59.792647845520605 112.42652155888209 0 0 0 0 19.242612605961313 118.18795097048132 0 118.18795097048132 83.511562688298 0 0 0 0 -25.741344959879825 4.2600991474646435 0 4.2600991474646435 43.264575941757357 0 0 0 0 -22.658406137865313 1.3239481827331474 0 1.3239481827331474 39.411158906139462 0 0 0 0 -22.127399931809805 2.4721572713269779 0 2.4721572713269779 32.811827946508856 0 0 0 0 -18.100764522309873 -1.7865310156867054 0 -1.7865310156867054 37.721239527953458 0 0 0 0 -25.723610580912919 -1.9130606209655525 0 -1.9130606209655525 51.177997307670012 0 0 0 0 -21.374694627915687 -13.185300021154035 0 -13.185300021154035 56.334906701359614 0 0 0 0 -5.2049172961014847 -22.094298568305021 0 -22.094298568305021 33.799260443975072 0 0 0 0 -4.715461160549296 -19.778623218647908 0 -19.778623218647908 37.432895542719052 0 0 0 0 -17.367360003841895 -8.4513076915518468 0 -8.4513076915518468 43.223579863024256 0 0 0 0 -21.866136169300262 -2.8864160810408066 0 -2.8864160810408066 36.889853855580441 0 0 0 0 -20.188392858563475 -3.0787256959956721 0 -3.0787256959956721 34.741321710585908 0 0 0 0 -15.584402886239332 -8.5966416219180246 0 -8.5966416219180246 36.838112750157961 0 0 0 0 -4.8891462562446577 -7.490963360243768 0 -7.490963360243768 28.930402181198588 0 0 0 0 -1.3890197164248548 -15.543665394467098 0 -15.543665394467098 27.432357390835023 0 0 0 0 -6.1936123392281388 -15.983214358711848 0 -15.983214358711848 34.283781069995712 0 0 0 0 -6.4165400917305195 0.153400385459733 0 0.153400385459733 -0.31263569871374486 0 0 0 0 -2.7001214720968392 2.150777748951441 0 2.150777748951441 22.754211510561163 0 0 0 0 -7.0134995024026665 0.24721814550321142 0 0.24721814550321142 33.26600431193674 0 0 0 0 -35.382187887573536 30.592510315426807 0 30.592510315426807 40.250680709104927 0 0 0 0 0.6176452648620625 37.593031601800249 0 37.593031601800249 13.098305485731544 0 0 0 0 53.41413609454537 22.555106613933276 0 22.555106613933276 -107.12698602274395 0 0 0 0 -7.385328240145614 6.1971397969121824 0 6.1971397969121824 1.0231914230161401 0 0 0 0 -8.2096603715569358 -5.3859297257196204 0 -5.3859297257196204 40.880490694040418 0 0 0 0 -4.6040507958556276 5.866404308681382 0 5.866404308681382 1.9814319020566007 0 0 0 0 13.919110507329862 -1.4615088097361877 0 -1.4615088097361877 -43.911446387855904 0 0 0 0 10.093881246994556 -62.881827154697021 0 -62.881827154697021 66.050527134384538 0 0 0 0 -0.54567017696081166 -42.70289992864673 0 -42.70289992864673 234.98269759767209 0 0 0 0 32.843055881850944 -7.0900240929058782 0 -7.0900240929058782 97.511296823124212 0 0 0 0 11.280175005759247 -63.750159825042829 0 -63.750159825042829 129.22090163224493 0 0 0 0 25.475264883348132 57.70321813904593 0 57.70321813904593 108.06037032149652 0 0 0 0 -9.9326126176570142 55.824531148309688 0 55.824531148309688 209.05467857883787 0 0 0 0 2.7814757967614678 -1.0018997740521485 0 -1.0018997740521485 -0.17661764898584664 0 0 0 0 209.62772908962177 -36.108057972916413 0 -36.108057972916413 5.94138160096918 0 0 0 0 -13.088057219048324 45.624178171738095 0 45.624178171738095 345.34394102022816 0 0 0 0 97.035886138105525 -178.8307425301391 0 -178.8307425301391 191.83220503320626 0 0 0 0 -38.817143712079087 67.31691341520127 0 67.31691341520127 274.61554951615381 0 0 0 0 124.10479334539278 69.744945603437259 0 69.744945603437259 42.737739643082023 0 0 0 0 -1.6640111491783216 -56.527473111836969 0 -56.527473111836969 323.65367119978691 0 0 0 0 109.86933823666777 -86.243551629117064 0 -86.243551629117064 107.93541985793217 0 0 0 0 65.499589679634028 -39.88700409588273 0 -39.88700409588273 19.674941940475037 0 0 0 0 56.013512280609319 -0.18076412292202804 0 -0.18076412292202804 20.985039598395815 0 0 0 0 14.166094194546929 -8.2723820816836451 0 -8.2723820816836451 32.322935697986395 0 0 0 0 47.852320447360398 -18.832464458871982 0 -18.832464458871982 46.376200157745188 0 0 0 0 0.3369030499567609 0.24019134169395784 0 0.24019134169395784 -0.23111445583944601 0 0 0 0 43.941224173032197 -53.619194738337683 0 -53.619194738337683 11.58318574167788 0 0 0 0 37.595551583847964 -28.556161661249007 0 -28.556161661249007 35.017297428908932 0 0 0 0 30.136612082409556 -44.214026682155236 0 -44.214026682155236 34.720815950196993 0 0 0 0 30.477599993912918 -45.81856277510451 0 -45.81856277510451 25.219976222195328 0 0 0 0 27.245390939569916 -39.026908245097729 0 -39.026908245097729 45.660869084314754 0 0 0 0 18.866566618158686 -41.220750693735681 0 -41.220750693735681 28.716336308276368 0 0 0 0 36.699735927132679 -41.527962227020907 0 -41.527962227020907 20.538686493742716 0 0 0 0 -13.06513169660866 -78.073178517110136 0 -78.073178517110136 111.30044743017606 0 0 0 0 145.3212204444585 -80.993396254454638 0 -80.993396254454638 24.477737317552965 0 0 0 0 36.245746770606729 -53.564287480201529 0 -53.564287480201529 18.994207896459557 0 0 0 0 66.786596298986964 9.2179442200795165 0 9.2179442200795165 3.458659552197787 0 0 0 0 19.266064942622279 5.7725853950050805 0 5.7725853950050805 22.630178240160603 0 0 0 0 30.434482647293464 -32.575146282624701 0 -32.575146282624701 81.209090538921373 0 0 0 0 18.253990201520537 20.736387416116486 0 20.736387416116486 26.844493852971937 0 0 0 0 7.7081055742521016 -12.327718930108404 0 -12.327718930108404 24.312464419359458 0 0 0 0 5.5200790375522892 -1.2488689872519885 0 -1.2488689872519885 5.9860949757331312 0 0 0 0 11.376465582423938 4.3536152453267647 0 4.3536152453267647 50.508718016179046 0 0 0 0 2.1507349078488431 2.9726979768376305 0 2.9726979768376305 0.86367834743120397 0 0 0 0 -6.6026043103361189 3.5172762854854227 0 3.5172762854854227 12.125653889816022 0 0 0 0 0.42273905974579407 3.637626817873695 0 3.637626817873695 22.401801500173924 0 0 0 0 3.8512332309672557 1.0411438022948474 0 1.0411438022948474 18.844641110307457 0 0 0 0 -2.5231240824197156 4.1860993076276998 0 4.1860993076276998 30.873840283312006 0 0 0 0 6.9499850175375286 -0.45847454521299369 0 -0.45847454521299369 26.772633485235929 0 0 0 0 7.7851566758002804 -4.6684495715229559 0 -4.6684495715229559 20.276228425846057 0 0 0 0 3.3549184017257518 -2.2869467842748055 0 -2.2869467842748055 17.089501948217816 0 0 0 0 4.531563157907966 -6.9557989094837254 0 -6.9557989094837254 18.097472519052381 0 0 0 0 5.0824205486978826 -5.9093369546590111 0 -5.9093369546590111 18.579451636400336 0 0 0 0 19.135033164561378 -3.9262705194350929 0 -3.9262705194350929 25.873538124476909 0 0 0 0 0.29878880061231938 5.2576141390766793 0 5.2576141390766793 11.844140743654805 0 0 0 0 7.585234338414466 0.60631921053209226 0 0.60631921053209226 28.62096753233709 0 0 0 0 7.1989751348219215 -1.4711259249124851 0 -1.4711259249124851 27.684305746166501 0 0 0 0 6.7907115545336865 -0.50758070285246504 0 -0.50758070285246504 27.771863345584279 0 0 0 0 -61.391195862270024 -24.877027283311691 0 -24.877027283311691 73.623726973841258 0 0 0 0 1.3281575543487092 -7.2327889614921048 0 -7.2327889614921048 26.475802183205957 0 0 0 0 -19.812566254244757 -68.263847770724169 0 -68.263847770724169 46.451854290498886 0 0 0 0 31.086696775816563 4.5451883195273695 0 4.5451883195273695 36.469894875845057 0 0 0 0 3.3333500311064199 2.2003135079939966 0 2.2003135079939966 49.274489771484468 0 0 0 0 3.854656947913309 3.8236773294501347 0 3.8236773294501347 18.196189242318226 0 0 0 0 -1.0999299982750586 28.782699195543046 0 28.782699195543046 111.07490657311428 0 0 0 0 -1.3829412799035397 6.6736976417224376 0 6.6736976417224376 78.782167779862945 0 0 0 0 -1.1362968171888497 -0.78914062427065801 0 -0.78914062427065801 49.189761389963678 0 0 0 0 8.9914648738099938 2.2374262597745656 0 2.2374262597745656 11.978535288827089 0 0 0 0 0.65237558409694429 14.486844401862527 0 14.486844401862527 106.83523011100806 0 0 0 0 -4.3517530145850287 32.992675096324092 0 32.992675096324092 105.91061549874576 0 0 0 0 -67.15383472784481 70.639667371654923 0 70.639667371654923 269.74490867292025 0 0 0 0 88.96667585749546 -67.36811142678016 0 -67.36811142678016 32.704037663272175 0 0 0 0 -9.5734308762575679 -2.1310413952493619 0 -2.1310413952493619 26.586364349020425 0 0 0 0 -39.591525376619416 -48.881481964395789 0 -48.881481964395789 168.98074794047943 0 0 0 0 -31.364249590669147 -71.397196772386451 0 -71.397196772386451 81.776279043871909 0 0 0 0 -3.6193484307812014 -45.3423249522275 0 -45.3423249522275 102.54099451018919 0 0 0 0 -0.5448436738648752 -12.464025253154432 0 -12.464025253154432 51.373771596376173 0 0 0 0 -4.6441681130957022 -18.98393000507167 0 -18.98393000507167 69.038570707180043 0 0 0 0 61.795781824139226 52.141453097613521 0 52.141453097613521 135.2434725897001 0 0 0 0 -1.8583203908322048 -18.831861774136996 0 -18.831861774136996 46.780080050455581 0 0 0 0 9.309554953557722 -36.631995003726843 0 -36.631995003726843 -5.1665569626966317 0 0 0 0 0.92020769200087538 -11.711916713840417 0 -11.711916713840417 12.131872911676851 0 0 0 0 8.4175574543660332 -10.306895570720371 0 -10.306895570720371 27.710479364102866 0 0 0 0 -0.16899306931136326 -6.4120637665803564 0 -6.4120637665803564 -4.3978067511546541 0 0 0 0 23.208314500118831 -53.146586086975731 0 -53.146586086975731 49.844216992660222 0 0 0 0 22.415648137424341 -59.797153200257071 0 -59.797153200257071 32.791575400788133 0 0 0 0 4.80291386689305 -44.953639569116604 0 -44.953639569116604 42.52235373359872 0 0 0 0 34.428809267963061 -60.877402326629635 0 -60.877402326629635 48.003266950457146 0 0 0 0 3.2677919137726121 -86.491895477410708 0 -86.491895477410708 86.406672312430601 0 0 0 0 -35.04007658778184 -70.640943826624152 0 -70.640943826624152 56.185915593810932 0 0 0 0 -6.8715769257221382 -75.087774176614403 0 -75.087774176614403 82.189751620659081 0 0 0 0 -27.366092831720096 -86.812769472434411 0 -86.812769472434411 84.677483231054794 0 0 0 0 -48.494015205461039 -70.028552946334457 0 -70.028552946334457 82.047156312914012 0 0 0 0 -17.600463895991652 -87.192641542155343 0 -87.192641542155343 122.35995462799292 0 0 0 0 -37.210844634635805 -58.551531416690523 0 -58.551531416690523 83.640483475490441 0 0 0 0 -30.933914549049177 -49.19554071517814 0 -49.19554071517814 125.92181729776121 0 0 0 0 -78.695784756548761 -18.616291572733644 0 -18.616291572733644 93.139308209958472 0 0 0 0 28.017389827997931 -107.72294872749103 0 -107.72294872749103 130.86671175482115 0 0 0 0 2.5094297091031876 -74.962752217472371 0 -74.962752217472371 88.942385474171033 0 0 0 0 -25.87988543036704 -65.997885622695321 0 -65.997885622695321 181.35211106230872 0 0 0 0 10.006502271096565 -102.21381429469068 0 -102.21381429469068 210.94414122072158 0 0 0 0 -52.1520922462268 -59.532623047226934 0 -59.532623047226934 153.98286260719033 0 0 0 0 -97.527031779684819 5.5931476344921975 0 5.5931476344921975 190.52401626908545 0 0 0 0 -105.95308134285881 36.583492466766984 0 36.583492466766984 171.50316758135341 0 0 0 0 -64.629660058783656 17.442551066224951 0 17.442551066224951 144.42298374945221 0 0 0 0 -26.281523951608506 86.118987018949156 0 86.118987018949156 180.22704240108487 0 0 0 0 -64.225615860599873 26.458768558591146 0 26.458768558591146 309.56659758834735 0 0 0 0 -3.5752283598364984 8.4310056863751548 0 8.4310056863751548 103.63915092473665 0 0 0 0 -217.99229314982404 110.94620029045109 0 110.94620029045109 63.037436061815242 0 0 0 0 -65.31747385201993 16.962674935755786 0 16.962674935755786 47.432498477151853 0 0 0 0 -2.6974746194518167 13.491929325808696 0 13.491929325808696 13.957880001047101 0 0 0 0 -112.12451440995346 279.6082928210235 0 279.6082928210235 40.673206618113909 0 0 0 0 -164.80792459325869 50.318480425658436 0 50.318480425658436 133.72813585054746 0 0 0 0 -107.34981717110554 47.261097363905719 0 47.261097363905719 123.69590101603035 0 0 0 0 -132.56281095665236 19.516879040991626 0 19.516879040991626 148.29817949583139 0 0 0 0 -131.86110446469286 33.182204385192563 0 33.182204385192563 102.46139094209684 0 0 0 0 -109.05229078539219 -16.550011930423352 0 -16.550011930423352 147.61443770289225 0 0 0 0 -98.68188534379388 16.534875481618087 0 16.534875481618087 102.78729544294765 0 0 0 0 -148.55385292707228 19.98479245371982 0 19.98479245371982 121.4460799122935 0 0 0 0 -63.755503350977733 79.125745906774682 0 79.125745906774682 42.20376329618739 0 0 0 0 -46.871955274299161 2.8796665133906458 0 2.8796665133906458 51.23922869782109 0 0 0 0 -3.8404906827099912 12.696925658715379 0 12.696925658715379 62.08335233678379 0 0 0 0 -5.3441914521294436 0.85881938697767879 0 0.85881938697767879 53.186071419754143 0 0 0 0 -31.501834255061112 94.336718464772275 0 94.336718464772275 44.929579795752943 0 0 0 0 -2.6262408299135336 -6.072774551877214 0 -6.072774551877214 51.743525894798807 0 0 0 0 -139.57610629831925 -14.295743583514195 0 -14.295743583514195 82.079964482444666 0 0 0 0 -45.109446114502362 6.4498435876557778 0 6.4498435876557778 56.019374141946173 0 0 0 0 -37.311010474124942 -7.5197065005304466 0 -7.5197065005304466 70.592218733647314 0 0 0 0 -14.86228161057854 3.6927176016413341 0 3.6927176016413341 60.301091163256402 0 0 0 0 -5.0997189011333708 -3.7305458089797803 0 -3.7305458089797803 3.2501499376461993 0 0 0 0 -111.02086618596792 1.3304749153630837 0 1.3304749153630837 54.248156839710646 0 0 0 0 2.3717873256273334 5.8253019146903817 0 5.8253019146903817 11.503101121411056 0 0 0 0 -77.241756105803859 -37.734747527759509 0 -37.734747527759509 11.313668647775557 0 0 0 0 -76.049960722402858 -105.83550231318259 0 -105.83550231318259 43.546961907679361 0 0 0 0 -77.894168271256348 -99.249065017837893 0 -99.249065017837893 105.39132923687066 0 0 0 0 -71.322839341223187 -59.592917037716688 0 -59.592917037716688 83.507632734308572 0 0 0 0 -24.313565346646101 10.792207021328068 0 10.792207021328068 99.479400761469151 0 0 0 0 -89.050635973477256 -1.9026707035263826 0 -1.9026707035263826 98.164336399458989 0 0 0 0 -33.697407122395816 63.995636771494901 0 63.995636771494901 124.72341111172864 0 0 0 0 -14.768821478392056 102.67074078639416 0 102.67074078639416 154.79122022532829 0 0 0 0 -43.516110959568323 42.040025247981248 0 42.040025247981248 104.14331068637694 0 0 0 0 33.023662948478886 81.12559228642931 0 81.12559228642931 101.44622397664261 0 0 0 0 58.100300215100106 81.174542212080269 0 81.174542212080269 100.88415196474307 0 0 0 0 259.43699321868633 240.74166222635586 0 240.74166222635586 150.56515217309061 0 0 0 0 0.34600682972469921 2.4598729674889563 0 2.4598729674889563 3.1606034676951822 0 0 0 0 159.34858738981711 120.72741633451369 0 120.72741633451369 101.61947323862842 0 0 0 0 -16.218814174042564 169.07907106126368 0 169.07907106126368 336.78695653269824 0 0 0 0 -37.509570946023814 116.58711576007772 0 116.58711576007772 222.78515130052256 0 0 0 0 -46.434772156268536 38.696195905714376 0 38.696195905714376 152.26800514110073 0 0 0 0 -21.735250052246101 -15.91378114579129 0 -15.91378114579129 60.857262728190108 0 0 0 0 -111.66451736705312 40.861296686023707 0 40.861296686023707 162.75904985790839 0 0 0 0 -116.35038970674213 -19.703778282892017 0 -19.703778282892017 243.35057027485891 0 0 0 0 -166.4283270330443 -91.093796453867981 0 -91.093796453867981 71.970696862012119 0 0 0 0 -15.001284158612226 12.526370762309575 0 12.526370762309575 3.6194946196111459 0 0 0 0 -188.10487917384853 37.581586766293185 0 37.581586766293185 91.905000382699654 0 0 0 0 -41.23885502693247 41.541309175452625 0 41.541309175452625 42.29520087390847 0 0 0 0 -65.018123307676888 60.283998897508354 0 60.283998897508354 88.68016668780183 0 0 0 0 -77.505467315379065 18.501229288689501 0 18.501229288689501 97.33567581562238 0 0 0 0 -101.80131047219948 -65.779519777126552 0 -65.779519777126552 36.935063935975904 0 0 0 0 -52.152459699311862 47.657237828184407 0 47.657237828184407 27.576417857322667 0 0 0 0 -10.216827564126106 48.532057115167845 0 48.532057115167845 27.267611291370486 0 0 0 0 -145.00342090110161 43.999804776700785 0 43.999804776700785 40.101697292251629 0 0 0 0 171.50191715388337 -43.518427987466566 0 -43.518427987466566 -146.79089656270662 0 0 0 0 -60.684626938271776 -212.27496700922347 0 -212.27496700922347 -35.987264299281378 0 0 0 0 149.74547068713852 274.01384770958202 0 274.01384770958202 296.61671275758999 0 0 0 0 35.842552771057854 77.543726314193918 0 77.543726314193918 213.11449863244161 0 0 0 0 57.431054262988482 13.121460234044207 0 13.121460234044207 -0.26145306673424784 0 0 0 0 0.5072348584194204 1.9795928640825053 0 1.9795928640825053 0.28643671175116481 0 0 0 0 -11.147484522865652 4.4404275671793343 0 4.4404275671793343 0.74040919428597363 0 0 0 0 -142.73871454525386 67.4973526713502 0 67.4973526713502 90.716830559947994 0 0 0 0 8.445821526634063 42.624511732548854 0 42.624511732548854 177.73589613558579 0 0 0 0 -1.9952552394854486 -0.48660060146198703 0 -0.48660060146198703 0.86575371263411682 0 0 0 0 -58.048378549038489 67.06755739716391 0 67.06755739716391 174.19379185374419 0 0 0 0 64.215114334241861 85.708044085753045 0 85.708044085753045 30.573519945814041 0 0 0 0 0.6601549597119174 25.840355931730301 0 25.840355931730301 112.13845468532236 0 0 0 0 2.3981731948338165 -26.830555358290439 0 -26.830555358290439 70.207014483004968 0 0 0 0 91.60422457994855 67.708701783129072 0 67.708701783129072 -144.72272414003874 0 0 0 0 -6.7381392773231514 -0.91701170813348654 0 -0.91701170813348654 0.42786512991164649 0 0 0 0 -154.39745210329943 37.972292938287865 0 37.972292938287865 632.63072919566184 0 0 0 0 -74.071635323648536 -95.862962419563701 0 -95.862962419563701 466.12044515587331 0 0 0 0 11.303437678786395 110.62256013456499 0 110.62256013456499 192.66142143657635 0 0 0 0 113.60438808220442 -56.193470383346721 0 -56.193470383346721 -61.406025885618874 0 0 0 0 -6.0844247955965329 2.3021183643286349 0 2.3021183643286349 119.7372451379124 0 0 0 0 4.8859846589553051 112.3217510569217 0 112.3217510569217 174.83385009303311 0 0 0 0 16.302600983004069 -159.91401132810643 0 -159.91401132810643 204.61777609613273 0 0 0 0 -123.52033880003768 58.607510755055046 0 58.607510755055046 23.481774044594204 0 0 0 0 0.33818188800196047 0.36243376434512697 0 0.36243376434512697 0.32252988541052652 0 0 0 0 219.44654548129247 329.02047267795751 0 329.02047267795751 -256.53385077740677 0 0 0 0 12.53029067262969 -65.522311923865345 0 -65.522311923865345 -69.528902285050208 0 0 0 0 -2.4791038719711125 11.70883502755737 0 11.70883502755737 -8.2853786460327683 0 0 0 0 -2.3009222636657114 1.5121254527366546 0 1.5121254527366546 14.140896163717116 0 0 0 0 -0.14726360245530801 -0.125116037106487 0 -0.125116037106487 3.2318313817454154 0 0 0 0 -3.5980907509800204 6.5891449492355605 0 6.5891449492355605 11.907016700846725 0 0 0 0 -17.639373665226174 -1.0178641446927941 0 -1.0178641446927941 17.247903710769606 0 0 0 0 5.310133000249234 12.210918901972491 0 12.210918901972491 15.903793678240618 0 0 0 0 -18.722719445347224 10.652231293919613 0 10.652231293919613 15.970032284032641 0 0 0 0 -15.17459604721239 21.351788980438869 0 21.351788980438869 23.826074682823446 0 0 0 0 3.306346735206759 0.64079418160622481 0 0.64079418160622481 15.230001918815105 0 0 0 0 5.9950415139458073 3.2407238514733763 0 3.2407238514733763 17.078417439617624 0 0 0 0 3.5209726827159784 2.0576835715346533 0 2.0576835715346533 13.087712663211278 0 0 0 0 -51.036074639191042 125.48733830270339 0 125.48733830270339 161.7852058307617 0 0 0 0 1.9383481170883803 1.3587441223435235 0 1.3587441223435235 -0.44118616626051477 0 0 0 0 0.037732209436639241 1.0495804171003771 0 1.0495804171003771 15.283033135841038 0 0 0 0 1.9255488353878718 -13.55435335171569 0 -13.55435335171569 14.953021035702477 0 0 0 0 -4.0156941153758225 14.712037902290831 0 14.712037902290831 56.692408378614346 0 0 0 0 37.687386974061155 53.840623931137088 0 53.840623931137088 111.28594021973549 0 0 0 0 -8.805763282229691 4.3311519726121332 0 4.3311519726121332 52.625301672080241 0 0 0 0 3.578102532605044 18.341744762368762 0 18.341744762368762 56.489180419297554 0 0 0 0 9.0740601322449947 8.9512098810591851 0 8.9512098810591851 52.45051454857628 0 0 0 0 0.6099705106719755 -0.34598902048986702 0 -0.34598902048986702 1.6250741765168044 0 0 0 0 162.20260180779428 26.544934743782505 0 26.544934743782505 -115.27785704660346 0 0 0 0 0.01852692852038651 -0.42427366842705738 0 -0.42427366842705738 14.099975994429258 0 0 0 0 -15.156110195168083 -21.569769670250366 0 -21.569769670250366 6.6900549107631377 0 0 0 0 1.6194265240947523 -3.819854356823825 0 -3.819854356823825 0.16021884935449293 0 0 0 0 1.0472172469550287 -1.5441429726051865 0 -1.5441429726051865 49.040455618396663 0 0 0 0 4.0623377054234879 -21.799988877646683 0 -21.799988877646683 46.378222490511689 0 0 0 0 -59.503190364779812 31.612856142332021 0 31.612856142332021 44.494558705842792 0 0 0 0 2.0137169545776876 16.148523962266502 0 16.148523962266502 24.225689047482824 0 0 0 0 -128.85624327536016 -34.510680079994927 0 -34.510680079994927 109.41262975773134 0 0 0 0 174.00968150902762 -111.30662493453883 0 -111.30662493453883 5.7512454112729756 0 0 0 0 45.453567170398856 -37.926865154557163 0 -37.926865154557163 52.303030632818263 0 0 0 0 0.45697703581485116 -0.57667659244716774 0 -0.57667659244716774 2.1934145476523952 0 0 0 0 -33.274543602746917 -221.97329439733585 0 -221.97329439733585 105.76103178766971 0 0 0 0 30.928855080079561 57.658839502371734 0 57.658839502371734 128.62882927159808 0 0 0 0 1.0465502897556178 -0.50618721747471795 0 -0.50618721747471795 1.6002947448886147 0 0 0 0 -12.573434687851126 -8.3246873867592512 0 -8.3246873867592512 117.37715816821219 0 0 0 0 1.3337376328834694 21.116686291350561 0 21.116686291350561 23.816294333977567 0 0 0 0 26.214157651999873 48.28979341293234 0 48.28979341293234 52.650874125101836 0 0 0 0 44.304401319666397 2.4763827387432684 0 2.4763827387432684 4.6543703981405997 0 0 0 0 -9.9352899326130455 34.17620018265734 0 34.17620018265734 29.864725724353775 0 0 0 0 -13.43145003877332 1.9792085845660949 0 1.9792085845660949 33.525875391853333 0 0 0 0 -31.018410561671885 4.1095614219848358 0 4.1095614219848358 57.043738259804741 0 0 0 0 -46.169028200660591 25.098875170256179 0 25.098875170256179 32.981066756699875 0 0 0 0 -29.786431045866834 43.185857792655952 0 43.185857792655952 -35.072071176451573 0 0 0 0 -25.065912897172211 8.8357823377809837 0 8.8357823377809837 18.822094570111403 0 0 0 0 -15.728777667919417 19.517203333205543 0 19.517203333205543 2.7322033245072816 0 0 0 0 -0.87343144873734158 -0.4195450219308654 0 -0.4195450219308654 2.1902956013493196 0 0 0 0 -10.102488593753151 -0.79572534948965767 0 -0.79572534948965767 34.533204948900675 0 0 0 0 0.11088631673715099 3.999344942978496 0 3.999344942978496 27.113626282993209 0 0 0 0 -2.8386249059722104 5.5401526176501648 0 5.5401526176501648 29.898595828870384 0 0 0 0 -9.9237908992110988 -12.048017730394349 0 -12.048017730394349 81.605617418512338 0 0 0 0 0.421956406077868 -0.40712904037157216 0 -0.40712904037157216 -0.82887969424992747 0 0 0 0 -12.521421588848568 13.859269616434176 0 13.859269616434176 31.87688052230078 0 0 0 0 -4.3875270994267339 19.524679106652911 0 19.524679106652911 26.656798654235899 0 0 0 0 -5.1584622320271967 11.256350835745351 0 11.256350835745351 21.489761721168179 0 0 0 0 -5.1539306515060161 9.3803255520288076 0 9.3803255520288076 35.44140351162423 0 0 0 0 -5.8204065230511333 12.157280608698784 0 12.157280608698784 23.852196210220427 0 0 0 0 -0.69529133888795513 15.818587425334954 0 15.818587425334954 20.720390276401304 0 0 0 0 -1.1772008559100868 17.754263703915058 0 17.754263703915058 15.024128905264661 0 0 0 0 0.56229982976265092 17.090321161183965 0 17.090321161183965 15.174491301455419 0 0 0 0 3.1375471365136605 13.41989155280703 0 13.41989155280703 16.000365890213288 0 0 0 0 -3.9018326584904344 20.844520932389059 0 20.844520932389059 16.739214633198571 0 0 0 0 -6.0932496576242556 19.697411906163325 0 19.697411906163325 17.076362048427654 0 0 0 0 -22.878426041375292 25.369872294677407 0 25.369872294677407 20.493312318736571 0 0 0 0 -22.457496586223328 19.610215140175569 0 19.610215140175569 22.323557543568313 0 0 0 0 -27.961581676282663 22.260797461198308 0 22.260797461198308 40.553364720275567 0 0 0 0 -26.574529105207596 29.809243845649007 0 29.809243845649007 29.493510316708125 0 0 0 0 -13.837451738204322 26.527226382924709 0 26.527226382924709 26.887666342900047 0 0 0 0 -31.533718516317805 3.0454373859647603 0 3.0454373859647603 21.734290358937869 0 0 0 0 -40.000042171859263 37.343394637329766 0 37.343394637329766 5.6013553973461967 0 0 0 0 -9.7308978033670677 18.130225306427917 0 18.130225306427917 -2.350937194096332 0 0 0 0 -9.6821821282845804 16.572565876813314 0 16.572565876813314 -26.553059662623127 0 0 0 0 1.2555758430061021 3.1481950692163423 0 3.1481950692163423 1.01998864001356 0 0 0 0 -21.682256520003421 63.151554659485555 0 63.151554659485555 -85.082296053355094 0 0 0 0 -75.534682969003086 1.2975587240471214 0 1.2975587240471214 429.46989260060764 0 0 0 0 5.3918399208860706 -92.763333830105694 0 -92.763333830105694 183.38745203658618 0 0 0 0 21.735491211740342 82.186011479245053 0 82.186011479245053 173.85579784619767 0 0 0 0 -14.925809162941619 3.9504592284665705 0 3.9504592284665705 52.365543793192046 0 0 0 0 -1.6059216178791154 -0.23490989399681439 0 -0.23490989399681439 -0.10661253385500657 0 0 0 0 95.556614728260286 43.781045940528202 0 43.781045940528202 -36.708507841871324 0 0 0 0 -1.3128443456746481 19.664256990276044 0 19.664256990276044 54.562257621705157 0 0 0 0 -1.9949383139827432 40.315110110335809 0 40.315110110335809 -55.015458807766663 0 0 0 0 15.191085164477272 27.240237464789971 0 27.240237464789971 -20.747269841745037 0 0 0 0 -6.0384296861979578 40.814385498255433 0 40.814385498255433 26.323568953223003 0 0 0 0 -0.11692887784182915 0.20881269313544237 0 0.20881269313544237 0.078079290413406 0 0 0 0 -34.633180766515693 -10.976463607374171 0 -10.976463607374171 160.83485471124004 0 0 0 0 28.92129961647106 16.592509739464731 0 16.592509739464731 65.707711279948853 0 0 0 0 -62.603886325558392 -35.880114288294862 0 -35.880114288294862 165.94409215368432 0 0 0 0 -63.249285540688334 -35.439003507963207 0 -35.439003507963207 167.40178024199122 0 0 0 0 -0.10318686073203748 -0.10615696185138646 0 -0.10615696185138646 1.4016809740234919 0 0 0 0 -105.94024052534422 -81.70100415100751 0 -81.70100415100751 145.44107534932846 0 0 0 0 77.472688180309873 111.91277699019474 0 111.91277699019474 178.17508738077595 0 0 0 0 -78.794078424619556 -79.755984918760078 0 -79.755984918760078 83.094536617616541 0 0 0 0 -29.975480587026823 -30.708100066702173 0 -30.708100066702173 -34.68648844211566 0 0 0 0 40.928126718599486 83.145983868460462 0 83.145983868460462 212.71868154712138 0 0 0 0 40.020481609491526 16.111285379287438 0 16.111285379287438 267.37702972232364 0 0 0 0 39.913290837090337 91.045182142633166 0 91.045182142633166 261.92489520183881 0 0 0 0 34.671709569521454 88.879557535139611 0 88.879557535139611 304.87793406681158 0 0 0 0 14.729915693957309 43.867423219111515 0 43.867423219111515 261.63175545446575 0 0 0 0 15.689652989114734 50.623945720210031 0 50.623945720210031 290.12544215208618 0 0 0 0 -105.72689880930908 -72.135398189664102 0 -72.135398189664102 267.55260931725206 0 0 0 0 163.50120237086134 25.222184525380726 0 25.222184525380726 274.69413964895648 0 0 0 0 50.375283770193619 -108.8993609000172 0 -108.8993609000172 454.80524586455431 0 0 0 0 7.0899536255682847 4.7379217388343022 0 4.7379217388343022 3.6739481043332489 0 0 0 0 6.4184858778198759 2.786541337845847 0 2.786541337845847 10.878389632736798 0 0 0 0 7.2202136053647337 3.1862953990130336 0 3.1862953990130336 9.0766863572353031 0 0 0 0 7.4954217985905416 4.6855371713172644 0 4.6855371713172644 6.0908255061076488 0 0 0 0 6.4679764508109656 5.5531707455374999 0 5.5531707455374999 10.440596251253737 0 0 0 0 5.6791544598672772 3.5601607810676796 0 3.5601607810676796 12.631150037428597 0 0 0 0 24.058975338210075 32.477513975391048 0 32.477513975391048 259.82173276572576 0 0 0 0 5.3596344333509478 5.4861792927549686 0 5.4861792927549686 14.516433259675978 0 0 0 0 6.4685573530950933 5.7829652505970444 0 5.7829652505970444 9.5398915412370116 0 0 0 0 6.048922700507319 6.9117727895645658 0 6.9117727895645658 13.303253092253726 0 0 0 0 0.78500915689710382 16.237928342306986 0 16.237928342306986 -10.456688210695575 0 0 0 0 6.2858649821164363 8.5757886780193076 0 8.5757886780193076 -5.0658828332598205 0 0 0 0 -59.88281604658755 25.726901006568369 0 25.726901006568369 321.11046424592496 0 0 0 0 4.5205576467962461 5.0469844862026321 0 5.0469844862026321 1.3376232275269437 0 0 0 0 -92.690679284616635 -41.993180520032183 0 -41.993180520032183 342.72039165904243 0 0 0 0 -4.2600209946563155 15.311975931093912 0 15.311975931093912 -1.1402471994661028 0 0 0 0 -8.1590944454262626 25.752079806272377 0 25.752079806272377 0.24756743718899088 0 0 0 0 -2.3360122925814721 19.205483455403737 0 19.205483455403737 -1.5609141364548123 0 0 0 0 0.31522099742915088 18.91435062606979 0 18.91435062606979 5.0338344212505035 0 0 0 0 1.1863951371906296 14.049469173394755 0 14.049469173394755 5.963369504417642 0 0 0 0 6.1148783596117937 11.912194618307694 0 11.912194618307694 6.2480710957606789 0 0 0 0 5.3918200256521231 11.38599653334677 0 11.38599653334677 11.07897027405852 0 0 0 0 6.8249681928323298 9.1354221210021933 0 9.1354221210021933 8.5926176318607759 0 0 0 0 6.435212881247935 7.3748515205879812 0 7.3748515205879812 11.276906151935691 0 0 0 0 6.6174467305013422 9.3859649837540928 0 9.3859649837540928 12.589839561609551 0 0 0 0 6.6626750802261085 8.602532641554717 0 8.602532641554717 6.2811018243828585 0 0 0 0 6.4658983238732617 8.2116224261408206 0 8.2116224261408206 10.670042430640024 0 0 0 0 1.9263431487079288 15.30814446923614 0 15.30814446923614 5.4248561171698384 0 0 0 0 6.5388967148155643 9.4745150977614685 0 9.4745150977614685 7.9352566598972771 0 0 0 0 6.0779270141565576 11.860042296488245 0 11.860042296488245 -1.224758198375639 0 0 0 0 3.3108122662765709 12.927955553364882 0 12.927955553364882 9.4209884186420823 0 0 0 0 5.9992871198696776 10.478736276454583 0 10.478736276454583 12.257079381379299 0 0 0 0 2.8998089903057007 15.768648236193258 0 15.768648236193258 9.4553372988011688 0 0 0 0 6.6287127478753973 11.619682657168596 0 11.619682657168596 11.456010179903387 0 0 0 0 6.4527788801560746 10.123040291029611 0 10.123040291029611 13.464739991843089 0 0 0 0 12.12797170166732 9.9111840699515596 0 9.9111840699515596 12.49608819502464 0 0 0 0 9.4152262117058854 9.1073621665273095 0 9.1073621665273095 12.583681030322623 0 0 0 0 10.654001999746697 10.859347186048581 0 10.859347186048581 14.061279177229153 0 0 0 0 10.238518210881921 9.5557964152831119 0 9.5557964152831119 12.519532397127477 0 0 0 0 9.2494702782050808 10.144733674707823 0 10.144733674707823 13.676681949524209 0 0 0 0 7.7077408156947058 9.3175621517293621 0 9.3175621517293621 14.565989058224659 0 0 0 0 7.7978435708828329 9.1993381456595671 0 9.1993381456595671 13.795789224299369 0 0 0 0 7.6922687003061583 8.6968167111481307 0 8.6968167111481307 12.551645220577484 0 0 0 0 7.1808921233350702 9.4968358004116453 0 9.4968358004116453 11.281572600484651 0 0 0 0 7.0533244580637984 9.8655560081642761 0 9.8655560081642761 13.19982074102154 0 0 0 0 7.5570149917875824 9.0665596734033898 0 9.0665596734033898 13.22581950694439 0 0 0 0 -1.6211326111162179 4.8395671029642386 0 4.8395671029642386 15.775020933812527 0 0 0 0 -79.13160626875846 -39.534374551580186 0 -39.534374551580186 11.975431334314635 0 0 0 0 -14.131999479386266 -10.387296043671085 0 -10.387296043671085 -5.0681776264100336 0 0 0 0 -70.743811209916203 -8.5939042218633404 0 -8.5939042218633404 7.1118511467211647 0 0 0 0 -67.215178800865473 -15.215046793258807 0 -15.215046793258807 19.060755071419408 0 0 0 0 -49.901419203557452 -28.937731029274801 0 -28.937731029274801 11.54948048737424 0 0 0 0 -45.63244747872217 -15.946205539196399 0 -15.946205539196399 78.337875704237376 0 0 0 0 -22.008852024080014 1.7082364423185936 0 1.7082364423185936 44.863044119847473 0 0 0 0 -55.200640492333974 -13.922278918189477 0 -13.922278918189477 -24.013503118039807 0 0 0 0 -2.8960010399445082 38.670883208804298 0 38.670883208804298 152.62533620854083 0 0 0 0 25.381111755468169 -24.738916032671113 0 -24.738916032671113 64.484893988003023 0 0 0 0 0.76073760202655882 2.5745665156951461 0 2.5745665156951461 0.87830665112932138 0 0 0 0 -0.78201861829140906 2.8656485796038993 0 2.8656485796038993 3.5029069695546013 0 0 0 0 70.144473247202086 4.424621430451225 0 4.424621430451225 210.62707425223198 0 0 0 0 46.076592220379098 -15.471361059055198 0 -15.471361059055198 224.49286201916402 0 0 0 0 32.855378739617663 12.822395478666294 0 12.822395478666294 208.7683825113636 0 0 0 0 12.096577950757364 -12.609889176033903 0 -12.609889176033903 224.5343609728784 0 0 0 0 17.727066810803535 34.556507823006541 0 34.556507823006541 126.52650812313368 0 0 0 0 23.518030453628768 14.308306244700361 0 14.308306244700361 152.84516265665297 0 0 0 0 13.598517163140912 3.3038570470635023 0 3.3038570470635023 204.9784901139501 0 0 0 0 10.912297323733128 -8.78522871840687 0 -8.78522871840687 190.23736366596131 0 0 0 0 5.3806485046677892 40.246595035504924 0 40.246595035504924 164.11834958329564 0 0 0 0 -43.173897835167224 14.510961461986881 0 14.510961461986881 161.2343535052787 0 0 0 0 -23.751741208799245 32.33005971759485 0 32.33005971759485 120.57052704147645 0 0 0 0 1.2969815849905899 18.188130181195447 0 18.188130181195447 259.73404561071948 0 0 0 0 6.6475347024497751 7.7775485088350251 0 7.7775485088350251 15.631185083861055 0 0 0 0 8.9558877592878261 6.6038984729983099 0 6.6038984729983099 1.9570488867902469 0 0 0 0 6.8983946203679807 8.6223630080930889 0 8.6223630080930889 14.310294341441477 0 0 0 0 6.4930295989252045 8.1714414813031908 0 8.1714414813031908 13.973005918480339 0 0 0 0 7.6715244277802412 8.7616142138722353 0 8.7616142138722353 14.391383855392633 0 0 0 0 7.5004373505616968 8.3766111980512505 0 8.3766111980512505 13.547740372385306 0 0 0 0 -6.21642585075233 -3.0784713831963018 0 -3.0784713831963018 250.4231086508953 0 0 0 0 12.414753610133403 -17.857214016272337 0 -17.857214016272337 237.71892109271721 0 0 0 0 8.8738941040601276 9.9230574173780042 0 9.9230574173780042 15.398594306367158 0 0 0 0 -1.8319601331475042 -2.6534353645984083 0 -2.6534353645984083 239.94435621667435 0 0 0 0 13.682756906064583 -4.7949543760332745 0 -4.7949543760332745 201.61704294706578 0 0 0 0 -9.1576423589619935 20.664389140321873 0 20.664389140321873 252.66668584271247 0 0 0 0 7.1933939579828348 31.401544815860689 0 31.401544815860689 203.8727833884659 0 0 0 0 -2.1393211374629146 10.738014521557488 0 10.738014521557488 229.47102806399926 0 0 0 0 -2.8190781944440175 21.191692574226181 0 21.191692574226181 229.54511458741035 0 0 0 0 14.03433275975874 17.631277721215156 0 17.631277721215156 181.33433156406682 0 0 0 0 -2.164377898491324 9.9452514131262433 0 9.9452514131262433 216.49048559766379 0 0 0 0 -2.7797294271856572 21.621212230820674 0 21.621212230820674 219.75248468510108 0 0 0 0 6.2586890220036153 22.718436346373437 0 22.718436346373437 183.78131569741527 0 0 0 0 15.053521224072483 46.900373124539328 0 46.900373124539328 151.30987067746173 0 0 0 0 6.8653980468045575 45.004319480300182 0 45.004319480300182 206.88393535263094 0 0 0 0 2.1574700751453264 41.355711730617259 0 41.355711730617259 238.65562643980957 0 0 0 0 0.073371039768630908 28.033475941301731 0 28.033475941301731 255.2561285966658 0 0 0 0 -0.52540069975611914 24.342994279246341 0 24.342994279246341 233.99732585370657 0 0 0 0 5.6967288058081067 44.478686139744241 0 44.478686139744241 264.38876468304079 0 0 0 0 0.23483332733849238 33.053988937987015 0 33.053988937987015 263.32884982868563 0 0 0 0 4.7442619697276314 39.358288411895046 0 39.358288411895046 244.62783108091389 0 0 0 0 2.2298969510883211 40.617478888236292 0 40.617478888236292 246.1747004656354 0 0 0 0 22.055996393041028 62.461115142024937 0 62.461115142024937 219.97124327805068 0 0 0 0 15.559093548626834 66.705283541959943 0 66.705283541959943 265.93223886084161 0 0 0 0 14.492638860670127 59.3467222386098 0 59.3467222386098 218.69202156938263 0 0 0 0 40.523210696545902 71.531755341289681 0 71.531755341289681 171.85049699721276 0 0 0 0 21.052255600568429 54.101126203982858 0 54.101126203982858 168.69368976927944 0 0 0 0 22.558789086222475 78.202216850411787 0 78.202216850411787 169.04133350148913 0 0 0 0 28.169041201470861 66.900534438842442 0 66.900534438842442 170.12328448105836 0 0 0 0 67.499895349817564 59.686155557617894 0 59.686155557617894 -17.853877075183846 0 0 0 0 78.452323639896974 105.76980175405788 0 105.76980175405788 92.295325074577704 0 0 0 0 14.614328487942316 67.10431604454061 0 67.10431604454061 98.285292081250191 0 0 0 0 9.3258785205958077 52.903549806636875 0 52.903549806636875 155.15414598234929 0 0 0 0 30.110164208577942 67.217354037733458 0 67.217354037733458 98.180613809649003 0 0 0 0 14.897484806501851 60.821040650469513 0 60.821040650469513 106.34235563840775 0 0 0 0 -12.625597126631362 52.259102533374971 0 52.259102533374971 139.64586488499481 0 0 0 0 -5.8487793979418115 62.313853144874429 0 62.313853144874429 99.13600135523302 0 0 0 0 -18.70919401926534 36.833776773255522 0 36.833776773255522 100.90044864878291 0 0 0 0 -7.65990592667643 46.548334120292566 0 46.548334120292566 71.137264277800568 0 0 0 0 -4.5151822153637227 53.438818295609963 0 53.438818295609963 103.65012516087154 0 0 0 0 20.292621491973563 76.682112100737868 0 76.682112100737868 65.256837180924776 0 0 0 0 7.6879927983291481 39.462581398485327 0 39.462581398485327 24.00804091829923 0 0 0 0 5.5099871225748194 55.102644290307808 0 55.102644290307808 62.45750504697935 0 0 0 0 -41.800596775528192 -24.612573645945304 0 -24.612573645945304 3.6242380885023522 0 0 0 0 -0.24768836964642332 -0.21933194877118822 0 -0.21933194877118822 2.6081523170170442 0 0 0 0 -25.849695653972248 34.608492764569746 0 34.608492764569746 43.422204392471031 0 0 0 0 -7.4322478158968863 29.020140985674516 0 29.020140985674516 65.688381640109583 0 0 0 0 12.353096162786862 22.530187445405318 0 22.530187445405318 67.760211538505246 0 0 0 0 10.977115477160126 36.124289886120096 0 36.124289886120096 38.21737162831414 0 0 0 0 -2.3674046731868401 38.11143124123555 0 38.11143124123555 81.885973477386869 0 0 0 0 -29.418892234289174 15.325320463249227 0 15.325320463249227 77.353983980066914 0 0 0 0 -0.019762100402758893 24.709859250355294 0 24.709859250355294 63.855165309432778 0 0 0 0 -9.7518422295654119 11.962342256803822 0 11.962342256803822 54.722424851810501 0 0 0 0 -9.7459087821769934 12.945560212785495 0 12.945560212785495 63.239698910088919 0 0 0 0 -16.645320261848241 -8.0610579262465762 0 -8.0610579262465762 29.753960761765484 0 0 0 0 4.0458406922556458 15.16246873363707 0 15.16246873363707 10.572579990184749 0 0 0 0 -3.1610674044074187 15.100127931233146 0 15.100127931233146 22.477284239184883 0 0 0 0 0.0067252123879682716 18.3743726237808 0 18.3743726237808 36.236440967099043 0 0 0 0 3.5876257960103395 19.910194097708882 0 19.910194097708882 36.053114614136575 0 0 0 0 -1.7552421043611446 23.460490332116024 0 23.460490332116024 34.519991083143395 0 0 0 0 4.5189607260570064 17.916841764676064 0 17.916841764676064 36.889998440849013 0 0 0 0 0.0036257362933814546 19.640518086864663 0 19.640518086864663 41.402062376422691 0 0 0 0 4.8212652118877912 3.3343216699115601 0 3.3343216699115601 47.494464626070112 0 0 0 0 -19.060729576106048 10.619871904094907 0 10.619871904094907 50.277969919570751 0 0 0 0 -1.8430401001494658 25.413657096825773 0 25.413657096825773 61.324007390066981 0 0 0 0 9.532233194824471 38.88472805308993 0 38.88472805308993 34.675010604660201 0 0 0 0 9.0215301207098264 22.602636791627333 0 22.602636791627333 -21.090955751016736 0 0 0 0 5.8460836893014658 5.8866955501871416 0 5.8866955501871416 5.2179012274864363 0 0 0 0 -38.983709916660558 -63.179298569644743 0 -63.179298569644743 -57.392295854966505 0 0 0 0 67.867421891929354 23.872795460756606 0 23.872795460756606 -62.970766427716853 0 0 0 0 46.088628117009179 86.022671021088172 0 86.022671021088172 52.93783907283796 0 0 0 0 1.0616469439855791 14.147254482439166 0 14.147254482439166 15.748111661472649 0 0 0 0 10.92798615142965 7.4573306991078425 0 7.4573306991078425 14.681110212834028 0 0 0 0 1.1066442439573621 8.4867542859719833 0 8.4867542859719833 19.623592314757843 0 0 0 0 -7.3252264492571157 9.4496775912975863 0 9.4496775912975863 21.473409694393922 0 0 0 0 -2.235824971181767 4.3792093285310401 0 4.3792093285310401 18.481837903105713 0 0 0 0 -5.5900575601594937 12.307413547792748 0 12.307413547792748 21.475968657170597 0 0 0 0 -4.7495507414187159 11.747714933744646 0 11.747714933744646 19.765378535797936 0 0 0 0 -21.613887293571615 21.264834858819086 0 21.264834858819086 127.45664311578366 0 0 0 0 -0.082847168876785046 -0.29319190640603487 0 -0.29319190640603487 1.4642341410202278 0 0 0 0 -45.901122939601009 -23.759045476362189 0 -23.759045476362189 49.720357845420949 0 0 0 0 -101.86361927869615 24.374335457010602 0 24.374335457010602 190.78347586229211 0 0 0 0 126.02402947867195 18.325793974086082 0 18.325793974086082 -80.634763359659701 0 0 0 0 -2.5960851477190374 -10.579242746716773 0 -10.579242746716773 -3.720983280618384 0 0 0 0 -0.55254767185391529 26.643346020955505 0 26.643346020955505 0.484258041899011 0 0 0 0 -26.940211533873878 34.851301165552286 0 34.851301165552286 58.313033457117854 0 0 0 0 -11.086904734555446 -3.1984477922433143 0 -3.1984477922433143 28.799058610875363 0 0 0 0 -5.118784189309963 0.47185622294637142 0 0.47185622294637142 18.68914620581927 0 0 0 0 31.257573138860991 19.211319061813811 0 19.211319061813811 1.8071771454488044 0 0 0 0 -1.0294411908026422 5.6575587833852836 0 5.6575587833852836 19.375983765230728 0 0 0 0 -25.77629978711261 12.671833765659358 0 12.671833765659358 15.22179342378513 0 0 0 0 -15.565874954925569 27.07517645273947 0 27.07517645273947 13.70949642836058 0 0 0 0 1.0033821585251805 2.225172973638406 0 2.225172973638406 5.6006673913850022 0 0 0 0 16.034857725300718 25.368637405113986 0 25.368637405113986 6.5097928445757134 0 0 0 0 2.2675935502888933 14.541106708551524 0 14.541106708551524 5.2570604035263386 0 0 0 0 61.629281552148299 18.270699484633951 0 18.270699484633951 1.1324643287516665 0 0 0 0 4.2513334413959001 15.451041232881835 0 15.451041232881835 16.358385917978012 0 0 0 0 21.240038286063285 2.5822027816138871 0 2.5822027816138871 1.0103760329075158 0 0 0 0 0.035258747659068175 0.062235915659979213 0 0.062235915659979213 0.18440644517841065 0 0 0 0 -14.182984950710622 1.3453035513339273 0 1.3453035513339273 2.0492981085117208 0 0 0 0 -9.0774055257738997 10.269616612204118 0 10.269616612204118 7.3136835852928925 0 0 0 0 -0.022295815992571057 22.426909200912633 0 22.426909200912633 33.252568566291302 0 0 0 0 0.0025186163663732941 3.0383010024452233 0 3.0383010024452233 48.812740085028054 0 0 0 0 32.652894226847572 34.9378721489702 0 34.9378721489702 26.637627784119104 0 0 0 0 0.016735625665429257 0.12013374742954852 0 0.12013374742954852 0.84903560124958233 0 0 0 0 65.679254982739508 -39.656510943917965 0 -39.656510943917965 160.16505628307641 0 0 0 0 0.17108679607734201 -18.794183425883602 0 -18.794183425883602 198.61610620217107 0 0 0 0 39.386029137333502 -130.96484795202559 0 -130.96484795202559 315.04540759898009 0 0 0 0 -0.060608155809920204 -46.539302714896621 0 -46.539302714896621 483.96455007401892 0 0 0 0 43.365096678458556 -86.568647681998868 0 -86.568647681998868 467.13883626199095 0 0 0 0 83.252561233598072 -89.778564712021762 0 -89.778564712021762 370.02799835274982 0 0 0 0 68.483216883941822 -92.785635800839373 0 -92.785635800839373 462.16447059394704 0 0 0 0 55.33239435772164 -97.448775224800556 0 -97.448775224800556 466.83821912563872 0 0 0 0 81.796750632334806 -91.926164543405321 0 -91.926164543405321 379.90593753702342 0 0 0 0 86.491484904399186 -47.712673084104608 0 -47.712673084104608 236.9320809273122 0 0 0 0 66.028383800320839 -69.716811892012629 0 -69.716811892012629 375.90888631729922 0 0 0 0 67.40740065567222 -27.50263016023473 0 -27.50263016023473 233.50177788837755 0 0 0 0 49.015980250044436 -64.80907335345546 0 -64.80907335345546 217.08256844026982 0 0 0 0 81.584047589401891 -60.391859394525454 0 -60.391859394525454 224.96939903246312 0 0 0 0 86.847170605949287 -33.265320375577176 0 -33.265320375577176 181.8879387364359 0 0 0 0 44.208138016799552 -1.8674692978765961 0 -1.8674692978765961 203.45275107823181 0 0 0 0 38.698303797716832 -54.93148109179856 0 -54.93148109179856 272.04945845987095 0 0 0 0 22.521090393497381 2.7299431243627623 0 2.7299431243627623 248.63078055669303 0 0 0 0 25.279195368841087 -83.101122121117442 0 -83.101122121117442 225.8483230910424 0 0 0 0 25.231553989138298 -114.71743110544344 0 -114.71743110544344 400.27255029172375 0 0 0 0 0.042704209888200409 0.072202927998716859 0 0.072202927998716859 0.93200988995778289 0 0 0 0 0.16200683854966633 1.0388611364578537 0 1.0388611364578537 296.95163086185676 0 0 0 0 31.366442697804434 -13.081514963550944 0 -13.081514963550944 229.89168364219222 0 0 0 0 -4.506051848153561 -21.415945003747765 0 -21.415945003747765 230.77361919773898 0 0 0 0 -3.1183979281395082 36.528759598690925 0 36.528759598690925 215.87999917171692 0 0 0 0 -0.024589913283734225 16.845890747455996 0 16.845890747455996 150.66524669475257 0 0 0 0 14.393398853420457 -22.412527980424784 0 -22.412527980424784 131.22429733225181 0 0 0 0 0.041427075253400426 23.664194229237182 0 23.664194229237182 72.452852386559243 0 0 0 0 -2.6917336309307416 43.598059570887926 0 43.598059570887926 34.603001600702555 0 0 0 0 15.506332117461938 4.4839420296825949 0 4.4839420296825949 18.608255671391817 0 0 0 0 -52.626349145132053 -72.221783884488104 0 -72.221783884488104 126.13822570301272 0 0 0 0 83.373088968367028 119.87854249007978 0 119.87854249007978 148.08325449066615 0 0 0 0 -0.038614839419867486 -0.092460104355627237 0 -0.092460104355627237 1.2069328528537255 0 0 0 0 11.26268292802709 32.234316038802717 0 32.234316038802717 245.19746480782487 0 0 0 0 55.775852135696425 12.487553871287673 0 12.487553871287673 221.2941691711967 0 0 0 0 59.874089836994159 3.7853906871396248 0 3.7853906871396248 189.74456722015748 0 0 0 0 -16.015798339245009 41.845819254031085 0 41.845819254031085 188.69035136826642 0 0 0 0 4.3715225568850258 63.534527441126556 0 63.534527441126556 156.48695285469148 0 0 0 0 -19.41996293264657 42.789686416523182 0 42.789686416523182 139.98391117423671 0 0 0 0 -4.8136580952514763 32.739869362709328 0 32.739869362709328 28.406773461923876 0 0 0 0 -38.225299374061848 30.584934644199166 0 30.584934644199166 35.634628441046516 0 0 0 0 16.567231749189716 23.599496548746174 0 23.599496548746174 26.15205409639384 0 0 0 0 1.5370484885157509 80.181445899614118 0 80.181445899614118 99.626022447295327 0 0 0 0 -7.1745110718756209 57.803931043348143 0 57.803931043348143 90.388852329415386 0 0 0 0 -22.956327041346917 64.709024110686414 0 64.709024110686414 150.00606156123831 0 0 0 0 -23.413921341355035 39.471894249170873 0 39.471894249170873 107.23770167389011 0 0 0 0 -27.105000511421764 42.394949899685344 0 42.394949899685344 160.32097844449891 0 0 0 0 -26.906419499561139 60.817557000431407 0 60.817557000431407 155.75858546284871 0 0 0 0 -30.609630798458454 54.172233061572115 0 54.172233061572115 158.61405160065988 0 0 0 0 -18.039562569385534 57.458518766487259 0 57.458518766487259 157.59288998248303 0 0 0 0 -9.5386086916387853 50.326899249229427 0 50.326899249229427 101.99732694593331 0 0 0 0 0.19395383232680574 -1.7876022845491661 0 -1.7876022845491661 3.3848969853589779 0 0 0 0 -76.313908086745869 -31.748558472092554 0 -31.748558472092554 69.107048825136189 0 0 0 0 -2.3430150035559905 50.901548456031378 0 50.901548456031378 60.223734548588254 0 0 0 0 -22.520826822541835 36.920563865296572 0 36.920563865296572 165.86928827799875 0 0 0 0 3.1394284579157983 52.268823894067282 0 52.268823894067282 141.64437842109328 0 0 0 0 50.977279573059974 19.306342281995967 0 19.306342281995967 159.82163232989114 0 0 0 0 74.791839003199811 -4.6043093221669551 0 -4.6043093221669551 144.51356356846372 0 0 0 0 55.420582068853093 -19.466866649701842 0 -19.466866649701842 138.91798332864551 0 0 0 0 33.747409047482165 -183.76496163599586 0 -183.76496163599586 -1.030080844539043 0 0 0 0 91.328803623646195 -135.66037795713783 0 -135.66037795713783 200.73790073614146 0 0 0 0 68.632208969673627 -110.13469562710816 0 -110.13469562710816 368.43390849698335 0 0 0 0 69.104011552488174 -80.286418564031919 0 -80.286418564031919 344.68180676354677 0 0 0 0 73.430130577062641 -120.2547344082559 0 -120.2547344082559 393.62239902261354 0 0 0 0 58.775408187001034 -92.140536143950158 0 -92.140536143950158 450.68192740132508 0 0 0 0 39.711087164561349 -128.38725467093536 0 -128.38725467093536 361.24326026537165 0 0 0 0 174.72316575526017 -84.223487284988551 0 -84.223487284988551 423.05207153679657 0 0 0 0 71.138565429110969 -50.769812254337012 0 -50.769812254337012 425.73113061070399 0 0 0 0 71.081153155442848 171.97453141272854 0 171.97453141272854 530.00254998224307 0 0 0 0 0.32756535379133611 -0.7557351893777664 0 -0.7557351893777664 1.5256616604191322 0 0 0 0 163.62355287729258 -106.72477995530789 0 -106.72477995530789 521.07009526691513 0 0 0 0 73.496197054842696 150.38221075397087 0 150.38221075397087 247.0119241923785 0 0 0 0 -18.106660634795503 25.549022456703824 0 25.549022456703824 414.34949480469731 0 0 0 0 14.603623920768314 44.859636078884705 0 44.859636078884705 143.89876130320772 0 0 0 0 4.2910422964855002 49.581324722924364 0 49.581324722924364 107.63494088903826 0 0 0 0 -53.358195266945131 38.316384558565915 0 38.316384558565915 209.87046532298245 0 0 0 0 2.2924618569288384 82.740916218304847 0 82.740916218304847 221.4886593613046 0 0 0 0 -18.23199139350038 31.024833480525558 0 31.024833480525558 228.96669625638742 0 0 0 0 -34.096958292294033 22.364467914689158 0 22.364467914689158 267.83548514245922 0 0 0 0 -10.427559432595672 32.640204660410745 0 32.640204660410745 210.29062268775306 0 0 0 0 -16.053610129193999 48.089409887657894 0 48.089409887657894 170.28655300882019 0 0 0 0 -383.85121459926802 -130.21569687250917 0 -130.21569687250917 11.412645663600415 0 0 0 0 26.841930352797817 71.627104543029418 0 71.627104543029418 166.43637833094544 0 0 0 0 -1.4808510722241168 -1.8897896808768593 0 -1.8897896808768593 7.5018624200534418 0 0 0 0 10.365558576304466 89.510079707230034 0 89.510079707230034 159.7133330230281 0 0 0 0 8.1803423470121288 85.17091195897865 0 85.17091195897865 210.28596995148109 0 0 0 0 -41.82421775905857 69.952843640498031 0 69.952843640498031 245.14540739797667 0 0 0 0 -23.937449642321553 -38.60756469426633 0 -38.60756469426633 163.21106735436479 0 0 0 0 -8.9382624292852597 20.601915679661488 0 20.601915679661488 166.23392092395807 0 0 0 0 -9.2771325451832354 13.200713486749009 0 13.200713486749009 -23.567002336407313 0 0 0 0 -38.792462593686651 -89.098895705494215 0 -89.098895705494215 95.237196955040417 0 0 0 0 -36.64058431776084 -16.657741410341259 0 -16.657741410341259 49.587882338571944 0 0 0 0 -8.8407044220014086 26.960726696361235 0 26.960726696361235 66.513481696725648 0 0 0 0 -31.621281444650776 -52.51779835137495 0 -52.51779835137495 4.1181382730637779 0 0 0 0 -31.9825075264323 -1.0260126890862011 0 -1.0260126890862011 97.900848189663066 0 0 0 0 1.460753521786927 -7.5973300104583359 0 -7.5973300104583359 15.896743935212726 0 0 0 0 -19.948942288582032 39.025181394519677 0 39.025181394519677 114.27031347460797 0 0 0 0 -0.0044247184526517991 -1.7404745883543029 0 -1.7404745883543029 3.4365070420546431 0 0 0 0 24.585874574726404 80.000122859208204 0 80.000122859208204 141.93961267530358 0 0 0 0 -0.066344876940855002 -1.1879575559220896 0 -1.1879575559220896 2.5479032559912866 0 0 0 0 26.464916156276331 90.613207909426819 0 90.613207909426819 174.71533081808593 0 0 0 0 72.550141997036008 91.056300746888155 0 91.056300746888155 171.56807200945332 0 0 0 0 5.9800957629028062 71.036384789715612 0 71.036384789715612 233.93110996817995 0 0 0 0 -17.169238197713526 49.03208962676581 0 49.03208962676581 167.44786338439917 0 0 0 0 10.539559400519238 66.563801756554312 0 66.563801756554312 159.84319786825654 0 0 0 0 -10.418089355010693 25.061872181675426 0 25.061872181675426 184.08340582068558 0 0 0 0 29.22592580822527 22.062214376099291 0 22.062214376099291 188.8978709521034 0 0 0 0 7.4986747441494117 45.552877196723784 0 45.552877196723784 163.762629011424 0 0 0 0 12.725648391157193 5.1203079907413667 0 5.1203079907413667 130.06342699562083 0 0 0 0 -8.4404992790489359 37.051712262018555 0 37.051712262018555 114.41519620669715 0 0 0 0 -23.511549815504395 -3.3552944448420021 0 -3.3552944448420021 118.24424476498825 0 0 0 0 37.612117232537457 18.172796494018257 0 18.172796494018257 168.24808507387206 0 0 0 0 -11.689018238950794 7.4126356549454613 0 7.4126356549454613 108.3552048401034 0 0 0 0 -9.7818943913932372 -29.893972861908651 0 -29.893972861908651 119.50728880266252 0 0 0 0 98.76239475017519 80.005335783382179 0 80.005335783382179 147.46967864924227 0 0 0 0 87.891180485271434 29.455159395798546 0 29.455159395798546 28.499973874226271 0 0 0 0 47.891112213518682 27.752044563252639 0 27.752044563252639 170.39462976007053 0 0 0 0 22.256422214090435 40.515345529265687 0 40.515345529265687 173.87802175089018 0 0 0 0 47.058567103731093 13.69083679749383 0 13.69083679749383 115.84388242431123 0 0 0 0 -11.750346283428883 34.831544435846808 0 34.831544435846808 296.12342595739028 0 0 0 0 46.369198942062894 50.360789718855813 0 50.360789718855813 182.4920605147272 0 0 0 0 9.8041273553578776 65.863342388103774 0 65.863342388103774 307.66105994430836 0 0 0 0 -97.120165760279178 -45.795704262105573 0 -45.795704262105573 214.81439768800556 0 0 0 0 -33.330111585181157 116.96406120952452 0 116.96406120952452 247.16740300168021 0 0 0 0 -55.509637182177585 26.11086759070713 0 26.11086759070713 208.91443115643051 0 0 0 0 -75.15529373548793 -42.09297143175354 0 -42.09297143175354 -21.581976146186207 0 0 0 0 0.13155802316478615 -0.32791923783387489 0 -0.32791923783387489 0.91461534827872981 0 0 0 0 70.343831792999822 189.70423187689448 0 189.70423187689448 354.96056203839271 0 0 0 0 4.9056435992993102 -13.190975184801573 0 -13.190975184801573 -18.424767504693591 0 0 0 0 -17.861295143643474 -9.8016008255945053 0 -9.8016008255945053 -83.320969350766973 0 0 0 0 -195.93013437194077 -38.32076664250053 0 -38.32076664250053 -87.765870379996386 0 0 0 0 -65.09312118947264 33.004723945196019 0 33.004723945196019 -89.874525811858575 0 0 0 0 -405.72785953555285 218.58462973432324 0 218.58462973432324 -72.713993926794501 0 0 0 0 -7.3394149171351675 -4.0585745873090247 0 -4.0585745873090247 13.662685663818124 0 0 0 0 -434.2107669114539 185.94675953381375 0 185.94675953381375 -95.749264918122208 0 0 0 0 -212.70599035478426 -53.149191189573685 0 -53.149191189573685 66.777668195012666 0 0 0 0 -80.838514284563644 51.224223026401887 0 51.224223026401887 -2.5969033625879092 0 0 0 0 -60.044822510003087 -27.927613010226196 0 -27.927613010226196 126.75915895501566 0 0 0 0 -2.5795095657682747 -12.423678244768055 0 -12.423678244768055 52.756787607078124 0 0 0 0 -7.1061566628989112 12.594702440426772 0 12.594702440426772 67.914889106697956 0 0 0 0 -17.056849576580134 -121.36664691580518 0 -121.36664691580518 11.755390068072302 0 0 0 0 -238.38403804243512 -44.192370932656559 0 -44.192370932656559 125.44372563446086 0 0 0 0 -176.76136834833812 -164.3075468957195 0 -164.3075468957195 167.08648068107868 0 0 0 0 -5.5192944348142401 16.947391803906449 0 16.947391803906449 120.67893631763221 0 0 0 0 -7.4780195715507034 20.75366952987315 0 20.75366952987315 9.992371748205187 0 0 0 0 -27.719642889558145 -73.19335730819148 0 -73.19335730819148 63.202001290597764 0 0 0 0 -82.625079134725638 -49.167302821017074 0 -49.167302821017074 133.55236187463743 0 0 0 0 210.07077888978938 74.735307452017878 0 74.735307452017878 141.31722061728487 0 0 0 0 -5.6356795744856072 183.02376411625482 0 183.02376411625482 397.92434753532143 0 0 0 0 -215.178990344461 -97.116398815545836 0 -97.116398815545836 260.88848676886118 0 0 0 0 -72.588221443433213 67.238566718283892 0 67.238566718283892 429.82409882063075 0 0 0 0 -269.6569037353172 414.35129404298277 0 414.35129404298277 446.7846591890102 0 0 0 0 80.879582893092845 -196.75874867648145 0 -196.75874867648145 82.972252043444314 0 0 0 0 -168.02792612250391 98.327174213574381 0 98.327174213574381 123.89318886357069 0 0 0 0 -1.5840037031284133 18.608465616903427 0 18.608465616903427 111.61911697364863 0 0 0 0 -105.89747246276488 74.48373999079331 0 74.48373999079331 70.708314335521663 0 0 0 0 -144.39319644756711 22.059625508443332 0 22.059625508443332 115.73918488349591 0 0 0 0 350.32835655909435 -126.27663375667544 0 -126.27663375667544 -218.43515749309154 0 0 0 0 -229.08058611875444 -125.77909842478638 0 -125.77909842478638 201.79641521608573 0 0 0 0 0.13428078979612587 -1.5023130420682249 0 -1.5023130420682249 4.4237139068840179 0 0 0 0 -70.323841318601808 -87.704255870266934 0 -87.704255870266934 -45.819515254304861 0 0 0 0 -16.143847180876719 64.848059821332754 0 64.848059821332754 109.31074986963176 0 0 0 0 3.8599061037862157 115.3513158723307 0 115.3513158723307 191.10469780818403 0 0 0 0 -47.067995274183659 85.922968434378163 0 85.922968434378163 132.01154660462316 0 0 0 0 -106.09783201259393 58.234673553963077 0 58.234673553963077 130.60401616262425 0 0 0 0 -34.877679843825241 92.761803302880296 0 92.761803302880296 137.28352827055551 0 0 0 0 -35.469357715744309 78.820634432163843 0 78.820634432163843 91.033523748590142 0 0 0 0 -116.63671371437829 34.780690324110083 0 34.780690324110083 108.90884182514492 0 0 0 0 -7.3767087778605838 4.8515076709474094 0 4.8515076709474094 -5.3863748325153438 0 0 0 0 56.002747511519374 90.203190391872567 0 90.203190391872567 70.84041735848723 0 0 0 0 50.490775571685788 121.27264124702677 0 121.27264124702677 115.06493493120615 0 0 0 0 -116.64464471348947 -71.572384991050967 0 -71.572384991050967 -11.533220778391296 0 0 0 0 -14.193427268896603 15.871105962088244 0 15.871105962088244 15.465432081905972 0 0 0 0 -51.054103185746953 101.91404238243786 0 101.91404238243786 90.194948498486497 0 0 0 0 -39.980920349829773 76.255531286882047 0 76.255531286882047 137.05722040469163 0 0 0 0 -47.142615895237213 -1.5184310820218343 0 -1.5184310820218343 67.176570538291799 0 0 0 0 -62.232355617974463 8.4653045142990777 0 8.4653045142990777 77.050297506190418 0 0 0 0 -64.557040454094704 -7.2505184625286461 0 -7.2505184625286461 51.183420288205525 0 0 0 0 -77.83206025565346 22.38479420249746 0 22.38479420249746 57.702356522369882 0 0 0 0 -82.204402901559661 16.522782894981219 0 16.522782894981219 97.064490410879444 0 0 0 0 -87.391195721801523 41.960047654430127 0 41.960047654430127 71.903107210820508 0 0 0 0 -66.371336101532961 31.356349628913904 0 31.356349628913904 17.421909119460906 0 0 0 0 -21.881653468823515 11.696489195742288 0 11.696489195742288 61.847105957533131 0 0 0 0 -143.64408382243391 60.717256509695289 0 60.717256509695289 14.250725407087884 0 0 0 0 -1.3411907378230836 15.099819425438945 0 15.099819425438945 56.535363067468936 0 0 0 0 2.9290797813606559 14.419187258585875 0 14.419187258585875 44.937812118102663 0 0 0 0 20.687631548711124 15.442969644183904 0 15.442969644183904 31.76961914621279 0 0 0 0 -11.993749659271998 26.327004241304166 0 26.327004241304166 57.001940006673976 0 0 0 0 -0.81223815226705653 10.455715851749083 0 10.455715851749083 60.108012657122124 0 0 0 0 -125.05601600347791 161.36150236448884 0 161.36150236448884 39.275883650516334 0 0 0 0 11.354274917139946 -1.4093177260224365 0 -1.4093177260224365 58.469407545300783 0 0 0 0 -209.27068459902375 139.29268966125528 0 139.29268966125528 34.785760655046033 0 0 0 0 -89.073001182807275 120.8042347264709 0 120.8042347264709 -84.648296905041207 0 0 0 0 0.088391442436220657 19.076666360229439 0 19.076666360229439 43.032700715242832 0 0 0 0 -2.7012593635001334 0.76011768647087763 0 0.76011768647087763 6.4012667670679377 0 0 0 0 -159.79049691898126 -5.7014950314842281 0 -5.7014950314842281 -19.538235430147324 0 0 0 0 -47.634315685982301 52.958367850462309 0 52.958367850462309 -120.83140734644257 0 0 0 0 -77.811553957059914 83.714293960321811 0 83.714293960321811 -126.35755103683186 0 0 0 0 56.700912230861377 -6.0054779634774604 0 -6.0054779634774604 -52.372208681368647 0 0 0 0 -117.09854692187741 -66.885145231393835 0 -66.885145231393835 482.24692184996093 0 0 0 0 110.05982042793039 65.437495840629708 0 65.437495840629708 43.081018660074847 0 0 0 0 -128.49414355880663 -28.760917941413936 0 -28.760917941413936 311.91033055206935 0 0 0 0 -257.16546987359902 -228.08219631471638 0 -228.08219631471638 197.45705922677007 0 0 0 0 -17.781220641151776 -221.92736511967814 0 -221.92736511967814 100.54714141699878 0 0 0 0 0.34544683070405124 -1.0755557007231076 0 -1.0755557007231076 2.4955822561862391 0 0 0 0 -334.05085890541454 -376.67767779131827 0 -376.67767779131827 39.022040720505174 0 0 0 0 169.79538528818262 291.81315749332498 0 291.81315749332498 403.50864964278344 0 0 0 0 -205.64457454769763 -120.867818011895 0 -120.867818011895 -144.9986907600105 0 0 0 0 -377.35644821303003 -47.045006992746494 0 -47.045006992746494 49.290171452805225 0 0 0 0 -172.32944831183795 -122.65114429195091 0 -122.65114429195091 213.79761436746776 0 0 0 0 -202.31595536900295 -185.42719083899647 0 -185.42719083899647 98.75795495742932 0 0 0 0 -167.49823826480679 8.4675051604353939 0 8.4675051604353939 64.106317146865877 0 0 0 0 -156.41256511137135 -29.926097367548209 0 -29.926097367548209 174.06662009519641 0 0 0 0 -134.59205283465053 13.385255877197778 0 13.385255877197778 260.01067883247379 0 0 0 0 -87.411930416457835 -121.16400039526343 0 -121.16400039526343 177.44508744392078 0 0 0 0 -116.22498732435361 2.4180394329123374 0 2.4180394329123374 252.49722546499106 0 0 0 0 -86.118048794227889 -145.8594088279624 0 -145.8594088279624 373.50551309794537 0 0 0 0 -100.72152262419513 60.093587714261957 0 60.093587714261957 427.99040342198714 0 0 0 0 -68.614710134135748 -113.72859520303609 0 -113.72859520303609 431.75262323967763 0 0 0 0 386.10941269130126 -457.55599803457881 0 -457.55599803457881 270.72938565980803 0 0 0 0 170.174914230578 390.95951639337727 0 390.95951639337727 783.4784505222633 0 0 0 0 -81.346045853009855 -147.56222445743333 0 -147.56222445743333 494.77694480246282 0 0 0 0 -96.186162365719838 -143.71651532540363 0 -143.71651532540363 1451.4572020672058 0 0 0 0 71.39921319419409 -1144.2986984948438 0 -1144.2986984948438 428.51329100024304 0 0 0 0 2012.0782478154597 -511.65372362659764 0 -511.65372362659764 -471.07089690033899 0 0 0 0 -47.951120747584355 -171.92414211963796 0 -171.92414211963796 215.89998503706374 0 0 0 0 -877.15604463825639 -564.85861160916465 0 -564.85861160916465 2107.7010617803317 0 0 0 0 405.28618373187783 342.46487118309597 0 342.46487118309597 -345.49927728117382 0 0 0 0 -0.057393277056240422 -3.4799409054488217 0 -3.4799409054488217 14.133770686607313 0 0 0 0 -330.86251298094976 360.01335402689074 0 360.01335402689074 -20.845436290619546 0 0 0 0 -1.0507109318895571 19.296431990733062 0 19.296431990733062 89.502552000262966 0 0 0 0 129.90903437704037 -87.544008818029397 0 -87.544008818029397 62.259534654018353 0 0 0 0 -27.327179494376878 -135.73616960836125 0 -135.73616960836125 72.637833323518862 0 0 0 0 -59.851684363211461 42.46904342968628 0 42.46904342968628 5.18190257416245 0 0 0 0 143.69747143836139 111.44964013090794 0 111.44964013090794 -20.997291917097755 0 0 0 0 50.479910583346282 154.14943433739973 0 154.14943433739973 53.5197381774924 0 0 0 0 -20.479305834131083 114.18881715929456 0 114.18881715929456 50.979311233517365 0 0 0 0 -4.0177605625767683 129.19439291389426 0 129.19439291389426 61.479357061136398 0 0 0 0 -43.27429926415698 92.102444522744918 0 92.102444522744918 65.819048909794219 0 0 0 0 10.549230599267958 85.358159112029171 0 85.358159112029171 18.495735030512151 0 0 0 0 -49.187185116672481 41.350168612152629 0 41.350168612152629 15.220446434200312 0 0 0 0 0.69469779329384229 -0.11209131070855349 0 -0.11209131070855349 29.068074135227747 0 0 0 0 -177.79757178038017 25.444844224850385 0 25.444844224850385 56.124749330650957 0 0 0 0 46.719351156896664 115.4266197676443 0 115.4266197676443 -93.251339875938356 0 0 0 0 25.661710798684339 52.866920013792878 0 52.866920013792878 -3.877610099647427 0 0 0 0 26.313544103334152 58.329811454965693 0 58.329811454965693 2.5270543616788927 0 0 0 0 4.1490177040363818 0.13194424241435954 0 0.13194424241435954 -12.05085201213123 0 0 0 0 23.038556042983146 57.369019142536672 0 57.369019142536672 11.294901477747771 0 0 0 0 -95.849630082611839 -58.52081808701405 0 -58.52081808701405 -5.9230209995876066 0 0 0 0 0.010916734246717574 -1.5803185540328126 0 -1.5803185540328126 10.830050301760252 0 0 0 0 366.38864001208435 287.02993379493455 0 287.02993379493455 253.48765566210204 0 0 0 0 170.22158288645323 -133.07829068056981 0 -133.07829068056981 81.057506488068611 0 0 0 0 -7.2140498806387443 6.390285944469122 0 6.390285944469122 78.910659793347293 0 0 0 0 -603.15987563149247 39.232199788422804 0 39.232199788422804 1024.686655120342 0 0 0 0 301.06053228229484 -630.84102245737267 0 -630.84102245737267 1293.3785130778051 0 0 0 0 97.298340196717618 -705.24458346605752 0 -705.24458346605752 -92.00414828126668 0 0 0 0 2.5120247267220703 -0.079067719213945509 0 -0.079067719213945509 -0.054290521974522221 0 0 0 0 960.29836556255759 -251.26536091044545 0 -251.26536091044545 -2135.1059536876855 0 0 0 0 582.62321624624383 -563.42431197673432 0 -563.42431197673432 563.83757904180675 0 0 0 0 -1.1942481423748745 -2.2182480669308351 0 -2.2182480669308351 7.2746819281574346 0 0 0 0 116.43922975746864 228.05732488178546 0 228.05732488178546 296.62186111653864 0 0 0 0 125.92235093711452 277.38158997072787 0 277.38158997072787 302.52406566125865 0 0 0 0 45.399949803753771 -23.584867536228558 0 -23.584867536228558 -84.46228756835626 0 0 0 0 255.67769029512692 109.6716029517338 0 109.6716029517338 -30.523639491046197 0 0 0 0 92.872149659797287 193.04381195676979 0 193.04381195676979 102.2098509605471 0 0 0 0 51.240256020724701 169.98790243031908 0 169.98790243031908 100.42117962085467 0 0 0 0 22.26244437044943 238.44953449141758 0 238.44953449141758 263.85936852470331 0 0 0 0 -61.589098713019666 99.869042062799053 0 99.869042062799053 315.11160795131582 0 0 0 0 -41.459364526912395 188.77419819455099 0 188.77419819455099 707.48676205260563 0 0 0 0 -70.551206438281952 108.07743409527757 0 108.07743409527757 329.2450996828411 0 0 0 0 -73.249929866778075 121.84588729310053 0 121.84588729310053 260.4663818643603 0 0 0 0 -103.08773706809552 78.310423336195527 0 78.310423336195527 197.49149996675743 0 0 0 0 -141.8757504086584 54.692771211473882 0 54.692771211473882 63.867385360150365 0 0 0 0 -153.06947876709819 80.050288561011257 0 80.050288561011257 164.4957382495777 0 0 0 0 -110.58254856382928 96.813024396295077 0 96.813024396295077 151.81401553751493 0 0 0 0 -127.19031690096699 97.210875357995974 0 97.210875357995974 102.88199849084049 0 0 0 0 -89.338930444893776 114.90810632636567 0 114.90810632636567 106.24697142109653 0 0 0 0 -72.870253887254876 152.57171780266799 0 152.57171780266799 125.82141636495362 0 0 0 0 -23.446066321022045 159.69315350557008 0 159.69315350557008 133.62356528043165 0 0 0 0 -10.132627987108208 181.01932453898917 0 181.01932453898917 131.90532253972606 0 0 0 0 -59.79449678823039 167.6251217122699 0 167.6251217122699 197.30709920331935 0 0 0 0 -265.10163745069713 -92.044181648374433 0 -92.044181648374433 -110.22025587514509 0 0 0 0 -214.3199938551943 21.627151610940928 0 21.627151610940928 51.399875218477973 0 0 0 0 -241.01758319664077 -66.799713622131094 0 -66.799713622131094 -1.6598414461113862 0 0 0 0 -255.38092207615318 -15.289646097266086 0 -15.289646097266086 124.739907612151 0 0 0 0 -115.88184227578859 106.02032051270362 0 106.02032051270362 66.673608329217132 0 0 0 0 -208.72751546965083 14.414012283286866 0 14.414012283286866 60.607925559226715 0 0 0 0 -205.28203742437654 56.088136516267696 0 56.088136516267696 98.207215073154657 0 0 0 0 -250.67271090220947 58.500920162019611 0 58.500920162019611 -0.20796881480055163 0 0 0 0 -169.59083264188666 31.049573745796806 0 31.049573745796806 8.1350474399223458 0 0 0 0 -166.99402048830689 12.463058054894645 0 12.463058054894645 133.25340293454065 0 0 0 0 -87.170116839231014 84.210833831355558 0 84.210833831355558 93.175760039467605 0 0 0 0 -118.45902335957453 96.852725355229268 0 96.852725355229268 166.65291878428252 0 0 0 0 -58.141417265134805 70.837085750514234 0 70.837085750514234 161.45368914794381 0 0 0 0 -41.630205865824792 82.972264681662637 0 82.972264681662637 157.33014737240592 0 0 0 0 -21.515256220390256 143.90146185769845 0 143.90146185769845 92.998885061590499 0 0 0 0 -38.967728161915147 147.21882556812125 0 147.21882556812125 93.342751011849032 0 0 0 0 -59.648508990652772 125.04182938667509 0 125.04182938667509 109.49055522987874 0 0 0 0 -11.381938742697457 78.966343071326264 0 78.966343071326264 111.43614816144077 0 0 0 0 -60.065648605955175 125.54758273958578 0 125.54758273958578 109.1200468213865 0 0 0 0 4.3685462161156465 7.5126001013613859 0 7.5126001013613859 84.80944564424135 0 0 0 0 -22.411873416963317 102.06067744460779 0 102.06067744460779 66.643419329710014 0 0 0 0 -65.670072619281655 72.818184714724339 0 72.818184714724339 187.46448026893631 0 0 0 0 -77.027006538483874 -44.203394029696938 0 -44.203394029696938 232.93837557872757 0 0 0 0 -9.3204361091113697 -29.350909983677411 0 -29.350909983677411 212.73126187758317 0 0 0 0 -28.054973798869014 7.1020811895323277 0 7.1020811895323277 159.95041769326053 0 0 0 0 -117.15336572880506 51.043590360668532 0 51.043590360668532 324.073755383346 0 0 0 0 -95.573419281628048 -80.211554993133177 0 -80.211554993133177 452.18464250107354 0 0 0 0 -129.50036320999698 11.210378780077008 0 11.210378780077008 307.55310574740724 0 0 0 0 -153.53582197248261 -137.59029005003322 0 -137.59029005003322 430.00785855732283 0 0 0 0 -105.74838858236183 -229.44753657099682 0 -229.44753657099682 579.01235469683888 0 0 0 0 55.376611590173525 -100.50060980927083 0 -100.50060980927083 133.88814704256947 0 0 0 0 32.120006326343173 -96.986418801512627 0 -96.986418801512627 164.02066562795517 0 0 0 0 -9.1574883612656777 -148.24232863901852 0 -148.24232863901852 362.50603182461782 0 0 0 0 -89.308546119242237 -204.77513008307506 0 -204.77513008307506 334.49378103089111 0 0 0 0 174.27179087118111 -264.09097798036237 0 -264.09097798036237 113.46902724582469 0 0 0 0 9.7846769529246558 -354.52346341062002 0 -354.52346341062002 551.37483299800078 0 0 0 0 161.48519505830745 -296.12571315414243 0 -296.12571315414243 224.16201346114394 0 0 0 0 484.13125701005265 -266.69688248597231 0 -266.69688248597231 -101.44212128514118 0 0 0 0 369.06041232120242 -29.583964284724061 0 -29.583964284724061 -250.74119892932504 0 0 0 0 -148.89350292676772 195.4993491414898 0 195.4993491414898 -87.291062113357839 0 0 0 0 100.2175347365087 -58.028237694174095 0 -58.028237694174095 39.512860213064414 0 0 0 0 -92.11956228906638 64.292486425045354 0 64.292486425045354 7.8752691343688639 0 0 0 0 -350.34283754577154 10.407923757371464 0 10.407923757371464 104.32587630099442 0 0 0 0 -141.61707030050729 -26.612307348315881 0 -26.612307348315881 2.9588856474510976 0 0 0 0 -65.648623255868188 83.896206910216279 0 83.896206910216279 40.363300602185916 0 0 0 0 1.398029535771939 1.1449731350389203 0 1.1449731350389203 -1.9893910080672157 0 0 0 0 2.1356021691967788 -3.9921700701093101 0 -3.9921700701093101 19.332708913277671 0 0 0 0 -9.016304412865793 3.9471228707589034 0 3.9471228707589034 27.144258407250163 0 0 0 0 6.0292193882910965 34.037324459638057 0 34.037324459638057 33.540327999500732 0 0 0 0 100.57523140318062 -32.871054437006023 0 -32.871054437006023 -105.5170558126847 0 0 0 0 87.464625498176247 -44.315761936581112 0 -44.315761936581112 -89.854364900573273 0 0 0 0 0.61506448899558563 -121.35969528956048 0 -121.35969528956048 -456.47401328361593 0 0 0 0 156.10367835111265 266.59606382212223 0 266.59606382212223 -586.55942546321421 0 0 0 0 304.06062924683692 77.473436471600508 0 77.473436471600508 -90.31885652449273 0 0 0 0 233.77954063869311 -116.457573994634 0 -116.457573994634 -119.78437453039805 0 0 0 0 536.36412609293575 272.66864754492235 0 272.66864754492235 335.03788471937514 0 0 0 0 -0.035872949380568286 0.52369903868147283 0 0.52369903868147283 0.23896494071728114 0 0 0 0 -519.61170357835545 526.1859472029264 0 526.1859472029264 2639.5459935447288 0 0 0 0 622.39536205004879 -668.99262943187205 0 -668.99262943187205 615.77451764416037 0 0 0 0 208.73849391126032 539.36729532614299 0 539.36729532614299 1223.9072920332037 0 0 0 0 635.15858146917526 -560.77104274232624 0 -560.77104274232624 393.06362260352034 0 0 0 0 22.190022720972024 -101.43343075957455 0 -101.43343075957455 2708.8594447099094 0 0 0 0 1.1931713555572236 -3.1391173553008009 0 -3.1391173553008009 8.4691565977079648 0 0 0 0 124.86448069861945 -454.44583377959498 0 -454.44583377959498 556.43601455321914 0 0 0 0 380.76654469360687 -583.8463787213268 0 -583.8463787213268 376.63370784919243 0 0 0 0 508.37340516616541 -993.12231552345474 0 -993.12231552345474 1199.5232300483185 0 0 0 0 5.5880872378484625 -7.1880725346455989 0 -7.1880725346455989 8.7399064703514711 0 0 0 0 672.45029430898114 -388.00150457152085 0 -388.00150457152085 -245.08773535684304 0 0 0 0 1228.9855809386354 65.282686247024685 0 65.282686247024685 1246.0408253659843 0 0 0 0 -77.971947877384082 789.50275821442483 0 789.50275821442483 1638.883208655112 0 0 0 0 -364.81545183270555 -294.65165370132672 0 -294.65165370132672 2998.4867557938924 0 0 0 0 -316.82968995255396 1002.9165994993273 0 1002.9165994993273 1432.9233764707315 0 0 0 0 756.70699344526565 -166.4261425700879 0 -166.4261425700879 -323.84394644989516 0 0 0 0 590.25468140026078 52.136694489512593 0 52.136694489512593 -578.27192728030059 0 0 0 0 9.4801267326083689 322.65532417011127 0 322.65532417011127 -442.3629282017464 0 0 0 0 -126.30988550614205 1199.1695913069993 0 1199.1695913069993 434.66008117815363 0 0 0 0 -128.63460854424193 986.32874478168378 0 986.32874478168378 877.55921998585109 0 0 0 0 451.06553005666956 -167.49544163835708 0 -167.49544163835708 255.03505371773645 0 0 0 0 95.614950686583143 -89.778687967454971 0 -89.778687967454971 1677.7167700038044 0 0 0 0 729.41833126931078 -574.5700707391934 0 -574.5700707391934 274.11747058301989 0 0 0 0 752.64947159230724 -382.48930732710869 0 -382.48930732710869 -87.726158422447043 0 0 0 0 611.81069816157287 -405.17840700241504 0 -405.17840700241504 387.15817642305774 0 0 0 0 742.66864169004657 -84.899378997419262 0 -84.899378997419262 -59.731493293899803 0 0 0 0 693.10765830032187 -24.640598926558596 0 -24.640598926558596 314.68907722700533 0 0 0 0 765.38602333284166 306.12882910475219 0 306.12882910475219 25.856667623113026 0 0 0 0 1252.6427535153348 207.92758756323246 0 207.92758756323246 43.523742479530483 0 0 0 0 396.36482013743716 278.12876544830942 0 278.12876544830942 61.996050646113872 0 0 0 0 8.586864789130459 -5.4388562093860244 0 -5.4388562093860244 5.9617894446861754 0 0 0 0 575.66190267349134 -263.65791087979596 0 -263.65791087979596 240.21115234789613 0 0 0 0 1072.548953000874 4.6222072539385408 0 4.6222072539385408 -208.67773676660727 0 0 0 0 649.99122370389023 96.760094444682181 0 96.760094444682181 -212.85327706318094 0 0 0 0 586.05861993983808 -105.77348967148009 0 -105.77348967148009 -177.96666454008664 0 0 0 0 87.526647175403468 101.09225532125856 0 101.09225532125856 -22.252194149976276 0 0 0 0 -696.43214630901582 74.365517615493445 0 74.365517615493445 135.57315496337105 0 0 0 0 -27.959012868686614 -189.4777634335569 0 -189.4777634335569 196.80628270542365 0 0 0 0 -241.60730741724916 -490.22445625146611 0 -490.22445625146611 507.00617190782214 0 0 0 0 108.62841516651756 -51.426249502681458 0 -51.426249502681458 262.75291670274601 0 0 0 0 342.13190745327955 -10.235289124360861 0 -10.235289124360861 377.9926372845548 0 0 0 0 127.25278834879566 -115.68445032325872 0 -115.68445032325872 436.25217155736755 0 0 0 0 773.75686376711099 -711.03357163767214 0 -711.03357163767214 1374.789748264935 0 0 0 0 1362.473689261039 340.75281175378041 0 340.75281175378041 1500.2370202436177 0 0 0 0 -126.01186055555718 304.55374197241053 0 304.55374197241053 1925.8151633161797 0 0 0 0 -34.844386608832224 -266.24437328313525 0 -266.24437328313525 1222.5166109848651 0 0 0 0 -23.139669068786276 422.45604001293577 0 422.45604001293577 1061.850767929951 0 0 0 0 609.38601934818143 247.02587684546324 0 247.02587684546324 1942.8273839702506 0 0 0 0 228.36022454663527 -175.44820279614555 0 -175.44820279614555 180.63775855672429 0 0 0 0 1.1141347840602249 -1.9447380541188508 0 -1.9447380541188508 5.1087392897114796 0 0 0 0 -321.29923501374026 258.30260868230471 0 258.30260868230471 1498.4601819982215 0 0 0 0 -146.70356804981583 593.83530653849812 0 593.83530653849812 1139.2017949818437 0 0 0 0 81.553781749591337 35.569980286611099 0 35.569980286611099 -191.26713334462693 0 0 0 0 -5.5198594813975888 165.88358612310549 0 165.88358612310549 398.97404602743336 0 0 0 0 5.590030151026447 -6.2283573755221155 0 -6.2283573755221155 4.377256540697843 0 0 0 0 43.20857215282922 21.325000287535659 0 21.325000287535659 -86.556580374177429 0 0 0 0 -13.518014228924017 39.817296362109118 0 39.817296362109118 -97.240226712361618 0 0 0 0 7.9612517839818482 -10.020056527974177 0 -10.020056527974177 10.707041147856316 0 0 0 0 -616.41749668463456 -626.41846841611004 0 -626.41846841611004 197.99410334352433 0 0 0 0 -35.270052659101907 -523.19635720641236 0 -523.19635720641236 -173.30316180647787 0 0 0 0 157.79238918485083 -215.94628867248048 0 -215.94628867248048 345.55143424564449 0 0 0 0 -155.04554854700564 -53.26487480184187 0 -53.26487480184187 222.67373507717275 0 0 0 0 -183.23951669809503 -21.078192841025157 0 -21.078192841025157 292.15931308106519 0 0 0 0 -77.663131389878913 109.67856392681279 0 109.67856392681279 29.360768534646922 0 0 0 0 -108.01295639038108 -55.900248171625208 0 -55.900248171625208 -52.794628179697611 0 0 0 0 -180.86737167441152 -18.975188178457756 0 -18.975188178457756 292.98629245459597 0 0 0 0 -235.57859336485217 -149.04513050844616 0 -149.04513050844616 558.73671606384596 0 0 0 0 129.1306178514169 764.22485425294144 0 764.22485425294144 -151.83094114436244 0 0 0 0 -131.99438895036656 488.4621713548695 0 488.4621713548695 890.6898770635089 0 0 0 0 -75.827602588920854 497.09669289524027 0 497.09669289524027 77.858268891148327 0 0 0 0 -132.51843255030599 211.64257729069868 0 211.64257729069868 695.77072052047879 0 0 0 0 -179.48856994384812 -41.379213846625134 0 -41.379213846625134 486.03265616754652 0 0 0 0 -113.25517549302276 120.85793043900776 0 120.85793043900776 148.98380767571507 0 0 0 0 -267.12787862861387 -145.99433785567089 0 -145.99433785567089 697.92656090211767 0 0 0 0 -261.60932286981006 67.179599636336206 0 67.179599636336206 670.0882923300378 0 0 0 0 -190.04999520270121 -297.13094040008582 0 -297.13094040008582 1184.7267069793816 0 0 0 0 -258.36331545176404 48.018366752562542 0 48.018366752562542 749.40624076929817 0 0 0 0 -368.31378095930813 65.771286583818437 0 65.771286583818437 802.931318502262 0 0 0 0 -442.80017685073835 34.823298567825987 0 34.823298567825987 1788.1426759459428 0 0 0 0 -278.94390172060412 -174.75462465976671 0 -174.75462465976671 1024.2397321793105 0 0 0 0 -291.31100768040596 -179.62754120276441 0 -179.62754120276441 1024.8228885826938 0 0 0 0 -128.8373759984247 -323.75479112127141 0 -323.75479112127141 555.85083287939051 0 0 0 0 -142.91919098234121 -324.15185093279251 0 -324.15185093279251 721.39067617048568 0 0 0 0 40.494892746251935 -601.1864352269622 0 -601.1864352269622 935.67361273743882 0 0 0 0 -199.64196141116463 -203.12902338704225 0 -203.12902338704225 654.32129816357337 0 0 0 0 -240.39560070377047 -124.48839536709056 0 -124.48839536709056 575.35895816807533 0 0 0 0 -275.42745996433814 -160.71332978864302 0 -160.71332978864302 765.16117721208138 0 0 0 0 -199.33327469346568 -234.42044583905772 0 -234.42044583905772 579.10135533494031 0 0 0 0 -116.83990841786772 -182.25154886882228 0 -182.25154886882228 596.48230580697418 0 0 0 0 -127.68234100310565 -157.87594754959355 0 -157.87594754959355 626.93757913410082 0 0 0 0 -224.21082793986932 -133.8707656928691 0 -133.8707656928691 581.38906245656108 0 0 0 0 129.29453084675526 -142.9722435967069 0 -142.9722435967069 571.76139582918404 0 0 0 0 140.10165691936481 -164.26332923138398 0 -164.26332923138398 506.09215313841196 0 0 0 0 -117.66609065771854 -75.072225350875669 0 -75.072225350875669 477.49010741005986 0 0 0 0 185.54057526517704 -124.8200075968125 0 -124.8200075968125 291.41056030791879 0 0 0 0 -111.83457693974879 -189.10450234392192 0 -189.10450234392192 528.26387863973105 0 0 0 0 -189.8316114640636 -62.857482671518483 0 -62.857482671518483 354.14483736759576 0 0 0 0 -230.23317032776231 -174.01077919361342 0 -174.01077919361342 343.22192331555652 0 0 0 0 10.360940524609619 -10.196814273649224 0 -10.196814273649224 7.3799106646111667 0 0 0 0 -189.3330448311599 -364.41606989532011 0 -364.41606989532011 -142.62024018168449 0 0 0 0 -443.19466662251489 -182.62928571354132 0 -182.62928571354132 173.8630658891052 0 0 0 0 -60.479594835721855 -117.1425810015844 0 -117.1425810015844 105.37410521612037 0 0 0 0 -135.15930744718571 -34.746365362686447 0 -34.746365362686447 275.04120646576484 0 0 0 0 426.66801965471768 -155.964597583672 0 -155.964597583672 15.706396545414464 0 0 0 0 -165.18092606136679 140.93788287502321 0 140.93788287502321 -125.39549836843798 0 0 0 0 -200.09127209525005 240.56227184740465 0 240.56227184740465 1499.8217191946678 0 0 0 0 727.64935558181048 -339.35600179275752 0 -339.35600179275752 -514.35063313644423 0 0 0 0 5.7437419843145356 -4.1829636531395309 0 -4.1829636531395309 3.7215047623271076 0 0 0 0 -200.71554479039216 242.21961409142386 0 242.21961409142386 1496.7710571377092 0 0 0 0 255.78637417528066 -388.54388239969455 0 -388.54388239969455 373.409234677114 0 0 0 0 1085.7686565806705 -835.8929210240467 0 -835.8929210240467 7.3136145601019962 0 0 0 0 555.21887312897832 -1164.8086642851486 0 -1164.8086642851486 1495.4737091694569 0 0 0 0 552.21414838538794 -304.38456782620597 0 -304.38456782620597 194.13656391958284 0 0 0 0 404.45491492037314 -239.72733547037251 0 -239.72733547037251 178.52399592336587 0 0 0 0 266.35669461601378 -632.62441990109255 0 -632.62441990109255 670.89235229055703 0 0 0 0 495.17077312278604 -599.04783590253442 0 -599.04783590253442 636.74171021148868 0 0 0 0 212.42231716899261 -372.70875232481012 0 -372.70875232481012 508.93171856924164 0 0 0 0 182.92767252261552 -394.93951681451108 0 -394.93951681451108 770.8640874340133 0 0 0 0 190.6174543642943 -168.99896653331848 0 -168.99896653331848 463.90735681611113 0 0 0 0 267.89175658423983 -147.87725693725588 0 -147.87725693725588 426.35244766443975 0 0 0 0 281.88770924030405 -260.38120073338587 0 -260.38120073338587 671.15013266988535 0 0 0 0 177.63833478968968 -191.15878987797987 0 -191.15878987797987 628.84300815892493 0 0 0 0 82.190208540435208 -134.82265498316701 0 -134.82265498316701 666.95642454999324 0 0 0 0 103.00573737657191 -134.3327086096142 0 -134.3327086096142 650.99412138783737 0 0 0 0 19.979628626417458 -263.79101345160666 0 -263.79101345160666 542.48741936991428 0 0 0 0 198.91679098242088 -299.59981448602684 0 -299.59981448602684 163.33696886759208 0 0 0 0 5.0147796575759003 -136.84450196825856 0 -136.84450196825856 712.88975531032884 0 0 0 0 283.520316108722 -85.278329783450317 0 -85.278329783450317 572.3040800647459 0 0 0 0 176.76411772407357 -29.793700840317797 0 -29.793700840317797 699.54614268236764 0 0 0 0 -128.26087353982672 -135.70919624339467 0 -135.70919624339467 841.94522831336144 0 0 0 0 147.37030476874679 -243.74382959618197 0 -243.74382959618197 650.06811112888317 0 0 0 0 -105.09313896962294 -96.057327208998686 0 -96.057327208998686 492.322989221233 0 0 0 0 -156.27761627921655 -134.82238844301401 0 -134.82238844301401 638.22953132126713 0 0 0 0 7.7326858319165694 126.10825615777503 0 126.10825615777503 223.92368653399899 0 0 0 0 -160.68502739177939 -36.103697167953214 0 -36.103697167953214 557.40855597651171 0 0 0 0 -0.8612918229114257 245.49138709721956 0 245.49138709721956 673.57936230291671 0 0 0 0 1.4505588457758538 -1.9384291585567155 0 -1.9384291585567155 3.4491874493874377 0 0 0 0 1.5864295573674845 -5.1806280978855952 0 -5.1806280978855952 8.8135680172881194 0 0 0 0 -92.10690540683936 -40.150557404052961 0 -40.150557404052961 98.679467571324494 0 0 0 0 -104.08606811752406 -39.199000750617415 0 -39.199000750617415 44.141515007126145 0 0 0 0 -155.44049142957556 -63.157113565437612 0 -63.157113565437612 107.84722875471562 0 0 0 0 -122.79236562949518 11.451594103280513 0 11.451594103280513 91.151434606981638 0 0 0 0 -323.45178658318127 -1.8396816823005793 0 -1.8396816823005793 63.572419130505295 0 0 0 0 -185.90709962970641 -192.5567800365061 0 -192.5567800365061 -148.18152798527444 0 0 0 0 -243.29044961025966 -34.951211440235056 0 -34.951211440235056 74.789087121724151 0 0 0 0 -388.91156455347846 -68.742537414364051 0 -68.742537414364051 -43.992496415885398 0 0 0 0 -0.39028448603296173 -0.31635859662553401 0 -0.31635859662553401 2.9508211571969145 0 0 0 0 -5.6627362123400049 1.282545826705757 0 1.282545826705757 2.2600591257912912 0 0 0 0 -18.218834320121346 -3.1832472183396021 0 -3.1832472183396021 21.683498777609202 0 0 0 0 16.846310816045559 55.424984447977295 0 55.424984447977295 149.90031814778195 0 0 0 0 145.43830624596706 -82.793243389702184 0 -82.793243389702184 33.672575138501998 0 0 0 0 -1.4481856736983549 1.0581785388084199 0 1.0581785388084199 0.13846124823583761 0 0 0 0 -27.031243314972016 47.291831777509287 0 47.291831777509287 148.1068942280981 0 0 0 0 142.85829024323078 -172.88064384469544 0 -172.88064384469544 374.98997407269053 0 0 0 0 89.033886453516345 -209.91038768917861 0 -209.91038768917861 538.96054911141255 0 0 0 0 126.39083694354622 -150.49813090392854 0 -150.49813090392854 442.56457445161504 0 0 0 0 93.695022718722328 -232.36277314325707 0 -232.36277314325707 422.47018641296017 0 0 0 0 126.26620134931409 -170.64040809898142 0 -170.64040809898142 346.27743959349937 0 0 0 0 -69.121887596579313 -70.525412013670575 0 -70.525412013670575 391.99400738690656 0 0 0 0 68.883140950104348 34.982234311382854 0 34.982234311382854 375.01510648724798 0 0 0 0 140.06601630997505 -106.98202896392831 0 -106.98202896392831 410.24820016671583 0 0 0 0 119.93545063653377 -184.64081638368134 0 -184.64081638368134 280.54935935250978 0 0 0 0 0.11365080809369177 0.33515555247204531 0 0.33515555247204531 0.58915762367295343 0 0 0 0 111.72642548507096 -79.999177949652221 0 -79.999177949652221 425.78672007020941 0 0 0 0 139.08441837890052 -110.36935576410542 0 -110.36935576410542 458.1117944514699 0 0 0 0 71.77863418450471 -96.21083350270419 0 -96.21083350270419 505.14908561253833 0 0 0 0 99.184902572732142 -101.63958748394543 0 -101.63958748394543 452.54912046384561 0 0 0 0 88.388647249239696 -96.411794881534661 0 -96.411794881534661 477.00207883205439 0 0 0 0 80.454419683083614 -131.40189794411162 0 -131.40189794411162 546.28851575347653 0 0 0 0 81.657160005932141 -132.41073316485563 0 -132.41073316485563 545.69793695460976 0 0 0 0 112.25736163817447 -120.6274079809773 0 -120.6274079809773 485.68344579506811 0 0 0 0 105.75252916647246 -107.6937655648253 0 -107.6937655648253 467.55112202378223 0 0 0 0 129.95955795771184 -168.53226656005791 0 -168.53226656005791 527.6330936154518 0 0 0 0 88.037601079121217 -158.94843585125636 0 -158.94843585125636 549.06086387008691 0 0 0 0 83.814778757086515 -211.53040855730433 0 -211.53040855730433 671.27179210989561 0 0 0 0 43.56514968733623 -152.02783907729281 0 -152.02783907729281 703.48837730060768 0 0 0 0 84.900087373755895 -177.74254545621216 0 -177.74254545621216 629.99077453350765 0 0 0 0 -30.195844275417755 -167.883440360245 0 -167.883440360245 843.52052994521364 0 0 0 0 9.0704977844942789 -209.03306763415367 0 -209.03306763415367 770.0296658307343 0 0 0 0 87.979807785350999 -246.07825043137018 0 -246.07825043137018 668.30996849454095 0 0 0 0 22.96561978007643 -246.64302111515917 0 -246.64302111515917 864.65722689187533 0 0 0 0 154.12302905427623 -247.96957441106497 0 -247.96957441106497 626.72313592293358 0 0 0 0 80.283402912601872 -257.12480693090401 0 -257.12480693090401 784.49266275660284 0 0 0 0 66.151496161886598 -224.27544738191136 0 -224.27544738191136 639.59810522625048 0 0 0 0 113.18121873157483 -203.54765710358879 0 -203.54765710358879 540.60876230990834 0 0 0 0 30.714258724809042 -175.43676148610666 0 -175.43676148610666 537.30429572753928 0 0 0 0 126.56045758797472 -180.46773766391925 0 -180.46773766391925 529.0987366464924 0 0 0 0 101.46025100387425 -177.89068039850827 0 -177.89068039850827 712.7678487734629 0 0 0 0 81.060121390440926 -237.27657198577481 0 -237.27657198577481 633.85251813744981 0 0 0 0 124.75237705466301 -199.39232802451806 0 -199.39232802451806 774.95527854528336 0 0 0 0 182.15740315353474 -267.61792126173896 0 -267.61792126173896 740.8688509536305 0 0 0 0 242.18894916374953 -327.68618006966426 0 -327.68618006966426 789.66421340191414 0 0 0 0 165.59456311756333 -213.02037636653949 0 -213.02037636653949 887.4037400574598 0 0 0 0 125.83599123875553 -414.38228851608801 0 -414.38228851608801 1070.7682339756102 0 0 0 0 104.0630386775521 -660.07402041008936 0 -660.07402041008936 854.73506499699215 0 0 0 0 268.59543490126225 -622.95605762673222 0 -622.95605762673222 704.24041492890683 0 0 0 0 154.55258929392505 -737.46377974462666 0 -737.46377974462666 167.82587778511515 0 0 0 0 0.77036812260842868 -2.5918744700653598 0 -2.5918744700653598 4.9523955826647068 0 0 0 0 -218.25171502245342 30.612509099053113 0 30.612509099053113 413.68688798990479 0 0 0 0 -125.01199761807007 -330.22825858369652 0 -330.22825858369652 1501.209111677832 0 0 0 0 213.67771924277829 -645.65920725075921 0 -645.65920725075921 44.114026079638279 0 0 0 0 -606.34157531845176 161.70300253855567 0 161.70300253855567 1496.4764617622943 0 0 0 0 0.68920465628277783 -2.5497839683051495 0 -2.5497839683051495 5.0257570764974133 0 0 0 0 -197.86562592840488 162.90966121573183 0 162.90966121573183 504.77060823783904 0 0 0 0 123.69234134066062 -674.90627204032444 0 -674.90627204032444 757.68931687614531 0 0 0 0 -18.790352768979119 -109.51996525816139 0 -109.51996525816139 661.60273100711493 0 0 0 0 -70.241890890793314 -130.86636272101896 0 -130.86636272101896 1025.2065531189473 0 0 0 0 -110.90473212543019 -41.760628987256496 0 -41.760628987256496 939.802297549988 0 0 0 0 -501.73640435343492 -60.77311817006921 0 -60.77311817006921 1340.0439233998623 0 0 0 0 -99.135207411429036 -251.57107382730464 0 -251.57107382730464 864.57264165545257 0 0 0 0 37.149764769257537 -449.64698950482125 0 -449.64698950482125 1114.0644218116431 0 0 0 0 -65.445250014539894 -187.09135169639194 0 -187.09135169639194 978.68457430563285 0 0 0 0 -22.708614329537852 -141.53340135499457 0 -141.53340135499457 932.29721553954005 0 0 0 0 -65.731074154899289 -140.41466127470039 0 -140.41466127470039 936.88756769026804 0 0 0 0 -183.88327919505147 -241.05556317167975 0 -241.05556317167975 1497.5036063003599 0 0 0 0 26.773875169645237 -110.06614535411063 0 -110.06614535411063 904.01924141883683 0 0 0 0 7.8517582441476748 -83.219858799104259 0 -83.219858799104259 888.37933072767191 0 0 0 0 19.775724572914626 -113.52330593087754 0 -113.52330593087754 1012.7313104196437 0 0 0 0 -18.402869909108375 -95.562841784851116 0 -95.562841784851116 1008.2589200729781 0 0 0 0 -0.12898716497277973 -0.66722860324550481 0 -0.66722860324550481 1.9944693915621672 0 0 0 0 -46.534690511181566 -78.243871946948275 0 -78.243871946948275 1087.3627442904835 0 0 0 0 -0.063128163393439629 -0.20423203225948328 0 -0.20423203225948328 1.4014211179001048 0 0 0 0 40.040655333587722 -211.76812558143138 0 -211.76812558143138 800.55503118022489 0 0 0 0 -84.348992820543003 -564.95386720808165 0 -564.95386720808165 1205.2966862521389 0 0 0 0 -52.486566994933071 -80.488624382709531 0 -80.488624382709531 1097.5640482168674 0 0 0 0 0.43869776012527278 -60.536395594706846 0 -60.536395594706846 1181.1081843667362 0 0 0 0 -0.066779518327844289 -0.49030193281583934 0 -0.49030193281583934 1.9891632003239232 0 0 0 0 -2.4159012495723005 -96.139882712952385 0 -96.139882712952385 872.71690665301526 0 0 0 0 -8.9302285767168428 -98.181377300745226 0 -98.181377300745226 1140.2652377362683 0 0 0 0 11.990310478851313 -128.95235318473715 0 -128.95235318473715 848.69465234431118 0 0 0 0 12.030217518845603 -60.434414486364403 0 -60.434414486364403 903.64136069462256 0 0 0 0 -0.0083162575757639717 -82.893524420247559 0 -82.893524420247559 845.12748219997957 0 0 0 0 -0.0016035409571368182 -80.832234447243025 0 -80.832234447243025 739.17272555953241 0 0 0 0 3.4855807402163919 -125.04954599186385 0 -125.04954599186385 800.29277561437993 0 0 0 0 19.133319875354417 -121.49451665767083 0 -121.49451665767083 663.90081755034771 0 0 0 0 17.673682198805764 -84.904951841941511 0 -84.904951841941511 678.01746544281195 0 0 0 0 4.0330235311731251 -90.05627282373743 0 -90.05627282373743 802.85441151287523 0 0 0 0 26.728725675747995 -134.3594491484364 0 -134.3594491484364 728.99887385723923 0 0 0 0 20.64725328698853 -101.11247509021632 0 -101.11247509021632 764.4025612284604 0 0 0 0 11.958029995505967 -148.26828937572645 0 -148.26828937572645 818.76411658193319 0 0 0 0 25.409163293771257 -129.33783493495594 0 -129.33783493495594 774.29311339909327 0 0 0 0 28.153013699981045 -141.29830192342706 0 -141.29830192342706 771.14673816048617 0 0 0 0 48.070108297656375 -151.28619774862818 0 -151.28619774862818 656.21737957950972 0 0 0 0 36.912524406946773 -122.11557949136477 0 -122.11557949136477 669.6646832786696 0 0 0 0 43.067099480082973 -130.90159467999365 0 -130.90159467999365 669.60784239029454 0 0 0 0 54.014069797548672 -120.06225013342191 0 -120.06225013342191 557.78250432767163 0 0 0 0 44.96804682016446 -94.5163308291676 0 -94.5163308291676 588.84263867771369 0 0 0 0 63.590667885907123 -130.66817685049864 0 -130.66817685049864 572.09164002644684 0 0 0 0 54.246500726244278 -133.14342456089798 0 -133.14342456089798 647.41535264896993 0 0 0 0 55.603302283308039 -94.959380086165766 0 -94.959380086165766 553.06189993221233 0 0 0 0 78.138289941646178 -123.23513010790793 0 -123.23513010790793 471.88620739632461 0 0 0 0 63.270434697685971 -84.178910934973828 0 -84.178910934973828 466.11517770841601 0 0 0 0 26.360283254754009 -75.500594752034885 0 -75.500594752034885 563.96251020239288 0 0 0 0 32.619659528697028 -101.27357757834761 0 -101.27357757834761 524.32984135925471 0 0 0 0 0.040933945490679358 -68.024063315880184 0 -68.024063315880184 610.45418724122283 0 0 0 0 39.597547940679185 -125.29323078533275 0 -125.29323078533275 601.54483407390217 0 0 0 0 -50.698354914779429 47.100858871077889 0 47.100858871077889 74.381902004454503 0 0 0 0 -0.10875653117617445 0.83728470437354297 0 0.83728470437354297 4.0989240487325542 0 0 0 0 30.16661114103681 343.98876915040364 0 343.98876915040364 513.25590117127831 0 0 0 0 42.154112283671111 174.09662762569928 0 174.09662762569928 104.98651199212992 0 0 0 0 -20.972478339751206 184.76711114302702 0 184.76711114302702 384.92091886679691 0 0 0 0 -19.789515371736798 100.95807312364491 0 100.95807312364491 143.48072504014516 0 0 0 0 -14.735163536990967 96.292719061850562 0 96.292719061850562 118.36582217977229 0 0 0 0 2.3248969691661614 83.27702900993927 0 83.27702900993927 117.54470837056215 0 0 0 0 30.058372936227897 148.04797614547806 0 148.04797614547806 144.05601188191542 0 0 0 0 16.094346907711042 150.47043598857704 0 150.47043598857704 158.46595643630735 0 0 0 0 12.859413561426152 45.358428775148468 0 45.358428775148468 87.159114786322789 0 0 0 0 34.567227115654077 197.00203871700296 0 197.00203871700296 203.70649810172517 0 0 0 0 0.52951718298936612 16.398744932338502 0 16.398744932338502 465.64354343670038 0 0 0 0 0.65010235170244179 0.77986361827163542 0 0.77986361827163542 0.56788913005769182 0 0 0 0 -8.1296892489544916 225.23857875322892 0 225.23857875322892 -230.80338419182681 0 0 0 0 -12.20254254718111 -19.841994870337203 0 -19.841994870337203 176.07454227720154 0 0 0 0 1.1469317318997323 2.2874976618987324 0 2.2874976618987324 1.7791297917447935 0 0 0 0 -15.696276837250025 68.851938130297867 0 68.851938130297867 33.453925245081336 0 0 0 0 -0.22627196126389881 1.9345770676160479 0 1.9345770676160479 7.5249779859467338 0 0 0 0 -188.87342806468405 122.39598103502112 0 122.39598103502112 75.861545229218336 0 0 0 0 -193.77252320084972 -42.057241429178248 0 -42.057241429178248 21.947919086843513 0 0 0 0 -266.38543485830678 -11.546421514044596 0 -11.546421514044596 115.96725456051445 0 0 0 0 123.61103738324891 243.9743942381433 0 243.9743942381433 64.068284658766061 0 0 0 0 104.07306423547561 213.27154802000132 0 213.27154802000132 18.166233628066038 0 0 0 0 203.62583672170877 248.297329216447 0 248.297329216447 -35.48244057994998 0 0 0 0 0.020090196824074313 1.4024880597333835 0 1.4024880597333835 3.3701313367438566 0 0 0 0 200.59769764519206 254.40277911848125 0 254.40277911848125 -32.333383753002721 0 0 0 0 281.19964125795559 70.88924488004568 0 70.88924488004568 -55.302064409293735 0 0 0 0 423.37522538226085 254.25454256788612 0 254.25454256788612 -32.358805411264711 0 0 0 0 117.66308273236154 248.21299425297377 0 248.21299425297377 394.68270732413202 0 0 0 0 241.52129588579692 -70.599688956447949 0 -70.599688956447949 56.535589261374753 0 0 0 0 -352.68165935461906 87.897248503513509 0 87.897248503513509 236.13390486031267 0 0 0 0 59.211020699576238 59.771275389435687 0 59.771275389435687 -103.1863939187815 0 0 0 0 138.55476947137754 139.3571211126573 0 139.3571211126573 75.800574950874875 0 0 0 0 135.09566336410546 189.48785919322211 0 189.48785919322211 164.49241666842317 0 0 0 0 62.404736592787231 73.18693634935039 0 73.18693634935039 103.85977614389174 0 0 0 0 423.90952422853036 79.553666102772482 0 79.553666102772482 -55.681764222314087 0 0 0 0 90.1068817806689 -57.084951834147773 0 -57.084951834147773 45.675339001252269 0 0 0 0 -1.3822159690883562 2.7687197445359644 0 2.7687197445359644 0.79984490175586842 0 0 0 0 153.14470070215157 226.73120379187094 0 226.73120379187094 396.09774297420756 0 0 0 0 4.7899045102025557 -0.79764849944304395 0 -0.79764849944304395 0.21098887341971584 0 0 0 0 79.592869315432949 123.76475974209171 0 123.76475974209171 157.60608733921345 0 0 0 0 8.5829716860853296 -3.0816039445335264 0 -3.0816039445335264 84.897690463228173 0 0 0 0 1.8753107934695592 0.78363072732381056 0 0.78363072732381056 0.10713901736420706 0 0 0 0 2.9267827673875217 68.93845809073332 0 68.93845809073332 253.20032079448379 0 0 0 0 139.44832861818804 185.45055215385355 0 185.45055215385355 249.97908799144534 0 0 0 0 19.317821615551566 67.819209979050129 0 67.819209979050129 209.64665978903213 0 0 0 0 309.57934688651267 259.6017640528853 0 259.6017640528853 269.54333040725987 0 0 0 0 167.11325127341638 165.973256785844 0 165.973256785844 208.33655290437764 0 0 0 0 202.15784173677548 148.37765813782244 0 148.37765813782244 211.00176583894807 0 0 0 0 243.32605443345869 89.471000374832215 0 89.471000374832215 293.74385408995613 0 0 0 0 177.76068470339305 138.26491203350668 0 138.26491203350668 354.25435536929274 0 0 0 0 141.19551961916454 102.45793111844961 0 102.45793111844961 247.65998479297969 0 0 0 0 127.10303713431972 37.00695602601462 0 37.00695602601462 407.53511023211604 0 0 0 0 120.52752211073721 105.28977287316945 0 105.28977287316945 312.50106227462129 0 0 0 0 205.69150268450903 113.53345122539156 0 113.53345122539156 311.1245677001636 0 0 0 0 34.835945607927897 168.74923965318328 0 168.74923965318328 14.107146641768622 0 0 0 0 412.5562123348102 169.40184426908462 0 169.40184426908462 125.82918835286864 0 0 0 0 216.3204119374401 12.945872623874664 0 12.945872623874664 102.45832705567 0 0 0 0 80.286974181939513 -20.362915100255123 0 -20.362915100255123 387.79209612710451 0 0 0 0 -230.48901320867594 -141.75035626191698 0 -141.75035626191698 568.36099496385373 0 0 0 0 51.27081801650138 -128.51967760206003 0 -128.51967760206003 33.744754797349003 0 0 0 0 19.212638245460994 161.0935511288809 0 161.0935511288809 675.87367523215744 0 0 0 0 113.81463176671286 109.16717838741511 0 109.16717838741511 473.3762108474541 0 0 0 0 -16.083766963477501 40.420164336792539 0 40.420164336792539 553.11129615913592 0 0 0 0 -50.159273265784122 79.739241759831543 0 79.739241759831543 598.53152307763867 0 0 0 0 22.917178563359812 75.011843609602693 0 75.011843609602693 594.88929286770804 0 0 0 0 251.25589380754673 218.6610422258297 0 218.6610422258297 517.4604002087766 0 0 0 0 130.68303668145563 70.952849926859017 0 70.952849926859017 413.67418010702886 0 0 0 0 48.149770700762929 161.41719150686828 0 161.41719150686828 751.58623319105175 0 0 0 0 294.56440848153221 -6.5016365288663138 0 -6.5016365288663138 460.58584577084548 0 0 0 0 278.4067508323285 187.65571194541673 0 187.65571194541673 718.3695735929025 0 0 0 0 219.12351453924015 -158.77584849366394 0 -158.77584849366394 440.95359602604435 0 0 0 0 25.512337294581357 -56.411229350369354 0 -56.411229350369354 764.28669552895087 0 0 0 0 102.12622772491204 -17.475443616708958 0 -17.475443616708958 350.49304523169633 0 0 0 0 105.58218579494769 -86.86694406421617 0 -86.86694406421617 313.58917235785418 0 0 0 0 26.095801625707281 -21.702821817298855 0 -21.702821817298855 448.47007823221634 0 0 0 0 68.224112794068901 -112.86414638323097 0 -112.86414638323097 298.31457549375182 0 0 0 0 14.711043925012291 -4.975383579810341 0 -4.975383579810341 439.90553656741565 0 0 0 0 -47.576286744860226 -17.002648384099302 0 -17.002648384099302 415.2821674426923 0 0 0 0 34.627293311572544 -21.459584226771199 0 -21.459584226771199 272.13082157297549 0 0 0 0 -18.166892824579918 -52.295044151015304 0 -52.295044151015304 356.52488486586981 0 0 0 0 -69.16525116269986 -2.0029650119399776 0 -2.0029650119399776 415.87979698314848 0 0 0 0 -35.582750985881376 -55.34118337997279 0 -55.34118337997279 496.57101709433027 0 0 0 0 17.463875876494512 10.258034378109642 0 10.258034378109642 417.00586441380352 0 0 0 0 188.29448872206422 88.205005155240087 0 88.205005155240087 516.25436877016136 0 0 0 0 6.0531051201556352 -11.486435795828754 0 -11.486435795828754 477.2457722242234 0 0 0 0 -75.692621144759869 17.321913857251957 0 17.321913857251957 500.35330117006743 0 0 0 0 12.469101794072003 -85.489436369542773 0 -85.489436369542773 582.57527474653853 0 0 0 0 -235.83618218965512 -23.850295374695179 0 -23.850295374695179 310.5923834612845 0 0 0 0 -53.743269877401872 38.034232968510196 0 38.034232968510196 331.48133112496271 0 0 0 0 -75.358850535149941 0.36155792129034126 0 0.36155792129034126 417.82764008582018 0 0 0 0 -97.365403445057382 2.0824511898490528 0 2.0824511898490528 466.66978413015158 0 0 0 0 -70.047087975787349 -27.792110717785818 0 -27.792110717785818 545.86487869473967 0 0 0 0 -70.992214745785532 -3.6350544833926506 0 -3.6350544833926506 467.81051185972609 0 0 0 0 -0.68209536766706691 0.65408143815069253 0 0.65408143815069253 1.5174301696533998 0 0 0 0 41.863531367850769 -193.81731282912901 0 -193.81731282912901 647.64956597493483 0 0 0 0 33.730266243319221 -94.185856063407854 0 -94.185856063407854 381.24972970915314 0 0 0 0 56.607674142508131 -63.571771652522784 0 -63.571771652522784 311.0578601141645 0 0 0 0 27.802387552435903 35.181337248618547 0 35.181337248618547 425.99328516358241 0 0 0 0 38.857586422624763 31.617057913936833 0 31.617057913936833 370.54128486522768 0 0 0 0 80.251529852142994 9.3531537154103717 0 9.3531537154103717 288.96166183302057 0 0 0 0 44.013085725702467 -86.332283962952602 0 -86.332283962952602 278.02849869714828 0 0 0 0 13.746286729594431 -80.555440867421112 0 -80.555440867421112 240.10560768970208 0 0 0 0 48.25752636796642 -56.536967120281588 0 -56.536967120281588 193.6042396298044 0 0 0 0 33.71084797950698 -5.9365918086718921 0 -5.9365918086718921 238.1226062520318 0 0 0 0 74.317642622558196 -4.9909044588903271 0 -4.9909044588903271 259.48392401640604 0 0 0 0 36.074100228246607 -36.593069979823213 0 -36.593069979823213 286.413568551352 0 0 0 0 50.020524988712168 -16.066275261471674 0 -16.066275261471674 316.55196149135872 0 0 0 0 96.324686213095447 73.906359305650767 0 73.906359305650767 280.66550178349826 0 0 0 0 58.280491822339656 30.290802970265275 0 30.290802970265275 306.49999303129789 0 0 0 0 75.979045223280082 67.801968650258914 0 67.801968650258914 354.65621454768871 0 0 0 0 61.531177466143959 2.3785987962911292 0 2.3785987962911292 214.71942370171564 0 0 0 0 78.972147306814804 66.488812939411218 0 66.488812939411218 227.52965447335055 0 0 0 0 42.31048414083125 37.064971505018548 0 37.064971505018548 255.15319289141189 0 0 0 0 44.827406776631506 83.314750795258988 0 83.314750795258988 268.78169295807857 0 0 0 0 83.274132297258802 119.86627301483077 0 119.86627301483077 292.51833847540001 0 0 0 0 94.440343562086127 116.24167346983154 0 116.24167346983154 239.82601344618888 0 0 0 0 92.205472676271256 124.62266353119867 0 124.62266353119867 349.94530308416688 0 0 0 0 114.7557482354714 145.00401510991333 0 145.00401510991333 358.88881966203371 0 0 0 0 68.334775150369524 78.81751525984032 0 78.81751525984032 319.49916034258968 0 0 0 0 106.6956966376747 114.50342340960742 0 114.50342340960742 288.34313848984038 0 0 0 0 104.29432053460368 147.33030869810591 0 147.33030869810591 314.70412428717827 0 0 0 0 99.834657450998748 144.89799917073924 0 144.89799917073924 328.09668773974045 0 0 0 0 120.22283820984558 170.03290704628944 0 170.03290704628944 351.62599072019293 0 0 0 0 116.61926182609022 169.55551348803783 0 169.55551348803783 356.86584520907491 0 0 0 0 117.18597300961767 186.14548687043725 0 186.14548687043725 395.04111806205037 0 0 0 0 158.79557168277734 207.56167185399204 0 207.56167185399204 392.6301878688173 0 0 0 0 186.72479936955824 343.48269819621419 0 343.48269819621419 549.26492235979799 0 0 0 0 133.38172169409518 203.9061260328026 0 203.9061260328026 414.40410284137943 0 0 0 0 155.73364430021502 211.50118644104987 0 211.50118644104987 393.61557137858836 0 0 0 0 146.67291723239032 209.17630917953284 0 209.17630917953284 394.14907472235791 0 0 0 0 132.88040596531846 151.53138880033293 0 151.53138880033293 392.45104945750973 0 0 0 0 104.99288626552834 139.33053949162741 0 139.33053949162741 411.34469098368936 0 0 0 0 59.941583844201205 225.44929848114464 0 225.44929848114464 595.54754243639854 0 0 0 0 -0.61125871142458266 1.0506733209188859 0 1.0506733209188859 3.0340950410771441 0 0 0 0 -0.92251273461147321 46.950778621901691 0 46.950778621901691 446.20629515392466 0 0 0 0 -16.95503717117117 113.41362813172282 0 113.41362813172282 524.58469821735343 0 0 0 0 -86.271642396210609 14.916863705768719 0 14.916863705768719 435.75021407511667 0 0 0 0 102.32343441447938 95.361982164409937 0 95.361982164409937 368.78051848705127 0 0 0 0 82.24951259390582 104.22953230101166 0 104.22953230101166 414.02481769261044 0 0 0 0 -3.0683135283728511 1.595483301990404 0 1.595483301990404 -0.66969112537626607 0 0 0 0 90.5645717094053 119.79016790196738 0 119.79016790196738 103.16793479783883 0 0 0 0 90.709870041869934 103.27208539506383 0 103.27208539506383 27.634374541118632 0 0 0 0 -303.31278717561236 -222.35766322964264 0 -222.35766322964264 -89.708854765652177 0 0 0 0 -314.02394414621943 14.975315357243034 0 14.975315357243034 53.232174017797661 0 0 0 0 -76.467964547493466 30.30772182514238 0 30.30772182514238 47.248187504950636 0 0 0 0 -89.162076251679537 -50.194672778699896 0 -50.194672778699896 14.471769379520993 0 0 0 0 -30.539500165611571 -26.06795997847621 0 -26.06795997847621 -138.46876220994545 0 0 0 0 31.701340309842408 -164.88505277655793 0 -164.88505277655793 63.204038900536943 0 0 0 0 2.5583877379679052 -117.30642214307227 0 -117.30642214307227 143.78388755881133 0 0 0 0 0.76908322165763821 -134.61514356621001 0 -134.61514356621001 222.45219863518048 0 0 0 0 9.5995705922052821 -39.5483716759868 0 -39.5483716759868 99.490989341218665 0 0 0 0 12.650147478600957 -17.973754540406389 0 -17.973754540406389 176.21222110455938 0 0 0 0 30.420734164232783 -30.67634046294711 0 -30.67634046294711 180.02992761802761 0 0 0 0 46.757091484358625 38.425513213761064 0 38.425513213761064 159.16215733260196 0 0 0 0 0.90374016127105961 25.477655134023735 0 25.477655134023735 156.34514157185913 0 0 0 0 -3.7637068605536115 49.655174673578131 0 49.655174673578131 214.85473669168096 0 0 0 0 50.484692005495731 62.808605852479559 0 62.808605852479559 190.04353410802833 0 0 0 0 -2.1150329264946777 88.777249943340394 0 88.777249943340394 239.28291173577372 0 0 0 0 -2.7147679375357257 96.809661320403848 0 96.809661320403848 171.68987824928024 0 0 0 0 -70.773153926136729 65.280003367828613 0 65.280003367828613 139.57789826771773 0 0 0 0 -66.461059784076042 51.432722080777921 0 51.432722080777921 183.1838015910198 0 0 0 0 -93.295593121871605 -2.5637103271266994 0 -2.5637103271266994 127.86959321374525 0 0 0 0 -82.953024580821875 76.122858700790403 0 76.122858700790403 131.37222658174778 0 0 0 0 -171.52006512906064 46.153566917972057 0 46.153566917972057 102.3510618243663 0 0 0 0 -139.83285437381983 -58.463334655582457 0 -58.463334655582457 -18.554331493097607 0 0 0 0 -115.5559683691697 53.2236380342583 0 53.2236380342583 170.49427716940045 0 0 0 0 -118.5793615463017 13.743029333863888 0 13.743029333863888 113.40121848159288 0 0 0 0 -108.69453266108621 -2.3985798011663064 0 -2.3985798011663064 85.669369759229994 0 0 0 0 -99.851266462201238 12.396136919443052 0 12.396136919443052 81.559904690804558 0 0 0 0 -137.0581697166167 -26.088982136687491 0 -26.088982136687491 77.743123815856052 0 0 0 0 -50.979307141683421 78.909396810435737 0 78.909396810435737 75.287545586769738 0 0 0 0 -45.892084975041143 68.620013616940014 0 68.620013616940014 85.106984331862805 0 0 0 0 -80.388229950250206 32.014212812498045 0 32.014212812498045 64.396616541446747 0 0 0 0 -75.617682130715934 60.164743063243122 0 60.164743063243122 125.78930388465596 0 0 0 0 -72.36209055188192 62.703502888836738 0 62.703502888836738 127.42646582752536 0 0 0 0 -62.492081489362135 84.513485096246768 0 84.513485096246768 133.068833514375 0 0 0 0 -81.045299854911264 75.201580957548686 0 75.201580957548686 133.83295699505834 0 0 0 0 -34.475557544868025 117.57801807181932 0 117.57801807181932 137.56060251033153 0 0 0 0 -46.71406073907292 85.677996007984348 0 85.677996007984348 83.116917611006102 0 0 0 0 -30.732417494210495 129.91863263659889 0 129.91863263659889 88.782531003970689 0 0 0 0 -23.473333602675666 167.39308281570811 0 167.39308281570811 191.81062615125666 0 0 0 0 -66.308849975237763 92.543192115240345 0 92.543192115240345 199.5724526516351 0 0 0 0 -40.384242721730061 115.97280210009467 0 115.97280210009467 211.71315513085028 0 0 0 0 -16.819739724206556 98.363013551033873 0 98.363013551033873 164.99867341169193 0 0 0 0 10.37820159761759 121.39202801497868 0 121.39202801497868 176.6954053188274 0 0 0 0 9.7082776467514122 120.5974368643806 0 120.5974368643806 251.56422019387355 0 0 0 0 61.361576304195296 88.459405998502916 0 88.459405998502916 209.91486459225962 0 0 0 0 73.556727942074758 150.77608752644846 0 150.77608752644846 229.62996865172863 0 0 0 0 115.70006584113389 184.35247800960906 0 184.35247800960906 265.62865080304437 0 0 0 0 90.293849460906131 131.73528102827731 0 131.73528102827731 220.27095457143514 0 0 0 0 16.353741154572162 147.80116288136014 0 147.80116288136014 163.11999638895031 0 0 0 0 48.331383299677327 203.28086400627762 0 203.28086400627762 259.17465824100509 0 0 0 0 103.70323367987476 148.53820200715836 0 148.53820200715836 312.19820976377196 0 0 0 0 58.493945174145892 301.07207792814074 0 301.07207792814074 318.05617050627006 0 0 0 0 -6.1817730849832166 5.3550774493153526 0 5.3550774493153526 -4.2234829741245399 0 0 0 0 -86.051557077503276 190.32172759269542 0 190.32172759269542 -556.5578921042179 0 0 0 0 -0.53172797158124752 1.2569606366273138 0 1.2569606366273138 -1.5389152580421026 0 0 0 0 -100.17897616769369 -349.84718322493973 0 -349.84718322493973 -439.39196559850097 0 0 0 0 61.53537569407672 323.79504757560517 0 323.79504757560517 118.26464667852156 0 0 0 0 111.14249920843031 44.239590310820859 0 44.239590310820859 81.916001461742098 0 0 0 0 85.649744217212856 104.52409513916837 0 104.52409513916837 187.88597170566936 0 0 0 0 146.61470146214742 105.09142359134057 0 105.09142359134057 180.03802186729263 0 0 0 0 28.52384482602065 159.75182574290375 0 159.75182574290375 188.32021536345019 0 0 0 0 91.354145591129509 104.14049572517615 0 104.14049572517615 75.884414677881068 0 0 0 0 52.788519562331203 37.022777708833019 0 37.022777708833019 18.927445681365498 0 0 0 0 -10.181822797058558 8.0505793902936205 0 8.0505793902936205 -6.9081397555683743 0 0 0 0 -9.9087118012439532 63.966847400351071 0 63.966847400351071 117.37807378858633 0 0 0 0 52.356914805292945 164.50766115633792 0 164.50766115633792 82.428353935666564 0 0 0 0 58.642595287040876 3.659802536270945 0 3.659802536270945 83.321510768790176 0 0 0 0 82.474878572295893 -57.697365942434772 0 -57.697365942434772 -191.97117224034992 0 0 0 0 67.250163335809702 198.56054624988701 0 198.56054624988701 -194.15817576425252 0 0 0 0 -8.4938780140500967 99.50529319193447 0 99.50529319193447 102.03658453621756 0 0 0 0 -7.3290178571132856 90.524987862027047 0 90.524987862027047 7.4039960308618902 0 0 0 0 -31.87491936036713 37.453267657710057 0 37.453267657710057 111.98823412909678 0 0 0 0 -45.907713147585127 66.62413236015982 0 66.62413236015982 92.932048972804296 0 0 0 0 -46.47944805717907 89.683200467777624 0 89.683200467777624 203.68056613661247 0 0 0 0 146.82370193837937 -50.790053639828329 0 -50.790053639828329 -23.962761706117817 0 0 0 0 216.36376342230324 117.20129586740495 0 117.20129586740495 69.501024412445986 0 0 0 0 -4.0680531240013806 298.03200277713131 0 298.03200277713131 238.50117382971621 0 0 0 0 -31.28599570095048 107.28952367659167 0 107.28952367659167 37.59373560678614 0 0 0 0 -3.9264968309144024 112.0863042148103 0 112.0863042148103 52.847416553734092 0 0 0 0 -29.819516219761908 116.6798754872666 0 116.6798754872666 85.689058461590321 0 0 0 0 89.262832021650865 -11.850715489491449 0 -11.850715489491449 24.467748720655436 0 0 0 0 -100.45479510844075 -59.776497417372582 0 -59.776497417372582 40.234485557799417 0 0 0 0 87.184654422136646 -34.442741221022516 0 -34.442741221022516 -177.91687834693403 0 0 0 0 -2.4437724596296433 4.1496869952289241 0 4.1496869952289241 14.120856997593652 0 0 0 0 -163.92443033372774 -17.837661618548964 0 -17.837661618548964 57.759430883057576 0 0 0 0 1.5829186921719156 92.931213244424725 0 92.931213244424725 74.466921979930476 0 0 0 0 -78.316328959640941 -4.8651164491334384 0 -4.8651164491334384 24.873223344649887 0 0 0 0 -87.348200638999515 96.268515718640629 0 96.268515718640629 143.91853003397091 0 0 0 0 -111.69048871796986 13.106196979433207 0 13.106196979433207 112.44805868098547 0 0 0 0 -190.75025649781014 -187.19537474281094 0 -187.19537474281094 -64.908785080153393 0 0 0 0 -96.311746907423185 18.082166778985993 0 18.082166778985993 1.4309494590029317 0 0 0 0 16.559087299364819 -6.8605560005598818 0 -6.8605560005598818 186.24031302103322 0 0 0 0 2.5552602719223838 3.0237311669283145 0 3.0237311669283145 -2.7542119978486781 0 0 0 0 146.2103468320438 214.38073266142419 0 214.38073266142419 403.1537479572944 0 0 0 0 141.79393788183734 223.63523358006387 0 223.63523358006387 396.5908354203043 0 0 0 0 153.62316621741047 208.01114332767247 0 208.01114332767247 399.51695561922679 0 0 0 0 154.58895297791969 210.09067817935829 0 210.09067817935829 392.47336620907299 0 0 0 0 143.96218105443768 210.03627515981498 0 210.03627515981498 375.94901537502847 0 0 0 0 149.24642514668813 207.73878424093709 0 207.73878424093709 392.36239131089769 0 0 0 0 144.05380180267093 206.81599326339892 0 206.81599326339892 394.47851129172341 0 0 0 0 147.56016186932902 246.7056516552575 0 246.7056516552575 389.44662870158072 0 0 0 0 149.32369237698367 221.92811904267001 0 221.92811904267001 372.61018945488831 0 0 0 0 128.40596743668539 201.11994862428401 0 201.11994862428401 375.62427257767558 0 0 0 0 134.54486322566572 204.65873568518327 0 204.65873568518327 352.43063832590087 0 0 0 0 131.2858268792952 202.77968903840883 0 202.77968903840883 361.25688497951046 0 0 0 0 124.94330987360445 199.73010055528448 0 199.73010055528448 362.88030064002123 0 0 0 0 117.67690643165406 169.25109972943937 0 169.25109972943937 317.80483753404042 0 0 0 0 139.76465837920477 189.22860438838234 0 189.22860438838234 323.81135311127082 0 0 0 0 161.76505095125412 201.40580153967494 0 201.40580153967494 317.42064252031014 0 0 0 0 139.39874514142321 213.90465351885359 0 213.90465351885359 314.68293834368933 0 0 0 0 172.82875763756329 246.48146780520801 0 246.48146780520801 345.14678737449822 0 0 0 0 73.823544172577385 140.33393230454658 0 140.33393230454658 275.28928254439415 0 0 0 0 94.332986656309913 134.26617973313478 0 134.26617973313478 268.00378225019813 0 0 0 0 124.41394987515196 170.47129576642783 0 170.47129576642783 292.67488150157129 0 0 0 0 134.31477417748886 174.40952193840764 0 174.40952193840764 288.95839356086435 0 0 0 0 97.273691668127867 128.81343261660186 0 128.81343261660186 248.03480302924436 0 0 0 0 126.25099852642961 184.97585282855289 0 184.97585282855289 275.59318634803651 0 0 0 0 159.42776977236144 247.53573233809266 0 247.53573233809266 330.89196553586771 0 0 0 0 -0.17380274329150502 3.0322911048532841 0 3.0322911048532841 -3.7671128449796818 0 0 0 0 196.58875688382886 233.66359601257591 0 233.66359601257591 276.64088128640196 0 0 0 0 193.17799086479135 152.74665139282388 0 152.74665139282388 254.85497592339379 0 0 0 0 -119.00392733516037 279.5171197870186 0 279.5171197870186 -553.27848312484093 0 0 0 0 38.26793249010916 -194.60648816474986 0 -194.60648816474986 -118.53077882397156 0 0 0 0 -9.6797281269609812 -106.91132774544621 0 -106.91132774544621 166.61840172088887 0 0 0 0 149.92257854772924 -50.947011744430711 0 -50.947011744430711 -390.86904229631091 0 0 0 0 -266.91823491933337 83.886500210456688 0 83.886500210456688 5.2213858018503743 0 0 0 0 -0.58546940660926339 223.66481259845182 0 223.66481259845182 -155.68481658032397 0 0 0 0 -519.10300383321805 167.48882971152807 0 167.48882971152807 229.5931717214371 0 0 0 0 1.7969562148246041 170.80586232797395 0 170.80586232797395 33.146486993826329 0 0 0 0 125.93393435344296 102.52801236225605 0 102.52801236225605 125.60295896876357 0 0 0 0 -15.491953981721053 229.03865470518144 0 229.03865470518144 131.10370673635225 0 0 0 0 -34.216065486505613 -418.25615863527764 0 -418.25615863527764 -479.7176809537757 0 0 0 0 -2.3332210743721227 1.649145362652277 0 1.649145362652277 -1.5382263119191464 0 0 0 0 0.92245313822331809 152.78399692512721 0 152.78399692512721 119.35909531014113 0 0 0 0 55.626144730736542 69.780390856736631 0 69.780390856736631 136.15529408605289 0 0 0 0 158.12720687306683 69.265826462167752 0 69.265826462167752 131.74790232968735 0 0 0 0 109.85850377209226 73.570513981226213 0 73.570513981226213 225.98704118000751 0 0 0 0 175.73800729684035 111.52336275082689 0 111.52336275082689 110.45164873051181 0 0 0 0 229.55200859331353 145.74320905762397 0 145.74320905762397 237.21763219446075 0 0 0 0 127.40807957584366 78.411921883199284 0 78.411921883199284 426.84295005073727 0 0 0 0 162.14822810429177 121.01671184287261 0 121.01671184287261 224.59134194967555 0 0 0 0 121.5495686084023 116.4738918635976 0 116.4738918635976 304.49293131388185 0 0 0 0 -471.36689271903469 482.02068133153989 0 482.02068133153989 328.49363745507435 0 0 0 0 -328.73280672156739 171.00038070774917 0 171.00038070774917 159.40926754993416 0 0 0 0 126.59646157617317 295.17057900613509 0 295.17057900613509 145.90505053965535 0 0 0 0 64.547358693224851 110.09947651225775 0 110.09947651225775 230.13428731594831 0 0 0 0 292.40235243129155 -68.782727043475461 0 -68.782727043475461 575.8472680010309 0 0 0 0 -67.734596484398935 331.10225480469671 0 331.10225480469671 201.59780937903633 0 0 0 0 695.24811323249378 252.8921107445567 0 252.8921107445567 -30.715649149911769 0 0 0 0 312.02277580163172 783.72977635169809 0 783.72977635169809 -195.91950234191609 0 0 0 0 -239.29384207128942 780.20757592370592 0 780.20757592370592 174.26725598907797 0 0 0 0 -2.3154076327104289 3.0099466513961683 0 3.0099466513961683 17.977521186085344 0 0 0 0 65.96447508539859 79.782405603619736 0 79.782405603619736 84.374811126286204 0 0 0 0 14.311876834735813 100.28063129832663 0 100.28063129832663 108.11062444419258 0 0 0 0 51.491105968738907 177.82743566545196 0 177.82743566545196 83.786350615904666 0 0 0 0 24.133699197558599 109.01584201016158 0 109.01584201016158 58.880688079527317 0 0 0 0 7.2070747414639413 6.9214586097873507 0 6.9214586097873507 -40.779479113276466 0 0 0 0 -21.439227770305479 111.71212546439506 0 111.71212546439506 184.0302379395398 0 0 0 0 39.535796045582629 66.148638946697247 0 66.148638946697247 85.214051056102107 0 0 0 0 -25.161423842656404 243.27802967749631 0 243.27802967749631 114.16802348964484 0 0 0 0 30.073411098112956 185.76462578540304 0 185.76462578540304 158.27656965420647 0 0 0 0 63.047682935665762 185.54976190234811 0 185.54976190234811 48.316983202932533 0 0 0 0 -93.565213155973652 96.761927986879527 0 96.761927986879527 167.93135073048234 0 0 0 0 9.3032340463150831 138.4363810879704 0 138.4363810879704 158.47324823504459 0 0 0 0 -121.90816595394153 71.555582973891433 0 71.555582973891433 218.98196625774426 0 0 0 0 -112.794168454089 41.590689634645969 0 41.590689634645969 106.8543522113323 0 0 0 0 142.08449247046474 382.20318647263002 0 382.20318647263002 538.4814934908045 0 0 0 0 -65.175812148973819 85.161373442703734 0 85.161373442703734 310.62323971652586 0 0 0 0 134.43976696505524 199.27782568379371 0 199.27782568379371 241.1190581996193 0 0 0 0 -2.8186105402448902 164.97931584358003 0 164.97931584358003 281.83943732005901 0 0 0 0 329.2763936856345 100.29524136259261 0 100.29524136259261 67.587233577884035 0 0 0 0 233.0498924838821 271.28909764573018 0 271.28909764573018 158.31027785396782 0 0 0 0 64.526627297521031 198.4262511250148 0 198.4262511250148 145.63875372959774 0 0 0 0 176.36796426606452 187.79698150771219 0 187.79698150771219 84.33126692133601 0 0 0 0 151.22963138003252 72.843333559299936 0 72.843333559299936 83.453232720204596 0 0 0 0 -455.67556812584189 -729.17767407065639 0 -729.17767407065639 -75.691973298634139 0 0 0 0 -568.72749653726589 -380.15897551296393 0 -380.15897551296393 -43.664947081040737 0 0 0 0 584.26806880581057 394.50014525776282 0 394.50014525776282 165.18327538214999 0 0 0 0 -0.59072109138838025 0.018203219451363495 0 0.018203219451363495 9.1759285530995882 0 0 0 0 -760.16110362304471 -514.60982490925335 0 -514.60982490925335 24.471593139558536 0 0 0 0 135.97612728480271 255.36793970405597 0 255.36793970405597 687.90158641065955 0 0 0 0 338.6891338725809 346.9743965464786 0 346.9743965464786 311.89200817405754 0 0 0 0 299.88307075249304 425.95331336249001 0 425.95331336249001 456.20156221241996 0 0 0 0 1.1260768763001217 -3.9853285898070059 0 -3.9853285898070059 8.6085537020343921 0 0 0 0 144.11825654407039 198.10286425687809 0 198.10286425687809 364.04416021015277 0 0 0 0 148.84817269011637 214.81535716466351 0 214.81535716466351 292.59212782541726 0 0 0 0 204.44485631572388 251.76771704271232 0 251.76771704271232 381.05770796634351 0 0 0 0 273.46297165215583 232.04816988582206 0 232.04816988582206 195.0795822580294 0 0 0 0 -296.45977933775293 189.41690000038125 0 189.41690000038125 394.28098137598727 0 0 0 0 -710.97225737236249 -358.22077613900092 0 -358.22077613900092 0.85477469916713744 0 0 0 0 0.67693278175102023 96.303119743510251 0 96.303119743510251 613.67515235884503 0 0 0 0 223.01568615014867 -185.65228607797917 0 -185.65228607797917 232.81013875783719 0 0 0 0 218.87015986257097 290.51318691634515 0 290.51318691634515 14.79360547462602 0 0 0 0 376.65511521244343 38.243588536242896 0 38.243588536242896 -18.979681365697616 0 0 0 0 23.674983230133876 75.06165680972299 0 75.06165680972299 -22.633444177852653 0 0 0 0 -114.95173317067383 -24.443170062711943 0 -24.443170062711943 -92.885956118616377 0 0 0 0 -32.198270856617455 254.59140114042384 0 254.59140114042384 9.7135122498402779 0 0 0 0 246.36565022023206 -46.942183433147875 0 -46.942183433147875 -226.63731047859892 0 0 0 0 36.279022244874795 -136.11630942441479 0 -136.11630942441479 -256.96480956241885 0 0 0 0 175.74404036620945 -94.408832383213849 0 -94.408832383213849 -133.78359847249521 0 0 0 0 -120.12573640747974 148.59161588974166 0 148.59161588974166 -108.42112606704814 0 0 0 0 -307.83735667981512 -12.07102632723408 0 -12.07102632723408 52.696171947518451 0 0 0 0 4.4382089298034026 -9.7886771466574025 0 -9.7886771466574025 26.006706710746158 0 0 0 0 1713.8735530785575 328.29449595932419 0 328.29449595932419 272.60511923124523 0 0 0 0 979.48202135967517 -178.81484329250179 0 -178.81484329250179 -27.599449818227185 0 0 0 0 9.664484926193289 11.968792686211509 0 11.968792686211509 9.0109143691064482 0 0 0 0 -291.70872240685293 -540.20618938295593 0 -540.20618938295593 1112.7919971526753 0 0 0 0 214.41362524533724 -79.424881002056281 0 -79.424881002056281 -370.59865468022326 0 0 0 0 -1037.5134295964772 -673.52194986675386 0 -673.52194986675386 999.3796697102116 0 0 0 0 -1069.7721948617232 148.49791925074169 0 148.49791925074169 1795.3844713373546 0 0 0 0 -206.09884184424152 175.62827058021685 0 175.62827058021685 1203.7105680577442 0 0 0 0 -431.98924861858467 -130.91990164213803 0 -130.91990164213803 807.17209516972434 0 0 0 0 -230.67044592911509 -380.41930601224703 0 -380.41930601224703 1105.7427821192268 0 0 0 0 -195.51395825162501 172.85618501230238 0 172.85618501230238 734.44158778727797 0 0 0 0 77.642172498179065 225.44717413313811 0 225.44717413313811 364.7498434838817 0 0 0 0 1.6493592395043934 3.5395352109196878 0 3.5395352109196878 2.9957444816236034 0 0 0 0 259.53471554816679 -197.57784292128781 0 -197.57784292128781 1720.3992034296316 0 0 0 0 -83.611255618662653 432.1127318528761 0 432.1127318528761 1850.3098617880623 0 0 0 0 134.51258278609066 79.936077293066774 0 79.936077293066774 172.15032191987484 0 0 0 0 149.37592103656243 95.835285515790019 0 95.835285515790019 -426.10037772104715 0 0 0 0 13.261171143870554 12.169916623969147 0 12.169916623969147 4.167304157705269 0 0 0 0 -102.7359995702609 137.55189150494698 0 137.55189150494698 -217.27639789803834 0 0 0 0 -184.8696466491383 129.7969878244221 0 129.7969878244221 -214.16079245869514 0 0 0 0 4.911271579137189 4.1275680038603753 0 4.1275680038603753 2.3044033840791602 0 0 0 0 -83.146589765862586 -177.17329293000319 0 -177.17329293000319 515.95238900620461 0 0 0 0 -9.5328812882853526 -26.276003425666204 0 -26.276003425666204 -438.94955281267721 0 0 0 0 101.17070453291308 179.44548057828433 0 179.44548057828433 -459.8271021386081 0 0 0 0 -223.20049007329635 -539.2911633101694 0 -539.2911633101694 1478.624330007834 0 0 0 0 -82.880071204794604 -77.869788375057396 0 -77.869788375057396 799.21648445799656 0 0 0 0 12.031636404395613 93.456962777427179 0 93.456962777427179 -333.02395010460168 0 0 0 0 -91.680403298838428 -16.936354143399512 0 -16.936354143399512 -176.49305567359625 0 0 0 0 -288.66598798603263 19.971857047056801 0 19.971857047056801 -180.88393252697279 0 0 0 0 -202.91157856937934 -98.558365762080939 0 -98.558365762080939 -275.01134795498001 0 0 0 0 -65.614917193250221 10.72205844693417 0 10.72205844693417 -239.71459270741798 0 0 0 0 -124.04133556132365 -8.5905848154070554 0 -8.5905848154070554 -176.20651684853783 0 0 0 0 -195.1955227831113 17.400836067796263 0 17.400836067796263 -85.220099479876808 0 0 0 0 -79.000891332991159 -19.795811108453563 0 -19.795811108453563 -78.602687327296735 0 0 0 0 -94.079689895495903 -10.396133927537448 0 -10.396133927537448 -72.274447501329632 0 0 0 0 -102.08270516051289 -7.0428961971965691 0 -7.0428961971965691 -7.6231772156315856 0 0 0 0 -74.605764372458907 53.965486852067443 0 53.965486852067443 -45.14620337420638 0 0 0 0 -69.389804669859586 45.120057648276997 0 45.120057648276997 -136.70835506851108 0 0 0 0 -105.62729385668717 66.439217736756291 0 66.439217736756291 70.704008687612259 0 0 0 0 -136.66528159084282 35.873109992878881 0 35.873109992878881 76.17443769124111 0 0 0 0 -48.977123888089409 42.112415788773433 0 42.112415788773433 75.37989790003121 0 0 0 0 -4.1794373023749358 -2.0993142852712481 0 -2.0993142852712481 115.52914169683186 0 0 0 0 54.943415497456954 68.783560594526534 0 68.783560594526534 122.94587982689154 0 0 0 0 135.30080901892507 78.252320153464098 0 78.252320153464098 -9.588389466782246 0 0 0 0 192.20704764784386 72.369024239131249 0 72.369024239131249 -313.69244583091677 0 0 0 0 150.48366776634953 -6.09926145370423 0 -6.09926145370423 -116.58609483407417 0 0 0 0 51.045520401094109 61.790271299036249 0 61.790271299036249 -131.24593971084687 0 0 0 0 78.393791651549691 43.892770286556697 0 43.892770286556697 -186.03726456259483 0 0 0 0 -54.845425245967363 106.22615980179035 0 106.22615980179035 -68.994000289163523 0 0 0 0 197.12296470774891 -2689.231296916103 0 -2689.231296916103 -1732.5165051788936 0 0 0 0 -2.0539548454832008 6.9276250549574536 0 6.9276250549574536 20.483419381292443 0 0 0 0 1099.1557850796289 -68.753049344377359 0 -68.753049344377359 178.80268649107711 0 0 0 0 157.97795766626041 221.02178177262249 0 221.02178177262249 262.3230312642736 0 0 0 0 3.323280966631609 8.8236639971012476 0 8.8236639971012476 27.890525594574584 0 0 0 0 1056.8949609824876 -70.442051439330498 0 -70.442051439330498 792.95139882083822 0 0 0 0 16.533285402305864 41.887935414799358 0 41.887935414799358 -16.260878185377805 0 0 0 0 65.66426944889281 303.1559764269623 0 303.1559764269623 711.28879308461546 0 0 0 0 171.1042733253289 225.31909191676971 0 225.31909191676971 207.29594490575255 0 0 0 0 179.61929470035363 109.30497743520266 0 109.30497743520266 -27.318241449826019 0 0 0 0 -186.18060205037091 189.377353837398 0 189.377353837398 184.13662262850994 0 0 0 0 -16.253456610278192 13.851701275563336 0 13.851701275563336 1.6915161713753939 0 0 0 0 191.56731561199194 29.616868527216866 0 29.616868527216866 -87.111772443986411 0 0 0 0 88.662012219923781 -72.424253307353865 0 -72.424253307353865 -68.602612688940553 0 0 0 0 20.785371345161366 -80.464101601784023 0 -80.464101601784023 -19.362175029331411 0 0 0 0 -3.3943857292172304 -1.1764278838484898 0 -1.1764278838484898 8.105330074066174 0 0 0 0 -121.5422470087201 1.4132150740683755 0 1.4132150740683755 30.014756670549104 0 0 0 0 -89.659910690354081 89.398875944171323 0 89.398875944171323 118.54279756984397 0 0 0 0 85.522665022697765 121.6310478829073 0 121.6310478829073 22.005866346771654 0 0 0 0 123.72015690993112 156.83351546887707 0 156.83351546887707 109.64235962860039 0 0 0 0 88.783775187008359 101.75462100310688 0 101.75462100310688 225.18792122745435 0 0 0 0 34.807114453353279 46.242370309739272 0 46.242370309739272 95.475910681267123 0 0 0 0 90.074862504525299 112.60841400811478 0 112.60841400811478 398.4391271634413 0 0 0 0 79.532534545964268 183.54395979267838 0 183.54395979267838 311.21153828591559 0 0 0 0 102.89851512066525 166.11821381883965 0 166.11821381883965 314.64704420108319 0 0 0 0 85.583138688127292 228.15943503430572 0 228.15943503430572 255.39445779775997 0 0 0 0 39.151401771577184 156.32181770388661 0 156.32181770388661 167.65889362292364 0 0 0 0 84.966200239913633 154.66347219724321 0 154.66347219724321 159.40989481869838 0 0 0 0 76.735443453754328 212.42653164315993 0 212.42653164315993 268.007143639079 0 0 0 0 87.866380644566561 147.95138101927023 0 147.95138101927023 164.0596139139052 0 0 0 0 109.57027084569836 203.53105943841729 0 203.53105943841729 261.64703532642125 0 0 0 0 115.12565666360342 178.2319727099175 0 178.2319727099175 358.99093096332945 0 0 0 0 156.7292962370766 177.54011419673952 0 177.54011419673952 182.19586187910863 0 0 0 0 128.42214584029898 222.0579535686411 0 222.0579535686411 250.54407721868483 0 0 0 0 92.966995471645532 209.98548840698095 0 209.98548840698095 254.59435679622766 0 0 0 0 64.662741749377346 89.388585675073045 0 89.388585675073045 224.2823762510825 0 0 0 0 68.78531223049356 127.60163990267199 0 127.60163990267199 337.99546395335346 0 0 0 0 -782.78905957568031 394.34704452253209 0 394.34704452253209 1872.9886288990601 0 0 0 0 -109.44778366828268 1313.6101600557249 0 1313.6101600557249 1641.5699082204751 0 0 0 0 528.3030879079206 894.34044672805976 0 894.34044672805976 650.279712176251 0 0 0 0 -739.55660366574477 -231.13355039025987 0 -231.13355039025987 863.70719047190505 0 0 0 0 -1.2726033642540635 0.52873198439375457 0 0.52873198439375457 17.465787650100168 0 0 0 0 67.753222491700399 -62.923811878752986 0 -62.923811878752986 98.951474804818645 0 0 0 0 517.76625100320416 11.035584274563007 0 11.035584274563007 -144.71566863372755 0 0 0 0 268.83539221986211 18.700936810830171 0 18.700936810830171 -138.61713806759144 0 0 0 0 583.94218089565948 404.36014130456533 0 404.36014130456533 286.80535628597499 0 0 0 0 78.930341063542983 162.2925435260704 0 162.2925435260704 404.05897523103704 0 0 0 0 5.9786342774050176 -2.205626885771764 0 -2.205626885771764 5.7588377431712559 0 0 0 0 180.1456075891283 198.68383794160945 0 198.68383794160945 326.66887766676336 0 0 0 0 297.16896900808024 -21.805674727558653 0 -21.805674727558653 461.88304003249687 0 0 0 0 -210.69111982572304 39.862648604766946 0 39.862648604766946 947.23796214524191 0 0 0 0 -82.814716030301497 -206.87018575257707 0 -206.87018575257707 641.2984001914956 0 0 0 0 -347.58486833395909 -357.45775404696542 0 -357.45775404696542 624.96660531735779 0 0 0 0 705.73406947435069 184.18210897770041 0 184.18210897770041 -396.69871706698359 0 0 0 0 417.32672356109879 -232.86259966436637 0 -232.86259966436637 -514.19260724852575 0 0 0 0 165.66140711067237 -30.977761115354951 0 -30.977761115354951 -168.77780056616393 0 0 0 0 159.60756820563893 75.252227396504168 0 75.252227396504168 446.82205947883631 0 0 0 0 160.54656129518935 199.1850839898616 0 199.1850839898616 -216.05990568922425 0 0 0 0 83.344118232524124 -18.124044766856969 0 -18.124044766856969 -113.53009331491921 0 0 0 0 -154.57781828771203 185.93855736932528 0 185.93855736932528 -77.5240095573281 0 0 0 0 887.66960160353847 2530.6246852011955 0 2530.6246852011955 2578.7990563905041 0 0 0 0 5.7210106051287948 14.680133672032007 0 14.680133672032007 33.349844116277282 0 0 0 0 -444.39764330987691 -160.45758075210006 0 -160.45758075210006 787.45541006000713 0 0 0 0 -15.730938604319363 -11.264714587565322 0 -11.264714587565322 0.28862538201792631 0 0 0 0 5.2151449354425949 16.749675017758705 0 16.749675017758705 -27.867966959471232 0 0 0 0 0.042164348378719296 33.688109584574704 0 33.688109584574704 533.44019506821223 0 0 0 0 -12.616662704105693 132.49987895585036 0 132.49987895585036 628.4684707501965 0 0 0 0 -122.56995038778859 508.23807615459373 0 508.23807615459373 466.40337490290403 0 0 0 0 30.400293447726654 184.70009715918059 0 184.70009715918059 582.44585423413628 0 0 0 0 -186.34176752136955 -116.43681486069363 0 -116.43681486069363 470.25560192035482 0 0 0 0 -119.06375496144074 272.93096673942819 0 272.93096673942819 1424.4025377232756 0 0 0 0 44.673177211388975 166.72870071592843 0 166.72870071592843 464.0640589913819 0 0 0 0 -103.70026484094979 310.23780446787168 0 310.23780446787168 1407.25108215199 0 0 0 0 -53.042868504455328 863.94910608665668 0 863.94910608665668 1821.0214352387266 0 0 0 0 3.5065602266048597 7.0388385610732751 0 7.0388385610732751 13.967347635999232 0 0 0 0 655.65117351776098 569.77277391393909 0 569.77277391393909 228.86999049458245 0 0 0 0 -222.78942155607092 -38.611512309237696 0 -38.611512309237696 1456.5193289201634 0 0 0 0 113.54588176603102 651.29340041301475 0 651.29340041301475 1732.9270800291633 0 0 0 0 -436.54938480349938 -352.81897454530008 0 -352.81897454530008 2260.0666892512963 0 0 0 0 446.84242371175878 -78.129239800457071 0 -78.129239800457071 -557.40005658548762 0 0 0 0 18.116258015848171 -16.558497024161312 0 -16.558497024161312 16.117458268671513 0 0 0 0 761.14577540666505 1186.9455842828283 0 1186.9455842828283 23.721133302045928 0 0 0 0 115.23776585905703 269.58480798579149 0 269.58480798579149 584.08136230436526 0 0 0 0 14.383772086905553 -18.198236951126514 0 -18.198236951126514 20.315096045532115 0 0 0 0 -58.941190411837169 60.67387086303188 0 60.67387086303188 548.76236209585522 0 0 0 0 454.73128174089652 -578.63645343796088 0 -578.63645343796088 1145.0404081777087 0 0 0 0 -79.536951703819796 -121.11445582422311 0 -121.11445582422311 726.96507117256624 0 0 0 0 645.65849651057488 1354.8094043791407 0 1354.8094043791407 958.07202207921364 0 0 0 0 -72.885294631310899 -283.22955887751232 0 -283.22955887751232 214.63570635285578 0 0 0 0 -2.4010325521879885 0.2136144837960714 0 0.2136144837960714 7.9024486156384555 0 0 0 0 40.999382276751817 145.63428472231408 0 145.63428472231408 119.12696287327162 0 0 0 0 131.18625662448159 -366.7066608866935 0 -366.7066608866935 109.22547795999526 0 0 0 0 4.2662636380990184 -7.30859478751983 0 -7.30859478751983 10.633925902343449 0 0 0 0 -142.12098668917403 221.78142443484467 0 221.78142443484467 614.22105353542793 0 0 0 0 -112.73962157656979 145.39778339980148 0 145.39778339980148 655.67731891567382 0 0 0 0 -179.34079554434265 231.97304482393992 0 231.97304482393992 1085.8447835206134 0 0 0 0 -162.2328824849821 122.94635152785077 0 122.94635152785077 1047.6952410330741 0 0 0 0 -90.824256303953021 402.26749595058482 0 402.26749595058482 1499.7683121507907 0 0 0 0 -96.176319981963303 297.91119262903976 0 297.91119262903976 1029.3401410483475 0 0 0 0 -174.23189259289276 197.0853863992337 0 197.0853863992337 1103.0108630883769 0 0 0 0 169.1669271951271 425.5371259190706 0 425.5371259190706 1034.3279754247233 0 0 0 0 79.690228602033756 359.63051360536201 0 359.63051360536201 1022.3187224698249 0 0 0 0 301.6273898036269 685.31316063222857 0 685.31316063222857 1500.1942295323734 0 0 0 0 -98.094690344012179 91.6123684387494 0 91.6123684387494 988.23654912598749 0 0 0 0 1.5113774244273355 2.0655155942039585 0 2.0655155942039585 3.0121617232327118 0 0 0 0 -86.153026603484932 -123.2438659268546 0 -123.2438659268546 972.98518375429876 0 0 0 0 -92.71991864534408 -174.87646390223335 0 -174.87646390223335 604.37708319484955 0 0 0 0 -97.7846942604574 51.326063454757787 0 51.326063454757787 815.2824318790299 0 0 0 0 -91.082788791426083 68.853597562501818 0 68.853597562501818 828.09861601443117 0 0 0 0 -75.449716770830833 35.38375146218641 0 35.38375146218641 788.29736668485202 0 0 0 0 -71.927711136776907 72.856863557874021 0 72.856863557874021 822.83188830063955 0 0 0 0 -9.1174166862020911 19.616629141286467 0 19.616629141286467 598.51158282147662 0 0 0 0 -70.933799607470007 -9.1986224659503932 0 -9.1986224659503932 648.02268261824065 0 0 0 0 153.93057931092326 162.8358994876171 0 162.8358994876171 753.94990603951555 0 0 0 0 189.08724924285639 -145.9144826819587 0 -145.9144826819587 715.16310415618136 0 0 0 0 2.967616872178894 -166.73626312065062 0 -166.73626312065062 814.55507606802894 0 0 0 0 -65.17695620586835 8.5303815167353605 0 8.5303815167353605 629.34449524404408 0 0 0 0 -67.91408748446699 -190.89286731553389 0 -190.89286731553389 817.02346613352711 0 0 0 0 18.206007848938384 -151.47775669889779 0 -151.47775669889779 420.71812920360389 0 0 0 0 148.80523362668632 -480.20429051650808 0 -480.20429051650808 737.30344466381757 0 0 0 0 -35.799170704890713 52.634100869595386 0 52.634100869595386 691.47102256019434 0 0 0 0 31.772873316789401 -16.584610922143838 0 -16.584610922143838 715.38481462269192 0 0 0 0 -22.511173317012407 -189.04236892201243 0 -189.04236892201243 856.98387528857347 0 0 0 0 -36.852961753143205 75.952470737523981 0 75.952470737523981 908.89246327151591 0 0 0 0 86.625406358318628 -36.216468540549613 0 -36.216468540549613 1007.7922007284878 0 0 0 0 -219.68296340607975 51.779292489956788 0 51.779292489956788 1499.7844446279469 0 0 0 0 -165.56415777592028 -248.17566440535484 0 -248.17566440535484 1499.5161852942708 0 0 0 0 -212.06575994093384 31.148145518999286 0 31.148145518999286 1024.2406208955381 0 0 0 0 -156.00384844781507 -264.90434793638565 0 -264.90434793638565 1124.4951711416816 0 0 0 0 91.858984378956407 -36.231172104491634 0 -36.231172104491634 520.49855384032526 0 0 0 0 22.88209065065449 -534.70620767454693 0 -534.70620767454693 784.63911177379168 0 0 0 0 -36.157476102238896 -435.4326569508944 0 -435.4326569508944 1104.887441213732 0 0 0 0 -105.40376359591265 -498.91551591140069 0 -498.91551591140069 1499.8912791373168 0 0 0 0 429.63709054475493 -526.8064821954631 0 -526.8064821954631 1090.3540524905129 0 0 0 0 1.6282252532099974 0.46856579059132741 0 0.46856579059132741 2.4467625725913615 0 0 0 0 389.32864654578287 -766.35529507418642 0 -766.35529507418642 1663.7579119395486 0 0 0 0 294.67688250278087 -630.39243076058483 0 -630.39243076058483 1499.5459437021627 0 0 0 0 1.6723630453787488 -0.17214386605046172 0 -0.17214386605046172 5.1687380917150314 0 0 0 0 174.42555652459941 57.886025172776499 0 57.886025172776499 151.27448891838139 0 0 0 0 -88.518011126850297 -93.030812895017903 0 -93.030812895017903 93.00690967661285 0 0 0 0 4.4205420881901718 2.3190341717144012 0 2.3190341717144012 4.6862887598733955 0 0 0 0 -7.973962805283918 192.70572052186071 0 192.70572052186071 79.570035347032899 0 0 0 0 490.99665695975557 -309.65983761752432 0 -309.65983761752432 210.47868694024146 0 0 0 0 118.07813666879611 7.6034565238824143 0 7.6034565238824143 81.513133367124311 0 0 0 0 9.4012941789752702 -9.9669353884631082 0 -9.9669353884631082 0.81716412157629204 0 0 0 0 -96.305567991549594 11.146485737831426 0 11.146485737831426 1469.784295953139 0 0 0 0 -233.47571534017266 -9.866808247564677 0 -9.866808247564677 1498.0324214134835 0 0 0 0 180.89848320924739 -6.4465091836536885 0 -6.4465091836536885 -221.50629185512037 0 0 0 0 9.5720786806095717 -5.9557784278642867 0 -5.9557784278642867 1.0741693901695575 0 0 0 0 303.09500731924339 425.85585785954936 0 425.85585785954936 657.57795319347588 0 0 0 0 38.45699643246553 122.28682053078455 0 122.28682053078455 94.823213486423811 0 0 0 0 18.467676828537883 -147.94252011746599 0 -147.94252011746599 180.36275624145583 0 0 0 0 19.758413312890298 80.970167506824509 0 80.970167506824509 312.65605137863986 0 0 0 0 164.56222583796216 -0.38198793072933768 0 -0.38198793072933768 451.58476540760637 0 0 0 0 -31.124122528457519 -11.303482062859075 0 -11.303482062859075 453.59246764983436 0 0 0 0 186.50278009756494 400.16109328095195 0 400.16109328095195 1077.9312319972905 0 0 0 0 21.055448471459158 299.53365316321424 0 299.53365316321424 478.15284729064933 0 0 0 0 78.763191948582289 11.888429756587243 0 11.888429756587243 379.95231659592082 0 0 0 0 -97.867984055067609 9.4618691687901446 0 9.4618691687901446 829.65060683343108 0 0 0 0 -63.91302252429341 91.287623440161042 0 91.287623440161042 717.98046626332689 0 0 0 0 -111.09295750360479 105.48780088084641 0 105.48780088084641 817.83383819876326 0 0 0 0 -59.652300040781483 17.182074556692896 0 17.182074556692896 495.80060370520187 0 0 0 0 108.08156606969897 85.039067770652764 0 85.039067770652764 513.16032474033773 0 0 0 0 15.154314892977709 158.91729821238005 0 158.91729821238005 942.29809380074948 0 0 0 0 50.258552266470588 -154.12043162557757 0 -154.12043162557757 1146.316729828206 0 0 0 0 2.483752813940221 3.0794948082191063 0 3.0794948082191063 2.1760604628434788 0 0 0 0 -195.96814867053263 -133.98574262109651 0 -133.98574262109651 1591.075632079881 0 0 0 0 -29.872176739802399 4.966201381146675 0 4.966201381146675 963.46378408813325 0 0 0 0 241.05945562246143 -163.21049993082033 0 -163.21049993082033 929.8553080063939 0 0 0 0 159.11317772081384 -268.3478765916152 0 -268.3478765916152 1066.5970697914054 0 0 0 0 -11.78266169526978 18.293974977648759 0 18.293974977648759 872.08426746525583 0 0 0 0 92.842644167326853 1.2421143100764311 0 1.2421143100764311 871.70667848274024 0 0 0 0 -58.267162619280498 0.81198569305706769 0 0.81198569305706769 914.99769087409879 0 0 0 0 28.088759192065936 19.073066984541583 0 19.073066984541583 828.60745706862872 0 0 0 0 -67.56382677091824 59.823322536911292 0 59.823322536911292 915.11138032383678 0 0 0 0 -99.95646347628508 51.460717199679038 0 51.460717199679038 869.16469149454497 0 0 0 0 -55.915925263180725 49.219661422321224 0 49.219661422321224 822.48370530025454 0 0 0 0 -67.564833619293495 7.043986330529151 0 7.043986330529151 874.54470129517722 0 0 0 0 -52.621299671105589 41.906489358541876 0 41.906489358541876 859.04517911319635 0 0 0 0 -62.610572961296384 -11.63458282351894 0 -11.63458282351894 875.96985097352444 0 0 0 0 4.0893731605513963 6.7666413878477769 0 6.7666413878477769 4.7747437297295328 0 0 0 0 250.00542188054897 648.96154846417267 0 648.96154846417267 1622.3019225541775 0 0 0 0 -419.5373536058878 396.15218904559515 0 396.15218904559515 1900.0015383433602 0 0 0 0 99.582094178987518 341.60695551110166 0 341.60695551110166 -311.43879922069027 0 0 0 0 168.3151930321601 507.10267913203643 0 507.10267913203643 85.371639526958461 0 0 0 0 -19.785017220862755 245.80946821008001 0 245.80946821008001 -83.22675928004719 0 0 0 0 7.3342564204522205 140.54241270257626 0 140.54241270257626 -178.57889451155279 0 0 0 0 -9.0648201838157547 157.75630082309181 0 157.75630082309181 -144.3837571576405 0 0 0 0 12.158622501646278 131.41780653686419 0 131.41780653686419 -162.98426780861701 0 0 0 0 -43.771212962899881 64.057151751630954 0 64.057151751630954 -164.42252294749008 0 0 0 0 -50.702494890683738 113.78963508514698 0 113.78963508514698 -0.86691845525092504 0 0 0 0 -38.822035940752357 89.866031840339929 0 89.866031840339929 -33.534932670958369 0 0 0 0 -1.9130052497212091 193.48371223568643 0 193.48371223568643 -0.45268714863414061 0 0 0 0 -60.915576024010988 131.04201732943875 0 131.04201732943875 -22.689310931324144 0 0 0 0 -102.36304162218221 56.345018151652766 0 56.345018151652766 51.607730673732476 0 0 0 0 -115.62168980290608 99.337473271107228 0 99.337473271107228 105.60290447766988 0 0 0 0 -56.068625931743554 165.46297426711862 0 165.46297426711862 91.556000831818665 0 0 0 0 -125.01464377240472 217.10079637094304 0 217.10079637094304 86.980358438808253 0 0 0 0 -165.16780084091192 170.78773283741384 0 170.78773283741384 176.93281052348357 0 0 0 0 -19.283269567170464 121.53426807879532 0 121.53426807879532 -468.23170826092382 0 0 0 0 -9.7725233089495305 319.65485344071021 0 319.65485344071021 152.82666204359157 0 0 0 0 -433.10167564233416 19.882783223180013 0 19.882783223180013 405.5686029511744 0 0 0 0 15.70449455203925 373.40234164240701 0 373.40234164240701 69.301402362817498 0 0 0 0 12.823687846660505 366.4945855518888 0 366.4945855518888 385.52125285035254 0 0 0 0 95.402397531700444 343.91466785401462 0 343.91466785401462 239.77603904061561 0 0 0 0 34.212952456133962 214.44988014966907 0 214.44988014966907 243.21437232304743 0 0 0 0 88.313514330639919 307.64310955623569 0 307.64310955623569 382.26903022831209 0 0 0 0 -81.630839170228683 115.75377488700906 0 115.75377488700906 118.63193269845294 0 0 0 0 15.03938390564872 230.58670167275523 0 230.58670167275523 248.36986936543781 0 0 0 0 -89.451404239647673 109.09742555268531 0 109.09742555268531 186.73721589562592 0 0 0 0 -61.294158010369756 63.635757509472569 0 63.635757509472569 259.1632456308385 0 0 0 0 -2.7532255581750178 81.411272650886531 0 81.411272650886531 409.53078300161724 0 0 0 0 -20.544160144576836 119.3771593788415 0 119.3771593788415 330.16063353944628 0 0 0 0 6.6218247661317946 -84.528733658988131 0 -84.528733658988131 264.30457267679594 0 0 0 0 -0.81827958506482901 -92.594387904452788 0 -92.594387904452788 523.57857735803009 0 0 0 0 -277.96385208063748 73.844203910164424 0 73.844203910164424 62.964073732097859 0 0 0 0 2.30291677139512 2.9733150342346875 0 2.9733150342346875 2.2078815779692134 0 0 0 0 -26.368115534879962 12.492791241046689 0 12.492791241046689 154.41783613713415 0 0 0 0 -500.60095077909409 -140.15024521983923 0 -140.15024521983923 142.09345045942246 0 0 0 0 -50.166343045571011 -7.1312823257417222 0 -7.1312823257417222 198.07817028783302 0 0 0 0 -71.557406067946886 48.468599917115171 0 48.468599917115171 58.142368160836668 0 0 0 0 -102.10240591390766 112.31324831278516 0 112.31324831278516 15.447404308470141 0 0 0 0 -106.8179880251655 98.847942092015728 0 98.847942092015728 79.515097208952284 0 0 0 0 -111.79118155580227 65.220337321393345 0 65.220337321393345 62.191309384121269 0 0 0 0 -102.89536612907887 117.81690913997204 0 117.81690913997204 138.20149215110723 0 0 0 0 -132.14991347134128 68.841484556543946 0 68.841484556543946 128.35089647338191 0 0 0 0 -133.55489420997401 66.425870547858722 0 66.425870547858722 175.63010717237194 0 0 0 0 -133.09443969151266 69.836838652207462 0 69.836838652207462 130.57063207831379 0 0 0 0 -107.34074236959714 84.739178489129699 0 84.739178489129699 114.92412139195949 0 0 0 0 -122.65910776926466 108.39861708092258 0 108.39861708092258 147.16719317403476 0 0 0 0 -112.25707559741841 88.031919354285492 0 88.031919354285492 186.99287499955574 0 0 0 0 -133.50607754465602 69.235251722603834 0 69.235251722603834 163.68375580220345 0 0 0 0 43.18561515834017 352.39418480397489 0 352.39418480397489 876.44791751864841 0 0 0 0 236.90562788158832 128.38134379661369 0 128.38134379661369 100.72019210815301 0 0 0 0 3.5226178048820858 0.42535688077491152 0 0.42535688077491152 0.72724846191094694 0 0 0 0 451.83967857741254 565.58035365766909 0 565.58035365766909 193.10054517916853 0 0 0 0 66.871775731453226 98.401589350894596 0 98.401589350894596 202.9393744019153 0 0 0 0 66.33001157134828 100.66117940847133 0 100.66117940847133 430.53434583226863 0 0 0 0 181.82295623124503 89.800558842134905 0 89.800558842134905 129.49753670338669 0 0 0 0 -1.2773563444068632 0.093076785141851914 0 0.093076785141851914 4.1782511162609026 0 0 0 0 209.93996671435389 252.19247516155838 0 252.19247516155838 222.7130749988637 0 0 0 0 204.87762351033552 236.38595545454064 0 236.38595545454064 -82.515165240642091 0 0 0 0 84.191050585540779 121.3791407524086 0 121.3791407524086 -49.443641199179183 0 0 0 0 190.68315102847873 241.7696263013629 0 241.7696263013629 -83.948934625015681 0 0 0 0 252.12571171325999 231.67790233536925 0 231.67790233536925 -181.45396003573114 0 0 0 0 263.6207246857557 199.671874643499 0 199.671874643499 -144.04081130501709 0 0 0 0 172.60676069851684 277.07856706533494 0 277.07856706533494 -125.63062480822373 0 0 0 0 590.60926835083364 112.22542454048289 0 112.22542454048289 -278.05370202536642 0 0 0 0 214.58728967699517 172.95767838858046 0 172.95767838858046 -74.716016001251774 0 0 0 0 176.67440120807737 187.9666770108372 0 187.9666770108372 -77.204772208659051 0 0 0 0 188.97409870867887 209.42403277241738 0 209.42403277241738 -101.78919490883345 0 0 0 0 245.53369928908296 184.27801209406653 0 184.27801209406653 -92.288482070354803 0 0 0 0 2.0574494269920649 1.1791232050134264 0 1.1791232050134264 0.91171711028725255 0 0 0 0 -0.78635684047867471 -27.866555940528542 0 -27.866555940528542 677.78612475289901 0 0 0 0 42.177341045434332 42.676401438282483 0 42.676401438282483 449.01430860104028 0 0 0 0 46.599607155810418 89.427805073685931 0 89.427805073685931 685.57453028830423 0 0 0 0 75.246674534248541 160.59850180038757 0 160.59850180038757 624.66590619508497 0 0 0 0 59.112376604098017 127.5544949265709 0 127.5544949265709 574.81376969896701 0 0 0 0 50.041621771618338 153.88020321347449 0 153.88020321347449 508.87644942444058 0 0 0 0 361.08447838906517 292.28246400091848 0 292.28246400091848 790.21685815022283 0 0 0 0 -0.46267681183454279 0.099316251501972985 0 0.099316251501972985 3.3673674144271022 0 0 0 0 318.81663214742184 -146.40982451351829 0 -146.40982451351829 445.06207553649256 0 0 0 0 231.39434368354546 372.84641008923404 0 372.84641008923404 740.46409639653757 0 0 0 0 302.32380056498334 306.27517236557628 0 306.27517236557628 567.28555087541463 0 0 0 0 179.85977994511722 191.56819410213393 0 191.56819410213393 675.56694218560892 0 0 0 0 251.22340407804802 129.37765388610228 0 129.37765388610228 441.74123208768833 0 0 0 0 355.6607822716619 324.58684340444552 0 324.58684340444552 261.67175112136738 0 0 0 0 91.957325464067708 346.6748599206876 0 346.6748599206876 601.66539260785112 0 0 0 0 106.54407036369275 226.83327858096254 0 226.83327858096254 250.5034955719558 0 0 0 0 103.1822123336849 286.00327983412399 0 286.00327983412399 357.74218235566332 0 0 0 0 81.528036207730878 162.95392455485501 0 162.95392455485501 153.50892307278627 0 0 0 0 117.00847511365055 189.23705371713186 0 189.23705371713186 78.827375151002343 0 0 0 0 -1.018136311889497 0.011225026504629199 0 0.011225026504629199 0.37183144360392895 0 0 0 0 62.283010085585829 48.974044290551319 0 48.974044290551319 -152.71663914022383 0 0 0 0 107.08280219847862 95.550356941148948 0 95.550356941148948 544.70403723734489 0 0 0 0 -52.412705101325969 49.228622894906948 0 49.228622894906948 330.36115333066846 0 0 0 0 3.8490530619279753 -44.325973879732828 0 -44.325973879732828 392.67005379995135 0 0 0 0 -25.982839350592549 38.099995760479032 0 38.099995760479032 20.892642155748945 0 0 0 0 -22.399312604825354 33.953123507133569 0 33.953123507133569 70.104538916102683 0 0 0 0 -39.643656752564596 1.9579787095192387 0 1.9579787095192387 39.445889601680392 0 0 0 0 -12.377622330003987 -23.583223149741684 0 -23.583223149741684 98.835946923780284 0 0 0 0 -22.120591017626111 -21.862776989399208 0 -21.862776989399208 106.64250241829495 0 0 0 0 -24.721691238678666 5.2801687933484232 0 5.2801687933484232 72.110988848096895 0 0 0 0 55.100960857203518 114.67529433751952 0 114.67529433751952 238.66450181191385 0 0 0 0 -12.525569895721333 4.8336751703699292 0 4.8336751703699292 63.057814835983663 0 0 0 0 -5.3610447876258149 -23.648195207478238 0 -23.648195207478238 160.70091171182685 0 0 0 0 -14.100891876754076 -18.111270969985526 0 -18.111270969985526 157.19314392901106 0 0 0 0 42.266000811056756 -22.604044237940798 0 -22.604044237940798 -36.796685481021996 0 0 0 0 2.0391352849874238 -82.312066188796052 0 -82.312066188796052 124.60086411069551 0 0 0 0 27.467947140172669 -49.213797749131686 0 -49.213797749131686 1508.3401395591823 0 0 0 0 5.6442356373185874 -14.372919881155978 0 -14.372919881155978 1.1337368218891213 0 0 0 0 10.661636278316337 -48.350403600175923 0 -48.350403600175923 54.513545237513426 0 0 0 0 32.72541899198859 -54.66193991334012 0 -54.66193991334012 1500.342374325425 0 0 0 0 -2.3385252034773885 -35.056487137437216 0 -35.056487137437216 103.68398744599017 0 0 0 0 24.172780070851385 -41.970556627921496 0 -41.970556627921496 1500.376500469752 0 0 0 0 1.8501265934166795 -18.758972862656652 0 -18.758972862656652 -0.019471288866710235 0 0 0 0 -74.553455204790012 -50.353114130978383 0 -50.353114130978383 1518.420607290846 0 0 0 0 -14.949266923309104 -22.393466125123496 0 -22.393466125123496 112.87855835306618 0 0 0 0 -158.52414657941614 -7.9694851055039635 0 -7.9694851055039635 1498.2229573191723 0 0 0 0 -4.3389464054452205 -26.57740919633352 0 -26.57740919633352 92.60551256119561 0 0 0 0 -3.7397410962405502 -1.7372642357468067 0 -1.7372642357468067 72.661236640124116 0 0 0 0 -2.2541619469228724 -21.717092919465706 0 -21.717092919465706 6.2040477338601381 0 0 0 0 224.03591404717776 -482.64646275189057 0 -482.64646275189057 967.29224145733565 0 0 0 0 -10.456920159208835 -12.29448367690884 0 -12.29448367690884 102.27070899956652 0 0 0 0 0.23650980717076397 -2.265908998278837 0 -2.265908998278837 -3.1988258400174185 0 0 0 0 57.641157733032209 320.79852933830534 0 320.79852933830534 1499.9886337398464 0 0 0 0 0.78216601651482187 1.1664840727709018 0 1.1664840727709018 8.9336378714926425 0 0 0 0 -5.2164159325980597 -24.13963249139654 0 -24.13963249139654 23.775108997588099 0 0 0 0 -148.36208227219305 121.22542090861407 0 121.22542090861407 1351.432523911677 0 0 0 0 -118.53380505842938 29.148676292159507 0 29.148676292159507 58.02268990079736 0 0 0 0 -1.4956260168590347 260.8609227661284 0 260.8609227661284 308.45289716861589 0 0 0 0 4.0189075971181865 -6.004529597781584 0 -6.004529597781584 62.166865090243846 0 0 0 0 -0.39467346798608105 10.426369449093499 0 10.426369449093499 53.85328420508813 0 0 0 0 3.3501922503306787 -12.87337804884146 0 -12.87337804884146 68.080428678016688 0 0 0 0 -0.43910900254149965 -3.3713399839052727 0 -3.3713399839052727 66.256685546545668 0 0 0 0 -5.7920446336772784 -8.7716626445853763 0 -8.7716626445853763 69.334634714217145 0 0 0 0 -8.3515556963416202 5.8324866642205961 0 5.8324866642205961 49.793790919658022 0 0 0 0 -0.73672626416311005 -0.60617874031549945 0 -0.60617874031549945 33.233805459476571 0 0 0 0 -5.4046723415335691 6.5570347445518564 0 6.5570347445518564 37.705758474934555 0 0 0 0 -5.6464843252240371 -4.4513867153727915 0 -4.4513867153727915 35.084901056339731 0 0 0 0 -11.044242033176943 -0.56494007819128456 0 -0.56494007819128456 49.289944783838109 0 0 0 0 -5.0234961067223765 5.2466480331779337 0 5.2466480331779337 50.87841198051683 0 0 0 0 -1.3969396657450943 -1.0906620383511836 0 -1.0906620383511836 19.30008041124529 0 0 0 0 -11.541579541901456 16.106280669242551 0 16.106280669242551 17.223516868207753 0 0 0 0 -0.58414477497582995 -0.15869878416185967 0 -0.15869878416185967 1.9142769281206178 0 0 0 0 -0.55829416929181397 6.0028147749722827 0 6.0028147749722827 17.132069313332678 0 0 0 0 -15.215353921627184 -28.249704888871292 0 -28.249704888871292 -14.612475963297356 0 0 0 0 -0.91043026205511524 12.550140757441113 0 12.550140757441113 12.005355517170301 0 0 0 0 -8.5280365306589943 7.0181889444497756 0 7.0181889444497756 33.307012476152522 0 0 0 0 -2.7868727677708875 12.556481962390535 0 12.556481962390535 19.824683439519504 0 0 0 0 -14.393021842085766 14.425673912528055 0 14.425673912528055 40.809579109669357 0 0 0 0 -5.2798130544733048 2.6144516976970635 0 2.6144516976970635 25.410284468229293 0 0 0 0 -13.058719338003172 -5.0418497822215613 0 -5.0418497822215613 49.791505585426421 0 0 0 0 -4.2884013616360406 -9.6848517967888483 0 -9.6848517967888483 63.276924451076411 0 0 0 0 37.533631890701344 -91.427408206945984 0 -91.427408206945984 460.05548060162891 0 0 0 0 11.259374826613779 -15.088815935087851 0 -15.088815935087851 26.236879788272216 0 0 0 0 87.929708126939659 -48.359167092827931 0 -48.359167092827931 114.76288307691266 0 0 0 0 -49.350455727776534 -5.0246519273725916 0 -5.0246519273725916 149.14757934065946 0 0 0 0 -118.85188916986456 211.45615897201924 0 211.45615897201924 616.97717506338995 0 0 0 0 -63.516510100639742 470.50130874467277 0 470.50130874467277 1496.8710679689048 0 0 0 0 605.95219519616899 428.51285650416776 0 428.51285650416776 335.92152692409582 0 0 0 0 4.4712519478856514 -12.910648007056867 0 -12.910648007056867 16.683272453924587 0 0 0 0 -18.702134346777939 7.4912412663405803 0 7.4912412663405803 30.214276071655945 0 0 0 0 11.682349004517391 -33.523854560468408 0 -33.523854560468408 8.7540993434836309 0 0 0 0 -46.331667522663338 20.777156630131781 0 20.777156630131781 82.097322699965574 0 0 0 0 -9.3533614184948419 -29.736811122411495 0 -29.736811122411495 64.360527648205846 0 0 0 0 8.5808837389113961 -19.660235967476233 0 -19.660235967476233 26.06124442871598 0 0 0 0 9.1230776665538542 -12.639356796468292 0 -12.639356796468292 13.700656650270048 0 0 0 0 -1.7627326642065775 -4.8385975112624244 0 -4.8385975112624244 1.9475582403772957 0 0 0 0 -6.9151547483320428 -39.863957405208282 0 -39.863957405208282 95.763880790557891 0 0 0 0 81.801145297956396 -57.187098274932225 0 -57.187098274932225 1.4155980467163545 0 0 0 0 -2.1862209121332734 -8.7560772387792447 0 -8.7560772387792447 -2.9392806514789989 0 0 0 0 9.9624575213269964 -13.567197019133125 0 -13.567197019133125 10.703127508644783 0 0 0 0 5.2483134562426024 -8.326141483689689 0 -8.326141483689689 -2.3788527781163076 0 0 0 0 130.95566359889892 -303.30480021500625 0 -303.30480021500625 -132.5470249472055 0 0 0 0 -114.09892917838185 428.64796509886582 0 428.64796509886582 365.09082005722303 0 0 0 0 2.4762807965089282 -1.9846472709474412 0 -1.9846472709474412 2.2976859820197717 0 0 0 0 108.347464590138 -223.36842481388157 0 -223.36842481388157 814.63490485242801 0 0 0 0 2.1892351419141431 -4.1480332630353329 0 -4.1480332630353329 6.8235284420203683 0 0 0 0 -181.70498702600227 251.68460472268634 0 251.68460472268634 1492.4015153469247 0 0 0 0 716.99530528866183 -555.1306346295587 0 -555.1306346295587 -207.94117571971765 0 0 0 0 1.9136070219670209 -0.69664280826873437 0 -0.69664280826873437 1495.4267611802061 0 0 0 0 1.8603165255047631 0.30773370700455516 0 0.30773370700455516 1.9724319398539514 0 0 0 0 40.129806154855878 -52.342693477915418 0 -52.342693477915418 416.39555746812903 0 0 0 0 -56.439649459424317 -434.82312174421168 0 -434.82312174421168 1132.5522534280476 0 0 0 0 -215.23341620179752 127.56572383346838 0 127.56572383346838 1497.538816307519 0 0 0 0 -147.61980293935579 156.74123687562678 0 156.74123687562678 849.81228417555076 0 0 0 0 153.61956647379634 -254.81008396801508 0 -254.81008396801508 -80.300174088643416 0 0 0 0 21.372301552379163 -296.44868512605763 0 -296.44868512605763 409.05713425051317 0 0 0 0 -5.1214270834578981 -21.139381056084702 0 -21.139381056084702 28.451676512230136 0 0 0 0 2.7130599394555057 -0.98054269903938218 0 -0.98054269903938218 8.1005058211588192 0 0 0 0 -4.4180080283867369 5.194750846547322 0 5.194750846547322 49.24812642690631 0 0 0 0 0.35224050710974342 6.4169117289551156 0 6.4169117289551156 25.348733466553394 0 0 0 0 -11.234513138044349 4.0873677591431488 0 4.0873677591431488 3.4370452904618105 0 0 0 0 1.1073625666199405 25.420703333488291 0 25.420703333488291 3.3367446410784396 0 0 0 0 -0.17670404192752953 0.94019405863084016 0 0.94019405863084016 4.3519086586899158 0 0 0 0 70.701099938217794 -97.19299337258326 0 -97.19299337258326 84.98722640628057 0 0 0 0 178.04530227666208 -156.29281929887588 0 -156.29281929887588 83.384948413150141 0 0 0 0 118.80790890053265 -58.462583471513426 0 -58.462583471513426 55.998708885200358 0 0 0 0 67.404770867484558 -115.52875799417484 0 -115.52875799417484 49.68973600422396 0 0 0 0 36.513971265794112 -92.854964018520832 0 -92.854964018520832 98.552433024157381 0 0 0 0 -28.713995327526447 10.036585876258073 0 10.036585876258073 -2.4066315784593826 0 0 0 0 -90.068425386515173 -73.145240993498192 0 -73.145240993498192 90.38990820739491 0 0 0 0 42.675997992620495 -81.392647324506584 0 -81.392647324506584 72.781026503163503 0 0 0 0 -29.142883603667656 -17.226563795599873 0 -17.226563795599873 84.013577509811057 0 0 0 0 -15.616316273472648 -10.706423684359322 0 -10.706423684359322 63.580611227345344 0 0 0 0 61.02583279598332 -84.057257167340595 0 -84.057257167340595 81.806744906421315 0 0 0 0 -5.0161727639210767 -70.994408364852461 0 -70.994408364852461 86.387905854151768 0 0 0 0 66.948909081132072 -64.923050843462192 0 -64.923050843462192 127.8570545695751 0 0 0 0 0.76346309017975211 0.84214177350816688 0 0.84214177350816688 1.4769282106712536 0 0 0 0 -8.1157142604540695 -13.407142223307289 0 -13.407142223307289 96.373305655213585 0 0 0 0 44.729354775745662 -31.456448240044153 0 -31.456448240044153 80.804378412238407 0 0 0 0 -13.922728533500504 -23.860671576297534 0 -23.860671576297534 81.992103390993861 0 0 0 0 -40.898826534613391 -16.665673137025372 0 -16.665673137025372 83.101946322214189 0 0 0 0 -41.618253502384448 -20.369133378290634 0 -20.369133378290634 98.863902806388751 0 0 0 0 -19.819412682961229 -24.307296391787609 0 -24.307296391787609 83.690537055423846 0 0 0 0 -41.900757612112841 -11.238880089974614 0 -11.238880089974614 79.852110138355556 0 0 0 0 -39.880465119952078 -28.885931357370737 0 -28.885931357370737 81.690572598584822 0 0 0 0 -40.442851590826649 -31.063314389213247 0 -31.063314389213247 53.820570183363657 0 0 0 0 -37.929933089192474 11.669799085855354 0 11.669799085855354 41.194317984952932 0 0 0 0 -7.6687144445123145 -3.8203503860611057 0 -3.8203503860611057 6.4841886121328365 0 0 0 0 2.8126765075858025 16.64241673729915 0 16.64241673729915 62.681442014989507 0 0 0 0 -64.834001278397295 -11.543917821311766 0 -11.543917821311766 118.82191899654549 0 0 0 0 8.6098001904282455 24.233406977006553 0 24.233406977006553 58.002352930245252 0 0 0 0 7.5466250055095188 18.282540110129723 0 18.282540110129723 41.221100311772489 0 0 0 0 8.0014545351823472 -22.653596545820847 0 -22.653596545820847 40.117035127509979 0 0 0 0 58.339306778313301 -58.767450184732148 0 -58.767450184732148 65.807237102630324 0 0 0 0 -18.41125474112232 -56.961459195853124 0 -56.961459195853124 132.55408817131192 0 0 0 0 1.2388765561541346 5.1325468848014655 0 5.1325468848014655 -0.24404887427170996 0 0 0 0 45.498590024878581 64.251272413477409 0 64.251272413477409 -5.5405023116916254 0 0 0 0 -2.3134283730379259 11.547885751901141 0 11.547885751901141 76.730387554547377 0 0 0 0 -49.332664272584339 53.57550924666225 0 53.57550924666225 100.72933333153878 0 0 0 0 -27.082260313445204 20.583735415819319 0 20.583735415819319 122.66741920579079 0 0 0 0 -66.819347876731541 23.055721825172441 0 23.055721825172441 61.309868353777574 0 0 0 0 -57.198426318272013 -161.78029284385883 0 -161.78029284385883 114.38826398320634 0 0 0 0 -1.0598170137380789 6.8709830702424091 0 6.8709830702424091 10.295584362349208 0 0 0 0 -232.36800806527862 29.615952223753993 0 29.615952223753993 287.65583503422727 0 0 0 0 8.912163606516657 -173.26558791751518 0 -173.26558791751518 100.83612744830157 0 0 0 0 -1.6803294557986985 -0.80221712105346477 0 -0.80221712105346477 -0.80650271802768003 0 0 0 0 -157.19730034094113 91.64259057820118 0 91.64259057820118 5.2760901824716484 0 0 0 0 -161.41120572146454 -108.1043522894372 0 -108.1043522894372 81.098370945212082 0 0 0 0 131.51011690126967 -76.387328603870174 0 -76.387328603870174 -95.539461102736368 0 0 0 0 139.38507699360761 24.273068819631433 0 24.273068819631433 178.26394931272762 0 0 0 0 202.84651581076747 139.34959326293028 0 139.34959326293028 99.100268661882183 0 0 0 0 129.5503671883755 186.83346779055819 0 186.83346779055819 262.49409984629801 0 0 0 0 147.95696329941859 -17.117236080960829 0 -17.117236080960829 81.709214933389376 0 0 0 0 4.3395781864887848 0.93053858203264639 0 0.93053858203264639 0.5202580818512802 0 0 0 0 58.623707093030134 -54.119696135356662 0 -54.119696135356662 93.635571343678834 0 0 0 0 32.765317279813416 -25.121629380179684 0 -25.121629380179684 100.50132317916359 0 0 0 0 51.609381587739279 -29.432476167658706 0 -29.432476167658706 55.649733821284372 0 0 0 0 -60.262032630207614 85.218533846428727 0 85.218533846428727 152.45830443371182 0 0 0 0 -190.53053962662753 -19.169530672387509 0 -19.169530672387509 76.997439716854842 0 0 0 0 140.26254159398565 153.09964516352807 0 153.09964516352807 157.77594798061045 0 0 0 0 10.414291562037377 188.0956516934416 0 188.0956516934416 209.75490459091191 0 0 0 0 -174.56070226508385 -51.471637901208169 0 -51.471637901208169 200.81453455763176 0 0 0 0 -283.46012692316214 -218.7785404442086 0 -218.7785404442086 63.0184235761335 0 0 0 0 -231.62625118043206 43.727963050449034 0 43.727963050449034 70.03071086757609 0 0 0 0 19.278623843205139 158.47319691794996 0 158.47319691794996 205.54088053864871 0 0 0 0 -0.05360073225720835 0.32991629835604575 0 0.32991629835604575 1.3320403511573282 0 0 0 0 175.43507545435185 151.12848102831776 0 151.12848102831776 82.561372939417197 0 0 0 0 -91.131781705336152 81.804733266525091 0 81.804733266525091 169.04986183374695 0 0 0 0 -85.296999410578366 -12.526170191758645 0 -12.526170191758645 85.258802017973267 0 0 0 0 -26.895547023130021 -55.133582260259274 0 -55.133582260259274 106.87680412475129 0 0 0 0 14.976239829557926 25.980457283598298 0 25.980457283598298 94.309921893393039 0 0 0 0 -15.289454646828068 -14.190388795925646 0 -14.190388795925646 68.859070173183568 0 0 0 0 -3.92983078031429 -11.684233319317169 0 -11.684233319317169 1.7387043688503603 0 0 0 0 -126.89267683507069 120.23234918957178 0 120.23234918957178 228.56881185559541 0 0 0 0 -371.97320124460794 358.44731966662039 0 358.44731966662039 810.42060442698221 0 0 0 0 275.06634894674244 351.62061028846892 0 351.62061028846892 360.70077838976113 0 0 0 0 -355.75870090515036 -82.703265247664604 0 -82.703265247664604 351.96226229033982 0 0 0 0 -140.93186045125549 -16.221292834140968 0 -16.221292834140968 442.38147780452391 0 0 0 0 -65.900529842701872 25.795139624083276 0 25.795139624083276 374.66345663116022 0 0 0 0 -3.2743459731636704 1.6097853899205496 0 1.6097853899205496 0.1264020686262769 0 0 0 0 -3.3278727560615948 11.050663550432091 0 11.050663550432091 -28.926702839910831 0 0 0 0 -8.8084687214854398 17.327667319101238 0 17.327667319101238 19.077051427781043 0 0 0 0 192.85793673443459 150.16933278354873 0 150.16933278354873 119.94582214358297 0 0 0 0 -0.17437110404705436 9.6980888068028435 0 9.6980888068028435 -0.98446043387320969 0 0 0 0 -5.6039304380439576 2.6029379736442131 0 2.6029379736442131 2.9082140778105421 0 0 0 0 -10.897283904980895 4.8398620675025086 0 4.8398620675025086 15.213915661531701 0 0 0 0 -0.18344369019313156 0.20027037726370978 0 0.20027037726370978 1.6731915674930895 0 0 0 0 71.86902515708789 -240.90194912117977 0 -240.90194912117977 221.81049768995672 0 0 0 0 275.57415743786351 66.491977313202369 0 66.491977313202369 79.808228215888022 0 0 0 0 8.4336174558570747 57.760685687095702 0 57.760685687095702 138.99732567846877 0 0 0 0 9.2950135738265089 -166.6361300216422 0 -166.6361300216422 -80.578409296082526 0 0 0 0 143.8903843278606 -51.364030552701479 0 -51.364030552701479 150.42235661711129 0 0 0 0 151.0244065204879 -94.810137861219118 0 -94.810137861219118 -45.181361762382949 0 0 0 0 124.32750750524019 18.443243195061314 0 18.443243195061314 194.30356992261113 0 0 0 0 -43.387693230469722 74.911970582179492 0 74.911970582179492 463.57085498754532 0 0 0 0 14.260054223724637 -145.48305028373034 0 -145.48305028373034 318.53795084523426 0 0 0 0 -164.46625934323038 -58.047847269746399 0 -58.047847269746399 391.30526601666315 0 0 0 0 -41.99018671100157 -267.53807479290981 0 -267.53807479290981 577.28563311394828 0 0 0 0 311.62825562685055 213.88987936894301 0 213.88987936894301 153.90755542771149 0 0 0 0 279.65279782776179 -353.56437818440918 0 -353.56437818440918 308.07045402825133 0 0 0 0 0.67355806204276458 2.9443710127599818 0 2.9443710127599818 4.0016056740057948 0 0 0 0 -8.39771774356268 -171.97918669973933 0 -171.97918669973933 299.63655893982195 0 0 0 0 167.76516820981306 -347.71127142204296 0 -347.71127142204296 436.17547320666927 0 0 0 0 26.969833046615804 29.715715950245112 0 29.715715950245112 78.631247169410926 0 0 0 0 47.162958863052609 -0.89647517549201439 0 -0.89647517549201439 34.973172823010827 0 0 0 0 10.569673366911157 2.0310472777990771 0 2.0310472777990771 0.65777128414690611 0 0 0 0 737.01676883762957 162.90088453991302 0 162.90088453991302 462.20021284267636 0 0 0 0 -12.834261362715324 2.342418564718173 0 2.342418564718173 100.76706143762385 0 0 0 0 -4.0328807154557751 -33.815355202634407 0 -33.815355202634407 109.62179661221217 0 0 0 0 49.654907865165058 -41.651236289770736 0 -41.651236289770736 77.9210621669381 0 0 0 0 39.513221683058418 -43.571222258535727 0 -43.571222258535727 105.54202667490654 0 0 0 0 28.646302080144096 -26.366174169603028 0 -26.366174169603028 90.828652076640537 0 0 0 0 80.019525237773678 -6.3223437012511567 0 -6.3223437012511567 85.169905828875471 0 0 0 0 62.256446161996791 14.638072270129214 0 14.638072270129214 84.557181368224519 0 0 0 0 54.046816751097822 -4.1557804590825072 0 -4.1557804590825072 100.14982421330637 0 0 0 0 42.359136635944992 11.961644082351313 0 11.961644082351313 101.90161460445779 0 0 0 0 83.001830674592384 62.058268712078643 0 62.058268712078643 117.24211714115336 0 0 0 0 107.38616250049449 28.249848546057365 0 28.249848546057365 93.868824985747437 0 0 0 0 84.329206085094484 115.23305438104899 0 115.23305438104899 157.37894373880317 0 0 0 0 101.32233598824723 75.569480114617818 0 75.569480114617818 116.9555293997571 0 0 0 0 68.876961596028423 100.70790601130489 0 100.70790601130489 150.5866883849958 0 0 0 0 37.920714375948592 50.074715358540743 0 50.074715358540743 133.47959721009192 0 0 0 0 57.717081278993192 62.383851412922922 0 62.383851412922922 137.61621945780826 0 0 0 0 -25.325401222800792 -3.3402437453005405 0 -3.3402437453005405 143.29016122063001 0 0 0 0 5.644495179440014 52.367739559774691 0 52.367739559774691 201.6852787141006 0 0 0 0 17.613329551769311 96.021989326992298 0 96.021989326992298 205.45848671577642 0 0 0 0 -83.065533720048279 -42.01408123476358 0 -42.01408123476358 198.6514596254724 0 0 0 0 47.033612745986375 84.794806683468323 0 84.794806683468323 227.04772433808648 0 0 0 0 9.7198888535476655 1.8770855941952531 0 1.8770855941952531 0.65441960542641653 0 0 0 0 68.73856506999914 129.06500038432637 0 129.06500038432637 175.56155584276803 0 0 0 0 74.481227583257578 153.83030030281384 0 153.83030030281384 279.36458495813713 0 0 0 0 104.28793563462659 165.02102890919014 0 165.02102890919014 182.79089611274867 0 0 0 0 106.94804236103482 141.86403029927669 0 141.86403029927669 113.6187231705394 0 0 0 0 100.03963960992405 161.8052842877928 0 161.8052842877928 191.4310003829105 0 0 0 0 104.87077544203203 165.83277732822535 0 165.83277732822535 183.86197038037881 0 0 0 0 122.32536628823368 120.01935211299383 0 120.01935211299383 134.82105239767134 0 0 0 0 133.77985093654706 131.5542379877138 0 131.5542379877138 139.97170156999789 0 0 0 0 95.984981226886248 153.42391541002303 0 153.42391541002303 178.94848519903644 0 0 0 0 109.43253794625298 162.06161913269079 0 162.06161913269079 178.87554455558748 0 0 0 0 219.24528144907617 169.0979787738338 0 169.0979787738338 132.34785641029558 0 0 0 0 140.23867396644255 251.2264892520796 0 251.2264892520796 445.82812152237238 0 0 0 0 84.34826108106563 122.55711124172967 0 122.55711124172967 258.35396573516385 0 0 0 0 138.83981266914748 202.78870488201278 0 202.78870488201278 235.20983333285403 0 0 0 0 93.617116289752857 104.99648936653989 0 104.99648936653989 130.70322034349329 0 0 0 0 4.2540684605772316 1.0025462143967783 0 1.0025462143967783 -0.34197623323598725 0 0 0 0 78.933684487141363 97.466880319366055 0 97.466880319366055 183.02322157958702 0 0 0 0 -134.90636974902282 9.5625120800586956 0 9.5625120800586956 210.38563480279981 0 0 0 0 74.066336964223865 101.77151420264931 0 101.77151420264931 94.424273727804348 0 0 0 0 65.330135504265854 83.127760442392855 0 83.127760442392855 235.8074860630162 0 0 0 0 154.08475252131075 361.47169114602798 0 361.47169114602798 492.18000871466609 0 0 0 0 174.5789160303791 -30.966198733624651 0 -30.966198733624651 -29.832548928463666 0 0 0 0 1.7145160682542526 -0.025943223289519146 0 -0.025943223289519146 0.37193869996505446 0 0 0 0 34.422339741681753 -0.64503466478947757 0 -0.64503466478947757 220.79135333946988 0 0 0 0 164.21438927536929 39.828692803785088 0 39.828692803785088 70.927513677795559 0 0 0 0 56.074788195970086 46.860972987195737 0 46.860972987195737 311.19844050241909 0 0 0 0 18.830175629051439 78.281367494924893 0 78.281367494924893 313.51485495679253 0 0 0 0 59.597828624811882 43.833235465884854 0 43.833235465884854 353.0063276065257 0 0 0 0 114.15739626687355 100.39316128392898 0 100.39316128392898 311.42224562229262 0 0 0 0 90.941694827743959 95.572928675608637 0 95.572928675608637 419.41228166864153 0 0 0 0 42.007225136053421 47.618135777003431 0 47.618135777003431 474.63433572510769 0 0 0 0 48.154476538964445 54.993285857199453 0 54.993285857199453 415.51822239493782 0 0 0 0 36.358012060859437 71.728263230878269 0 71.728263230878269 420.33978547823972 0 0 0 0 28.28726861593077 67.163521762614437 0 67.163521762614437 415.46838673610637 0 0 0 0 25.673861043888337 115.50073168160975 0 115.50073168160975 349.45160012082601 0 0 0 0 34.303656478467644 32.023663733528267 0 32.023663733528267 320.86125719077063 0 0 0 0 179.16537871734477 195.45783027914626 0 195.45783027914626 498.88562008568033 0 0 0 0 178.2131850645269 242.14658894981011 0 242.14658894981011 395.0159834203464 0 0 0 0 150.08523558032732 217.0755007889621 0 217.0755007889621 503.45256762482143 0 0 0 0 215.05013684835467 205.11043265458386 0 205.11043265458386 428.93982479953172 0 0 0 0 132.17793716589631 143.61934688945109 0 143.61934688945109 459.1180674168462 0 0 0 0 135.53707836478543 133.03556848890773 0 133.03556848890773 465.2239975144235 0 0 0 0 96.845822845852126 76.013527449517255 0 76.013527449517255 397.45407808383152 0 0 0 0 178.46487140753379 141.36634047175448 0 141.36634047175448 358.51974210471099 0 0 0 0 120.57779815631517 68.296231798053327 0 68.296231798053327 276.19538926919358 0 0 0 0 267.47467545725249 291.16810981295134 0 291.16810981295134 410.05299259628509 0 0 0 0 175.30602445110844 148.63284935704905 0 148.63284935704905 354.13233324450584 0 0 0 0 264.18349249191442 131.09866314818123 0 131.09866314818123 529.15373992672812 0 0 0 0 260.62754214073357 139.45523674357401 0 139.45523674357401 18.942909425270045 0 0 0 0 318.95732838205186 233.73491025535191 0 233.73491025535191 271.02186662273584 0 0 0 0 226.06153204133716 154.13454069795762 0 154.13454069795762 244.10073079646202 0 0 0 0 264.44333847858934 155.47020552453932 0 155.47020552453932 159.05374668753939 0 0 0 0 292.22107150628017 226.49766665663628 0 226.49766665663628 176.32779387968139 0 0 0 0 189.68726281060594 64.861516058893187 0 64.861516058893187 -186.74455730755585 0 0 0 0 133.25191331350771 300.52271318442774 0 300.52271318442774 448.0485201534209 0 0 0 0 1.1665654461451447 0.29981731518651755 0 0.29981731518651755 -0.30736668496047281 0 0 0 0 -17.773905463061681 -23.362008624170926 0 -23.362008624170926 78.175269830313027 0 0 0 0 259.91962126426802 219.95784825544945 0 219.95784825544945 155.22912676460783 0 0 0 0 364.77915870765696 353.22330346875628 0 353.22330346875628 260.08998169514052 0 0 0 0 216.08306840384421 155.58222296925601 0 155.58222296925601 150.79675229994291 0 0 0 0 276.70471962517377 48.935781754983964 0 48.935781754983964 -31.779448920033246 0 0 0 0 229.68356060834003 168.60458096689399 0 168.60458096689399 136.93837211507935 0 0 0 0 190.51807081731215 107.61940833322421 0 107.61940833322421 84.318453555110864 0 0 0 0 144.22599293390294 85.924566627832974 0 85.924566627832974 113.79733248486082 0 0 0 0 174.35286869119204 33.795828158827476 0 33.795828158827476 65.854781700886633 0 0 0 0 97.463589685204397 -10.834010053521069 0 -10.834010053521069 52.761886097410297 0 0 0 0 72.821266942037823 4.9131385941927874 0 4.9131385941927874 88.337131496613438 0 0 0 0 152.29440471305895 85.27213782279523 0 85.27213782279523 100.5758285362017 0 0 0 0 89.808822057889074 1.9846687837352874 0 1.9846687837352874 40.431456040819285 0 0 0 0 48.238134561563243 -33.608638373499389 0 -33.608638373499389 70.349901546873298 0 0 0 0 28.260272112035864 -11.078095192204046 0 -11.078095192204046 67.643449411815823 0 0 0 0 20.618479496180484 -22.015557200815692 0 -22.015557200815692 54.513371168784033 0 0 0 0 -38.712214952833079 28.061407990478301 0 28.061407990478301 41.160007868004584 0 0 0 0 -86.288334319003354 42.031904859007227 0 42.031904859007227 2.1961560734457635 0 0 0 0 -26.187494300568183 50.861653956690418 0 50.861653956690418 -2.6921326930537361 0 0 0 0 -0.73489554373437371 0.32831720325143099 0 0.32831720325143099 2.8395161667278757 0 0 0 0 -38.25942467565676 80.70549063779481 0 80.70549063779481 -56.372025750724902 0 0 0 0 -72.663132662899301 61.895096307246263 0 61.895096307246263 28.742054617754718 0 0 0 0 -11.242347308394869 10.841378597649964 0 10.841378597649964 94.7204496404579 0 0 0 0 -0.29869346528801088 20.773242652743875 0 20.773242652743875 34.697488565851017 0 0 0 0 80.972192845238936 76.038936706391041 0 76.038936706391041 47.974026674054357 0 0 0 0 2.6725877287521769 22.686890713699768 0 22.686890713699768 34.060663989486585 0 0 0 0 -1.235974457271924 2.9331846807628565 0 2.9331846807628565 3.7579639705659744 0 0 0 0 -5.073670269205218 7.3137337138560863 0 7.3137337138560863 6.2752351177204382 0 0 0 0 -16.896750710202582 -22.007091903432638 0 -22.007091903432638 75.095460823508802 0 0 0 0 20.633618059901892 50.852942005325531 0 50.852942005325531 -7.6728167930386917 0 0 0 0 39.390026209305461 42.368327717001193 0 42.368327717001193 108.97290688423072 0 0 0 0 -53.532544138402272 -11.736244059391311 0 -11.736244059391311 80.72512402510074 0 0 0 0 -1.750587773563379 -0.00098853704341328452 0 -0.00098853704341328452 18.093406304101897 0 0 0 0 0.4254777531069136 -0.38950885761352882 0 -0.38950885761352882 7.3906135298635647 0 0 0 0 50.867606568519705 357.86654021718459 0 357.86654021718459 654.04420116836604 0 0 0 0 320.84889180759592 -376.39806047316802 0 -376.39806047316802 246.96302272808242 0 0 0 0 28.296585383078877 272.54040046712134 0 272.54040046712134 486.08456582758612 0 0 0 0 -1.207605790953302 8.9645835537506784 0 8.9645835537506784 44.370923251414297 0 0 0 0 219.65902701422857 -2.8290306529609666 0 -2.8290306529609666 -3.2702837413846737 0 0 0 0 -34.143124217250048 159.3468548351959 0 159.3468548351959 568.17805667184621 0 0 0 0 95.876478252256675 110.19745583072529 0 110.19745583072529 586.40462769305873 0 0 0 0 271.44746379443228 275.10916709898822 0 275.10916709898822 687.09669974132237 0 0 0 0 146.21746238136029 -82.967609800507432 0 -82.967609800507432 1112.1976611118746 0 0 0 0 280.78959201174405 -175.62282217889856 0 -175.62282217889856 958.77540257003989 0 0 0 0 5.2446329368430797 -0.73213092256027013 0 -0.73213092256027013 1.2536337236458985 0 0 0 0 -16.307115496699225 -148.63036444483748 0 -148.63036444483748 639.18282014398869 0 0 0 0 -72.862566518764424 -281.99001010686197 0 -281.99001010686197 898.16486202779197 0 0 0 0 371.04944959850479 12.087199250083131 0 12.087199250083131 469.80823840030644 0 0 0 0 -169.32340886826069 61.094964862471443 0 61.094964862471443 997.5533984405406 0 0 0 0 -72.218507446453714 -37.969100315355035 0 -37.969100315355035 142.8134975703374 0 0 0 0 314.34209151831305 20.021915421303902 0 20.021915421303902 308.99401054328609 0 0 0 0 164.04504090364401 241.40356063993886 0 241.40356063993886 471.90931382412498 0 0 0 0 384.64388120758645 -30.754721553601541 0 -30.754721553601541 475.15496961152849 0 0 0 0 320.25109304128 181.67099792997942 0 181.67099792997942 621.10518057121885 0 0 0 0 231.95653001375993 239.59207423886346 0 239.59207423886346 208.98935893483372 0 0 0 0 89.292577001766404 134.83972881647787 0 134.83972881647787 394.30799034617939 0 0 0 0 108.19224899950768 226.53074398868148 0 226.53074398868148 332.09804045747569 0 0 0 0 89.96265135116505 120.37526035079038 0 120.37526035079038 448.70232311566087 0 0 0 0 3.9570955814879198 273.46035856172193 0 273.46035856172193 739.97444914110872 0 0 0 0 -373.37322356521599 13.872670782249088 0 13.872670782249088 807.88959713505164 0 0 0 0 -295.79383452519141 209.25828180825511 0 209.25828180825511 1240.4257288041545 0 0 0 0 118.53967410162386 696.31506097071497 0 696.31506097071497 912.07007090012303 0 0 0 0 186.48247156641992 302.13662107361051 0 302.13662107361051 406.95599787752917 0 0 0 0 85.575969993191393 188.01536089185356 0 188.01536089185356 314.16179891108368 0 0 0 0 -3.4814564265179797 331.24730449374465 0 331.24730449374465 404.1772710028954 0 0 0 0 330.27935196964336 200.07540583157061 0 200.07540583157061 186.63723230207506 0 0 0 0 838.29992017413497 456.09343162973892 0 456.09343162973892 -555.33601751972674 0 0 0 0 68.339599694037133 -305.35418163933281 0 -305.35418163933281 625.81600799628245 0 0 0 0 119.09347723499623 671.5771719375216 0 671.5771719375216 144.31274657062932 0 0 0 0 2.0178560484433952 4.7372423608610976 0 4.7372423608610976 11.776612772616962 0 0 0 0 226.71064501705769 -257.08940253398578 0 -257.08940253398578 255.69722765526262 0 0 0 0 91.44528806627477 -3.2668302633783242 0 -3.2668302633783242 753.50699116404485 0 0 0 0 -155.98130374483571 197.83063955110106 0 197.83063955110106 1099.591648805904 0 0 0 0 -364.31875372513423 124.6223228664303 0 124.6223228664303 1117.3937763888052 0 0 0 0 -53.715718434428709 -95.827375237791841 0 -95.827375237791841 1203.031849222667 0 0 0 0 142.21805956707612 -606.69147416104943 0 -606.69147416104943 1155.5473458463464 0 0 0 0 -505.76738737551022 -217.59149595530101 0 -217.59149595530101 1685.9250841895264 0 0 0 0 -4.2298473806085894 -2.3014751037029129 0 -2.3014751037029129 560.39317382743616 0 0 0 0 -1.592279248896034 10.051372235569374 0 10.051372235569374 616.23462260809163 0 0 0 0 66.168810710762045 -28.757635476051576 0 -28.757635476051576 542.58865648886115 0 0 0 0 6.0189017477939917 1.2627604065912927 0 1.2627604065912927 1.3512793508383336 0 0 0 0 92.837687920046733 10.873401621230968 0 10.873401621230968 471.90596266246757 0 0 0 0 74.183319820001543 72.315205479180349 0 72.315205479180349 436.52692528115506 0 0 0 0 60.607526638016679 60.304656441519114 0 60.304656441519114 411.92996037599812 0 0 0 0 30.54503039863539 65.304729672652115 0 65.304729672652115 583.01833549730486 0 0 0 0 20.059435415534324 32.607907011949003 0 32.607907011949003 542.43307595016722 0 0 0 0 21.035890835519695 38.382025207445224 0 38.382025207445224 507.00308549411466 0 0 0 0 28.374604965236813 5.8147652928027895 0 5.8147652928027895 560.87149742107817 0 0 0 0 35.70923670588536 22.835331549050068 0 22.835331549050068 496.73415107957226 0 0 0 0 51.030251418533226 67.015049917741166 0 67.015049917741166 493.93024837605731 0 0 0 0 54.353918377640639 102.48516024683386 0 102.48516024683386 664.2336753443717 0 0 0 0 51.283861084573914 70.727973420708992 0 70.727973420708992 546.35559057595572 0 0 0 0 41.364596112226081 60.836894570301666 0 60.836894570301666 538.86437444755234 0 0 0 0 145.6212881067031 209.96293857393147 0 209.96293857393147 567.42756922873377 0 0 0 0 45.893668834125037 52.597410053799038 0 52.597410053799038 629.77329095733421 0 0 0 0 16.420241061658317 127.46019744738237 0 127.46019744738237 1021.0548222649572 0 0 0 0 15.48671970273881 43.914699885654613 0 43.914699885654613 649.01860017316744 0 0 0 0 1152.538657418369 -40.18224232885575 0 -40.18224232885575 465.0216171719851 0 0 0 0 11.241638884365976 0.91256922789953077 0 0.91256922789953077 1.3371546125481155 0 0 0 0 -74.655022698932044 155.92361443318896 0 155.92361443318896 573.3534217370152 0 0 0 0 -56.763622820491946 150.38325853850074 0 150.38325853850074 572.92854366885877 0 0 0 0 -77.225200140468587 142.26207360901753 0 142.26207360901753 572.6117173441603 0 0 0 0 -9.7395666974662163 133.62333078011125 0 133.62333078011125 497.18374123118429 0 0 0 0 -66.454433399121626 150.17187057050887 0 150.17187057050887 570.63607754896532 0 0 0 0 -6.616118550236024 172.14819724157405 0 172.14819724157405 542.77450332945591 0 0 0 0 -68.113304076676513 154.6812515373939 0 154.6812515373939 580.91422249473908 0 0 0 0 146.10148397846206 233.30026394544439 0 233.30026394544439 538.83057816957216 0 0 0 0 6.1122007357844268 154.40990244731802 0 154.40990244731802 500.47152602980168 0 0 0 0 -23.912735463064141 -23.057058640459495 0 -23.057058640459495 35.801030126701406 0 0 0 0 -19.185871086417983 -10.702976446905538 0 -10.702976446905538 19.957072669970497 0 0 0 0 -22.485271713802831 -143.54170828328643 0 -143.54170828328643 -157.29967995758852 0 0 0 0 6.2835461937768962 -23.209357590219348 0 -23.209357590219348 18.25830396865598 0 0 0 0 -27.230760153518531 -37.731725234323676 0 -37.731725234323676 -145.93244354140461 0 0 0 0 111.80852540116211 140.71865710407292 0 140.71865710407292 810.44013538077343 0 0 0 0 179.91495583439757 408.07677994473227 0 408.07677994473227 812.07978627941338 0 0 0 0 -192.03356968077787 -69.322119380609365 0 -69.322119380609365 97.670427031625877 0 0 0 0 -57.325824851952 214.79954851622637 0 214.79954851622637 706.03067723347704 0 0 0 0 -61.103537374440748 20.810460435123787 0 20.810460435123787 615.51809606194138 0 0 0 0 -38.054366458150753 187.59320066459543 0 187.59320066459543 880.49776301607562 0 0 0 0 249.93724054676022 191.02292581988968 0 191.02292581988968 783.9613862584938 0 0 0 0 83.919857677361506 233.91524983111412 0 233.91524983111412 848.33010349277492 0 0 0 0 -50.233851596860404 -307.29559260189671 0 -307.29559260189671 732.12868913868419 0 0 0 0 38.177914845681698 17.554781555102636 0 17.554781555102636 8.8176051415230177 0 0 0 0 21.896867988173653 -148.87530437751957 0 -148.87530437751957 136.65744904741223 0 0 0 0 -44.921570423801313 -1.7756075014594899 0 -1.7756075014594899 445.46083719691887 0 0 0 0 -7.4722468047343682 64.723977850892879 0 64.723977850892879 411.63978310404036 0 0 0 0 15.866208099665528 29.254192585714918 0 29.254192585714918 285.43213758025013 0 0 0 0 -22.707877142897587 201.73174627245476 0 201.73174627245476 320.15734772562519 0 0 0 0 17.065891960508225 -16.341633779021095 0 -16.341633779021095 153.04459215936367 0 0 0 0 62.53252282665062 78.121406021514304 0 78.121406021514304 120.73298937188429 0 0 0 0 18.726396228943941 -3.3665286325322086 0 -3.3665286325322086 -10.250911230126178 0 0 0 0 -29.735633759425582 395.83533145149249 0 395.83533145149249 24.342186665125922 0 0 0 0 -286.15082483184619 147.65136015213693 0 147.65136015213693 50.333975840392668 0 0 0 0 -281.69028353618864 364.09741724215382 0 364.09741724215382 61.358270166200327 0 0 0 0 2.8936383886501535 6.1968051979047321 0 6.1968051979047321 9.7495015458261065 0 0 0 0 -233.44682628587816 -250.23439690304758 0 -250.23439690304758 449.7594992487011 0 0 0 0 -186.13748244894373 -9.4081517272065867 0 -9.4081517272065867 719.32832341874564 0 0 0 0 -282.83234782415536 -143.41378154282791 0 -143.41378154282791 882.83248590143648 0 0 0 0 1.5543299182634467 3.0265759183442102 0 3.0265759183442102 4.8819089104503597 0 0 0 0 -158.2382304862881 192.33399555267169 0 192.33399555267169 1040.0054428348385 0 0 0 0 -263.20991959979438 16.326294232922464 0 16.326294232922464 753.97746044350424 0 0 0 0 -65.95800321102638 246.19461814410897 0 246.19461814410897 713.38898613881429 0 0 0 0 181.83330310949918 111.13961111234266 0 111.13961111234266 563.66989815603847 0 0 0 0 -48.933379260497532 -6.4387730704556816 0 -6.4387730704556816 739.968764432336 0 0 0 0 -52.567437252708714 40.64041599610664 0 40.64041599610664 615.13413121300164 0 0 0 0 25.817409943215353 -64.060470225794688 0 -64.060470225794688 636.27653704297882 0 0 0 0 22.453038637097052 -16.309387071607944 0 -16.309387071607944 514.28790423684768 0 0 0 0 -25.259438752148526 -13.405463290077932 0 -13.405463290077932 -68.181532451740168 0 0 0 0 4.4728719905253769 31.586486379616964 0 31.586486379616964 501.64077649263527 0 0 0 0 -1.6469117982415398 -4.062695226380713 0 -4.062695226380713 -2.2002404266853564 0 0 0 0 5.0040279089248543 122.16858136770225 0 122.16858136770225 212.66411596365651 0 0 0 0 -93.078192013720127 24.080213870396165 0 24.080213870396165 536.10391726790544 0 0 0 0 -52.968037188979906 -107.02514793410899 0 -107.02514793410899 -87.28765414186455 0 0 0 0 4.7397261441642513 75.974062835590871 0 75.974062835590871 87.881335007997222 0 0 0 0 -50.142752059851773 -73.027677173505253 0 -73.027677173505253 36.303136343409278 0 0 0 0 -0.73205089945460777 2.2345991346513046 0 2.2345991346513046 10.834273086568409 0 0 0 0 -100.65100201408495 -54.534424405128448 0 -54.534424405128448 52.689302023999517 0 0 0 0 -15.974294373841756 -20.280183173916463 0 -20.280183173916463 46.125688354525018 0 0 0 0 -19.366700726476289 -21.798834697153669 0 -21.798834697153669 37.210139956227756 0 0 0 0 -19.751036776614455 -61.09872984311005 0 -61.09872984311005 -18.712574782225602 0 0 0 0 -65.310599470747093 -25.751572233974002 0 -25.751572233974002 -5.8141941051653703 0 0 0 0 -26.864257340620043 -23.021789705422179 0 -23.021789705422179 408.91490683535835 0 0 0 0 -115.97517349974669 -97.570572678828967 0 -97.570572678828967 402.40020837032807 0 0 0 0 12.317423806169245 103.10294033140735 0 103.10294033140735 337.77444237115378 0 0 0 0 -132.84796142921687 -5.2143186141838669 0 -5.2143186141838669 738.05144602656219 0 0 0 0 -43.380184006185118 -16.765719766343864 0 -16.765719766343864 283.07031668353056 0 0 0 0 44.54916015748222 -41.411297036269616 0 -41.411297036269616 10.005305466446316 0 0 0 0 2.0557248808681834 -43.79411323252225 0 -43.79411323252225 138.32106923249921 0 0 0 0 19.866021718152069 3.0621900777605333 0 3.0621900777605333 150.8272752762241 0 0 0 0 98.668290644298054 -102.70529815971724 0 -102.70529815971724 159.27368059532728 0 0 0 0 16.569270908907129 17.383807477363007 0 17.383807477363007 105.62107369250771 0 0 0 0 71.218827124227801 -4.9230318845218335 0 -4.9230318845218335 30.546658725958878 0 0 0 0 36.327455440738959 -43.581872382445908 0 -43.581872382445908 11.443411716066294 0 0 0 0 4.7073509649148946 0.63585907143510667 0 0.63585907143510667 -18.600489741314732 0 0 0 0 -26.647254143552914 -81.239056574225742 0 -81.239056574225742 10.113142871611672 0 0 0 0 -31.055020336955749 -28.237265058156481 0 -28.237265058156481 16.09790579797027 0 0 0 0 -14.035423376385932 -12.755483815938089 0 -12.755483815938089 56.693809061526167 0 0 0 0 -228.89905971835515 -21.80385488922002 0 -21.80385488922002 92.015098275343917 0 0 0 0 -17.219648782349395 13.51382210666452 0 13.51382210666452 93.302604233314923 0 0 0 0 -6.0839711282980211 3.4442249905714206 0 3.4442249905714206 28.4681643400972 0 0 0 0 -40.025902224384481 -63.401389541719254 0 -63.401389541719254 103.52868523909819 0 0 0 0 -288.7880430572659 2.2798743454222858 0 2.2798743454222858 181.235949754584 0 0 0 0 -19.474722546007797 15.590962960718116 0 15.590962960718116 93.291774689778549 0 0 0 0 -4.3031136303401292 8.3689663861735557 0 8.3689663861735557 20.083703837585752 0 0 0 0 -18.469813856943802 8.821765568507999 0 8.821765568507999 99.402627587920733 0 0 0 0 -18.170399067723338 10.377589517497881 0 10.377589517497881 98.551997832779193 0 0 0 0 -17.582129677468693 -21.32549135161538 0 -21.32549135161538 66.507694391603366 0 0 0 0 41.549582414972861 -93.224015863479053 0 -93.224015863479053 -58.60379423368795 0 0 0 0 1.3006023848353618 -3.6211913563371709 0 -3.6211913563371709 6.1413907585150511 0 0 0 0 -39.986021254969955 -26.518225521400382 0 -26.518225521400382 -73.622195769086829 0 0 0 0 -190.38698008475649 -174.59629950239105 0 -174.59629950239105 226.13671640490793 0 0 0 0 -34.719419103506539 -117.4292818099641 0 -117.4292818099641 -68.403739674817189 0 0 0 0 -78.553602824043082 -80.296909013685763 0 -80.296909013685763 47.659969452690348 0 0 0 0 -10.386189272702723 -90.030498049145535 0 -90.030498049145535 -67.562635686933959 0 0 0 0 84.350607398311695 -214.95123994203823 0 -214.95123994203823 86.876785468659364 0 0 0 0 -111.7207927345703 -285.70362820561422 0 -285.70362820561422 372.11337678278505 0 0 0 0 -238.20734293973783 280.38143176776066 0 280.38143176776066 494.61993734561383 0 0 0 0 17.61609602713861 -39.155631932826509 0 -39.155631932826509 493.59293235388941 0 0 0 0 21.73637320277976 210.66068733805332 0 210.66068733805332 626.55245326831755 0 0 0 0 10.900186793106172 304.66613406273063 0 304.66613406273063 503.63579428050798 0 0 0 0 -4.0311324041322161 -4.6779499686470345 0 -4.6779499686470345 6.7634603142669221 0 0 0 0 30.442358319645336 -1.1200838927288714 0 -1.1200838927288714 59.741531160159411 0 0 0 0 -35.296310536645251 269.63618064640286 0 269.63618064640286 673.0426551254568 0 0 0 0 44.405381282180429 3.9265372636837128 0 3.9265372636837128 -132.10040134623887 0 0 0 0 -7.9722295396848972 9.9544509630289966 0 9.9544509630289966 -5.1575525887785645 0 0 0 0 -140.61019636767924 19.960517486535537 0 19.960517486535537 144.5858816461041 0 0 0 0 -5.2925706322503174 -211.27838463259832 0 -211.27838463259832 127.27071558145508 0 0 0 0 403.66208188498058 150.88721167041149 0 150.88721167041149 495.45135454805131 0 0 0 0 55.957161752443426 74.769402093967074 0 74.769402093967074 623.56881135028925 0 0 0 0 137.25178323096998 -23.358027387914262 0 -23.358027387914262 276.40261330119392 0 0 0 0 25.793113933516224 109.01369899786641 0 109.01369899786641 565.61834147138143 0 0 0 0 138.73741784031495 -24.756777962693832 0 -24.756777962693832 74.5049185085918 0 0 0 0 64.273906596397069 254.5586581086518 0 254.5586581086518 305.97743779422672 0 0 0 0 -55.010263491231626 -103.43296678426304 0 -103.43296678426304 -39.37376121521811 0 0 0 0 -62.849025170261029 -25.558880795317236 0 -25.558880795317236 -11.973155044677696 0 0 0 0 6.2785089138551005 -8.7263296215042416 0 -8.7263296215042416 13.408875101540758 0 0 0 0 -86.398615329581844 -216.05043688830483 0 -216.05043688830483 151.83388864076187 0 0 0 0 98.78860976767578 47.393107830849658 0 47.393107830849658 195.29347595199943 0 0 0 0 -236.67582044721735 31.547532403978039 0 31.547532403978039 206.76505373188411 0 0 0 0 -68.215007601800934 -15.305246198027703 0 -15.305246198027703 -25.767264362712012 0 0 0 0 -49.425988698975743 -80.893439829478666 0 -80.893439829478666 719.26149912577239 0 0 0 0 -20.690200900399972 -24.232253141149876 0 -24.232253141149876 27.076051042078209 0 0 0 0 0.32310618847395745 -5.3115516057832792 0 -5.3115516057832792 294.09312135680102 0 0 0 0 -48.040233263369373 -36.729711234374918 0 -36.729711234374918 150.18020948604681 0 0 0 0 25.010335995511923 25.056923373953396 0 25.056923373953396 51.798015681750257 0 0 0 0 -45.49225187905904 -74.306474239654563 0 -74.306474239654563 40.810701252223225 0 0 0 0 -145.66473622064723 -80.306347073275901 0 -80.306347073275901 19.474022586007777 0 0 0 0 -59.492813501340493 -102.2113572958333 0 -102.2113572958333 -46.010718628793256 0 0 0 0 -70.871883038608757 -205.82172433666346 0 -205.82172433666346 -117.58056684077019 0 0 0 0 5.2319939121041461 -16.124666678993606 0 -16.124666678993606 7.7476592049579125 0 0 0 0 65.234351358882122 -85.877286252740305 0 -85.877286252740305 -212.58528406304322 0 0 0 0 -32.092615492191726 -95.394891575755537 0 -95.394891575755537 20.766539905751415 0 0 0 0 23.680900327485688 -33.089976820436277 0 -33.089976820436277 -22.145790430886336 0 0 0 0 -4.6776473517511477 27.040852141995856 0 27.040852141995856 208.25459672417492 0 0 0 0 -46.932564403649394 75.248633280303693 0 75.248633280303693 304.95999802664301 0 0 0 0 58.770155133886874 84.435794834123953 0 84.435794834123953 -159.65570074224252 0 0 0 0 5.18931706755302 113.55487091269242 0 113.55487091269242 92.814394088607514 0 0 0 0 53.293645119015309 96.271390352707385 0 96.271390352707385 225.21874023318287 0 0 0 0 21.56682901529075 144.19439773202248 0 144.19439773202248 290.94075771037933 0 0 0 0 -46.038891151034022 107.93187652584857 0 107.93187652584857 424.69019225900411 0 0 0 0 36.079950916341659 66.27305906660149 0 66.27305906660149 145.97008348001691 0 0 0 0 39.105980612818712 0.3831458413224027 0 0.3831458413224027 290.87546634277533 0 0 0 0 -183.08347552396481 175.24301567828661 0 175.24301567828661 874.31353628046418 0 0 0 0 171.71696006663933 -180.51184893512254 0 -180.51184893512254 1212.1763431645013 0 0 0 0 -0.64217073871704855 -0.96908559856134247 0 -0.96908559856134247 1.7527713842915666 0 0 0 0 -0.47447454943702994 1.8466766166053787 0 1.8466766166053787 -0.62172403934313536 0 0 0 0 3.5087984012679954 -278.972847320656 0 -278.972847320656 710.17815432233783 0 0 0 0 -329.77578950639145 -278.93517526044525 0 -278.93517526044525 713.23485681624152 0 0 0 0 -145.1544648410968 -36.346692828559753 0 -36.346692828559753 643.96991861799324 0 0 0 0 38.000705557882043 -67.125992079847492 0 -67.125992079847492 647.20847364170186 0 0 0 0 -2.4290664008396465 -1.6440271059351019 0 -1.6440271059351019 3.3412291935145007 0 0 0 0 -78.520696063867945 476.80138317865203 0 476.80138317865203 1102.5177210367037 0 0 0 0 68.395485563803959 -305.48436420442886 0 -305.48436420442886 119.29252243242809 0 0 0 0 -10.899237400790298 156.49118536499918 0 156.49118536499918 728.91808917612798 0 0 0 0 337.23624171807717 476.77084937430254 0 476.77084937430254 638.07211519689008 0 0 0 0 -12.90917817581415 11.135542954915145 0 11.135542954915145 -0.52407221914911872 0 0 0 0 -78.375500084415989 76.650441589194088 0 76.650441589194088 2.6946010290612321 0 0 0 0 94.776070515469655 47.045545515709819 0 47.045545515709819 -109.95544305327712 0 0 0 0 -63.722493744654344 -19.536596795511286 0 -19.536596795511286 -21.527457048777251 0 0 0 0 4.2452552625645694 24.944567289659972 0 24.944567289659972 18.661637444867665 0 0 0 0 7.2545421569921018 -4.459725667420571 0 -4.459725667420571 66.583687593967625 0 0 0 0 -0.50076539085467964 -2.4813961883226909 0 -2.4813961883226909 9.3820123306676901 0 0 0 0 -14.600372955307876 71.074319052582723 0 71.074319052582723 -112.78525874885599 0 0 0 0 -13.778852151598706 7.7848545240741558 0 7.7848545240741558 19.911827301704307 0 0 0 0 -36.49419250055962 101.97285577847651 0 101.97285577847651 -68.785762575145782 0 0 0 0 -28.696057134011653 57.70434347124683 0 57.70434347124683 -28.468757348571671 0 0 0 0 12.42584657557893 77.454422208513279 0 77.454422208513279 20.047144699354249 0 0 0 0 -40.476952691018198 54.760039613232948 0 54.760039613232948 10.399909630366892 0 0 0 0 -38.250184993617779 74.482577265875989 0 74.482577265875989 -23.675204826322442 0 0 0 0 -48.463071423648898 48.276845310443605 0 48.276845310443605 14.547062744659343 0 0 0 0 -32.634237206580735 40.806348445127696 0 40.806348445127696 -4.5202716397106997 0 0 0 0 -36.527347972444545 22.117159360230289 0 22.117159360230289 72.591768232334289 0 0 0 0 -39.66558610592881 31.382715263189311 0 31.382715263189311 47.83429103110393 0 0 0 0 -23.976706794239362 21.061546154629468 0 21.061546154629468 44.660423483306658 0 0 0 0 -42.558115906580156 30.888091722921672 0 30.888091722921672 39.615714876406855 0 0 0 0 -28.778501941924674 13.717476214016642 0 13.717476214016642 40.047670424071839 0 0 0 0 -42.140422573844717 23.852718587189884 0 23.852718587189884 79.808701426267362 0 0 0 0 2.7875134726024271 5.5512489205102611 0 5.5512489205102611 7.9819940058278007 0 0 0 0 0.95277410409917651 0.84990154374720461 0 0.84990154374720461 1.4956533686731177 0 0 0 0 0.19815034824681477 0.66234925582969595 0 0.66234925582969595 0.24925008402842153 0 0 0 0 28.839769347992615 38.058680868329247 0 38.058680868329247 20.365742782851157 0 0 0 0 -3.4644744654317492 15.559110446614795 0 15.559110446614795 20.961916129890596 0 0 0 0 9.8829592747547395 15.638281465930049 0 15.638281465930049 17.20940016307577 0 0 0 0 -13.251592428739514 21.160323677642737 0 21.160323677642737 21.996568685775856 0 0 0 0 -18.728029913940645 11.554849312171427 0 11.554849312171427 23.18370163927284 0 0 0 0 -25.710810203848467 26.916764241562305 0 26.916764241562305 28.67256027363328 0 0 0 0 -11.152675450517336 26.849976855432033 0 26.849976855432033 26.599545766945084 0 0 0 0 -22.960944647154633 15.370098839826824 0 15.370098839826824 38.625750237632019 0 0 0 0 76.055505257597005 52.426668878769306 0 52.426668878769306 69.447234160499647 0 0 0 0 60.508591113649231 90.862307352479547 0 90.862307352479547 90.284260370055563 0 0 0 0 21.327029509657621 72.571636511827819 0 72.571636511827819 100.2573814200623 0 0 0 0 20.502099423375029 25.748275047935721 0 25.748275047935721 66.03553336848563 0 0 0 0 16.892733330364194 47.510474861683178 0 47.510474861683178 6.2424715448541974 0 0 0 0 10.287043078314696 7.5812334501715668 0 7.5812334501715668 30.753811511021922 0 0 0 0 -87.730841554853782 77.427529366425006 0 77.427529366425006 -8.7031899096327834 0 0 0 0 -11.487455757666226 79.396663847695891 0 79.396663847695891 -27.814220909473079 0 0 0 0 -29.939034466403442 8.4797101749663852 0 8.4797101749663852 -26.233881118161662 0 0 0 0 12.181140059636398 1.0610632293655726 0 1.0610632293655726 -44.499742448635516 0 0 0 0 17.217168067246234 11.787013952725829 0 11.787013952725829 -34.767651854999713 0 0 0 0 38.022686288958937 16.583583423631353 0 16.583583423631353 -49.669945997826289 0 0 0 0 28.580528516831691 -14.890281583871911 0 -14.890281583871911 -82.669140262427391 0 0 0 0 32.032743593645137 38.84367360952092 0 38.84367360952092 -66.708212247174743 0 0 0 0 -14.630667944641004 57.721900767090119 0 57.721900767090119 -80.42711547721774 0 0 0 0 14.403054249815085 13.791075364120843 0 13.791075364120843 -30.727911861002212 0 0 0 0 22.198291126636377 49.570876146459341 0 49.570876146459341 -26.733872854786568 0 0 0 0 20.918581758377329 19.237400344620255 0 19.237400344620255 1.57388962728146 0 0 0 0 37.734708384712718 46.582915715553099 0 46.582915715553099 7.7977340869420004 0 0 0 0 51.458079083596431 -47.478720354512916 0 -47.478720354512916 -191.93724379860578 0 0 0 0 -14.120786154927373 35.885950666459394 0 35.885950666459394 64.008073769478415 0 0 0 0 -3.3203268533488659 7.800704657375384 0 7.800704657375384 -3.1597760243946773 0 0 0 0 -61.034473874676451 -42.114596473086294 0 -42.114596473086294 -67.768906020715804 0 0 0 0 27.690485263543223 -28.864725510843982 0 -28.864725510843982 -70.6867576287259 0 0 0 0 45.781739051536533 41.060691202819726 0 41.060691202819726 -55.257715274564362 0 0 0 0 7.8923227171214876 5.5305396139156073 0 5.5305396139156073 11.65651424722455 0 0 0 0 19.267286898101361 98.342619362638288 0 98.342619362638288 125.37246049492023 0 0 0 0 69.418362329148749 75.898740269098198 0 75.898740269098198 21.351578697739342 0 0 0 0 -18.625798302728981 74.88456627352025 0 74.88456627352025 171.85207387037008 0 0 0 0 15.306797719686699 18.073000770844374 0 18.073000770844374 45.489632808647002 0 0 0 0 0.60846202476329836 72.461082097641338 0 72.461082097641338 78.992190432727512 0 0 0 0 -16.677094602709985 54.231921711128052 0 54.231921711128052 33.50293478173262 0 0 0 0 12.58866036151278 50.615832135881647 0 50.615832135881647 33.532816138702401 0 0 0 0 20.174091226449747 16.952757911713888 0 16.952757911713888 133.97546936896106 0 0 0 0 16.331405215513666 -5.4559353166878282 0 -5.4559353166878282 -12.898231741688505 0 0 0 0 5.4769477974772025 0.99994251648440269 0 0.99994251648440269 0.13378798450377261 0 0 0 0 -4.3518159001387371 -0.40810308281357166 0 -0.40810308281357166 6.341900994828471 0 0 0 0 15.800925557017763 12.785390837127125 0 12.785390837127125 1.8606148347239468 0 0 0 0 -3.7068674970352617 0.75050983697383344 0 0.75050983697383344 21.70223987618192 0 0 0 0 -2.2128144976135715 -3.6855563143869787 0 -3.6855563143869787 9.2971449551553036 0 0 0 0 -10.220370017824063 -60.800052687525749 0 -60.800052687525749 2.0669486026963568 0 0 0 0 -11.557184670938113 20.316100256521167 0 20.316100256521167 20.733737252487799 0 0 0 0 32.24761142902338 27.697643336040528 0 27.697643336040528 1.2388787000600132 0 0 0 0 46.109921358498752 5.6142619922793529 0 5.6142619922793529 -27.144025127319765 0 0 0 0 10.95662138307523 44.599101004558179 0 44.599101004558179 4.614267086099062 0 0 0 0 64.213079010944966 51.990899384481963 0 51.990899384481963 24.95866069017211 0 0 0 0 46.426644349820037 4.4637622504392311 0 4.4637622504392311 48.958391394568025 0 0 0 0 40.431789326647163 20.542868994381934 0 20.542868994381934 7.4028571534581715 0 0 0 0 43.962127643428062 51.058727341171107 0 51.058727341171107 6.7479131479412899 0 0 0 0 58.305475290584241 45.437171953250072 0 45.437171953250072 23.167966697992597 0 0 0 0 20.811401297020439 51.2251178968163 0 51.2251178968163 25.177710663261678 0 0 0 0 -7.5260888840475673 83.940030715839384 0 83.940030715839384 11.629432865970557 0 0 0 0 22.683569611137841 30.284103845140635 0 30.284103845140635 8.3150775091453397 0 0 0 0 -27.111549744342369 64.139193753271684 0 64.139193753271684 -1.4320212351813097 0 0 0 0 26.660059861985985 52.251601024505362 0 52.251601024505362 8.5044671816722257 0 0 0 0 10.500759440791057 66.164925384906383 0 66.164925384906383 3.7733688665903173 0 0 0 0 -27.934035766051867 62.810465386617309 0 62.810465386617309 21.226437308527238 0 0 0 0 -27.894387286450979 67.051176359216697 0 67.051176359216697 43.063360301410285 0 0 0 0 -77.024478275957676 103.75265769576072 0 103.75265769576072 16.153801073454815 0 0 0 0 -79.82960528500729 59.214839466906938 0 59.214839466906938 49.770228922818205 0 0 0 0 -7.1814357474909229 47.90542433806695 0 47.90542433806695 31.822094172003744 0 0 0 0 -20.896343204304003 40.531398826205987 0 40.531398826205987 31.432640386243293 0 0 0 0 -12.823965936888442 30.280005663151314 0 30.280005663151314 24.096959093905753 0 0 0 0 -3.9753424018153964 33.246151877661759 0 33.246151877661759 22.458520200674684 0 0 0 0 -0.69436845979402051 26.740117528859628 0 26.740117528859628 16.725280888495035 0 0 0 0 -3.2170581432465042 21.342245797044598 0 21.342245797044598 19.481580007748562 0 0 0 0 6.3351609433785825 19.931465069574188 0 19.931465069574188 12.947375023984932 0 0 0 0 -3.2031849489271735 18.495478024764452 0 18.495478024764452 16.766314941422024 0 0 0 0 0.65576084720714789 16.144573024721467 0 16.144573024721467 9.7971652100241045 0 0 0 0 5.1594774199164704 24.587513304679305 0 24.587513304679305 15.624995332640538 0 0 0 0 2.7598971628372055 26.125562465851544 0 26.125562465851544 4.4267418415693101 0 0 0 0 20.928884433520807 31.510777374911413 0 31.510777374911413 5.9877005940288655 0 0 0 0 17.72137848326804 16.029614432791277 0 16.029614432791277 -5.4478465305292048 0 0 0 0 20.419405383658727 41.42642892740696 0 41.42642892740696 3.8521710975037422 0 0 0 0 9.1019809242299061 41.516977975677946 0 41.516977975677946 4.8362660468847025 0 0 0 0 -6.2187086056901535 40.88068066913911 0 40.88068066913911 17.899259674610221 0 0 0 0 103.16531863086129 69.222734615143054 0 69.222734615143054 128.5654747562877 0 0 0 0 25.039813069603952 27.342458513528982 0 27.342458513528982 102.13612041750093 0 0 0 0 17.012502661523285 -12.253075490125411 0 -12.253075490125411 96.012728806474911 0 0 0 0 37.940341207347956 19.412470009938261 0 19.412470009938261 75.546823117663735 0 0 0 0 -29.153371805990901 31.420729103218036 0 31.420729103218036 80.577740944438119 0 0 0 0 -22.288200948124711 85.647677576339902 0 85.647677576339902 200.58976040326525 0 0 0 0 18.320446614115554 16.202286171916057 0 16.202286171916057 132.14592291627559 0 0 0 0 41.714454686980048 52.025393141910399 0 52.025393141910399 -1.6702611274195078 0 0 0 0 31.482048471299095 4.0762966037782462 0 4.0762966037782462 104.40538475095673 0 0 0 0 56.242117609005163 -32.582312468111922 0 -32.582312468111922 141.0014124094123 0 0 0 0 76.917075617167029 93.859867336665047 0 93.859867336665047 75.839275260832778 0 0 0 0 -54.767424698219308 152.85499854500446 0 152.85499854500446 71.681465276273229 0 0 0 0 -53.090987554578533 23.180693766369586 0 23.180693766369586 137.05095510849947 0 0 0 0 312.27196518937637 122.64035321533447 0 122.64035321533447 153.9684356688158 0 0 0 0 -36.440374216756936 185.58535311899868 0 185.58535311899868 25.615561926602822 0 0 0 0 117.50680894679454 376.00455247705759 0 376.00455247705759 237.79574554074134 0 0 0 0 -1.8361978453480701 0.57580087815232162 0 0.57580087815232162 3.6438822465138259 0 0 0 0 -58.316809821019888 -96.214446444551868 0 -96.214446444551868 -248.1712902140207 0 0 0 0 -3.1997261480394008 -6.4382981278881743 0 -6.4382981278881743 9.6899920296213722 0 0 0 0 30.279360169346091 34.791872410129145 0 34.791872410129145 -135.32213288449748 0 0 0 0 -32.900414626866677 99.387286443226913 0 99.387286443226913 21.833472365431589 0 0 0 0 48.071681609300043 -30.355292537902642 0 -30.355292537902642 113.83302505959728 0 0 0 0 45.966281614463696 58.205642612483643 0 58.205642612483643 -202.57505297276202 0 0 0 0 -82.061041510246014 87.832870048405312 0 87.832870048405312 285.54490122295647 0 0 0 0 2.0957862773068334 0.15191758287179624 0 0.15191758287179624 0.13860772522444798 0 0 0 0 1.7796822098717939 16.428998350753318 0 16.428998350753318 -38.304019430448534 0 0 0 0 -26.617818076100548 40.695743785056038 0 40.695743785056038 9.3576749360308895 0 0 0 0 -11.696055677282743 1.2445956832898446 0 1.2445956832898446 55.401702113578722 0 0 0 0 50.780873447360591 -52.184781599573398 0 -52.184781599573398 44.043161373891962 0 0 0 0 -44.486816023421966 10.451040029267006 0 10.451040029267006 116.70733749365172 0 0 0 0 0.69971682495776966 1.7997484876615442 0 1.7997484876615442 0.30481474409221221 0 0 0 0 0.26294799796755264 -0.90243815093032254 0 -0.90243815093032254 0.46046644359220501 0 0 0 0 -15.724572568301028 58.084248478671725 0 58.084248478671725 336.00647480889347 0 0 0 0 111.02648967560981 -51.276947506047691 0 -51.276947506047691 -102.77332971578289 0 0 0 0 35.414556998997341 52.60477187962988 0 52.60477187962988 39.845756889240874 0 0 0 0 28.847065833577062 42.963444034392523 0 42.963444034392523 34.58805513421612 0 0 0 0 29.919370836981216 36.892934999350473 0 36.892934999350473 63.48495749848189 0 0 0 0 -3.4716391335514345 -0.3962507753585669 0 -0.3962507753585669 116.20264715242229 0 0 0 0 56.608739152721682 -7.609392079331883 0 -7.609392079331883 101.54303363971485 0 0 0 0 92.805068830492928 8.660674968494277 0 8.660674968494277 32.207666088461337 0 0 0 0 0.7587990037893686 3.6005510619994769 0 3.6005510619994769 9.7525664425856426 0 0 0 0 15.561233871937787 22.73699181292946 0 22.73699181292946 96.838702233551885 0 0 0 0 15.264253925179219 33.787915897970379 0 33.787915897970379 64.759591635505785 0 0 0 0 75.916506928397212 8.1213147541257058 0 8.1213147541257058 35.193634361091199 0 0 0 0 25.588315080118264 8.3035687617430085 0 8.3035687617430085 71.107551519661229 0 0 0 0 25.622639062945066 -1.2723861600062563 0 -1.2723861600062563 90.840323532589537 0 0 0 0 21.431330272494733 64.5266239684006 0 64.5266239684006 32.892552299970703 0 0 0 0 -1.3615264589202525 -6.801083060806377 0 -6.801083060806377 -16.214612839321489 0 0 0 0 35.667188234201603 62.010768021521471 0 62.010768021521471 89.72739570702106 0 0 0 0 29.78576158722808 -44.447932875205879 0 -44.447932875205879 35.477449138153133 0 0 0 0 -14.867436278755122 3.3046584398207415 0 3.3046584398207415 20.615894798316731 0 0 0 0 1.0439042632216871 0.05258000335158286 0 0.05258000335158286 2.6451879082914829 0 0 0 0 -60.159611971668255 26.492444565134065 0 26.492444565134065 62.539388122046148 0 0 0 0 -55.139090179004597 -41.660534151607862 0 -41.660534151607862 -11.3853643754519 0 0 0 0 -3.3916993938161566 1.219122706960901 0 1.219122706960901 5.4581226238445097 0 0 0 0 10.354158977489931 -15.04244613471019 0 -15.04244613471019 14.024420883286439 0 0 0 0 2.1418306447096995 -13.364081512354005 0 -13.364081512354005 13.827517902487671 0 0 0 0 -0.69086590747661702 -4.8982921038199194 0 -4.8982921038199194 13.220233455034034 0 0 0 0 -15.778557654466482 -22.235170901834863 0 -22.235170901834863 148.83308072245927 0 0 0 0 32.168309790787816 -97.680079957714042 0 -97.680079957714042 -3.4968379070378433 0 0 0 0 185.72760884265824 -45.137562889364744 0 -45.137562889364744 31.213135612706537 0 0 0 0 380.5110287312375 228.19295510382926 0 228.19295510382926 77.477773104936205 0 0 0 0 138.84282063435535 268.97490762614143 0 268.97490762614143 216.90132544609514 0 0 0 0 1091.4412248461169 183.09417589114673 0 183.09417589114673 -244.68300199940495 0 0 0 0 5.8001350809961085 -5.0121738439047476 0 -5.0121738439047476 1491.8657755777458 0 0 0 0 3.5550219990198002 -0.82255798169889616 0 -0.82255798169889616 5.8182002305315734 0 0 0 0 7.7249181999223291 -0.270211056385115 0 -0.270211056385115 -0.92768968186934231 0 0 0 0 347.37458690257154 -1063.9638440527419 0 -1063.9638440527419 1497.6437506701695 0 0 0 0 2.1333739307494164 2.5260610673619253 0 2.5260610673619253 18.382414338906088 0 0 0 0 4.3317768438723547 -2.8733412897669481 0 -2.8733412897669481 2.1922743806322202 0 0 0 0 -8.0160817971595861 -32.713763383154401 0 -32.713763383154401 42.540117787055351 0 0 0 0 15.772395592283374 -20.100115452049067 0 -20.100115452049067 24.454759839834878 0 0 0 0 -0.038919974977115634 1.7566121534222709 0 1.7566121534222709 19.23343771649624 0 0 0 0 -121.55077627772971 95.055868703848319 0 95.055868703848319 110.82544578638772 0 0 0 0 -16.546487593142729 9.0493828961052714 0 9.0493828961052714 20.644478623429677 0 0 0 0 -22.676105450781819 10.617906132753092 0 10.617906132753092 36.97810622633915 0 0 0 0 40.130695358032426 -28.480185175647421 0 -28.480185175647421 21.601308990507277 0 0 0 0 -20.568776234623328 -44.076412347096266 0 -44.076412347096266 7.9429028101476433 0 0 0 0 45.719301786491997 0.78041824491083389 0 0.78041824491083389 28.539189002036437 0 0 0 0 44.228058556570758 -401.25813266413752 0 -401.25813266413752 1195.8488146335485 0 0 0 0 10.584496525184271 -264.0038268451774 0 -264.0038268451774 652.24848281407503 0 0 0 0 -198.09425110704453 -5.0314712157423855 0 -5.0314712157423855 1500.70578807335 0 0 0 0 46.317088405942755 66.185527455692863 0 66.185527455692863 497.93470642784814 0 0 0 0 13.985145544612452 4.2317898639721729 0 4.2317898639721729 6.6084771004792202 0 0 0 0 -23.814974335382701 -9.5984400798174647 0 -9.5984400798174647 455.49158040101247 0 0 0 0 -63.695889442554801 13.674319263818688 0 13.674319263818688 484.81127192519853 0 0 0 0 -49.207672752635517 -97.905299365034807 0 -97.905299365034807 340.80282553853249 0 0 0 0 5.1883182914983195 23.346155402074146 0 23.346155402074146 290.06754146286767 0 0 0 0 -15.517002797678742 30.447559110143629 0 30.447559110143629 175.9274126806904 0 0 0 0 1.6345903641179405 -23.481286798010842 0 -23.481286798010842 234.0575008043561 0 0 0 0 -6.9856277192700986 0.73694759880709171 0 0.73694759880709171 44.802435448640608 0 0 0 0 -23.222595812119607 82.629853587373873 0 82.629853587373873 9.8128641025250545 0 0 0 0 60.592158497078685 50.910490866619512 0 50.910490866619512 77.487689678949664 0 0 0 0 11.340708135791886 52.734906559871888 0 52.734906559871888 78.260945255889965 0 0 0 0 43.629512027768385 94.857921135320794 0 94.857921135320794 247.16023988296183 0 0 0 0 55.864557711029988 -1.1571874510432281 0 -1.1571874510432281 115.27466217932306 0 0 0 0 36.22251398334555 47.190758292390456 0 47.190758292390456 96.951075219607446 0 0 0 0 57.102877686476589 98.405335319754158 0 98.405335319754158 114.12112756615261 0 0 0 0 84.698997023089603 6.9157176026710658 0 6.9157176026710658 -36.434977735172652 0 0 0 0 84.05292816614444 159.94181207084921 0 159.94181207084921 129.41686041905632 0 0 0 0 29.669146482624953 117.82315818669485 0 117.82315818669485 250.63851567816891 0 0 0 0 40.798986507146708 37.753878469146002 0 37.753878469146002 202.40108475293164 0 0 0 0 41.058367195379532 205.56427538723437 0 205.56427538723437 396.46652244079087 0 0 0 0 -71.683565454165745 82.938101909771831 0 82.938101909771831 653.72288670038506 0 0 0 0 199.58768765635415 437.15574883607951 0 437.15574883607951 585.36101999759558 0 0 0 0 276.46920053012929 1001.664623972727 0 1001.664623972727 1497.1432646167541 0 0 0 0 -84.507605736084855 340.27532484991298 0 340.27532484991298 733.93836875795569 0 0 0 0 -83.233441429610963 353.79355760787871 0 353.79355760787871 871.69112342487642 0 0 0 0 -325.72789978452084 178.0082212325924 0 178.0082212325924 1500.1162553020888 0 0 0 0 -52.063197295205896 100.16307853164471 0 100.16307853164471 520.52245791003406 0 0 0 0 -98.988202606507571 -153.98111050175794 0 -153.98111050175794 550.34615881256104 0 0 0 0 -178.5665570696784 -4.0040965976950247 0 -4.0040965976950247 942.50741058686981 0 0 0 0 -341.81705686007507 -22.050626633236789 0 -22.050626633236789 943.35090612205749 0 0 0 0 -358.58677667451389 -219.0222291783748 0 -219.0222291783748 1499.8416099423866 0 0 0 0 -187.79461413092272 -372.53465682245223 0 -372.53465682245223 891.99664052798107 0 0 0 0 -105.31285554686728 -597.43255734756622 0 -597.43255734756622 1497.8606272422312 0 0 0 0 7.7507663000850897 -122.60707609672136 0 -122.60707609672136 233.27729215337968 0 0 0 0 40.399660338492161 -323.80473321900831 0 -323.80473321900831 496.91939732513129 0 0 0 0 -117.99596140187538 -98.724401539178871 0 -98.724401539178871 593.39109651456238 0 0 0 0 -165.12486250724942 -307.621299012284 0 -307.621299012284 907.8838018079532 0 0 0 0 -99.862159635562875 -17.633923830495405 0 -17.633923830495405 226.36030425152421 0 0 0 0 -41.197406616115529 -45.792638459189448 0 -45.792638459189448 181.43876730880584 0 0 0 0 -94.877341038997031 -42.835478660510489 0 -42.835478660510489 159.26448644653647 0 0 0 0 -34.103505659149107 -220.85839515975385 0 -220.85839515975385 354.36308574621216 0 0 0 0 -102.08878037696309 -79.289479901628511 0 -79.289479901628511 363.80543092751395 0 0 0 0 -136.56066106789785 -82.808789950814116 0 -82.808789950814116 331.37903563403233 0 0 0 0 -71.9699163732339 -155.97718312324105 0 -155.97718312324105 113.8222955685851 0 0 0 0 -1.3011176396896662 -0.36996475139124385 0 -0.36996475139124385 10.656705360226454 0 0 0 0 -31.299304834520569 -11.710952630643078 0 -11.710952630643078 29.454288003751572 0 0 0 0 -95.519004530025597 110.94044192616821 0 110.94044192616821 -115.18077165658724 0 0 0 0 -326.93498266990565 148.84238254353841 0 148.84238254353841 65.004421958890816 0 0 0 0 3.4685015470795122 -64.865457659517688 0 -64.865457659517688 16.985599070831086 0 0 0 0 0.18370456195051688 3.6891893724032307 0 3.6891893724032307 23.439972036358398 0 0 0 0 -93.86875456132384 -22.624695679856814 0 -22.624695679856814 57.779300223657629 0 0 0 0 -181.89718612815983 14.930607357456211 0 14.930607357456211 43.003890697087627 0 0 0 0 -0.76237026457916446 0.83069397741356177 0 0.83069397741356177 6.8024617357992838 0 0 0 0 38.763837304597303 78.454403264875509 0 78.454403264875509 -39.287479156884729 0 0 0 0 -175.07830857511846 84.600752538099186 0 84.600752538099186 33.880811486989842 0 0 0 0 -260.26656097677767 -0.24859318119888485 0 -0.24859318119888485 -5.09998768283549 0 0 0 0 -82.020323414014911 14.125216011303564 0 14.125216011303564 62.72863191390752 0 0 0 0 -76.925537729189955 8.5108714071538998 0 8.5108714071538998 -43.034577011891088 0 0 0 0 -105.30453177045842 -4.0342232984185102 0 -4.0342232984185102 189.45803254799739 0 0 0 0 -80.748767203663306 10.318794398494902 0 10.318794398494902 13.383350137883099 0 0 0 0 99.992574776821641 -49.801968119883895 0 -49.801968119883895 -17.866924885103799 0 0 0 0 78.400140577608909 -57.391355875850422 0 -57.391355875850422 28.733978476705033 0 0 0 0 92.805019810356953 0.10945090263021484 0 0.10945090263021484 36.068761842809181 0 0 0 0 -117.9981378966379 1.5063610945144319 0 1.5063610945144319 27.915316481344234 0 0 0 0 -143.92708669123863 -41.17367332878348 0 -41.17367332878348 -5.3936551252991194 0 0 0 0 -120.73949783557373 -56.778256104174943 0 -56.778256104174943 6.8765451166764251 0 0 0 0 -124.28142740976682 -4.6372696305479622 0 -4.6372696305479622 -91.3616442001221 0 0 0 0 -25.079192956162387 -36.013035856954957 0 -36.013035856954957 23.622347780248674 0 0 0 0 -27.559710627038612 -47.833642698124095 0 -47.833642698124095 -21.04842455934704 0 0 0 0 -35.904539119657215 -49.175492303838837 0 -49.175492303838837 19.400464533740887 0 0 0 0 -439.33850239660364 -36.963567927488839 0 -36.963567927488839 162.05319815996336 0 0 0 0 -441.62709658329084 72.32998175234934 0 72.32998175234934 128.09709099648899 0 0 0 0 0.49271354083140662 4.0853754026103744 0 4.0853754026103744 14.999892280763063 0 0 0 0 -127.26406391044839 31.38861519526472 0 31.38861519526472 -28.690041479014326 0 0 0 0 -232.96529000139185 125.02533405932627 0 125.02533405932627 -98.035313426762286 0 0 0 0 -192.41808071790729 3.8828763697238173 0 3.8828763697238173 62.226830579980742 0 0 0 0 -202.51200605883423 47.905817384678812 0 47.905817384678812 17.689469367993297 0 0 0 0 -188.82354090716603 7.4511064023245126 0 7.4511064023245126 70.256337799903122 0 0 0 0 -35.902521738280711 -23.404063666981529 0 -23.404063666981529 43.976062169866054 0 0 0 0 -137.38262786501127 24.035556756032747 0 24.035556756032747 81.339819552787958 0 0 0 0 81.239633694674637 199.42339212725528 0 199.42339212725528 424.89702190382377 0 0 0 0 -49.901472493887198 38.980195498621924 0 38.980195498621924 114.21840427117422 0 0 0 0 125.52896875592762 44.975099103165121 0 44.975099103165121 34.332301984901278 0 0 0 0 -37.531764883024394 -53.362886497206546 0 -53.362886497206546 102.72940581766306 0 0 0 0 182.34550405339289 316.15446701654105 0 316.15446701654105 369.07377119307785 0 0 0 0 31.025815300200492 115.55950634858891 0 115.55950634858891 317.33122328067111 0 0 0 0 166.55368569416146 448.07609147530457 0 448.07609147530457 618.59111508060596 0 0 0 0 169.90503757794247 243.44578810732128 0 243.44578810732128 250.41751072361876 0 0 0 0 -341.69522696374872 -205.79655702270065 0 -205.79655702270065 61.29875021566113 0 0 0 0 -9.2927551067292029 -193.42930754490408 0 -193.42930754490408 -192.97560369402345 0 0 0 0 -23.332570306124808 -73.413870797969139 0 -73.413870797969139 64.342634187763906 0 0 0 0 28.087285528431948 87.497534924390493 0 87.497534924390493 145.50422926099054 0 0 0 0 400.92147605980858 275.38638855789759 0 275.38638855789759 -82.779939449817903 0 0 0 0 240.63704769264393 39.469341628944676 0 39.469341628944676 -247.61221673338969 0 0 0 0 705.05958612715222 -866.32619583306132 0 -866.32619583306132 744.57516884993402 0 0 0 0 1.3044408940523089 1.8806916544197403 0 1.8806916544197403 10.077600883971172 0 0 0 0 598.10145830092335 494.18011617402226 0 494.18011617402226 199.93104263835994 0 0 0 0 479.40328068109858 846.22575348329337 0 846.22575348329337 563.69414952360239 0 0 0 0 -78.139994955964099 643.9388552310902 0 643.9388552310902 1497.0070216511922 0 0 0 0 -181.91240252514436 342.73659587231759 0 342.73659587231759 860.72968549475263 0 0 0 0 -317.51982911481571 119.7365993991807 0 119.7365993991807 1500.6515611432478 0 0 0 0 -49.034372159785732 96.764009299371537 0 96.764009299371537 816.95716018114877 0 0 0 0 -19.078043379284594 131.71461307850041 0 131.71461307850041 573.66212660824021 0 0 0 0 -25.329650347813953 248.05296544867451 0 248.05296544867451 847.86588884805178 0 0 0 0 275.09508896035726 865.58123833992977 0 865.58123833992977 503.34246230479766 0 0 0 0 -138.18530730288649 -643.47455620701021 0 -643.47455620701021 957.4002973347342 0 0 0 0 0.99944675909866743 3.0808485359477551 0 3.0808485359477551 8.8572003967959887 0 0 0 0 -392.92160848050111 -293.39292983359474 0 -293.39292983359474 1497.2326395613054 0 0 0 0 -377.53893100018433 -241.45604482055205 0 -241.45604482055205 842.88040610304233 0 0 0 0 13.986849419652458 -85.160190736425648 0 -85.160190736425648 -29.014391942062502 0 0 0 0 -416.47273644176033 85.042924655556817 0 85.042924655556817 215.15496333168267 0 0 0 0 -630.22494736459385 509.42162940784146 0 509.42162940784146 440.33119465159689 0 0 0 0 -132.72035259568827 229.26225801086275 0 229.26225801086275 -342.4151696821973 0 0 0 0 1.1968984235925537 6.152084539940013 0 6.152084539940013 15.104277634208231 0 0 0 0 54.536574190797353 -173.27853668172793 0 -173.27853668172793 132.00232219916143 0 0 0 0 68.862618552777974 -77.494358314545025 0 -77.494358314545025 164.90567803455269 0 0 0 0 36.796553390749963 14.680898786098624 0 14.680898786098624 591.51415846507666 0 0 0 0 1.3601940864220881 2.3915690781965608 0 2.3915690781965608 2.9126783652603052 0 0 0 0 -87.520500457812162 334.79354757492183 0 334.79354757492183 -444.59560516125202 0 0 0 0 -29.44103332444115 287.03096160574933 0 287.03096160574933 -310.14339128922438 0 0 0 0 -160.82871271212898 154.46118998936436 0 154.46118998936436 -334.89643496877034 0 0 0 0 0.6553585826987558 4.7247562469915749 0 4.7247562469915749 8.1770622348899025 0 0 0 0 -441.53425738145637 486.51417543750176 0 486.51417543750176 -41.072084178020305 0 0 0 0 -81.128886646032441 181.83415653570228 0 181.83415653570228 -229.10546225638973 0 0 0 0 -60.190036660629744 416.82058766883165 0 416.82058766883165 104.25109924866774 0 0 0 0 -366.27241241486104 109.06884496723251 0 109.06884496723251 614.52280667371815 0 0 0 0 110.45445892549607 -300.88747272011528 0 -300.88747272011528 227.87523912679171 0 0 0 0 -76.539785093332 -226.93193697669267 0 -226.93193697669267 200.79481871330063 0 0 0 0 -10.278044936328424 -2.0799112363111902 0 -2.0799112363111902 1.1543365806348973 0 0 0 0 106.69412110344823 73.135701246473218 0 73.135701246473218 44.787561886980257 0 0 0 0 -10.278575702119838 -290.81951650782503 0 -290.81951650782503 307.13477816469458 0 0 0 0 -79.940146041563139 163.61318501921232 0 163.61318501921232 -127.34730988981028 0 0 0 0 -62.280362730196885 -301.41008376236096 0 -301.41008376236096 528.68226522864279 0 0 0 0 -2.5736292320315046 0.44312147787739065 0 0.44312147787739065 1.3284012013298607 0 0 0 0 -91.367802060918763 -194.76767133332123 0 -194.76767133332123 508.82601524296115 0 0 0 0 0.95818970107187529 2.831653395693035 0 2.831653395693035 6.3194066359179857 0 0 0 0 -6.5502395914029208 0.071765052245545746 0 0.071765052245545746 1.9766495915751321 0 0 0 0 -78.11988518223643 47.143928744506411 0 47.143928744506411 156.74878973723753 0 0 0 0 181.00837738325731 135.2993061767811 0 135.2993061767811 438.54288072446798 0 0 0 0 -89.289239077408638 26.198679138666193 0 26.198679138666193 189.5071690155637 0 0 0 0 -60.073744923439705 3.4468671680451735 0 3.4468671680451735 126.41707799019059 0 0 0 0 -60.206233536017294 12.425136269244831 0 12.425136269244831 175.51151389956067 0 0 0 0 -75.214341368466648 41.480833979436284 0 41.480833979436284 133.88838671704798 0 0 0 0 -41.698986792642245 31.689032776219392 0 31.689032776219392 163.30583436893357 0 0 0 0 -76.325411760611132 39.009800559284486 0 39.009800559284486 182.34179378432964 0 0 0 0 -65.743896254938136 75.067223892579932 0 75.067223892579932 106.67687389543426 0 0 0 0 -26.885168194919402 51.810588285021367 0 51.810588285021367 -2.6126775199372787 0 0 0 0 -51.000624327945843 60.985971966010766 0 60.985971966010766 102.07149179315456 0 0 0 0 -28.572478642569536 20.044181567987835 0 20.044181567987835 94.228193305698369 0 0 0 0 3.2308103382950586 6.8264684259103774 0 6.8264684259103774 11.808147903084162 0 0 0 0 -31.923400590162966 3.655900281602726 0 3.655900281602726 125.67769035517267 0 0 0 0 120.31112335418993 -103.95475318606805 0 -103.95475318606805 118.16354389083062 0 0 0 0 -148.01401929992517 43.157831612057635 0 43.157831612057635 351.50738356031616 0 0 0 0 -35.091176115161488 47.136423752359406 0 47.136423752359406 113.91114560160349 0 0 0 0 -78.42991952191187 -129.99605068584788 0 -129.99605068584788 432.14859153197904 0 0 0 0 14.390319760022066 -39.302835696513284 0 -39.302835696513284 210.11138345715153 0 0 0 0 -92.599938088132603 43.547341470351967 0 43.547341470351967 214.79343954101273 0 0 0 0 -155.88768685313335 49.514428317739657 0 49.514428317739657 114.16517010571511 0 0 0 0 -59.996048061723741 108.66569712735145 0 108.66569712735145 -15.223078431896283 0 0 0 0 -137.48051225171207 94.141751294187998 0 94.141751294187998 -33.534177976252977 0 0 0 0 -391.75910653913706 -198.35124847535553 0 -198.35124847535553 102.85137073862006 0 0 0 0 32.876893774765904 66.788257434771367 0 66.788257434771367 75.063615660134019 0 0 0 0 120.63839521403679 -163.90566368605687 0 -163.90566368605687 -487.34377846118878 0 0 0 0 -232.35622484449237 -47.931405191178783 0 -47.931405191178783 228.18123669230772 0 0 0 0 -11.135243816206671 -3.2356255169757659 0 -3.2356255169757659 0.27685194559180104 0 0 0 0 -118.22136604409206 -329.10101967881201 0 -329.10101967881201 483.3535968353026 0 0 0 0 -220.60158798210841 168.54207525947641 0 168.54207525947641 -46.147586775939999 0 0 0 0 27.103212961492133 81.805268388559853 0 81.805268388559853 -132.80196661270747 0 0 0 0 45.241728364638675 -313.90816458926929 0 -313.90816458926929 116.45887611153012 0 0 0 0 146.33308942596841 -267.42209712849581 0 -267.42209712849581 39.772739121763152 0 0 0 0 -4.8363684193914365 -1.5400312769470261 0 -1.5400312769470261 -0.16095380513287694 0 0 0 0 -458.50416408755837 -79.430120595612607 0 -79.430120595612607 -35.554596609072178 0 0 0 0 -178.32388350603196 -280.66342412436279 0 -280.66342412436279 111.55476973948316 0 0 0 0 -465.34115974884571 332.74487625398251 0 332.74487625398251 209.6480799450801 0 0 0 0 94.805550955762556 324.60304894144065 0 324.60304894144065 -122.1946099141278 0 0 0 0 -37.412404643032914 65.380715847975807 0 65.380715847975807 -39.501083371160348 0 0 0 0 -40.299240486077224 33.901712458635302 0 33.901712458635302 -23.844256358665007 0 0 0 0 -6.773896470598773 11.535749018219413 0 11.535749018219413 28.554709101620084 0 0 0 0 -34.018446090680072 48.062496961960278 0 48.062496961960278 -46.406064521517692 0 0 0 0 -39.187102401645006 58.386004502794094 0 58.386004502794094 -18.277522494070581 0 0 0 0 296.71293939007739 16.399207413038312 0 16.399207413038312 127.67120058448199 0 0 0 0 -80.960211427231116 34.031044218558236 0 34.031044218558236 -19.225011229682423 0 0 0 0 -148.23098075093867 31.305085260897613 0 31.305085260897613 6.6670876307907747 0 0 0 0 -134.54308852558961 58.753829993580439 0 58.753829993580439 2.8795223735723994 0 0 0 0 -114.21593459229916 25.745665269227175 0 25.745665269227175 -17.030847391375573 0 0 0 0 -73.428542417293556 44.902064031237387 0 44.902064031237387 -17.362754489557119 0 0 0 0 -49.50516339212345 58.051404180383543 0 58.051404180383543 -20.460043390114151 0 0 0 0 -73.521738110606847 46.352583997020929 0 46.352583997020929 -20.007585113649839 0 0 0 0 -186.25463793325127 123.89461602848178 0 123.89461602848178 36.182945847634983 0 0 0 0 -77.312950431016816 58.228182658178412 0 58.228182658178412 4.0244467499578604 0 0 0 0 -32.843865120704322 35.677028148926183 0 35.677028148926183 4.1268726898928492 0 0 0 0 -130.68561327993439 84.436491570926592 0 84.436491570926592 10.239329580195772 0 0 0 0 -41.220877103814701 97.96491908277676 0 97.96491908277676 -7.1178910836679279 0 0 0 0 -79.845829879411298 78.514339439647301 0 78.514339439647301 1.2334409860050073 0 0 0 0 127.17119993327969 88.307480368555844 0 88.307480368555844 -68.10492278541642 0 0 0 0 -123.27742708321647 180.5146659621048 0 180.5146659621048 8.9132329005879001 0 0 0 0 -51.10720869999578 206.06782723374818 0 206.06782723374818 -38.103509583212144 0 0 0 0 -31.567707836117393 88.808959024453088 0 88.808959024453088 -0.11210417262918781 0 0 0 0 69.267998166990083 -47.554889346134587 0 -47.554889346134587 63.565446260396129 0 0 0 0 -30.859122299641626 33.727417570215948 0 33.727417570215948 -2.268391994664853 0 0 0 0 -34.364328017926709 -26.36672718918453 0 -26.36672718918453 55.029480592060281 0 0 0 0 -0.15435633017998429 7.4985025131350724 0 7.4985025131350724 27.130508329339762 0 0 0 0 -6.4569551012209416 -0.68564339682196618 0 -0.68564339682196618 12.179690260443522 0 0 0 0 -23.131146191648668 52.833477745436539 0 52.833477745436539 26.679506145143932 0 0 0 0 -97.677595336110471 25.33780713775559 0 25.33780713775559 56.249633565756085 0 0 0 0 -184.22263278305374 -88.267140382150501 0 -88.267140382150501 207.67243229125506 0 0 0 0 0.58928618502657071 4.5459400163389585 0 4.5459400163389585 27.814000274569182 0 0 0 0 -75.88577182557674 -14.393248778920338 0 -14.393248778920338 168.7926841459921 0 0 0 0 58.179620918345336 170.56166079160903 0 170.56166079160903 -71.984994314789219 0 0 0 0 -76.228723619238963 105.84023265472979 0 105.84023265472979 -2.766641845315462 0 0 0 0 -206.77930387580022 81.143994802365341 0 81.143994802365341 101.9746114296322 0 0 0 0 -232.5774527404412 171.49305930470791 0 171.49305930470791 20.13941179151152 0 0 0 0 -0.3502849969658085 0.2595161357583553 0 0.2595161357583553 2.4650728500705412 0 0 0 0 -132.51064769599679 99.915267015578138 0 99.915267015578138 6.5956162582351681 0 0 0 0 -131.65158457854466 32.217925228501372 0 32.217925228501372 -143.56472832224244 0 0 0 0 -132.12557406989887 150.16292843519517 0 150.16292843519517 -109.5641679982291 0 0 0 0 -79.137006785110543 44.339626535518619 0 44.339626535518619 -15.611927152702265 0 0 0 0 -66.775836795645034 117.96751410519755 0 117.96751410519755 -40.111378645182413 0 0 0 0 -110.59401155100568 83.717773078329628 0 83.717773078329628 -18.21302577455026 0 0 0 0 138.49040897331915 0.7675715486293484 0 0.7675715486293484 -51.733088516833959 0 0 0 0 -55.949959077247343 -39.298851832229957 0 -39.298851832229957 36.614346650210791 0 0 0 0 -89.504686498188448 -109.77042662921849 0 -109.77042662921849 79.480749578833638 0 0 0 0 -23.959162408767128 -0.7719218558531793 0 -0.7719218558531793 57.392579196726729 0 0 0 0 -55.373054357732258 -41.133506017777108 0 -41.133506017777108 31.979462064138943 0 0 0 0 -87.798738779324822 35.848552600160474 0 35.848552600160474 -3.0774866288229532 0 0 0 0 80.258187713151301 -40.427833565074252 0 -40.427833565074252 -5.5760764845817903 0 0 0 0 -330.40461740335445 323.29650899878652 0 323.29650899878652 -20.32965927207988 0 0 0 0 -301.37170548406993 -59.69065186377702 0 -59.69065186377702 19.577708586222798 0 0 0 0 25.47892171161709 -3.4657709233979404 0 -3.4657709233979404 6.9292108273584745 0 0 0 0 -2.7683245283464242 3.7445032606136692 0 3.7445032606136692 9.2996699196815769 0 0 0 0 2.6232432391840419 -82.615079375747428 0 -82.615079375747428 73.434727941603342 0 0 0 0 226.94613422746875 77.432644840806461 0 77.432644840806461 952.88821815971096 0 0 0 0 -34.254291524958902 191.16847586969197 0 191.16847586969197 1498.3352061257083 0 0 0 0 -0.067116077305896374 14.231611100091555 0 14.231611100091555 1179.7132829294023 0 0 0 0 -75.411269548872866 312.63117617876287 0 312.63117617876287 1174.6396821493108 0 0 0 0 -78.438609802630921 309.29436569820791 0 309.29436569820791 1175.5877002824836 0 0 0 0 216.86885316872213 308.16370360942244 0 308.16370360942244 987.87121876348465 0 0 0 0 237.64003090336388 -330.51638124659439 0 -330.51638124659439 1108.6429062405018 0 0 0 0 52.810306238158191 374.77149566781372 0 374.77149566781372 577.90813214826721 0 0 0 0 -111.49531126599302 -218.44121094188449 0 -218.44121094188449 463.97080352151033 0 0 0 0 -104.13570799536261 453.81751366981007 0 453.81751366981007 1136.5307649077295 0 0 0 0 -143.61375255450685 404.68064417109144 0 404.68064417109144 1501.0631919346233 0 0 0 0 91.266124086707833 364.92699764243935 0 364.92699764243935 1114.0095172511174 0 0 0 0 239.95278049441765 503.90520625744284 0 503.90520625744284 717.53536904980137 0 0 0 0 131.75066264976823 1005.7692312421332 0 1005.7692312421332 1496.1184392369541 0 0 0 0 139.55352997510658 -86.863838917113753 0 -86.863838917113753 -262.09614194085589 0 0 0 0 162.01495080877834 303.74426417773611 0 303.74426417773611 1094.7333022099483 0 0 0 0 167.42814012637237 -182.09672946127466 0 -182.09672946127466 47.146684355491743 0 0 0 0 0.31310244664439935 -1.1869261825931154 0 -1.1869261825931154 5.2223805262939607 0 0 0 0 112.44641660261868 4.1197569180876599 0 4.1197569180876599 -50.84695336063487 0 0 0 0 -52.973928855147719 22.700744297467054 0 22.700744297467054 142.33080337856518 0 0 0 0 -28.055373979423678 -122.28240675187953 0 -122.28240675187953 352.99822534458508 0 0 0 0 -128.38333389852932 -101.66682501864852 0 -101.66682501864852 110.37366041343739 0 0 0 0 336.19527339762953 -227.27538432372421 0 -227.27538432372421 32.761342332487402 0 0 0 0 -86.425349995903161 89.760487937641301 0 89.760487937641301 665.94410606423844 0 0 0 0 -47.953547273708921 257.78518279109085 0 257.78518279109085 5.3080411005248607 0 0 0 0 1.0306703177088892 2.4237435605511024 0 2.4237435605511024 4.5995656345549492 0 0 0 0 55.547932648853646 -320.26370818011128 0 -320.26370818011128 343.52871249571763 0 0 0 0 -234.91145637108818 118.2066600048347 0 118.2066600048347 324.31513836217346 0 0 0 0 140.17247925169886 -91.157057806736702 0 -91.157057806736702 118.8566339386125 0 0 0 0 -52.556256934804424 190.81761887779794 0 190.81761887779794 -10.784174480613729 0 0 0 0 -150.72233074161943 -61.639743147414265 0 -61.639743147414265 94.170301841575565 0 0 0 0 -54.4199604539536 -13.756446483916307 0 -13.756446483916307 108.79506548996869 0 0 0 0 55.769845418239072 -74.653123769345257 0 -74.653123769345257 19.852832310711165 0 0 0 0 -58.515251881748782 -67.3817508458269 0 -67.3817508458269 39.661046395791345 0 0 0 0 -38.993589720681371 -121.59721270179944 0 -121.59721270179944 15.286576669950591 0 0 0 0 -103.67739745516269 194.45700468806899 0 194.45700468806899 348.34911379258392 0 0 0 0 0.56950012346179779 0.69068300366571123 0 0.69068300366571123 3.7617769623764445 0 0 0 0 77.007318924571024 -21.035517356347555 0 -21.035517356347555 8.1454421173475566 0 0 0 0 45.535979122150451 10.698539601868106 0 10.698539601868106 21.260070807787997 0 0 0 0 17.307087439992983 -24.234316251859127 0 -24.234316251859127 9.1704317547537357 0 0 0 0 -3.3356055666573639 11.196047557656129 0 11.196047557656129 21.343404523601066 0 0 0 0 1.2591481772498205 3.3727386835033535 0 3.3727386835033535 12.790174382335408 0 0 0 0 94.554771517069526 -277.93984906304468 0 -277.93984906304468 264.19215773755423 0 0 0 0 0.95115991416648848 4.7467602321341751 0 4.7467602321341751 16.986609193198362 0 0 0 0 -167.92275095328955 271.92612256018765 0 271.92612256018765 413.96149903519108 0 0 0 0 11.868072157922171 -357.23779960595039 0 -357.23779960595039 11.188057336774364 0 0 0 0 0.35587971238004573 -1.7520685757761107 0 -1.7520685757761107 5.1394084112531289 0 0 0 0 62.086696703186917 -278.58649693789266 0 -278.58649693789266 79.450848205604416 0 0 0 0 -43.932195370005971 225.47498865467787 0 225.47498865467787 248.01033998768253 0 0 0 0 -116.53892291458814 231.26318735859968 0 231.26318735859968 298.14322410058594 0 0 0 0 -78.673829889470255 283.41092625928286 0 283.41092625928286 165.34178474858345 0 0 0 0 -379.13286621696415 -6.3038476776582684 0 -6.3038476776582684 303.91834790470602 0 0 0 0 0.61741238239636265 -3.3749111939620207 0 -3.3749111939620207 9.9885911728395769 0 0 0 0 -174.99222972658623 -129.48716101252103 0 -129.48716101252103 84.602749967467389 0 0 0 0 94.09025673837516 -158.92517236958156 0 -158.92517236958156 -160.53209222344231 0 0 0 0 187.09453934277147 -20.143883580191869 0 -20.143883580191869 153.46135136001249 0 0 0 0 71.704396377988971 -165.26985021584778 0 -165.26985021584778 248.78289217461861 0 0 0 0 147.39150273036651 298.1857643532494 0 298.1857643532494 26.581153459141206 0 0 0 0 0.51584048618057787 1.3084499117605795 0 1.3084499117605795 5.2362693109010365 0 0 0 0 -148.06173665345645 -12.158049895041586 0 -12.158049895041586 219.4516435978112 0 0 0 0 0.47723833351279055 3.6266293888864425 0 3.6266293888864425 13.383597008395839 0 0 0 0 -213.23943073587529 98.257713668506767 0 98.257713668506767 78.991939955223643 0 0 0 0 100.92823394184519 -313.58331399500094 0 -313.58331399500094 94.893107380539732 0 0 0 0 -71.646154553328813 -30.463159576451289 0 -30.463159576451289 16.730509508297473 0 0 0 0 -95.400769854317844 -7.8574370973656187 0 -7.8574370973656187 28.695675659051631 0 0 0 0 1.6365054654630145 -1.6841935736295426 0 -1.6841935736295426 6.3680035829371064 0 0 0 0 -59.871433696706674 -34.66751618784474 0 -34.66751618784474 7.0646263356557029 0 0 0 0 -55.158329233489724 -58.77191308676629 0 -58.77191308676629 43.065386258667559 0 0 0 0 -0.6385014087326697 -84.772597140069593 0 -84.772597140069593 80.744628105789161 0 0 0 0 -62.459539169501369 -13.581923965772148 0 -13.581923965772148 47.658230582426768 0 0 0 0 74.038543161786777 34.872704672063264 0 34.872704672063264 82.957646991118509 0 0 0 0 -23.644856604957155 -54.192573562584585 0 -54.192573562584585 59.971165239379843 0 0 0 0 -73.377933350250842 287.28046185170388 0 287.28046185170388 877.30399131633021 0 0 0 0 0.041389830577774692 -4.8824377164598687 0 -4.8824377164598687 267.37372661674453 0 0 0 0 0.072898011032846696 -0.6173923753220123 0 -0.6173923753220123 2.3198781307425804 0 0 0 0 -0.029444944130601714 56.055874133478447 0 56.055874133478447 -5.5052892112871632 0 0 0 0 258.10496323392175 -584.04298893243686 0 -584.04298893243686 426.25300163005159 0 0 0 0 167.07707094561692 -199.69242858541656 0 -199.69242858541656 -72.359506285822135 0 0 0 0 82.772734028135346 -371.24339936068282 0 -371.24339936068282 520.89243814142537 0 0 0 0 211.13125865905005 -330.72750318830367 0 -330.72750318830367 277.64836338441819 0 0 0 0 109.381965907314 -330.56285739701707 0 -330.56285739701707 544.39827983920986 0 0 0 0 87.66019697465947 -348.56002097370947 0 -348.56002097370947 594.40511414874345 0 0 0 0 12.85520065213791 -348.24580571522165 0 -348.24580571522165 595.28179252414702 0 0 0 0 47.061915491358718 -444.06904908248544 0 -444.06904908248544 586.59688420312887 0 0 0 0 -0.3843459468071444 -353.75995448709 0 -353.75995448709 879.50460174656473 0 0 0 0 -19.212623994272576 -257.16855184201268 0 -257.16855184201268 724.27511656624847 0 0 0 0 23.168802796922591 -399.73034626762455 0 -399.73034626762455 700.43229799730761 0 0 0 0 94.959083392205372 -305.92054526937864 0 -305.92054526937864 810.3749654617759 0 0 0 0 37.803095941060221 -404.25381612527963 0 -404.25381612527963 821.71434068787494 0 0 0 0 0.62001509669630117 -105.54622472960423 0 -105.54622472960423 443.82904486288317 0 0 0 0 31.8434315559373 -65.500037367653022 0 -65.500037367653022 -60.221974735897675 0 0 0 0 -32.458857712034501 24.554678889177012 0 24.554678889177012 925.64357690054067 0 0 0 0 0.53822244158778609 -1.4142109808592238 0 -1.4142109808592238 2.1445376002539831 0 0 0 0 -3.5330996025954846 -137.33073942689953 0 -137.33073942689953 560.68889606765879 0 0 0 0 63.85060993450611 -91.591423760868565 0 -91.591423760868565 20.960885818627503 0 0 0 0 -19.114457817809768 -78.386699521079208 0 -78.386699521079208 -49.345065853674896 0 0 0 0 -41.427603003786047 114.82737964731473 0 114.82737964731473 236.0534757473215 0 0 0 0 8.5414183151765428 -25.688753670063306 0 -25.688753670063306 163.1681339299148 0 0 0 0 1.6415015911358857 -3.1547252111738757 0 -3.1547252111738757 2.8737168180549304 0 0 0 0 19.545271665028849 0.634410870836291 0 0.634410870836291 -38.124920173322607 0 0 0 0 47.090050067171887 26.850749448742135 0 26.850749448742135 -21.313052892401174 0 0 0 0 30.49638549126314 28.551803581489366 0 28.551803581489366 42.380307740648277 0 0 0 0 -9.9633060025282703 -39.082756611218429 0 -39.082756611218429 161.50768502259598 0 0 0 0 30.797537681059566 -41.361128501586791 0 -41.361128501586791 112.09187522991488 0 0 0 0 99.633589649302735 -77.512545749112178 0 -77.512545749112178 87.020323839809862 0 0 0 0 95.746750519934238 -222.1518795181928 0 -222.1518795181928 342.21211432608834 0 0 0 0 26.35686085665418 -90.919090925508499 0 -90.919090925508499 233.58648369355069 0 0 0 0 99.252069533356462 -211.92133758795535 0 -211.92133758795535 352.62685091076855 0 0 0 0 72.52007921006566 -274.69336626629229 0 -274.69336626629229 510.42646382149542 0 0 0 0 56.437258418297688 -183.29660067225632 0 -183.29660067225632 374.98393927254074 0 0 0 0 9.6137838735230616 -242.37831832835218 0 -242.37831832835218 520.23903895539297 0 0 0 0 8.0442686313972445 -275.36238212785975 0 -275.36238212785975 580.79540000803536 0 0 0 0 50.456416904454954 -197.47062247421127 0 -197.47062247421127 366.94164192719109 0 0 0 0 49.085130943761385 -295.86685192944969 0 -295.86685192944969 627.96550946448406 0 0 0 0 68.639262088533997 -337.62918697375426 0 -337.62918697375426 582.39586331993632 0 0 0 0 57.000783840209579 -310.98105368305551 0 -310.98105368305551 555.53455772792586 0 0 0 0 81.661203478758807 -275.10337327590241 0 -275.10337327590241 615.07810362589998 0 0 0 0 43.633926657556003 -334.86181478536309 0 -334.86181478536309 620.84791558604047 0 0 0 0 88.354517274141017 -312.13791941096861 0 -312.13791941096861 634.20933433432219 0 0 0 0 58.339300853670693 -317.40569789303845 0 -317.40569789303845 798.32274944137316 0 0 0 0 99.401570865785061 -344.43169393081189 0 -344.43169393081189 860.55774101670977 0 0 0 0 126.57850766660204 -332.2482143147281 0 -332.2482143147281 614.15608708874061 0 0 0 0 80.929135633623446 -276.43539969639096 0 -276.43539969639096 588.36609357134148 0 0 0 0 132.88377573201726 -318.22944502075143 0 -318.22944502075143 490.10598202027904 0 0 0 0 111.09848731839111 -305.39601008965474 0 -305.39601008965474 508.05722644973139 0 0 0 0 179.97870122647487 -337.70229462086718 0 -337.70229462086718 490.73003687766322 0 0 0 0 135.3592896660416 -296.5531352867547 0 -296.5531352867547 525.827032712755 0 0 0 0 171.68505843961293 -221.98671806063066 0 -221.98671806063066 305.53464592607634 0 0 0 0 144.65576070802027 -224.74331233696284 0 -224.74331233696284 353.16138259776926 0 0 0 0 219.65012532448918 -357.90724234686058 0 -357.90724234686058 526.5225179552674 0 0 0 0 190.07357836835263 -265.81576728228902 0 -265.81576728228902 563.89156194157113 0 0 0 0 132.16656503435115 -397.28276367601211 0 -397.28276367601211 819.82819621069211 0 0 0 0 283.54814080861775 -382.00814013012132 0 -382.00814013012132 423.09678930375594 0 0 0 0 182.03015111795241 -324.17742800090309 0 -324.17742800090309 624.76418818037928 0 0 0 0 417.88398285095349 -274.78373786286829 0 -274.78373786286829 54.555707916759275 0 0 0 0 163.28887763527584 -138.79011871809053 0 -138.79011871809053 169.50358578836313 0 0 0 0 79.846357996043537 82.919077815567107 0 82.919077815567107 -7.9459562139672926 0 0 0 0 216.12187830468426 -179.65129286601814 0 -179.65129286601814 287.874970801975 0 0 0 0 95.454139660123701 -187.88250274011079 0 -187.88250274011079 301.50178473163396 0 0 0 0 36.63151979152731 -99.75193134203505 0 -99.75193134203505 155.81552411713346 0 0 0 0 34.494218783633187 29.285960117093055 0 29.285960117093055 52.542550236095849 0 0 0 0 164.19913844925873 -162.65066600326463 0 -162.65066600326463 113.31824518674694 0 0 0 0 -152.00458013643501 109.75652343175352 0 109.75652343175352 126.93149751903547 0 0 0 0 -0.7650599285996682 -0.53738696093012095 0 -0.53738696093012095 0.59208679961625421 0 0 0 0 -51.614320606438582 -79.075670480908229 0 -79.075670480908229 -78.159384710030281 0 0 0 0 -1.5678909440957796 36.30899768731615 0 36.30899768731615 18.723455399542217 0 0 0 0 68.969562785606968 -137.85407506260253 0 -137.85407506260253 193.01143432231038 0 0 0 0 84.211658158905493 -58.185716615676938 0 -58.185716615676938 16.760447911452502 0 0 0 0 131.56658731185297 -219.73334899310566 0 -219.73334899310566 313.26046588645841 0 0 0 0 147.73688073929247 -96.920428781813825 0 -96.920428781813825 132.45231957008946 0 0 0 0 119.14463515995544 -237.18688390922034 0 -237.18688390922034 347.11733319285122 0 0 0 0 125.43532418634982 -138.39270543969178 0 -138.39270543969178 180.03502211814339 0 0 0 0 91.015942141293806 -128.92299490013193 0 -128.92299490013193 196.73783777443168 0 0 0 0 73.783176621530401 -129.20928403158905 0 -129.20928403158905 200.86497529780172 0 0 0 0 72.59768727647338 -48.342751137708547 0 -48.342751137708547 68.317488485634385 0 0 0 0 -76.241629720273977 15.943510336859617 0 15.943510336859617 46.495259368151892 0 0 0 0 45.680275562776387 -67.939710543090769 0 -67.939710543090769 54.671491976710968 0 0 0 0 0.20330970283566785 9.5405933693982661 0 9.5405933693982661 44.81252891866734 0 0 0 0 11.424100317308557 4.4258758593277889 0 4.4258758593277889 -41.918562614286202 0 0 0 0 -82.812258613125778 17.38993047115946 0 17.38993047115946 -8.2774864830353181 0 0 0 0 4.7966141300869367 30.997007323923754 0 30.997007323923754 -62.407982384589559 0 0 0 0 59.147917300613926 -5.6540664599197044 0 -5.6540664599197044 -15.207469276210759 0 0 0 0 -1.6971193224949275 32.2432605588765 0 32.2432605588765 15.532584592416242 0 0 0 0 -3.6770315281996773 25.12406728672795 0 25.12406728672795 -13.477609675159329 0 0 0 0 46.207200283673956 34.629361750885437 0 34.629361750885437 -31.51587894387194 0 0 0 0 -6.8194850254183166 34.327547255576064 0 34.327547255576064 -18.519419618365646 0 0 0 0 -51.396305576100758 67.691357540737954 0 67.691357540737954 -17.434480247004103 0 0 0 0 10.585742380586225 -11.77398413274932 0 -11.77398413274932 29.364147228421643 0 0 0 0 3.548693942477712 4.2909318127130973 0 4.2909318127130973 6.0132183054593042 0 0 0 0 27.617141254428589 -5.1329353625551448 0 -5.1329353625551448 9.6389196176896803 0 0 0 0 -3.8867392874770985 10.149812603507598 0 10.149812603507598 12.077052178101439 0 0 0 0 0.52049503287078558 4.6804472711548328 0 4.6804472711548328 10.195973995205549 0 0 0 0 -69.947298115405147 20.267124464973676 0 20.267124464973676 7.2753943322459236 0 0 0 0 1.1202174768179702 3.3809997948737873 0 3.3809997948737873 17.831670827297785 0 0 0 0 -0.97723389421946649 2.0973932566121221 0 2.0973932566121221 17.059477848961251 0 0 0 0 1.4892660431069658 2.7967874299210962 0 2.7967874299210962 11.125720770054613 0 0 0 0 0.0087333911171754153 7.1271167792401684 0 7.1271167792401684 9.2873095167724387 0 0 0 0 -1.1778695304487923 0.4972899163977047 0 0.4972899163977047 1.855860377375592 0 0 0 0 -87.870435853795897 112.65215482878466 0 112.65215482878466 -146.30194593203487 0 0 0 0 -91.747773377608155 127.13050709971139 0 127.13050709971139 -19.519102625358755 0 0 0 0 -67.071915309571864 18.245024866781023 0 18.245024866781023 -10.61980306825717 0 0 0 0 0.1317723567924956 0.71378608597149906 0 0.71378608597149906 -1.9232441112765741 0 0 0 0 -1.6920915943551664 5.3868434764809692 0 5.3868434764809692 7.5159357297228695 0 0 0 0 13.953337876640006 11.850309686746186 0 11.850309686746186 -18.832299831192358 0 0 0 0 -1.5628386160201444 -0.40766624347452307 0 -0.40766624347452307 9.2151682232870371 0 0 0 0 -0.50546035710613069 4.5241933972429251 0 4.5241933972429251 4.666383417265024 0 0 0 0 -0.22145048997276717 2.8377797811481287 0 2.8377797811481287 12.347863309514651 0 0 0 0 -1.9497021951510192 -0.13913621924075414 0 -0.13913621924075414 15.303567294671666 0 0 0 0 -2.8597799300848692 6.4855510209345084 0 6.4855510209345084 12.794037760235369 0 0 0 0 -3.2787530231951223 3.8412086251191795 0 3.8412086251191795 18.467431029836007 0 0 0 0 -4.2733433027528918 0.97363609692183672 0 0.97363609692183672 14.117430042737396 0 0 0 0 2.8687264496079479 -2.4515417820657603 0 -2.4515417820657603 20.213860284520706 0 0 0 0 -7.1403071985981796 7.2475477885709552 0 7.2475477885709552 20.407691856140445 0 0 0 0 -7.2935816101729642 3.0907679380325135 0 3.0907679380325135 48.733588005758065 0 0 0 0 -1.5198893043443604 -23.86885960874497 0 -23.86885960874497 21.697631591399841 0 0 0 0 -2.197486750953658 -30.869494579150341 0 -30.869494579150341 62.71409884395689 0 0 0 0 0.19901659115858084 -0.43263508561497233 0 -0.43263508561497233 1.2601518596099197 0 0 0 0 19.527334294786215 47.653299779605732 0 47.653299779605732 80.323724719130041 0 0 0 0 57.406539540547669 -26.020777945434929 0 -26.020777945434929 1.3830437073411304 0 0 0 0 0.29906226472405706 -9.4283128800088889 0 -9.4283128800088889 9.6625805934090749 0 0 0 0 -2.6951131029061344 3.4277274496453174 0 3.4277274496453174 11.371026333654299 0 0 0 0 -11.00943975032817 -20.660228415788879 0 -20.660228415788879 1.0174280961728073 0 0 0 0 -1.0143493496511062 -0.44775964064148965 0 -0.44775964064148965 4.1782191548307708 0 0 0 0 -11.009936861131109 -5.650407715491383 0 -5.650407715491383 9.6590180106286425 0 0 0 0 -2.5615253677327137 -4.3320321633976278 0 -4.3320321633976278 14.038258099757741 0 0 0 0 -4.2997492789107241 1.0571868761398946 0 1.0571868761398946 13.957388156479283 0 0 0 0 2.559021875381394 -0.63021525933996969 0 -0.63021525933996969 11.741779275878322 0 0 0 0 42.077696717603544 -102.25690147464047 0 -102.25690147464047 -98.019977676103736 0 0 0 0 -6.4015958471023477 -2.260580092244922 0 -2.260580092244922 12.014932420800555 0 0 0 0 -4.8399159020626676 2.4476594480279346 0 2.4476594480279346 8.4482755199953203 0 0 0 0 -32.280310287178509 18.344585498925881 0 18.344585498925881 11.104584307176992 0 0 0 0 -3.1858885991260877 -5.0710730627179146 0 -5.0710730627179146 18.6209301083436 0 0 0 0 -9.9898130053585419 42.046514968395059 0 42.046514968395059 20.588328925572569 0 0 0 0 33.918995700990081 -7.7891376363259042 0 -7.7891376363259042 16.995582055962586 0 0 0 0 51.950222836327384 52.801651709756698 0 52.801651709756698 14.714373840630287 0 0 0 0 -111.43579183027373 74.260529828839935 0 74.260529828839935 22.442052951271762 0 0 0 0 141.45864392258153 -2.709271370244096 0 -2.709271370244096 -40.017552193196025 0 0 0 0 78.104478127299103 144.45501151627104 0 144.45501151627104 -33.465229881374398 0 0 0 0 -24.877747957895281 0.86405366933286132 0 0.86405366933286132 22.364336124024703 0 0 0 0 -124.29238344411692 -31.295223801964312 0 -31.295223801964312 26.957277263252763 0 0 0 0 -2.4157000331981004 -0.64348563840124484 0 -0.64348563840124484 5.973333056771331 0 0 0 0 -234.07894396331676 14.723833923217171 0 14.723833923217171 85.949704557293444 0 0 0 0 1.9444666544610374 -6.7789552382100986 0 -6.7789552382100986 17.525390866347834 0 0 0 0 -176.78844297142564 34.759007533466502 0 34.759007533466502 -39.015278315149772 0 0 0 0 -157.74903979130681 -7.1146500182730961 0 -7.1146500182730961 33.339269527685246 0 0 0 0 10.167304049682571 104.05869492281818 0 104.05869492281818 79.147296571187326 0 0 0 0 -188.69068942470312 64.499355370389821 0 64.499355370389821 102.92798726709952 0 0 0 0 230.84464341615887 61.902468317304738 0 61.902468317304738 -32.444479208512348 0 0 0 0 -184.82741464089284 -135.09198304583697 0 -135.09198304583697 -27.818988031969639 0 0 0 0 -5.1442353730685682 -219.48735842231326 0 -219.48735842231326 -17.700709416846621 0 0 0 0 485.32893893918617 108.53282994680558 0 108.53282994680558 -98.347563370131866 0 0 0 0 90.710441902388254 140.4454577585584 0 140.4454577585584 814.69891565251601 0 0 0 0 810.44486618557835 -777.03260253343615 0 -777.03260253343615 555.22440177202952 0 0 0 0 -343.41139758628367 240.84760738765544 0 240.84760738765544 1094.6215895109781 0 0 0 0 1.2731358681649034 -3.3328582309653374 0 -3.3328582309653374 7.9153618092864093 0 0 0 0 744.15623835327574 -443.38193616298304 0 -443.38193616298304 46.884482625035162 0 0 0 0 436.73185526064356 -1031.2562889724759 0 -1031.2562889724759 1356.9697721434932 0 0 0 0 349.06235722397832 206.6864792740796 0 206.6864792740796 1471.9123002129927 0 0 0 0 290.906534360053 -750.9810270457042 0 -750.9810270457042 2020.8137396256789 0 0 0 0 552.41331892655012 -778.64258445677842 0 -778.64258445677842 1933.1663513857857 0 0 0 0 392.68167187944141 279.47714513626966 0 279.47714513626966 849.13640321040293 0 0 0 0 -473.8350909076326 371.96736038405197 0 371.96736038405197 484.6105329367274 0 0 0 0 905.47425892835759 -1141.7492079247259 0 -1141.7492079247259 919.05250812505255 0 0 0 0 -0.62159572215464776 -0.43330774104241598 0 -0.43330774104241598 13.897119765415781 0 0 0 0 131.92954918730078 -80.443224245955207 0 -80.443224245955207 -208.19916036219729 0 0 0 0 108.2721542110296 10.752967178010294 0 10.752967178010294 111.8547840780243 0 0 0 0 -256.10472545187565 -122.28546457564153 0 -122.28546457564153 1595.0479942204765 0 0 0 0 261.44089586277369 61.125610182392847 0 61.125610182392847 98.761381772637833 0 0 0 0 27.156311402604388 -10.338138580312261 0 -10.338138580312261 1338.935248590009 0 0 0 0 42.361202011877594 -234.27133672274613 0 -234.27133672274613 217.27712684518337 0 0 0 0 32.645073270321973 115.02051712680259 0 115.02051712680259 300.50717199874634 0 0 0 0 227.46661303048842 91.701312951265209 0 91.701312951265209 -1.2557780339120654 0 0 0 0 -14.039002148775978 4.822915256527267 0 4.822915256527267 62.052917414061085 0 0 0 0 -10.733409985095705 40.730050561800454 0 40.730050561800454 90.310251490634982 0 0 0 0 -54.571185738698887 3.8539581624754646 0 3.8539581624754646 78.681250756417285 0 0 0 0 -211.29457904516516 -147.35968063885957 0 -147.35968063885957 2339.8083603398081 0 0 0 0 0.7590387380802941 -2.9626333227908077 0 -2.9626333227908077 2.5522734884303127 0 0 0 0 59.8710823408789 -173.53764962937294 0 -173.53764962937294 -199.03355106650633 0 0 0 0 17.113511902799246 -572.4747303129916 0 -572.4747303129916 1922.0692360456487 0 0 0 0 81.416657472556949 -435.0306014699072 0 -435.0306014699072 1361.4766017126312 0 0 0 0 46.683782922798969 -611.81063186376196 0 -611.81063186376196 1398.6201290679383 0 0 0 0 168.85009421210384 -511.49739013964427 0 -511.49739013964427 985.70532734314838 0 0 0 0 269.13354301377456 -552.43485128867178 0 -552.43485128867178 659.89433235640172 0 0 0 0 210.95267081996849 -354.26772355818321 0 -354.26772355818321 827.58792231534426 0 0 0 0 54.979458729075191 -414.01528444086216 0 -414.01528444086216 1393.6805058537429 0 0 0 0 31.935345016797783 -51.578372939984547 0 -51.578372939984547 1104.1371902865048 0 0 0 0 93.791736652317297 -319.8414020648047 0 -319.8414020648047 966.56371272831893 0 0 0 0 109.72358733736996 -235.13733424513703 0 -235.13733424513703 835.07897688922822 0 0 0 0 77.409320545968967 -216.88588060560141 0 -216.88588060560141 803.67334639217415 0 0 0 0 48.939865710135336 -268.73531211637237 0 -268.73531211637237 752.88555356701545 0 0 0 0 82.576506166243689 -274.59539874790789 0 -274.59539874790789 751.69857081079681 0 0 0 0 39.203040369423206 -121.30995441340929 0 -121.30995441340929 647.95321407107986 0 0 0 0 26.626691632723123 -139.66506472622132 0 -139.66506472622132 892.75735703418104 0 0 0 0 46.646706955256036 -99.313006452792251 0 -99.313006452792251 842.1616396801619 0 0 0 0 14.98670042390745 -1.7018201837890956 0 -1.7018201837890956 1035.4885259912153 0 0 0 0 10.043436277657293 33.641385660201195 0 33.641385660201195 983.60923624763382 0 0 0 0 -2.8533417339790503 36.693095728060143 0 36.693095728060143 983.78855432447381 0 0 0 0 146.31702030859492 -21.340669028337288 0 -21.340669028337288 980.49759732790699 0 0 0 0 123.97898410736502 145.86150830409315 0 145.86150830409315 1362.0653295922136 0 0 0 0 -81.604211670897939 -63.463589618295373 0 -63.463589618295373 12.341376738455438 0 0 0 0 -12.636902422913408 1.85537388765988 0 1.85537388765988 50.919480925353128 0 0 0 0 -30.786019605402316 -4.4880538061515836 0 -4.4880538061515836 63.141066599218902 0 0 0 0 -40.493671345853073 -48.909577918218702 0 -48.909577918218702 25.390150285933487 0 0 0 0 2.6441223911647578 -8.9217336059718804 0 -8.9217336059718804 7.3889755369845531 0 0 0 0 -24.279123999265721 -72.791593873469537 0 -72.791593873469537 -35.07089574816564 0 0 0 0 -29.133180975714367 -33.271144765814824 0 -33.271144765814824 -4.9108418662153781 0 0 0 0 -171.7823447499855 307.08660954578045 0 307.08660954578045 856.41515877773054 0 0 0 0 1.5440471879727338 -2.2413989188646894 0 -2.2413989188646894 -1.6072298930992304 0 0 0 0 95.265713661170139 3.8085007570625748 0 3.8085007570625748 314.27728388317701 0 0 0 0 -35.372025266646645 -18.465267696077717 0 -18.465267696077717 70.017453599364671 0 0 0 0 3.4460679379424906 -9.8930004324109682 0 -9.8930004324109682 21.980414207592005 0 0 0 0 0.0023476955706280504 -0.60583662171667041 0 -0.60583662171667041 -0.41926755296299234 0 0 0 0 0.028022033358355909 0.056690220532331637 0 0.056690220532331637 0.67733084315054271 0 0 0 0 31.534450998344276 -3.0353417536734923 0 -3.0353417536734923 -13.432484987664793 0 0 0 0 69.221206969115755 -64.261712135965354 0 -64.261712135965354 57.666255751862991 0 0 0 0 0.20409016962173945 89.281523752695648 0 89.281523752695648 173.90578332286532 0 0 0 0 -1.9120173820926429 0.57422517629468928 0 0.57422517629468928 2.3814433184352524 0 0 0 0 66.554411823888529 -150.21226725546876 0 -150.21226725546876 525.39594382436189 0 0 0 0 -1.5190962999173945 -1.6798422454303363 0 -1.6798422454303363 19.389509874141368 0 0 0 0 -0.28794308069842767 -151.32048214773511 0 -151.32048214773511 688.63220710748283 0 0 0 0 163.64959791102575 18.631679892736429 0 18.631679892736429 782.21586706482776 0 0 0 0 -190.53569403054541 60.749079639128468 0 60.749079639128468 822.30035431105716 0 0 0 0 -96.759889881606796 -104.78508249885635 0 -104.78508249885635 920.9022128789511 0 0 0 0 -131.35221364315908 35.285863214448909 0 35.285863214448909 730.80722113015509 0 0 0 0 -127.25693255388455 12.473901288496563 0 12.473901288496563 807.797112647022 0 0 0 0 -53.356008274254236 -33.809064330751426 0 -33.809064330751426 828.25385798252046 0 0 0 0 14.703820434012357 5.2398937577654578 0 5.2398937577654578 769.12378889563843 0 0 0 0 -47.13366787644469 -21.991012397622399 0 -21.991012397622399 769.15098468467477 0 0 0 0 -37.715617182538381 8.4408969681971939 0 8.4408969681971939 801.1073342380987 0 0 0 0 -99.026654063125989 10.49683711243415 0 10.49683711243415 768.48515837771993 0 0 0 0 -99.198630624539192 4.5316145565739134 0 4.5316145565739134 763.5829343637597 0 0 0 0 -168.17211754975176 -0.87190429009569925 0 -0.87190429009569925 774.50755237780686 0 0 0 0 -151.45962829393443 123.77311690843635 0 123.77311690843635 603.82792108318245 0 0 0 0 5.7883372607063848 -40.552374497550773 0 -40.552374497550773 568.40510633090162 0 0 0 0 18.209776385527221 -28.515420293218995 0 -28.515420293218995 480.56211040310154 0 0 0 0 2.3351946729221709 -64.146791537299578 0 -64.146791537299578 610.21818169877224 0 0 0 0 9.0866115913988779 -102.33512971805612 0 -102.33512971805612 766.96310022072066 0 0 0 0 69.374199390965032 -244.56983269298144 0 -244.56983269298144 699.31857481627958 0 0 0 0 72.968375288795613 -228.25200198851053 0 -228.25200198851053 449.17534891718242 0 0 0 0 118.89521167009843 -168.06161827278265 0 -168.06161827278265 526.92879502126016 0 0 0 0 94.287912826570761 -82.992877927763402 0 -82.992877927763402 243.37838743205066 0 0 0 0 13.42012717239777 1.6649552855233196 0 1.6649552855233196 443.2605807978689 0 0 0 0 117.62468706008002 -105.23444586087862 0 -105.23444586087862 51.357770486938534 0 0 0 0 -0.079305020463804485 0.087132526077526862 0 0.087132526077526862 2.0590608368234768 0 0 0 0 -283.16288926582467 228.53324463831996 0 228.53324463831996 452.32961397393956 0 0 0 0 0.19927761590729387 -110.75953305051371 0 -110.75953305051371 837.07740190479126 0 0 0 0 -71.652157976725334 197.20892044092034 0 197.20892044092034 3.3646977118078212 0 0 0 0 17.100347510835718 20.097190547108767 0 20.097190547108767 355.51483486325014 0 0 0 0 -277.5334700791866 199.41531672280689 0 199.41531672280689 601.37394609418698 0 0 0 0 36.540328138328277 97.723199934415334 0 97.723199934415334 192.80169985502289 0 0 0 0 40.780008747272404 83.945727464630181 0 83.945727464630181 231.14553510388942 0 0 0 0 -1.8436216742435363 0.46147820207131218 0 0.46147820207131218 0.7082851156908454 0 0 0 0 -50.089243557966256 21.994941734330496 0 21.994941734330496 195.13930688581968 0 0 0 0 -201.5166786405498 103.63725645679369 0 103.63725645679369 279.41399952114625 0 0 0 0 -1.0354850139092875 0.61027078715422789 0 0.61027078715422789 0.28091936324444333 0 0 0 0 -94.98579006125965 295.70841292757177 0 295.70841292757177 216.26950822236358 0 0 0 0 -29.832163536244479 37.923262889889884 0 37.923262889889884 311.50132861061138 0 0 0 0 39.188990624797725 178.71697875889322 0 178.71697875889322 244.49933712431812 0 0 0 0 6.2382794349296091 73.154694861997996 0 73.154694861997996 146.32239352510805 0 0 0 0 65.783886094954141 124.6521838453009 0 124.6521838453009 259.23914773254 0 0 0 0 -36.665263445513119 -6.0957892880069267 0 -6.0957892880069267 206.69394317863589 0 0 0 0 -62.779892495400418 -29.697848922234698 0 -29.697848922234698 139.01276795460467 0 0 0 0 31.527812296215416 63.371560569965368 0 63.371560569965368 145.48390418384042 0 0 0 0 -22.137985264456802 -2.8740112293799029 0 -2.8740112293799029 242.61909716668742 0 0 0 0 15.511261637192547 0.74497595751199697 0 0.74497595751199697 294.54658250265857 0 0 0 0 -20.494738676971792 131.67814858406928 0 131.67814858406928 442.43765660357894 0 0 0 0 -1.1508354405446042 -0.74059386214937462 0 -0.74059386214937462 1.4595262962137205 0 0 0 0 87.399205412517404 30.264162116389343 0 30.264162116389343 198.01129770930856 0 0 0 0 83.672356979788674 114.03175984462632 0 114.03175984462632 232.42432669127447 0 0 0 0 -48.555629405200307 157.22488990352213 0 157.22488990352213 464.21490430778613 0 0 0 0 -12.845521686029997 -20.735191238950392 0 -20.735191238950392 532.3387665204209 0 0 0 0 80.103513317117859 101.12000751861615 0 101.12000751861615 236.95773582889524 0 0 0 0 0.93178075410177286 -0.27340872938761152 0 -0.27340872938761152 0.60283714331082194 0 0 0 0 -22.101388128216058 203.43714310974246 0 203.43714310974246 700.75797919088291 0 0 0 0 16.725747253751251 -73.826328371316777 0 -73.826328371316777 -48.981977769119112 0 0 0 0 -137.16062538982806 227.40989746898413 0 227.40989746898413 446.87816437007496 0 0 0 0 -51.967566068467931 31.808509341892204 0 31.808509341892204 552.1779792886955 0 0 0 0 11.151095531386318 57.617190967831448 0 57.617190967831448 560.79213949793484 0 0 0 0 -18.879313936853578 142.80450832459974 0 142.80450832459974 287.31636228816205 0 0 0 0 -29.624839874916688 8.0986658226665895 0 8.0986658226665895 34.264565093020792 0 0 0 0 -10.254618953704489 -3.5223973455609112 0 -3.5223973455609112 8.2052972460590681 0 0 0 0 1.4435514260094315 -3.4494694141549687 0 -3.4494694141549687 5.8400353053242853 0 0 0 0 6.2209285919943795 -13.340708557629114 0 -13.340708557629114 17.449696407084048 0 0 0 0 -16.915960332448776 -26.885811547348567 0 -26.885811547348567 63.110463290737243 0 0 0 0 37.842131138130753 -160.55294157562457 0 -160.55294157562457 149.58129880150955 0 0 0 0 -16.065299240880449 -5.814159651301452 0 -5.814159651301452 128.05532037023659 0 0 0 0 -6.514413437195536 -2.3070199485921918 0 -2.3070199485921918 -0.66358724257750623 0 0 0 0 20.458647969627236 -46.772494091337649 0 -46.772494091337649 198.1020567360938 0 0 0 0 54.733209404976151 -245.64567655324208 0 -245.64567655324208 45.808186452421069 0 0 0 0 42.988571948676508 -53.801223380389274 0 -53.801223380389274 166.60232270076449 0 0 0 0 9.3761168528599228 -6.9065037095424486 0 -6.9065037095424486 374.89183461084394 0 0 0 0 16.713544095110933 -14.160016224722767 0 -14.160016224722767 157.71657489139761 0 0 0 0 -147.47208255774058 123.42056444990703 0 123.42056444990703 123.95030748745921 0 0 0 0 -1.8480605711243996 -0.91877146240769036 0 -0.91877146240769036 -0.039085149346863801 0 0 0 0 -22.518572008660158 47.388196801691265 0 47.388196801691265 92.611888200241083 0 0 0 0 -189.86967526549461 -78.906977687107428 0 -78.906977687107428 368.96399052251945 0 0 0 0 -244.61941874770037 -259.02528386264385 0 -259.02528386264385 -52.351535968174744 0 0 0 0 -417.2351786739182 -42.091482212967094 0 -42.091482212967094 -49.096747207811859 0 0 0 0 -154.2166011969548 114.18993574998967 0 114.18993574998967 -78.456966286685201 0 0 0 0 -15.929594941761479 74.236645904416946 0 74.236645904416946 -114.1616767165433 0 0 0 0 -30.649956228283372 46.468884339701617 0 46.468884339701617 -50.531705170635178 0 0 0 0 -239.99677459537634 54.189008273253421 0 54.189008273253421 80.278836402261732 0 0 0 0 -406.48467978609779 -76.782890961027078 0 -76.782890961027078 31.205902295343549 0 0 0 0 -1.8126628432845298 2.7412999185539348 0 2.7412999185539348 2.4002110610075604 0 0 0 0 -3.100456201885482 -0.36492120055723021 0 -0.36492120055723021 2.875470250261742 0 0 0 0 -141.73765301724234 4.4783631007157965 0 4.4783631007157965 171.59945343778236 0 0 0 0 -236.93303895242116 151.9260739458914 0 151.9260739458914 -38.68593830991324 0 0 0 0 -93.004146042787625 19.761345027631251 0 19.761345027631251 35.09255841380218 0 0 0 0 -43.921684373357266 -87.70458662850433 0 -87.70458662850433 42.63779352547499 0 0 0 0 -22.241124577486517 65.621615321870195 0 65.621615321870195 -7.1386597909349803 0 0 0 0 2.9763797709353046 10.173776525677155 0 10.173776525677155 17.137034182632775 0 0 0 0 -8.0241160613491047 14.082682619304251 0 14.082682619304251 -51.081606649846435 0 0 0 0 -31.98558157300431 17.491119395603164 0 17.491119395603164 60.811268138568266 0 0 0 0 -16.290338217660292 9.4756233341322513 0 9.4756233341322513 24.952636919369979 0 0 0 0 -14.59807398156771 -3.5056214767227871 0 -3.5056214767227871 9.9784026782866846 0 0 0 0 -32.922840362917668 -12.931419371878292 0 -12.931419371878292 22.103665250473568 0 0 0 0 10.410140994720525 9.6802555618487105 0 9.6802555618487105 8.8472882940792203 0 0 0 0 -14.611105425612891 -3.3326979940511592 0 -3.3326979940511592 25.232394988677697 0 0 0 0 -14.888650555118673 -3.5245688411346734 0 -3.5245688411346734 9.1588300002527987 0 0 0 0 29.691803416050337 76.066544557256179 0 76.066544557256179 -162.59843134457697 0 0 0 0 -9.1627473899593497 39.330160480059931 0 39.330160480059931 26.131073564207327 0 0 0 0 -16.583133877135424 7.3605243519232317 0 7.3605243519232317 43.424314794207021 0 0 0 0 -52.960021031876749 79.995787121779358 0 79.995787121779358 -51.15385297856119 0 0 0 0 -1.5409433730194451 198.95111435534636 0 198.95111435534636 208.03163424073864 0 0 0 0 7.6039260869486078 7.4699782023482513 0 7.4699782023482513 5.4866249799956535 0 0 0 0 271.80015807009102 83.182327976476699 0 83.182327976476699 -163.45039084934615 0 0 0 0 -107.95948493207482 81.883523830023478 0 81.883523830023478 435.86920814943733 0 0 0 0 41.290052330025503 -77.612376612010848 0 -77.612376612010848 151.8546880993963 0 0 0 0 -204.44980045977354 122.76928872542703 0 122.76928872542703 154.84165235213698 0 0 0 0 -313.71536178798624 40.044363660550516 0 40.044363660550516 157.57092285731778 0 0 0 0 -113.16850086096338 21.801596929393781 0 21.801596929393781 74.381591024666704 0 0 0 0 -6.2025244373959367 -51.400710999070725 0 -51.400710999070725 85.948389271376072 0 0 0 0 -68.280734605076759 208.90816216651001 0 208.90816216651001 -175.48997468908783 0 0 0 0 -144.25816680793014 78.412716941345934 0 78.412716941345934 -15.796656686237839 0 0 0 0 -201.18670417715612 354.71760625057686 0 354.71760625057686 493.07197300383268 0 0 0 0 -145.94774301637176 86.582799035299104 0 86.582799035299104 65.709553276923543 0 0 0 0 -56.545983820031324 267.99391648406345 0 267.99391648406345 43.062259678838245 0 0 0 0 1.9612656176284062 3.2284400313742054 0 3.2284400313742054 3.2332343445719047 0 0 0 0 -128.29890207066865 -126.1974093288045 0 -126.1974093288045 1037.0565828304425 0 0 0 0 -156.4864203316065 135.09288999480304 0 135.09288999480304 866.21966149427681 0 0 0 0 -86.816263546593291 171.41107889123305 0 171.41107889123305 559.43096055186834 0 0 0 0 -158.15443204969461 -170.85827780064392 0 -170.85827780064392 413.86687866473221 0 0 0 0 68.583973785386206 84.439746806761832 0 84.439746806761832 149.84028756377666 0 0 0 0 -115.97876234617024 -26.381934482185898 0 -26.381934482185898 931.33274930898369 0 0 0 0 42.746589760491588 311.89176104488615 0 311.89176104488615 606.90249158049119 0 0 0 0 219.34322989643061 161.37481419869437 0 161.37481419869437 264.03244805021677 0 0 0 0 -93.718999651936201 72.912582993305477 0 72.912582993305477 701.84374962328548 0 0 0 0 -82.210256661512972 -75.121612445556821 0 -75.121612445556821 571.59593338241393 0 0 0 0 -9.7667596969297108 -298.63167277051434 0 -298.63167277051434 2026.4058724929346 0 0 0 0 91.881342648588372 -136.37292569162855 0 -136.37292569162855 707.52219520646395 0 0 0 0 560.04053530471151 -641.87430026534457 0 -641.87430026534457 209.54878309628475 0 0 0 0 -0.96296436718512268 -183.24458928223612 0 -183.24458928223612 846.37378783699023 0 0 0 0 9.6691805344958084 -250.31003733916441 0 -250.31003733916441 353.46787300958931 0 0 0 0 548.233368732077 -648.30055617217477 0 -648.30055617217477 422.69334822683959 0 0 0 0 148.97912851780478 -743.63174094118131 0 -743.63174094118131 837.85737737781892 0 0 0 0 -196.19398585754629 110.34444502067527 0 110.34444502067527 644.20126857778541 0 0 0 0 -429.30462519180037 -249.24866983636457 0 -249.24866983636457 245.27549735648199 0 0 0 0 -108.49533513728829 34.098288985241197 0 34.098288985241197 -66.720183821140381 0 0 0 0 109.91999242894167 -1000.8270265370056 0 -1000.8270265370056 -762.52530729268983 0 0 0 0 3.5786349425317194 -4.6836215639713785 0 -4.6836215639713785 4.4203241580655686 0 0 0 0 57.514743304023341 230.00875428678592 0 230.00875428678592 2471.2032170225812 0 0 0 0 246.51317126471577 63.949587835300008 0 63.949587835300008 701.42675493357456 0 0 0 0 234.59676487402157 376.95998991849774 0 376.95998991849774 1186.7120087341582 0 0 0 0 270.14230930185022 296.89364353159817 0 296.89364353159817 391.61438814106623 0 0 0 0 158.57837483596734 148.89066779019868 0 148.89066779019868 583.4240454736464 0 0 0 0 6.7504828581151379 -19.713844224014501 0 -19.713844224014501 18.321734916804406 0 0 0 0 -132.46237068417031 -325.2359203263477 0 -325.2359203263477 -323.92465287706 0 0 0 0 717.86416289070985 -274.48295838812192 0 -274.48295838812192 1693.6034291053802 0 0 0 0 109.87392910601784 641.49161100284618 0 641.49161100284618 1066.5763124358073 0 0 0 0 6.0897625633910657 -13.862043477579107 0 -13.862043477579107 12.697256584270633 0 0 0 0 -204.76399940847909 -465.79602658795193 0 -465.79602658795193 -540.58351392216719 0 0 0 0 -236.90803570518619 -145.88836539533077 0 -145.88836539533077 57.595105599095405 0 0 0 0 -130.8876167809658 -123.96160712745041 0 -123.96160712745041 45.862158072352031 0 0 0 0 -218.85042819529826 -123.74699515664724 0 -123.74699515664724 273.94201503776276 0 0 0 0 -173.06539627994971 -99.882571627782454 0 -99.882571627782454 15.547986762838264 0 0 0 0 -283.22866196742257 -295.71681763251217 0 -295.71681763251217 -78.180744769044395 0 0 0 0 -89.421734407691474 -75.563376053265529 0 -75.563376053265529 -267.12485796337933 0 0 0 0 -143.26593205452627 -130.52105941489936 0 -130.52105941489936 -61.016398936524638 0 0 0 0 -107.22530499973527 -145.36717190932541 0 -145.36717190932541 -205.12416858156212 0 0 0 0 -202.82193685667971 -125.3463302740638 0 -125.3463302740638 44.672747210599482 0 0 0 0 -87.35145020556115 53.172665165058334 0 53.172665165058334 109.12294019582623 0 0 0 0 -203.8598715080625 75.530782381527388 0 75.530782381527388 232.97223744932217 0 0 0 0 -113.99143500428886 -55.372823132521717 0 -55.372823132521717 44.749310288993001 0 0 0 0 -273.53564575098244 77.896594549329166 0 77.896594549329166 688.09166482641012 0 0 0 0 -211.10729933318726 85.769423040115726 0 85.769423040115726 302.08244589384412 0 0 0 0 -20.760087526961797 -43.867351891025464 0 -43.867351891025464 -189.25298331534577 0 0 0 0 -14.635231387379463 -66.188913855708961 0 -66.188913855708961 -95.475741083160756 0 0 0 0 -111.00466535815212 -46.739609696393018 0 -46.739609696393018 -99.18415186594757 0 0 0 0 -123.6544852395873 -104.29467485682108 0 -104.29467485682108 -65.24691012014955 0 0 0 0 -83.226774459910303 -117.0873121280456 0 -117.0873121280456 -61.662390380712168 0 0 0 0 12.141357129461539 -39.343570441053089 0 -39.343570441053089 -37.604630398920563 0 0 0 0 -56.359534752375112 -27.267911553251906 0 -27.267911553251906 11.688543205207679 0 0 0 0 -3.7741879989616791 -32.913474262182717 0 -32.913474262182717 11.505395986074291 0 0 0 0 -30.009544772686013 39.279705327555348 0 39.279705327555348 131.17778487617761 0 0 0 0 -53.387191915448057 -62.773716576266452 0 -62.773716576266452 8.164571971501573 0 0 0 0 -75.236201898915169 30.906135559969698 0 30.906135559969698 157.25723884008858 0 0 0 0 -73.906879774141998 -30.971248792448023 0 -30.971248792448023 -13.975259427184938 0 0 0 0 -85.435536702678291 -115.88698883678444 0 -115.88698883678444 -88.41986406808428 0 0 0 0 -45.197689289674599 -106.24896050754251 0 -106.24896050754251 -98.522817881159426 0 0 0 0 -52.414349374947051 -44.565704891567293 0 -44.565704891567293 -9.7813134007556073 0 0 0 0 -56.044064257318496 -166.83976665119371 0 -166.83976665119371 -203.20671343889262 0 0 0 0 8.8425379538912239 74.217473945864185 0 74.217473945864185 -60.214701090789731 0 0 0 0 0.58375340846437851 -16.935966453128337 0 -16.935966453128337 15.514049903399915 0 0 0 0 -62.484250288897783 -100.84757442744922 0 -100.84757442744922 -104.8856107978645 0 0 0 0 -103.39619918065 -154.7693611080831 0 -154.7693611080831 -136.53496708739112 0 0 0 0 -100.77167128033398 -87.361686465133971 0 -87.361686465133971 -159.61362970265327 0 0 0 0 -1832.327961451856 1198.5400179154603 0 1198.5400179154603 2381.5435211638323 0 0 0 0 -160.64563505993283 -77.406060031731613 0 -77.406060031731613 -157.9317045741218 0 0 0 0 -147.82974839675808 -134.09785335844936 0 -134.09785335844936 -146.09293196960789 0 0 0 0 -192.42155767237273 234.89353498792843 0 234.89353498792843 -47.534195225142412 0 0 0 0 65.367035799805308 10.547580402744643 0 10.547580402744643 11.481852187114782 0 0 0 0 -22.529942665597446 -138.04842147803629 0 -138.04842147803629 -215.649866387168 0 0 0 0 142.05861137297325 -22.346021863940223 0 -22.346021863940223 -312.12825324587175 0 0 0 0 -50.531501619665505 -288.56035793331284 0 -288.56035793331284 -57.113427576867252 0 0 0 0 -871.62548663214329 -835.08980282479843 0 -835.08980282479843 2157.785742874039 0 0 0 0 388.41076255364857 1318.8770212796896 0 1318.8770212796896 2262.3704337888157 0 0 0 0 4.9661689857373439 -4.4954308967848675 0 -4.4954308967848675 9.8873257860944506 0 0 0 0 -132.90594918809256 -261.254068237311 0 -261.254068237311 96.957012127258622 0 0 0 0 396.13860176663366 455.75293518508806 0 455.75293518508806 2528.8519384223873 0 0 0 0 133.53359545868341 626.08194649945199 0 626.08194649945199 -33.590965087541917 0 0 0 0 3.8767719739962558 7.9659918474458991 0 7.9659918474458991 13.682672337415944 0 0 0 0 -590.33553789566395 -579.5761605495245 0 -579.5761605495245 1495.830617154561 0 0 0 0 -130.32532812015597 -317.42359780224251 0 -317.42359780224251 696.24988379163369 0 0 0 0 1.3351534028470269 -103.11869948658386 0 -103.11869948658386 -93.913169372757579 0 0 0 0 293.62263857551397 -235.36794077751028 0 -235.36794077751028 -506.38067522395977 0 0 0 0 9.2239607317960495 15.976005713206462 0 15.976005713206462 22.718807415266802 0 0 0 0 -328.67975462150866 272.26278201861447 0 272.26278201861447 2.6699165579047985 0 0 0 0 -353.01885198771254 -18.247525263892271 0 -18.247525263892271 239.20651726663709 0 0 0 0 20.32578972714964 -50.846679505171778 0 -50.846679505171778 77.606314787244628 0 0 0 0 181.70774657086395 154.69940967904404 0 154.69940967904404 266.98389384306938 0 0 0 0 10.705777136741631 -154.95889998563803 0 -154.95889998563803 265.23535277910923 0 0 0 0 -122.67048187227874 -120.8791322749812 0 -120.8791322749812 264.65330266935598 0 0 0 0 -15.690935947558501 -39.055448327434533 0 -39.055448327434533 0.55945701972086681 0 0 0 0 81.521524124523694 -171.76643255647832 0 -171.76643255647832 289.59557001074927 0 0 0 0 70.720198029012352 -225.88553623359917 0 -225.88553623359917 289.27019381396531 0 0 0 0 46.97578487261444 -86.883615347818704 0 -86.883615347818704 249.98995582846692 0 0 0 0 100.06544355061226 -123.97472461441976 0 -123.97472461441976 372.84112034704776 0 0 0 0 210.76932480148753 -94.255858798398549 0 -94.255858798398549 376.5770059842198 0 0 0 0 255.72416454777124 -33.235603334523148 0 -33.235603334523148 226.66485736409959 0 0 0 0 217.63745601916298 -142.46020040221993 0 -142.46020040221993 258.50704054451671 0 0 0 0 413.38784787034228 -62.582590779718885 0 -62.582590779718885 216.8380526753499 0 0 0 0 242.71873660844449 -45.540453330084347 0 -45.540453330084347 215.28406847340557 0 0 0 0 255.1996294146843 -111.9605767900739 0 -111.9605767900739 280.0127095996304 0 0 0 0 217.30478864892484 -101.38195379148237 0 -101.38195379148237 288.39918097107511 0 0 0 0 174.80091075773225 -196.68409838361003 0 -196.68409838361003 283.37984920721283 0 0 0 0 175.68968585759285 -132.66836644117575 0 -132.66836644117575 313.52368553467068 0 0 0 0 220.63462599042532 -158.85678759662369 0 -158.85678759662369 314.55739160048381 0 0 0 0 185.63386722943869 -180.37941758453599 0 -180.37941758453599 278.49622939955225 0 0 0 0 255.77798219838473 -238.88580932212153 0 -238.88580932212153 280.67156082795918 0 0 0 0 297.87455773823376 -194.30765058300858 0 -194.30765058300858 215.47362055493477 0 0 0 0 367.45262814819398 -292.38859199359104 0 -292.38859199359104 349.36133849753969 0 0 0 0 301.86159812852748 -156.60312295667609 0 -156.60312295667609 225.13224493077723 0 0 0 0 297.72277622697152 -171.64646024740432 0 -171.64646024740432 298.96462367661843 0 0 0 0 310.63695997453272 -122.77476018964535 0 -122.77476018964535 380.78750519664027 0 0 0 0 195.91058778212437 -179.31989333584534 0 -179.31989333584534 209.23712070708825 0 0 0 0 202.86327438298258 -149.41437165561911 0 -149.41437165561911 328.3982815089048 0 0 0 0 201.28706484778144 -113.67736855694841 0 -113.67736855694841 507.67711312502433 0 0 0 0 207.60547655805749 -140.0935049104919 0 -140.0935049104919 148.68071444268935 0 0 0 0 305.42607808493949 -254.06420627790976 0 -254.06420627790976 897.05105141730292 0 0 0 0 431.06909108955506 -895.82881125387757 0 -895.82881125387757 779.16269744858255 0 0 0 0 321.13115782918885 41.100711653722101 0 41.100711653722101 91.393812748079654 0 0 0 0 -55.823460807689571 118.99209414169127 0 118.99209414169127 207.38942377849435 0 0 0 0 0.16872417575479615 2.8509704090996113 0 2.8509704090996113 10.644508468190708 0 0 0 0 41.795233731265398 -225.5162057749676 0 -225.5162057749676 227.38762257555572 0 0 0 0 530.25637152435854 -357.16576969853986 0 -357.16576969853986 187.01538192528824 0 0 0 0 99.002138698185888 -49.699028459137935 0 -49.699028459137935 -38.299121056337754 0 0 0 0 -0.57681193374811213 0.76658140543020181 0 0.76658140543020181 6.6504163460033396 0 0 0 0 167.43324515157542 -278.52654430951225 0 -278.52654430951225 1152.1251458756242 0 0 0 0 24.91176214719485 13.158757021301426 0 13.158757021301426 5.4787323198179365 0 0 0 0 -68.440931524951708 73.299955640592088 0 73.299955640592088 4.1090938368934076 0 0 0 0 -0.76790128816860492 3.3922123437293656 0 3.3922123437293656 35.674412779799084 0 0 0 0 26.183035278597529 0.86127689358829684 0 0.86127689358829684 7.8295970314939041 0 0 0 0 9.810557119156897 24.457828078026068 0 24.457828078026068 0.020959662641871546 0 0 0 0 -38.595199870743784 22.109658094756014 0 22.109658094756014 24.296740505737034 0 0 0 0 -9.1266621282391291 2.6781445734805871 0 2.6781445734805871 10.31253930215243 0 0 0 0 -115.83167351509528 -15.551125508548466 0 -15.551125508548466 67.219011497058091 0 0 0 0 -68.217760347307106 -77.237310176355095 0 -77.237310176355095 71.999584200384561 0 0 0 0 -4.381104365005414 1.1507131848433954 0 1.1507131848433954 39.042293764070649 0 0 0 0 1.0335484045265346 -0.031310289211226916 0 -0.031310289211226916 0.81088083043630377 0 0 0 0 448.63354841971591 -261.72166685651882 0 -261.72166685651882 97.408200936166395 0 0 0 0 403.30449209929401 -125.52798278480122 0 -125.52798278480122 -23.944490247387876 0 0 0 0 478.32009599373578 -84.135833196985914 0 -84.135833196985914 11.679187376218579 0 0 0 0 3.9937109067103052 5.2607852949668086 0 5.2607852949668086 19.163647873559967 0 0 0 0 37.290750058165941 -62.706966602592729 0 -62.706966602592729 -79.925618900895643 0 0 0 0 -31.259325660084869 13.922175506990243 0 13.922175506990243 42.040176956652431 0 0 0 0 -0.71442090279198922 -1.8496825208738006 0 -1.8496825208738006 0.0037848986095170289 0 0 0 0 -4.1731207127287462 70.43272141029729 0 70.43272141029729 -42.605946919342387 0 0 0 0 -3.3443512027969486 -2.0157163809595957 0 -2.0157163809595957 7.524866849486159 0 0 0 0 -33.034299091284083 271.89783532124784 0 271.89783532124784 -90.814545363675279 0 0 0 0 -118.06237039198049 203.80586457297431 0 203.80586457297431 81.085816560333569 0 0 0 0 1.5863008314604139 -1.1185859583709856 0 -1.1185859583709856 1.2640351825763716 0 0 0 0 127.99174433845678 -210.67199265013096 0 -210.67199265013096 424.29825656503817 0 0 0 0 228.12762715526236 54.922030354455046 0 54.922030354455046 115.4899610120774 0 0 0 0 142.03089850555716 160.77125219005029 0 160.77125219005029 92.072415458203068 0 0 0 0 199.20159403589673 78.647628498637459 0 78.647628498637459 196.66576801656265 0 0 0 0 233.04694433283839 67.488333265018809 0 67.488333265018809 -42.575293498477066 0 0 0 0 91.585209290038165 174.93279324087598 0 174.93279324087598 131.10208333032506 0 0 0 0 60.315309516642401 -101.48745892232273 0 -101.48745892232273 187.44488047831692 0 0 0 0 3.9203305374879167 -4.3525351144784352 0 -4.3525351144784352 5.4775291100069978 0 0 0 0 45.2136063829563 144.43748820039036 0 144.43748820039036 190.1744833405246 0 0 0 0 178.60929898439872 104.13620303433981 0 104.13620303433981 -448.56635132856536 0 0 0 0 63.137351772148804 163.79968735104376 0 163.79968735104376 178.52352386316579 0 0 0 0 125.6407859117835 138.33032700120748 0 138.33032700120748 178.59722868161043 0 0 0 0 68.681107446167516 147.89678077523422 0 147.89678077523422 201.29178029579816 0 0 0 0 56.592065449915708 174.67630445714576 0 174.67630445714576 173.74239943107386 0 0 0 0 139.04947102436302 156.68486010305423 0 156.68486010305423 171.46914796549754 0 0 0 0 -0.17199225698732334 -39.229471594309871 0 -39.229471594309871 9.4031183804727334 0 0 0 0 -24.349810956208728 -16.283052327317819 0 -16.283052327317819 37.211327775490645 0 0 0 0 -15.014959618427786 -10.407972061894895 0 -10.407972061894895 35.540095602550387 0 0 0 0 -98.809729999006777 50.533342493257805 0 50.533342493257805 126.18725690071915 0 0 0 0 7.3536856380133031 -48.496797119828443 0 -48.496797119828443 -65.501191467737954 0 0 0 0 -3.2152596677338536 -4.8513579248609222 0 -4.8513579248609222 -1.7534182508022127 0 0 0 0 -30.929317717417234 -67.961106617243786 0 -67.961106617243786 -34.482939953959431 0 0 0 0 334.73301106376584 -154.40246867389396 0 -154.40246867389396 -457.4639227939042 0 0 0 0 312.6333443020153 2204.0533691358069 0 2204.0533691358069 93.167786223071744 0 0 0 0 -405.91135383377696 -486.12728512463946 0 -486.12728512463946 423.09364161171834 0 0 0 0 -247.81851796438423 -12.249407049283036 0 -12.249407049283036 552.22067980524662 0 0 0 0 29.089501315702364 -126.22014325236523 0 -126.22014325236523 -135.46399796394235 0 0 0 0 -24.166684112343319 -243.33255848530462 0 -243.33255848530462 -112.09982841048623 0 0 0 0 -49.470947630914452 -82.843022220335115 0 -82.843022220335115 -24.91589839646258 0 0 0 0 10.38196569596272 -119.513738568755 0 -119.513738568755 -17.530147264071275 0 0 0 0 9.4935307701543934 -98.001853149657109 0 -98.001853149657109 -18.74907646952488 0 0 0 0 17.493349703585409 19.449284424961661 0 19.449284424961661 151.68150005235839 0 0 0 0 -29.435160909901242 -187.11084936390762 0 -187.11084936390762 101.60773526469711 0 0 0 0 11.638566707249993 56.820238330201391 0 56.820238330201391 74.137379495274217 0 0 0 0 18.266277262582093 -16.064764385900901 0 -16.064764385900901 -46.578784295037622 0 0 0 0 63.260930631637166 9.0263820887666952 0 9.0263820887666952 -537.88199919199542 0 0 0 0 -288.48466627532252 -162.19956944732985 0 -162.19956944732985 -4.0966062387087732 0 0 0 0 -43.523135847256526 -62.20870611425471 0 -62.20870611425471 23.319057149084983 0 0 0 0 484.566317310876 81.752755201694526 0 81.752755201694526 942.18498221076879 0 0 0 0 -0.80334763837198508 -3.0857273888189027 0 -3.0857273888189027 8.1327933087094593 0 0 0 0 63.929132150051373 317.44449970398273 0 317.44449970398273 261.41360033224919 0 0 0 0 -474.42789185507172 -215.74023714678879 0 -215.74023714678879 1443.5137182778417 0 0 0 0 276.93025384354405 246.2423948433534 0 246.2423948433534 -136.09174265187175 0 0 0 0 269.3007329373122 -111.14888074712508 0 -111.14888074712508 112.23800816370931 0 0 0 0 -201.58530784633911 198.59193929936578 0 198.59193929936578 -77.442631868136232 0 0 0 0 609.59345803893484 467.42755458901229 0 467.42755458901229 664.18615832714204 0 0 0 0 962.02160701402954 360.3496630354748 0 360.3496630354748 225.51352956311166 0 0 0 0 984.83522410192109 566.67864596571235 0 566.67864596571235 544.52761679726245 0 0 0 0 -0.80161911285433129 -0.94312734195751524 0 -0.94312734195751524 18.016151887248355 0 0 0 0 -335.70392021324801 -353.58918968650778 0 -353.58918968650778 460.15667075468809 0 0 0 0 -113.86117219048651 -20.999228497292734 0 -20.999228497292734 3378.3245360418514 0 0 0 0 -279.41714650867607 4.2929473827171023 0 4.2929473827171023 1438.078810327881 0 0 0 0 -4.7095238604915721 -216.32979530071134 0 -216.32979530071134 -44.822118927208066 0 0 0 0 -125.74762376723038 204.97909683208854 0 204.97909683208854 18.202415464006208 0 0 0 0 1215.5977993553906 541.453899453747 0 541.453899453747 -566.89156532550987 0 0 0 0 -191.97854220626959 442.36810495410464 0 442.36810495410464 71.422965360230592 0 0 0 0 810.01651736576605 158.87980556554248 0 158.87980556554248 -26.523316144586715 0 0 0 0 363.06965530211164 226.58348193215352 0 226.58348193215352 495.17511371080764 0 0 0 0 484.11357341204894 183.87978344237126 0 183.87978344237126 -15.821913085432243 0 0 0 0 230.02223688472259 -51.803503280658333 0 -51.803503280658333 -70.696659506269498 0 0 0 0 468.61156667659759 320.45553763050339 0 320.45553763050339 -66.969819151228876 0 0 0 0 181.50244164273556 177.10833277581514 0 177.10833277581514 167.58758088805916 0 0 0 0 248.70281599512327 53.860499445456298 0 53.860499445456298 250.3718565826166 0 0 0 0 -199.29054897252354 70.719579303239698 0 70.719579303239698 426.50683863144877 0 0 0 0 19.347596386610348 -103.71794701458566 0 -103.71794701458566 481.55298248038616 0 0 0 0 217.72210001558722 256.27954594463154 0 256.27954594463154 281.31699642909007 0 0 0 0 44.209847682372242 -79.227398717905999 0 -79.227398717905999 342.35689011802242 0 0 0 0 131.60184154247679 -85.004740597184536 0 -85.004740597184536 58.023399912172863 0 0 0 0 70.474453232851602 148.84452005699222 0 148.84452005699222 217.93064641228102 0 0 0 0 94.252946355946051 175.00366692344141 0 175.00366692344141 225.10974736081516 0 0 0 0 133.36029165824448 126.25200643308381 0 126.25200643308381 114.71948595639674 0 0 0 0 1.3859573287519762 -2.0480926124960135 0 -2.0480926124960135 3.5884480253225988 0 0 0 0 -51.742064777318546 4.561716358206013 0 4.561716358206013 129.58605170144801 0 0 0 0 69.330751021770539 53.881952855811505 0 53.881952855811505 53.691478098831794 0 0 0 0 137.69466431848514 119.95446155316858 0 119.95446155316858 9.3513380573431277 0 0 0 0 169.12128951516684 8.3720947684475959 0 8.3720947684475959 103.93356825109549 0 0 0 0 130.71849724602544 8.58258473620117 0 8.58258473620117 132.40251659744263 0 0 0 0 208.5265446991034 -78.425899054103866 0 -78.425899054103866 118.63450310859935 0 0 0 0 0.79101604908177592 -0.87655365271333352 0 -0.87655365271333352 1.8720839664558895 0 0 0 0 151.45969372061518 -96.459997271727843 0 -96.459997271727843 576.16427998853214 0 0 0 0 51.001701239335034 164.77783705433376 0 164.77783705433376 525.57084304540331 0 0 0 0 215.34813469121536 -12.03976301088278 0 -12.03976301088278 666.12216411223926 0 0 0 0 80.928156616505021 -111.11124160002691 0 -111.11124160002691 408.34735004876859 0 0 0 0 96.91077187304154 133.26901860814178 0 133.26901860814178 586.84300746639747 0 0 0 0 291.243430522111 -131.04863551526114 0 -131.04863551526114 180.76099609886296 0 0 0 0 2.0498998740935868 0.58454540749088579 0 0.58454540749088579 0.66761072814440769 0 0 0 0 290.88505385819917 14.038558672486033 0 14.038558672486033 675.09380143163253 0 0 0 0 291.40047257594114 73.07672970149153 0 73.07672970149153 500.81648852887156 0 0 0 0 173.23547031098508 -99.265044273121021 0 -99.265044273121021 412.9571712481702 0 0 0 0 99.043292345088048 67.459915787312639 0 67.459915787312639 505.22626057602974 0 0 0 0 201.61622349546133 -91.729679123640381 0 -91.729679123640381 403.98618022941082 0 0 0 0 215.77259188218977 -125.61020267636559 0 -125.61020267636559 468.53473189387205 0 0 0 0 372.07379699099374 -26.147823095139756 0 -26.147823095139756 449.19838653443003 0 0 0 0 267.86213735110414 -31.447703753558017 0 -31.447703753558017 460.54633011903752 0 0 0 0 326.63008498692579 -110.10446239311204 0 -110.10446239311204 464.40510011652805 0 0 0 0 152.65819650913772 -120.94045806596114 0 -120.94045806596114 409.04151032483787 0 0 0 0 158.06538457578841 -146.43579564814604 0 -146.43579564814604 353.21962380000332 0 0 0 0 128.43998269558415 -86.687931081956776 0 -86.687931081956776 398.05782144814293 0 0 0 0 90.396152901196729 -18.140652032334401 0 -18.140652032334401 481.75927097111344 0 0 0 0 154.2204405112916 -123.89189496562358 0 -123.89189496562358 445.18430167323822 0 0 0 0 149.60396202136872 -62.135828856531589 0 -62.135828856531589 375.42630877397914 0 0 0 0 91.849926336523367 31.774537060191506 0 31.774537060191506 345.74418717563913 0 0 0 0 145.22522302052198 -34.365968216082365 0 -34.365968216082365 300.72066024782544 0 0 0 0 179.19621226076515 54.440506776942129 0 54.440506776942129 167.45309514619839 0 0 0 0 203.92666187883538 2.2039341426861938 0 2.2039341426861938 276.44915876897721 0 0 0 0 97.464140165226581 104.90583042574508 0 104.90583042574508 246.5443480319077 0 0 0 0 148.5033478710377 130.46353075723709 0 130.46353075723709 239.18352866404894 0 0 0 0 107.30344225378758 204.16200488868162 0 204.16200488868162 241.75849538624243 0 0 0 0 112.28156226376234 52.241142566676899 0 52.241142566676899 366.10546380048254 0 0 0 0 -0.078613747358149758 18.064431825852807 0 18.064431825852807 37.246713945220108 0 0 0 0 12.528632571602843 4.9561817576632166 0 4.9561817576632166 49.249225314211799 0 0 0 0 11.120343784885574 -1.4158544136334967 0 -1.4158544136334967 30.600361888047701 0 0 0 0 -4.6643164297472302 -2.250097442021513 0 -2.250097442021513 47.805272609199164 0 0 0 0 -4.4315358054272593 7.2955315085928305 0 7.2955315085928305 21.132419807909173 0 0 0 0 -19.414102675680027 7.7451289794771583 0 7.7451289794771583 25.884880229321425 0 0 0 0 -25.787912184773234 29.719021374883596 0 29.719021374883596 2.1266448969836347 0 0 0 0 -18.703230512123181 35.915027150349943 0 35.915027150349943 7.4618773182592122 0 0 0 0 -18.791643415447417 19.622455244436424 0 19.622455244436424 39.933406693811776 0 0 0 0 -31.4050198014952 12.568176368424247 0 12.568176368424247 12.44602299908729 0 0 0 0 -5.7654888477579425 9.1080442202425331 0 9.1080442202425331 16.418984413196128 0 0 0 0 -0.38437480954418352 1.4791506537064123 0 1.4791506537064123 1.2604746474573574 0 0 0 0 20.694812270468756 21.603591680679529 0 21.603591680679529 -10.418262337967462 0 0 0 0 -7.3765414726471858 7.4520075913096662 0 7.4520075913096662 25.986578917531006 0 0 0 0 -0.30787679927734007 1.7561012791501973 0 1.7561012791501973 -0.29452644315421139 0 0 0 0 -5.134328818552726 6.4330181877410553 0 6.4330181877410553 20.30161030901661 0 0 0 0 -0.0025871356863295886 -0.40019581948581617 0 -0.40019581948581617 9.2940892265323782 0 0 0 0 0.29672809458529786 -1.2715870916178655 0 -1.2715870916178655 2.621036727035289 0 0 0 0 -0.91134574236614685 -0.37466928151479806 0 -0.37466928151479806 14.615599945907888 0 0 0 0 0.54016277031963722 -2.47164366032532 0 -2.47164366032532 4.4785828963216261 0 0 0 0 -0.0027123618217723697 -0.63706005775611663 0 -0.63706005775611663 -0.4684535134001635 0 0 0 0 2.0080933907735425 -7.0951596633941989 0 -7.0951596633941989 24.259133214725267 0 0 0 0 -6.1040807099570671 -28.586765586807815 0 -28.586765586807815 12.617690516985022 0 0 0 0 -41.637034665812052 -4.3497310720631504 0 -4.3497310720631504 51.910243798971351 0 0 0 0 -53.78107449212564 -19.850423390847027 0 -19.850423390847027 54.021478275848494 0 0 0 0 -38.452628126675336 23.296024805755223 0 23.296024805755223 32.700164546229644 0 0 0 0 -22.194586198916568 52.608936355387414 0 52.608936355387414 119.35967956903187 0 0 0 0 6.9605338579881391 -40.882771212407533 0 -40.882771212407533 78.970954150479884 0 0 0 0 9.3908571057795598 -20.130818215100589 0 -20.130818215100589 18.783559230208994 0 0 0 0 -24.96215552070646 1.2692825352924046 0 1.2692825352924046 64.422811527289014 0 0 0 0 -10.676003267403757 3.255447733332403 0 3.255447733332403 120.15472817963564 0 0 0 0 41.113769876593381 28.306483623288386 0 28.306483623288386 68.352580913797283 0 0 0 0 0.21920471835785982 0.40823341829518256 0 0.40823341829518256 0.67876186529031202 0 0 0 0 -14.691975251648273 8.3638709205151827 0 8.3638709205151827 -6.3829130120811897 0 0 0 0 48.307070175531862 21.141725218882129 0 21.141725218882129 -3.8201927503032493 0 0 0 0 -3.982983037671147 70.696294686054898 0 70.696294686054898 2.8635069375986859 0 0 0 0 -15.522737516734367 12.039869838230516 0 12.039869838230516 8.8356533482219675 0 0 0 0 -1.887772555159271 4.6329443500259018 0 4.6329443500259018 5.2756736854240955 0 0 0 0 -16.304997451641597 8.9405259683189797 0 8.9405259683189797 22.832468294109276 0 0 0 0 -31.195109423763796 32.677850499367196 0 32.677850499367196 -9.4068496568361297 0 0 0 0 -0.37075652517951274 -0.69995745352528616 0 -0.69995745352528616 4.6303332447052341 0 0 0 0 -4.2856553182806012 5.3214436764601132 0 5.3214436764601132 10.109894155993217 0 0 0 0 -6.8809764777765849 7.9393651725040399 0 7.9393651725040399 3.4630171940953005 0 0 0 0 -3.5488076854896917 18.858511012991585 0 18.858511012991585 -20.599177908225101 0 0 0 0 0.68993081078621543 1.0625307523586756 0 1.0625307523586756 1.969517505498132 0 0 0 0 -20.417794628231377 4.1610810965448763 0 4.1610810965448763 23.450506055116421 0 0 0 0 -8.4700679441823468 7.6772854775372252 0 7.6772854775372252 -8.1653700037495582 0 0 0 0 6.4812663355210134 12.468942325391254 0 12.468942325391254 -11.797418995227417 0 0 0 0 6.4080175340289998 14.352814701034731 0 14.352814701034731 -2.2352419304115756 0 0 0 0 -1.8774355271634704 9.8964578376435384 0 9.8964578376435384 18.330030845929286 0 0 0 0 -11.873839704115142 9.914361364009892 0 9.914361364009892 81.690250910713075 0 0 0 0 2.9517027686538313 -2.7442143366097298 0 -2.7442143366097298 14.474719809241833 0 0 0 0 -1.8874568414012174 20.282721211915486 0 20.282721211915486 32.313144250389087 0 0 0 0 -0.22722422095466754 -4.3142629164231039 0 -4.3142629164231039 53.420541317100287 0 0 0 0 -2.9982020262866342 -8.2951478675263388 0 -8.2951478675263388 47.930173837146867 0 0 0 0 85.832261323510011 21.553198525349217 0 21.553198525349217 57.732166643389064 0 0 0 0 66.395914928714575 -30.415823210565122 0 -30.415823210565122 -42.860098393230146 0 0 0 0 23.643684167371902 -48.562299154622906 0 -48.562299154622906 92.768461257986928 0 0 0 0 47.034783135975317 -68.732705440887003 0 -68.732705440887003 35.077935829183843 0 0 0 0 -324.80916403499037 -41.885177362828472 0 -41.885177362828472 35.819966095412383 0 0 0 0 -1.7752933137122093 1.4268614635954577 0 1.4268614635954577 31.002686528316005 0 0 0 0 50.388876508362671 5.8773849091976444 0 5.8773849091976444 -20.123627514303735 0 0 0 0 -168.67337084981327 13.220009694571218 0 13.220009694571218 121.83501461478227 0 0 0 0 114.53531685160289 -74.477429633456268 0 -74.477429633456268 15.27668083575918 0 0 0 0 31.252330489934366 -92.516858343238709 0 -92.516858343238709 60.952206873967953 0 0 0 0 0.44011390943240225 -0.065889418751257978 0 -0.065889418751257978 1.945167923698591 0 0 0 0 1.5804555874894959 21.815984773515993 0 21.815984773515993 16.134272214323573 0 0 0 0 0.71241696099946239 -1.7415301724540768 0 -1.7415301724540768 -4.5353734904547309 0 0 0 0 38.684356252518398 -21.124062538699945 0 -21.124062538699945 27.274077157017018 0 0 0 0 -26.489637381452042 -26.014838256341136 0 -26.014838256341136 30.024997627908306 0 0 0 0 -2.4807162069474771 -21.17176659470897 0 -21.17176659470897 19.178062652048538 0 0 0 0 -3.5901702659582959 -0.020553948758726293 0 -0.020553948758726293 6.0469157041821262 0 0 0 0 -25.532321803498689 8.6033976160360908 0 8.6033976160360908 12.167820003123779 0 0 0 0 -19.255421742908538 0.368079433508683 0 0.368079433508683 1.3317323297305848 0 0 0 0 -5.0604809486808335 9.9642972595538595 0 9.9642972595538595 6.5860566449846374 0 0 0 0 -10.803860866955119 4.7027339726264472 0 4.7027339726264472 1.7841958983653967 0 0 0 0 -22.807476459029886 11.278432899889594 0 11.278432899889594 17.672121779425652 0 0 0 0 -12.372494421843824 13.954465875183111 0 13.954465875183111 20.601003902747209 0 0 0 0 -16.859461058259399 16.175380307890009 0 16.175380307890009 22.564786974719027 0 0 0 0 -15.227296974576802 9.6511068369218265 0 9.6511068369218265 20.345927704255701 0 0 0 0 -19.589474504850386 12.514091730699874 0 12.514091730699874 18.145331286301371 0 0 0 0 31.361940108671462 16.046486992722748 0 16.046486992722748 -50.729277827122132 0 0 0 0 -13.13879923685522 11.67576064595778 0 11.67576064595778 11.936547812540084 0 0 0 0 -0.060725398612023973 -1.0234906275148319 0 -1.0234906275148319 3.4609750150373997 0 0 0 0 11.212702126989711 21.70214100841622 0 21.70214100841622 -21.174733960855519 0 0 0 0 -6.7237315401903563 9.7057034053055844 0 9.7057034053055844 9.9022420769755417 0 0 0 0 -0.74118337313252924 2.9927769923876824 0 2.9927769923876824 -4.5412698728010668 0 0 0 0 -3.2229134688777776 36.632115365864593 0 36.632115365864593 -31.297429629150429 0 0 0 0 -5.5756988498619648 40.652711343765986 0 40.652711343765986 -30.755144080598257 0 0 0 0 -31.620163037381189 33.385441995989822 0 33.385441995989822 11.863631754298694 0 0 0 0 -6.3644140866808812 59.274915748355852 0 59.274915748355852 -88.472082265390782 0 0 0 0 -18.27968202898046 59.010369717696449 0 59.010369717696449 -24.59408669322147 0 0 0 0 -21.374443988796656 13.253023546989425 0 13.253023546989425 16.16869687003782 0 0 0 0 -61.719309287052965 72.156682000364526 0 72.156682000364526 -73.588826793737098 0 0 0 0 -54.413273894368103 84.006147831009002 0 84.006147831009002 6.6050834946945542 0 0 0 0 -96.912009554798715 118.67005411168793 0 118.67005411168793 -55.881971710899961 0 0 0 0 -58.077368357544401 64.060428766533732 0 64.060428766533732 -75.338314139175054 0 0 0 0 -22.972271214844568 -42.158668043659418 0 -42.158668043659418 -74.272556628624443 0 0 0 0 -8.7177321297547934 3.5941286378824984 0 3.5941286378824984 18.112110658588577 0 0 0 0 -15.530873586770213 0.71626247381209396 0 0.71626247381209396 -5.4268958448956255 0 0 0 0 -12.838865736263052 16.384481032172268 0 16.384481032172268 31.421674777601055 0 0 0 0 -21.027436507420134 13.001275740971323 0 13.001275740971323 20.827372769752401 0 0 0 0 -20.096860582062618 7.6680767454090528 0 7.6680767454090528 19.650997266056947 0 0 0 0 -17.459983385122541 3.7570647916290909 0 3.7570647916290909 9.9265529621625319 0 0 0 0 -19.245486161296412 10.262853599488153 0 10.262853599488153 7.8909976004506461 0 0 0 0 -18.874864773383852 0.85743210189009744 0 0.85743210189009744 35.752735479382679 0 0 0 0 -124.90263831290213 14.214890239763918 0 14.214890239763918 59.996274296237971 0 0 0 0 -217.43826833546609 14.009264499162782 0 14.009264499162782 98.373361957885209 0 0 0 0 63.368264905882825 -6.4182347705791472 0 -6.4182347705791472 61.295289514918295 0 0 0 0 -12.960743151735237 16.226327485826957 0 16.226327485826957 53.329952982045086 0 0 0 0 -24.3063848419735 17.603942191518534 0 17.603942191518534 42.34341538194117 0 0 0 0 -22.146650436316122 5.5195948111504549 0 5.5195948111504549 22.370022776216501 0 0 0 0 -10.702640878367855 4.6043568724678323 0 4.6043568724678323 21.993886241156808 0 0 0 0 -254.68997468293219 138.34573581967925 0 138.34573581967925 14.827977511886274 0 0 0 0 -521.89681759240921 49.711770113161037 0 49.711770113161037 436.38372836208146 0 0 0 0 -277.79459771894176 275.20158051678891 0 275.20158051678891 17.497176147648133 0 0 0 0 1.0110637098090889 19.131065147245174 0 19.131065147245174 57.466321853066574 0 0 0 0 -183.46066870026027 -95.186639667410759 0 -95.186639667410759 -640.04182752530323 0 0 0 0 -144.44205162839717 14.039977415748581 0 14.039977415748581 -56.185924184013857 0 0 0 0 96.054916986287935 186.00354805619281 0 186.00354805619281 -106.23765726316196 0 0 0 0 -172.02423971618555 89.163456252943433 0 89.163456252943433 -52.193993305598269 0 0 0 0 -77.98651038686512 143.47537033374101 0 143.47537033374101 -116.59959371162404 0 0 0 0 -124.47430660658392 266.67750228895602 0 266.67750228895602 -46.330898354965029 0 0 0 0 -71.55006507519829 302.289586645893 0 302.289586645893 -157.7627407282489 0 0 0 0 30.234900370187006 169.13940443286992 0 169.13940443286992 -43.1260786941275 0 0 0 0 -202.61011271674124 -5.4747473622992402 0 -5.4747473622992402 457.66363169968827 0 0 0 0 -212.27441193088362 -198.77587550627504 0 -198.77587550627504 96.399654944612848 0 0 0 0 -182.26671096951122 78.948979059303383 0 78.948979059303383 793.03204227155948 0 0 0 0 635.06026623407865 -195.39932188049715 0 -195.39932188049715 128.32890408226649 0 0 0 0 381.65122747559917 370.42425896440182 0 370.42425896440182 264.81124069926227 0 0 0 0 -1.14086197665074 172.11749995028367 0 172.11749995028367 182.20198258938763 0 0 0 0 15.634998200160396 -98.588457666082832 0 -98.588457666082832 115.03520709484292 0 0 0 0 256.5750696429136 249.32191600525402 0 249.32191600525402 -128.30205798867246 0 0 0 0 74.389429088177337 102.39266547244551 0 102.39266547244551 -216.61434776439273 0 0 0 0 43.563452590884935 35.786882026652165 0 35.786882026652165 -172.30796592593833 0 0 0 0 27.283109654987129 70.208295052245376 0 70.208295052245376 -88.867299506810468 0 0 0 0 18.823896826068449 95.284089504697477 0 95.284089504697477 -97.040924998618721 0 0 0 0 31.280522994200737 18.479489097018813 0 18.479489097018813 -106.22787762516236 0 0 0 0 221.77498319665631 -153.98574138072763 0 -153.98574138072763 -81.151669512477383 0 0 0 0 10.365278977401658 26.655134393735352 0 26.655134393735352 -76.199839467137849 0 0 0 0 32.967141873090895 -3.5981085307466856 0 -3.5981085307466856 161.57787075558554 0 0 0 0 63.447520164600462 -156.42590569906861 0 -156.42590569906861 739.43801449599414 0 0 0 0 -38.820699138840155 -150.27483009002026 0 -150.27483009002026 198.97799777964156 0 0 0 0 -57.880651690712995 -95.71262333464756 0 -95.71262333464756 116.42634415668726 0 0 0 0 -9.2222098884030856 -29.699753757333383 0 -29.699753757333383 101.94665614041151 0 0 0 0 9.6861315837291233 -54.027722949816734 0 -54.027722949816734 52.147065792683861 0 0 0 0 -2.4135522471443656 -0.94748527485615597 0 -0.94748527485615597 -1.5406670533850217 0 0 0 0 -2.6683577575313393 10.474816323039704 0 10.474816323039704 -0.79473349284853612 0 0 0 0 -2.2960210058234849 7.2917136310549893 0 7.2917136310549893 2.3610845383748282 0 0 0 0 15.131016093917196 -10.630359313894587 0 -10.630359313894587 -10.363776597449032 0 0 0 0 -3.5713750711990997 9.1751390732242726 0 9.1751390732242726 -6.1382267755720932 0 0 0 0 -2.1685148469738147 7.0596558356516041 0 7.0596558356516041 3.5056667529903223 0 0 0 0 -3.7916299699920728 9.0313035538983968 0 9.0313035538983968 -4.430528139557282 0 0 0 0 -6.0795000955522482 26.110804627067409 0 26.110804627067409 -5.8163748143451812 0 0 0 0 -2.5526024850945355 8.2319942436410898 0 8.2319942436410898 -4.9834319923705266 0 0 0 0 -5.226097478914653 8.4133585324780142 0 8.4133585324780142 -3.9297222980821971 0 0 0 0 -8.4566875874786547 16.833949636420584 0 16.833949636420584 -17.853857078218425 0 0 0 0 -1.8802856173803726 4.2458752317472204 0 4.2458752317472204 5.8208555929157342 0 0 0 0 -4.1404961083572971 10.115774465535651 0 10.115774465535651 -1.4607582277676556 0 0 0 0 -6.2857636716778984 9.6941873233099614 0 9.6941873233099614 2.5083830912699341 0 0 0 0 0.56950251558893061 3.6618051854755578 0 3.6618051854755578 -0.19556104058828794 0 0 0 0 -5.0054178839813872 6.4463158385461057 0 6.4463158385461057 7.5282332488529775 0 0 0 0 -1.7306382386001644 -0.92286450578831136 0 -0.92286450578831136 10.460469610101427 0 0 0 0 -2.9763599450596701 1.1548016404121881 0 1.1548016404121881 7.27558724012124 0 0 0 0 -5.7128757910289654 -7.5310778153125284 0 -7.5310778153125284 -0.50332848079051473 0 0 0 0 -0.37763971380399802 0.061580972851743354 0 0.061580972851743354 0.011796811290684772 0 0 0 0 13.265115096063045 -46.32331585261818 0 -46.32331585261818 113.81076594275146 0 0 0 0 -1.4165322962030658 -0.2489007629191633 0 -0.2489007629191633 0.53749650619102951 0 0 0 0 0.87875278910740917 -14.795128985868359 0 -14.795128985868359 47.041378068704944 0 0 0 0 23.316696881259134 -36.019912142361136 0 -36.019912142361136 7.6651970141065249 0 0 0 0 -75.220793952564918 -40.039062109011866 0 -40.039062109011866 -18.71466231958766 0 0 0 0 -0.74626076660590002 0.41481109605906852 0 0.41481109605906852 1.015748889297214 0 0 0 0 -18.760070355113612 -24.553052758254125 0 -24.553052758254125 203.86143426850322 0 0 0 0 12.389533866248149 -62.211537089542617 0 -62.211537089542617 142.47360429486434 0 0 0 0 18.927373255270794 -56.578225719254988 0 -56.578225719254988 124.53640234640625 0 0 0 0 0.089292941458198563 1.342721305763078 0 1.342721305763078 2.0440583655017122 0 0 0 0 12.691460191009128 -39.477896379627055 0 -39.477896379627055 114.85185414206717 0 0 0 0 -13.88411456407988 -32.198178411645131 0 -32.198178411645131 125.0925751263494 0 0 0 0 8.2182080265240689 -46.137416565215062 0 -46.137416565215062 144.65024572480615 0 0 0 0 28.925953494541659 -34.873417925036847 0 -34.873417925036847 121.72772137291031 0 0 0 0 -0.26546070145144096 3.6625774505191657 0 3.6625774505191657 4.8529560024726379 0 0 0 0 -0.26546070145127842 -0.18358207868186582 0 -0.18358207868186582 2.011610188492341 0 0 0 0 -0.0028225410488795415 0.27840915087748641 0 0.27840915087748641 0.83820971766668606 0 0 0 0 -0.00056062844320571526 3.0929325231991243 0 3.0929325231991243 0.21239210008934606 0 0 0 0 27.211477110514512 -138.43750969366374 0 -138.43750969366374 204.06742262250555 0 0 0 0 -17.058644933932882 -0.68406585662887665 0 -0.68406585662887665 135.34710535775594 0 0 0 0 -4.1517650819649035 -23.048781966448587 0 -23.048781966448587 27.440368867450161 0 0 0 0 -17.85966414493976 10.819491458067205 0 10.819491458067205 29.664720974345983 0 0 0 0 -4.2461022803423818 -32.665212103509475 0 -32.665212103509475 92.908569898558198 0 0 0 0 8.8611020129602345 -3.4756434438641008 0 -3.4756434438641008 44.357551365912514 0 0 0 0 0.32146467782509208 4.2187366927275027 0 4.2187366927275027 93.636814420751762 0 0 0 0 10.800346424324243 -10.024191324064304 0 -10.024191324064304 57.319329894349721 0 0 0 0 -15.708410030596454 34.510535344497839 0 34.510535344497839 270.68752274934013 0 0 0 0 0.016787000408604952 65.596213105221977 0 65.596213105221977 196.2224395121666 0 0 0 0 -14.008860099853223 33.54974962651977 0 33.54974962651977 163.48797985244892 0 0 0 0 19.047919172061597 43.449300826498984 0 43.449300826498984 113.59164936954767 0 0 0 0 -11.143084725707538 61.138206400474814 0 61.138206400474814 192.4858123955928 0 0 0 0 -14.144778852661659 64.44852746000106 0 64.44852746000106 189.15637972796321 0 0 0 0 -12.443378226764736 44.818476121876301 0 44.818476121876301 177.48302295481699 0 0 0 0 -0.01775524943845878 57.391141393046603 0 57.391141393046603 149.26376478301245 0 0 0 0 -0.0017839637000585432 3.2237768283771961 0 3.2237768283771961 6.917725334300485 0 0 0 0 3.0257358970428214 27.386009372447006 0 27.386009372447006 100.54530403997524 0 0 0 0 -0.22268794757894073 -0.0083495670638598085 0 -0.0083495670638598085 0.060386638648644464 0 0 0 0 -10.931859377056142 38.988713773757809 0 38.988713773757809 148.36769187003665 0 0 0 0 -10.76558019037418 30.019908928996301 0 30.019908928996301 155.06978819106371 0 0 0 0 -22.664842093797716 38.951426403287769 0 38.951426403287769 237.82243683905108 0 0 0 0 -0.72963971340329337 0.26136171381907047 0 0.26136171381907047 0.97882566738670818 0 0 0 0 15.163546334170178 -1.6992080619675107 0 -1.6992080619675107 79.074314125828096 0 0 0 0 -7.3144400845902453 8.3604815085345763 0 8.3604815085345763 147.02519299560663 0 0 0 0 0.62785372392151362 1.9704436401254455 0 1.9704436401254455 2.4888437842260487 0 0 0 0 6.9993111195772144 -4.2870334217914206 0 -4.2870334217914206 153.13026699936563 0 0 0 0 -17.267390987414842 -16.253303238277113 0 -16.253303238277113 476.29545349460386 0 0 0 0 43.96674302155418 104.33464987476873 0 104.33464987476873 251.96151824434492 0 0 0 0 64.005364978375098 138.69762422386339 0 138.69762422386339 229.28849659076332 0 0 0 0 22.954419710923389 73.554321694993632 0 73.554321694993632 225.06699617490085 0 0 0 0 18.835183708760951 81.120774648559745 0 81.120774648559745 211.20822970358313 0 0 0 0 -13.905382843458426 67.58740830007082 0 67.58740830007082 208.06267415425827 0 0 0 0 46.220444134409092 92.963159360289865 0 92.963159360289865 129.73260808681516 0 0 0 0 12.644219825268692 32.430039026399754 0 32.430039026399754 103.12334154146993 0 0 0 0 -0.0020232266363011675 0.31947229477313499 0 0.31947229477313499 0.91455097181963652 0 0 0 0 34.325990187363914 -21.186615340680873 0 -21.186615340680873 -7.1324239037057851 0 0 0 0 -0.054958339374564291 0.032647366107013909 0 0.032647366107013909 0.38954783289484851 0 0 0 0 35.777124841756745 -9.3405239184355651 0 -9.3405239184355651 40.867424637006479 0 0 0 0 104.2367672268183 17.312030609980866 0 17.312030609980866 17.746175515367213 0 0 0 0 135.57127521524103 19.724245260666066 0 19.724245260666066 16.037154553549954 0 0 0 0 110.36251617298366 26.360873127912839 0 26.360873127912839 82.245424148626626 0 0 0 0 164.31179172047882 96.946304128210613 0 96.946304128210613 100.19742721455168 0 0 0 0 103.53838417435145 63.278603507433218 0 63.278603507433218 117.93852811404577 0 0 0 0 142.42833328179745 67.689890156201727 0 67.689890156201727 113.63835930395362 0 0 0 0 189.11831548184477 138.27850908326218 0 138.27850908326218 174.53610732938614 0 0 0 0 105.17012879243316 182.57254574312537 0 182.57254574312537 297.5149326471219 0 0 0 0 -107.08105110558353 -81.108872960270674 0 -81.108872960270674 205.88426208199962 0 0 0 0 80.126904272537104 298.81047370388842 0 298.81047370388842 57.472132037273695 0 0 0 0 0.38915541924418928 0.77548241854206879 0 0.77548241854206879 1.0346912182178869 0 0 0 0 199.4972212785475 354.3453055284499 0 354.3453055284499 448.19638606293302 0 0 0 0 147.85580855609987 70.539786241589354 0 70.539786241589354 185.14066678722156 0 0 0 0 104.32077431592973 223.10674212502272 0 223.10674212502272 279.31047462257266 0 0 0 0 37.214308491339182 -79.5777396108424 0 -79.5777396108424 -5.7588537445317343 0 0 0 0 309.54906091667357 175.47711875585264 0 175.47711875585264 70.15297186681255 0 0 0 0 -239.04529821297001 -99.714204171272286 0 -99.714204171272286 731.44888144798279 0 0 0 0 1.263150294325148 3.8085790691445069 0 3.8085790691445069 8.8002114522825536 0 0 0 0 -74.43582484881199 -148.51111391232917 0 -148.51111391232917 554.37135681169457 0 0 0 0 -304.8031837576832 -122.76903070701428 0 -122.76903070701428 577.75485699756973 0 0 0 0 -323.97147833405489 -64.59506896804146 0 -64.59506896804146 780.96787181033869 0 0 0 0 -331.83891732578576 -165.15224159513127 0 -165.15224159513127 660.24389762664214 0 0 0 0 -301.95921654141057 -28.381068570291973 0 -28.381068570291973 815.15112258863519 0 0 0 0 -229.38498226400043 -76.283472396731668 0 -76.283472396731668 734.03211283090059 0 0 0 0 60.767339979414828 326.07873596499121 0 326.07873596499121 -75.308807175524635 0 0 0 0 -58.838577288868692 -20.278051314240656 0 -20.278051314240656 130.12034362183476 0 0 0 0 -30.99995737453537 323.19083549943753 0 323.19083549943753 653.33698054978049 0 0 0 0 2.007069572002365 61.110732665745672 0 61.110732665745672 -225.39431385365606 0 0 0 0 4.2652630694321623 6.4595434034948056 0 6.4595434034948056 25.921752875195281 0 0 0 0 4.9893065249765307 -4.3160118191951788 0 -4.3160118191951788 42.117427090125759 0 0 0 0 -63.712109044426825 34.150007102380187 0 34.150007102380187 62.945543655849178 0 0 0 0 -65.21652295058297 4.3370540129690198 0 4.3370540129690198 103.94229148179875 0 0 0 0 166.80223877530929 45.933402277715913 0 45.933402277715913 47.443771187259699 0 0 0 0 111.26370885073301 -28.560562913181343 0 -28.560562913181343 12.669277950932155 0 0 0 0 49.15730194167304 -9.3871860442268371 0 -9.3871860442268371 24.151460942790436 0 0 0 0 8.5362574726935065 -3.9139535802405589 0 -3.9139535802405589 32.95645060147217 0 0 0 0 11.08629577784518 6.9692791060333548 0 6.9692791060333548 40.576896186219528 0 0 0 0 -19.578169432904588 -4.7699196624598699 0 -4.7699196624598699 32.444919749501423 0 0 0 0 -18.482818066745608 14.155186092706572 0 14.155186092706572 42.932951454338763 0 0 0 0 -46.769124009983898 -6.5353782038400823 0 -6.5353782038400823 38.406160077342065 0 0 0 0 -9.3115638520093853 3.3358369025791035 0 3.3358369025791035 31.349946233582159 0 0 0 0 -1.8447860413199515 5.7438322846032719 0 5.7438322846032719 29.888031356399836 0 0 0 0 7.8296733311562523 -4.268293256333525 0 -4.268293256333525 37.861081905232083 0 0 0 0 -23.250941626528061 -1.6899679103480594 0 -1.6899679103480594 22.676267635986733 0 0 0 0 -70.156953441915221 -26.82534404987382 0 -26.82534404987382 9.9969292914029211 0 0 0 0 1.8366879373423983 1.7715697297720396 0 1.7715697297720396 1.2983412855520839 0 0 0 0 44.944922514727637 27.297807166040002 0 27.297807166040002 70.058822395531934 0 0 0 0 29.14249243338697 78.926257410257676 0 78.926257410257676 -9.5220517055277014 0 0 0 0 0.45098920069007564 17.507721648477887 0 17.507721648477887 7.0109941342404767 0 0 0 0 -26.72686503946943 92.761948023602599 0 92.761948023602599 74.366820575931342 0 0 0 0 -31.650957037078285 10.269451524338365 0 10.269451524338365 24.00658498913981 0 0 0 0 8.0313738316253875 36.536870484304018 0 36.536870484304018 25.821561128337635 0 0 0 0 -42.470558990400889 14.390336317141191 0 14.390336317141191 32.991468371343217 0 0 0 0 41.013381459699076 1.3838849326093623 0 1.3838849326093623 -11.376077546323359 0 0 0 0 -38.093345757226302 -56.24615173913844 0 -56.24615173913844 86.166239595222578 0 0 0 0 38.171481607004708 2.6452018643622068 0 2.6452018643622068 73.946770180278691 0 0 0 0 31.385384438694686 -24.321840356217763 0 -24.321840356217763 74.83172749037476 0 0 0 0 9.7637847976401702 19.860605803106409 0 19.860605803106409 192.4623267572606 0 0 0 0 -50.982573897040993 -0.44706353567016777 0 -0.44706353567016777 8.8089262104185764 0 0 0 0 234.48698050811356 146.78592271336674 0 146.78592271336674 31.698038528178586 0 0 0 0 -8.9961615956361811 57.332051002740627 0 57.332051002740627 258.69947282913199 0 0 0 0 2.0632351054746527 0.90424483817621493 0 0.90424483817621493 2.249454632311398 0 0 0 0 53.187895679117105 170.91171719963313 0 170.91171719963313 170.63138463959331 0 0 0 0 56.32580995542186 88.872659255392591 0 88.872659255392591 71.498665775710833 0 0 0 0 5.2474634216638094 63.119464404993778 0 63.119464404993778 95.531405005545821 0 0 0 0 -124.83574120143101 61.629066449866514 0 61.629066449866514 155.55461499902594 0 0 0 0 -114.84709093583228 71.472587684464088 0 71.472587684464088 91.825965543001075 0 0 0 0 51.161988293277261 16.961353300393966 0 16.961353300393966 105.48268659690802 0 0 0 0 83.959142688333486 -24.699604446923331 0 -24.699604446923331 151.82191532048819 0 0 0 0 31.864055898082469 64.395090811949558 0 64.395090811949558 88.244417373061879 0 0 0 0 3.4596986271856167 1.3689405300647195 0 1.3689405300647195 26.644833451660816 0 0 0 0 85.38789762111071 41.322485307588067 0 41.322485307588067 87.443962367382483 0 0 0 0 100.19066756815266 23.795698887357503 0 23.795698887357503 81.768819036926288 0 0 0 0 151.00616600527633 104.92505904435893 0 104.92505904435893 148.73911924998174 0 0 0 0 75.111946231274146 25.274012798807235 0 25.274012798807235 109.19757692345593 0 0 0 0 74.79158245911259 25.1025431847047 0 25.1025431847047 109.3204530464136 0 0 0 0 68.531703248091759 6.5311925462774525 0 6.5311925462774525 107.18668035969313 0 0 0 0 81.836608696062655 16.446335242391797 0 16.446335242391797 110.66655068798718 0 0 0 0 68.368892665991041 10.280786800126975 0 10.280786800126975 130.97339649083733 0 0 0 0 61.567689883906553 27.751440453452233 0 27.751440453452233 118.93274253082927 0 0 0 0 61.439413360279531 24.890067283142002 0 24.890067283142002 130.89461856359412 0 0 0 0 34.441403987070132 37.79500749032195 0 37.79500749032195 141.39489489014522 0 0 0 0 74.042115577305069 32.299603427227339 0 32.299603427227339 94.187055880553089 0 0 0 0 41.234023427452598 43.271895231599046 0 43.271895231599046 117.59638800664106 0 0 0 0 130.95843780327954 51.834456192169455 0 51.834456192169455 71.900568965967977 0 0 0 0 58.241624190715243 46.45135308364479 0 46.45135308364479 84.947357806118816 0 0 0 0 71.793297004974846 29.451242118235314 0 29.451242118235314 141.25515894983982 0 0 0 0 65.41650862074448 7.0450128151460376 0 7.0450128151460376 90.233143005985767 0 0 0 0 109.19578856281848 7.159418370876665 0 7.159418370876665 73.628084553773078 0 0 0 0 80.481602038923199 -6.30658684797163 0 -6.30658684797163 21.537474476608622 0 0 0 0 85.067142955290478 33.03975616448588 0 33.03975616448588 37.865793642071367 0 0 0 0 86.960795250948351 14.196732871224413 0 14.196732871224413 85.153672680855379 0 0 0 0 139.62954722877799 31.460720902188768 0 31.460720902188768 -2.5121916414573207 0 0 0 0 41.68952835848927 72.185441655390605 0 72.185441655390605 114.02751518312107 0 0 0 0 0.56679362342691098 0.15488274869844076 0 0.15488274869844076 0.092454677883260672 0 0 0 0 134.7413990242573 42.113090783193911 0 42.113090783193911 34.683734005091537 0 0 0 0 61.524970541804464 -29.611008592935832 0 -29.611008592935832 -9.2132962057803525 0 0 0 0 21.293998616945458 17.078217476813734 0 17.078217476813734 11.334987311634904 0 0 0 0 -4.3391151465294797 17.781130189945543 0 17.781130189945543 33.566387634331477 0 0 0 0 1.2207190960581094 0.4925064980731122 0 0.4925064980731122 0.56687989197006772 0 0 0 0 -8.8080644946644782 5.5200961235659634 0 5.5200961235659634 0.26637277712870855 0 0 0 0 -0.005154581051226282 -0.21504334242061418 0 -0.21504334242061418 1.5958160684656946 0 0 0 0 34.70494971046606 41.663508086743605 0 41.663508086743605 44.184984689076373 0 0 0 0 3.1215311466033384 -1.4438256603243644 0 -1.4438256603243644 43.907639959325024 0 0 0 0 -6.9080912929840963 12.836316550219635 0 12.836316550219635 85.235047860573104 0 0 0 0 56.646635125771127 52.130954251810181 0 52.130954251810181 77.173666720751498 0 0 0 0 14.843520669637208 49.024988348297484 0 49.024988348297484 110.01690605358453 0 0 0 0 41.805599880208703 37.057686228901957 0 37.057686228901957 114.75156665098621 0 0 0 0 11.449096024583103 40.209657877754125 0 40.209657877754125 166.06698120820511 0 0 0 0 13.105328690145377 52.308911962583807 0 52.308911962583807 137.22695544870658 0 0 0 0 17.123477580376871 40.212046439410187 0 40.212046439410187 92.178698768282629 0 0 0 0 -0.20166316224732952 -0.29265625620645608 0 -0.29265625620645608 1.2810344432825786 0 0 0 0 41.888906626073833 71.276913299818261 0 71.276913299818261 97.429249178920145 0 0 0 0 68.338449044955681 126.83566185247764 0 126.83566185247764 210.40257535755609 0 0 0 0 8.3447747840162076 49.179040891625846 0 49.179040891625846 227.83676379949611 0 0 0 0 -0.063574753497405809 0.0061748965610064488 0 0.0061748965610064488 0.69445488304285163 0 0 0 0 0.00086633034493942664 0.26419795877154684 0 0.26419795877154684 1.877640433369379 0 0 0 0 0.46892930273033789 0.62770707368053991 0 0.62770707368053991 2.1491377131678746 0 0 0 0 0.5050168784317367 0.91265188333863989 0 0.91265188333863989 2.7029183087215642 0 0 0 0 0.7637828838552968 0.82067500326925824 0 0.82067500326925824 0.70106169658109962 0 0 0 0 0.73121463852395063 0.44094284020320629 0 0.44094284020320629 2.2295275630349352 0 0 0 0 1.1368314351684237 1.1635905577895755 0 1.1635905577895755 2.768152879558329 0 0 0 0 -2.5037945129533228e-05 0.70885322062167688 0 0.70885322062167688 2.4413986417494016 0 0 0 0 0.25895756384837254 0.35432068544652395 0 0.35432068544652395 0.35023381754482941 0 0 0 0 0.43896609531486264 0.82626709063151793 0 0.82626709063151793 1.7662787317822222 0 0 0 0 114.01236713236665 61.463670603738137 0 61.463670603738137 66.904202729896497 0 0 0 0 98.613610875075381 62.044356814415551 0 62.044356814415551 104.8094232574731 0 0 0 0 151.93222347553501 13.789054875873262 0 13.789054875873262 78.636812789378382 0 0 0 0 150.4536339960714 52.826378436378036 0 52.826378436378036 32.663848214428072 0 0 0 0 60.653276250800332 73.569718805449611 0 73.569718805449611 23.652046680086642 0 0 0 0 67.790674291086589 57.207146670589282 0 57.207146670589282 61.007600932854075 0 0 0 0 69.413988745334564 71.918241768924872 0 71.918241768924872 57.227308916414586 0 0 0 0 106.23762709672997 80.835319683324997 0 80.835319683324997 34.058087351110771 0 0 0 0 105.64196477615006 81.841976876938674 0 81.841976876938674 51.06217548087443 0 0 0 0 106.12283779385719 68.873370002074566 0 68.873370002074566 51.351870321435854 0 0 0 0 110.4762866627841 71.604581061114004 0 71.604581061114004 53.019649622598081 0 0 0 0 90.305267650084488 64.132789674343258 0 64.132789674343258 47.026955144065141 0 0 0 0 99.283576992105282 80.568809717410659 0 80.568809717410659 59.407056292379821 0 0 0 0 109.2956582042043 83.874102544064044 0 83.874102544064044 51.997909306841393 0 0 0 0 120.32046455621327 71.548440920895246 0 71.548440920895246 46.423589781297778 0 0 0 0 29.271643214809501 -14.729721179907756 0 -14.729721179907756 20.738719706489064 0 0 0 0 1.5400515701759194 -1.8284916365585389 0 -1.8284916365585389 2.5445450796103088 0 0 0 0 1.0036047223996427 -1.2859417342985324 0 -1.2859417342985324 3.2052315234036044 0 0 0 0 137.09074126661892 -22.17267133211277 0 -22.17267133211277 -50.596568721175572 0 0 0 0 6.2897231122901189 11.402776881295722 0 11.402776881295722 33.819338939483714 0 0 0 0 152.07736727246777 9.4121660019809497 0 9.4121660019809497 -62.326978641044661 0 0 0 0 154.3068783630514 -0.98073693768856174 0 -0.98073693768856174 -14.190966116650088 0 0 0 0 0.98290003044585084 -0.73957725226475901 0 -0.73957725226475901 0.7043531346007228 0 0 0 0 207.74917265442571 18.08261398470313 0 18.08261398470313 -27.625456936234514 0 0 0 0 3.3325471504128408 7.8468831713453504 0 7.8468831713453504 21.274957247589427 0 0 0 0 -0.45320497364661172 -7.3611010663781471 0 -7.3611010663781471 47.385389138589787 0 0 0 0 1944.2096320853998 -2223.3936449895191 0 -2223.3936449895191 1316.926769376023 0 0 0 0 575.47506864532807 2210.073076120445 0 2210.073076120445 -1064.2965105258481 0 0 0 0 -386.6559590464766 -90.103099191881483 0 -90.103099191881483 152.98613898386975 0 0 0 0 204.68549067561383 10.653173060715858 0 10.653173060715858 -11.134945888657967 0 0 0 0 -62.133870376785126 -2.6894581050473789 0 -2.6894581050473789 -62.979856252601166 0 0 0 0 -100.14168182719868 44.200370451202616 0 44.200370451202616 261.21333271084222 0 0 0 0 -1.452181668859879 -78.71307429470653 0 -78.71307429470653 -120.07225769691104 0 0 0 0 2.6290035562190281 -5.8655116818694708 0 -5.8655116818694708 9.1883124728884411 0 0 0 0 166.31285550679922 57.81721004235078 0 57.81721004235078 -2.6188737129778019 0 0 0 0 91.761256902870855 244.1278533953282 0 244.1278533953282 123.53361354721619 0 0 0 0 1.8915028170636852 -13.415074663485765 0 -13.415074663485765 52.379138430796772 0 0 0 0 -182.80077405893633 -66.454346819487 0 -66.454346819487 125.17472422144056 0 0 0 0 -393.44436795166712 -568.75076508482016 0 -568.75076508482016 703.3264483905732 0 0 0 0 -101.90705240619855 130.59401102604897 0 130.59401102604897 112.1506879511071 0 0 0 0 67.241910342859455 -119.64928808397599 0 -119.64928808397599 16.746940339413413 0 0 0 0 -49.960250845185328 67.385056979168439 0 67.385056979168439 133.38776004478495 0 0 0 0 -66.664041178402243 182.7939359851307 0 182.7939359851307 11.70835034126867 0 0 0 0 -221.7469816574515 151.6202829844915 0 151.6202829844915 370.42031541415054 0 0 0 0 29.083929759210321 31.669145786456284 0 31.669145786456284 182.81802926110868 0 0 0 0 -88.676831389700396 -45.906302977659834 0 -45.906302977659834 146.3920990440929 0 0 0 0 -70.077406299189107 -117.69434781259361 0 -117.69434781259361 406.54972864320735 0 0 0 0 0.16423484644370831 -1.5342217820829853 0 -1.5342217820829853 3.0946351172544269 0 0 0 0 261.41670379979422 73.597939891655187 0 73.597939891655187 -221.18678293889207 0 0 0 0 22.053386591853297 -282.64830820262068 0 -282.64830820262068 417.40283827704116 0 0 0 0 60.891351981252626 61.893511515943374 0 61.893511515943374 56.732837793320869 0 0 0 0 4.422791762012686 -5.0438111000223813 0 -5.0438111000223813 23.23659124087564 0 0 0 0 44.840036765554757 -176.0335412722261 0 -176.0335412722261 146.63909602893364 0 0 0 0 122.69143954557535 -78.211607209861086 0 -78.211607209861086 81.465311471496534 0 0 0 0 30.7780180566605 25.669812034606139 0 25.669812034606139 91.941341184394332 0 0 0 0 175.86286920145574 -7.2163365641381461 0 -7.2163365641381461 96.637972692347944 0 0 0 0 173.71523994350503 84.268598099548399 0 84.268598099548399 70.998508311368653 0 0 0 0 158.43840093285803 24.140384293032639 0 24.140384293032639 95.983561685305176 0 0 0 0 149.03546009973732 31.964444906046083 0 31.964444906046083 92.103906967329578 0 0 0 0 75.113113557785482 -70.640585245209877 0 -70.640585245209877 36.841561734447168 0 0 0 0 318.96779418822553 -51.018124852162146 0 -51.018124852162146 42.100221994136518 0 0 0 0 184.75231957559265 120.85866384732526 0 120.85866384732526 180.34833875062213 0 0 0 0 112.67315211063254 44.776908638463283 0 44.776908638463283 102.28463444405497 0 0 0 0 134.20298795468483 7.5957093735059971 0 7.5957093735059971 152.66146098765603 0 0 0 0 98.098071634381142 149.60006416362739 0 149.60006416362739 -56.008014213899514 0 0 0 0 2.8875840240050268 19.127063979329868 0 19.127063979329868 69.870242344539136 0 0 0 0 -281.48367398932294 138.19692606739682 0 138.19692606739682 158.00099575494824 0 0 0 0 -32.359820195839397 125.06889394786685 0 125.06889394786685 48.208744100382319 0 0 0 0 -114.58584512869267 37.139837064893072 0 37.139837064893072 -2.0865974169992114 0 0 0 0 35.549740180569103 -73.267800086659918 0 -73.267800086659918 -47.44513850995645 0 0 0 0 22.395073591051585 -73.549056881178331 0 -73.549056881178331 149.60976681952388 0 0 0 0 -64.037648629214829 74.074980542549383 0 74.074980542549383 3.8254961416068909 0 0 0 0 47.762603672436796 -21.211864199818592 0 -21.211864199818592 74.95446006945258 0 0 0 0 54.748473765099021 -54.482175031715542 0 -54.482175031715542 0.024904733603761997 0 0 0 0 -150.55236509185249 -140.41326004873918 0 -140.41326004873918 116.19252930020957 0 0 0 0 -271.46449889213034 -49.984148054862089 0 -49.984148054862089 128.96633939061212 0 0 0 0 0.56282674196964599 10.154260318640318 0 10.154260318640318 10.507331815083674 0 0 0 0 0.31439989086726217 10.762960582730646 0 10.762960582730646 73.773192015546712 0 0 0 0 -108.36781558924395 2.8699035879835719 0 2.8699035879835719 57.844318546613977 0 0 0 0 -105.29500049143383 89.051008111935516 0 89.051008111935516 44.76183718959328 0 0 0 0 -105.25454804196454 87.007549406785984 0 87.007549406785984 134.60905620775884 0 0 0 0 -174.61971340342342 112.37443021475701 0 112.37443021475701 109.73725465123425 0 0 0 0 -125.52446422169476 29.526175020626397 0 29.526175020626397 73.469134145212593 0 0 0 0 -217.50810782119021 8.2635525460264034 0 8.2635525460264034 151.30342024164202 0 0 0 0 -230.12165031717197 37.840802253559559 0 37.840802253559559 193.74927211660724 0 0 0 0 -1.5086189346764378 1.7738072799868272 0 1.7738072799868272 87.38939766568086 0 0 0 0 -60.554669412253261 39.446649739377563 0 39.446649739377563 344.4276724753945 0 0 0 0 198.34952725497496 195.43463790485293 0 195.43463790485293 89.624472356634215 0 0 0 0 126.60477238351453 59.067129383288375 0 59.067129383288375 -28.121730354861938 0 0 0 0 17.45960405900064 -0.32023701703838015 0 -0.32023701703838015 -35.19975916720432 0 0 0 0 52.376355022916016 -75.133439812039342 0 -75.133439812039342 70.507585941566504 0 0 0 0 1.0812247504876411 1.6943831587711511 0 1.6943831587711511 2.9673587132707695 0 0 0 0 2.9277852220999421 10.535077753440419 0 10.535077753440419 215.03274409272467 0 0 0 0 308.02449278044776 44.113724193259714 0 44.113724193259714 -54.786560658249073 0 0 0 0 143.10251108601835 7.8138081789320495 0 7.8138081789320495 -62.593372272225679 0 0 0 0 152.47475662027054 -26.007820193450243 0 -26.007820193450243 -30.620780915479372 0 0 0 0 170.71408086494478 -61.32386937944284 0 -61.32386937944284 5.7668185578504563 0 0 0 0 231.68399978732123 17.344899369617451 0 17.344899369617451 44.510835270139069 0 0 0 0 139.97354097468553 45.338024039445372 0 45.338024039445372 58.590520780147926 0 0 0 0 220.82974566281123 -16.434815530060632 0 -16.434815530060632 46.890363687674835 0 0 0 0 208.54574645385367 28.682412603192461 0 28.682412603192461 55.244102781011861 0 0 0 0 133.15930115886061 2.4558632004885794 0 2.4558632004885794 131.96717029391766 0 0 0 0 199.8158061229563 5.34035790705002 0 5.34035790705002 61.901624794629242 0 0 0 0 159.79422492736228 -11.648401806215588 0 -11.648401806215588 121.55299800505327 0 0 0 0 151.01836069664063 12.097718626966525 0 12.097718626966525 77.888213055222877 0 0 0 0 170.81911926000708 75.193406625598982 0 75.193406625598982 12.773323395354964 0 0 0 0 -14.103881255604165 11.750990779120002 0 11.750990779120002 38.603190279016417 0 0 0 0 87.724922837443955 94.040408189876871 0 94.040408189876871 60.672978967573727 0 0 0 0 45.571699292053154 -55.758296959946165 0 -55.758296959946165 101.29817481385453 0 0 0 0 1.8123702863620883 -0.14499786412708104 0 -0.14499786412708104 0.087450543233213551 0 0 0 0 -23.409058385036133 12.497732796582568 0 12.497732796582568 77.047721850085509 0 0 0 0 32.578224831878742 -34.949641148547926 0 -34.949641148547926 84.681931225315566 0 0 0 0 40.029590811936146 -25.197196447925307 0 -25.197196447925307 86.352205961484287 0 0 0 0 139.98501896992275 -72.95860549831923 0 -72.95860549831923 77.636348183852533 0 0 0 0 134.64809889605039 1.7455047644280057 0 1.7455047644280057 64.605595196115246 0 0 0 0 84.825115221696819 -47.783162819258905 0 -47.783162819258905 76.192511455652493 0 0 0 0 97.698822739523621 -9.6462901733157196 0 -9.6462901733157196 67.931632811876625 0 0 0 0 28.7381404193967 -39.052622564287049 0 -39.052622564287049 77.620086722545238 0 0 0 0 46.816700526481895 -21.597270127620504 0 -21.597270127620504 76.383580166075262 0 0 0 0 7.7365268994211647 -21.347464803114235 0 -21.347464803114235 68.728236861978075 0 0 0 0 11.770687531472845 -18.961670193751161 0 -18.961670193751161 61.425068107088009 0 0 0 0 1.2862198441744113 -9.9808295188468037 0 -9.9808295188468037 56.890856687898122 0 0 0 0 2.4465114782672117 -8.1399157374844435 0 -8.1399157374844435 59.059580983652268 0 0 0 0 -7.7033150251234019 -6.4409427549926477 0 -6.4409427549926477 59.611398899112828 0 0 0 0 -2.6801042994209183 -9.0615132841321611 0 -9.0615132841321611 63.815339260025667 0 0 0 0 -0.69824187176595842 -4.5800486813932366 0 -4.5800486813932366 50.025667341536973 0 0 0 0 -3.596064470445981 -11.072113834257834 0 -11.072113834257834 43.525136528500298 0 0 0 0 -2.9694791329877717 -12.464968944941575 0 -12.464968944941575 81.3493004089853 0 0 0 0 5.1114952371201525 -2.6012799575128156 0 -2.6012799575128156 43.127487530318831 0 0 0 0 26.700276298702647 -65.507309748920306 0 -65.507309748920306 120.32390166950063 0 0 0 0 131.82730572542096 -7.5733596172976831 0 -7.5733596172976831 88.331718492145228 0 0 0 0 -61.304763044083302 -18.790639071932674 0 -18.790639071932674 114.07892608495195 0 0 0 0 -108.62457531101131 20.419283935132626 0 20.419283935132626 85.13108611656935 0 0 0 0 -31.829739539204638 24.652040208067774 0 24.652040208067774 49.688717589218868 0 0 0 0 -25.538935294494877 9.5313108624086453 0 9.5313108624086453 79.734438636398409 0 0 0 0 -15.494068344437437 -7.6872420157578745 0 -7.6872420157578745 80.788472270403872 0 0 0 0 -25.785913999246304 -11.558170901562335 0 -11.558170901562335 88.024376598696108 0 0 0 0 -18.563520155347646 -1.3522930321896638 0 -1.3522930321896638 68.043903221267101 0 0 0 0 -6.6899211223333168 -0.0076207786169106839 0 -0.0076207786169106839 65.264651444293122 0 0 0 0 -15.667174949285254 13.543635340656692 0 13.543635340656692 48.591733723835205 0 0 0 0 -5.8144545374539121 1.0993461358793866 0 1.0993461358793866 51.287488738016691 0 0 0 0 -8.234569197830524 -8.9447820200621209 0 -8.9447820200621209 52.87724094697478 0 0 0 0 -6.2767882494763398 -9.2450255530984577 0 -9.2450255530984577 52.915449039616306 0 0 0 0 0.21265255933394656 -10.447730664091068 0 -10.447730664091068 30.279403437838482 0 0 0 0 4.1461443433372551 -20.993258707898349 0 -20.993258707898349 53.545764946833515 0 0 0 0 -9.2054449913512144 -12.351976694004406 0 -12.351976694004406 71.95678934184707 0 0 0 0 -7.3347655144036707 -17.199452432141697 0 -17.199452432141697 53.437559596535721 0 0 0 0 6.6310315372716104 -39.860144376369135 0 -39.860144376369135 90.20201667256174 0 0 0 0 20.328076183853454 -18.206655320670507 0 -18.206655320670507 19.907638077205775 0 0 0 0 19.427816628117853 -24.475593907298389 0 -24.475593907298389 38.954416493622375 0 0 0 0 31.473900919602102 -25.729865554413664 0 -25.729865554413664 37.857539327666018 0 0 0 0 50.376680439129359 -53.440247998714767 0 -53.440247998714767 72.819214002435729 0 0 0 0 18.767841235491915 -3.7831431983158836 0 -3.7831431983158836 4.1066765505802323 0 0 0 0 6.1325475917478798 -2.2116157168420614 0 -2.2116157168420614 15.957835371044439 0 0 0 0 6.0933830250078245 3.742218847301956 0 3.742218847301956 4.2926431498972306 0 0 0 0 7.5413204829176834 -13.063728671544027 0 -13.063728671544027 29.196742298678146 0 0 0 0 11.949674175924201 -9.5572509868666202 0 -9.5572509868666202 -6.3850326677056728 0 0 0 0 29.720421847516718 -15.482444134230718 0 -15.482444134230718 -77.722437814770274 0 0 0 0 4.3732775949361002 -1.1215389515367704 0 -1.1215389515367704 0.18390787210054071 0 0 0 0 3.263402563778186 5.556180745281381 0 5.556180745281381 0.46656052789512614 0 0 0 0 11.720103675757912 7.3715308114201434 0 7.3715308114201434 -6.7487036682286998 0 0 0 0 -3.6387571789950925 -7.4683286926219807 0 -7.4683286926219807 41.411801555462262 0 0 0 0 -6.2614634237387463 3.2297241718897567 0 3.2297241718897567 33.494618413043099 0 0 0 0 4.0003758111779302 -0.77756629125431687 0 -0.77756629125431687 0.097620586301465195 0 0 0 0 32.568702361573742 -17.026460108505489 0 -17.026460108505489 -55.747952200043073 0 0 0 0 20.445297489147151 25.52668413115498 0 25.52668413115498 36.403341726010694 0 0 0 0 35.251872466888017 50.090842264731691 0 50.090842264731691 -10.942443619815094 0 0 0 0 0.26407370093443738 -0.0052743012288587465 0 -0.0052743012288587465 -0.18725001041458711 0 0 0 0 84.380904770410552 59.024248522643575 0 59.024248522643575 23.056767721803908 0 0 0 0 37.52324399223653 53.184979614158692 0 53.184979614158692 38.379070863392371 0 0 0 0 0.23417488263792752 -0.011256904439356674 0 -0.011256904439356674 0.073209276362888431 0 0 0 0 12.393354399688121 -17.478488430732341 0 -17.478488430732341 -20.573161411899491 0 0 0 0 12.982116921938257 -35.909395721562305 0 -35.909395721562305 -72.936622952198377 0 0 0 0 -3.6230755953965854 4.6990709375695587 0 4.6990709375695587 -13.582000374184645 0 0 0 0 34.478440150931647 10.201761422950767 0 10.201761422950767 -21.370864060394069 0 0 0 0 22.156129065873984 25.7409164160008 0 25.7409164160008 31.32352644670209 0 0 0 0 44.958362814233396 -9.5382290227171325 0 -9.5382290227171325 83.751629119778954 0 0 0 0 68.195310273463974 30.74241931911547 0 30.74241931911547 31.857444869827759 0 0 0 0 32.011134046924553 52.911130035577571 0 52.911130035577571 140.45613139331363 0 0 0 0 0.15377112748433053 0.0023753204016507823 0 0.0023753204016507823 0.1710741286268842 0 0 0 0 87.109724688827441 62.601298193413641 0 62.601298193413641 42.896613592036374 0 0 0 0 101.57280362044503 20.08565854608787 0 20.08565854608787 106.36460009416351 0 0 0 0 44.560866767474408 26.808817430280669 0 26.808817430280669 38.991918793311925 0 0 0 0 -6.1795341861204633 -17.261420343011196 0 -17.261420343011196 -2.3476201342127752 0 0 0 0 14.252305005412836 -61.275873395887174 0 -61.275873395887174 5.2467605388483207 0 0 0 0 -12.513283534392713 -13.692032357803328 0 -13.692032357803328 56.98309854127001 0 0 0 0 0.97703722606192089 -1.237689783414524 0 -1.237689783414524 1.6453919330734124 0 0 0 0 -82.195438224146301 -50.727377488410639 0 -50.727377488410639 157.12539817793731 0 0 0 0 20.001415199213625 -138.98103026375065 0 -138.98103026375065 165.48306822705445 0 0 0 0 -17.911021850077987 -89.441813242712669 0 -89.441813242712669 129.781061882426 0 0 0 0 48.51631888201382 -71.555814191656282 0 -71.555814191656282 91.782009872537856 0 0 0 0 33.75075702813001 -8.6470057340238782 0 -8.6470057340238782 88.115241494484508 0 0 0 0 42.175396302077388 19.229035079045389 0 19.229035079045389 24.764603805049774 0 0 0 0 28.149533169002552 -43.52511671008233 0 -43.52511671008233 45.199814154357227 0 0 0 0 29.285400191532972 -20.297703577913353 0 -20.297703577913353 -10.408412838045479 0 0 0 0 -3.8430508015644591 -34.317673339699468 0 -34.317673339699468 -12.519913129520319 0 0 0 0 -9.5533506322319681 -59.732059274788924 0 -59.732059274788924 -65.044095402612584 0 0 0 0 11.512713638445348 -34.998941075502444 0 -34.998941075502444 -64.65772911069871 0 0 0 0 31.915906751644172 -17.244632914991939 0 -17.244632914991939 -15.694412842531165 0 0 0 0 -5.0597534246994655 17.379665182525059 0 17.379665182525059 -43.206034487066063 0 0 0 0 -20.288966650062321 -38.513019522622926 0 -38.513019522622926 -54.69422094508991 0 0 0 0 0.66166349204963648 -0.70699308374077319 0 -0.70699308374077319 0.23016617945186368 0 0 0 0 10.754703198349489 -16.420689225570641 0 -16.420689225570641 -51.879110119431061 0 0 0 0 2.7631303044493247 -2.8635999804235901 0 -2.8635999804235901 2.0911876408119099 0 0 0 0 4.4757594734737722 4.7838715398884233 0 4.7838715398884233 -120.23468114443676 0 0 0 0 -12.050525281012824 -34.490481826732321 0 -34.490481826732321 -20.920372863854936 0 0 0 0 -14.647113460660933 -65.451688895549466 0 -65.451688895549466 -41.418192812827328 0 0 0 0 2.9133116451563357 -3.4797482072713137 0 -3.4797482072713137 3.666855241326644 0 0 0 0 33.325169479969304 -27.676149055488168 0 -27.676149055488168 23.049161875234859 0 0 0 0 68.025137542440234 33.196996471583589 0 33.196996471583589 14.437237850232123 0 0 0 0 0.65952917971010505 -0.35700436336660957 0 -0.35700436336660957 0.77864846282003519 0 0 0 0 21.455964275657379 -4.9121088015640453 0 -4.9121088015640453 -12.7744975455862 0 0 0 0 14.117965644687274 -12.47326569484494 0 -12.47326569484494 3.0226317778297016 0 0 0 0 21.923099318127548 -1.3534811390982213 0 -1.3534811390982213 5.4771787165736896 0 0 0 0 2.7856727533521082 -3.557070697210527 0 -3.557070697210527 2.9752257909007014 0 0 0 0 19.255834361240829 -13.109069633052059 0 -13.109069633052059 4.5604680135550666 0 0 0 0 -2.9736161105239685 -1.3930631799727795 0 -1.3930631799727795 5.5030979832453966 0 0 0 0 16.477374449936462 -10.155948976732134 0 -10.155948976732134 5.2675870991424745 0 0 0 0 3.5621827857296466 1.8564625935869117 0 1.8564625935869117 -4.3713258538518858 0 0 0 0 3.747625038253493 -1.1878634104224552 0 -1.1878634104224552 0.34920163480835775 0 0 0 0 1.0808035907044973 -1.3552706345555467 0 -1.3552706345555467 2.2645339000181366 0 0 0 0 0.9251816988628434 -3.0260407418254545 0 -3.0260407418254545 2.2703331691441235 0 0 0 0 1.719638461373961 0.77416269493278378 0 0.77416269493278378 3.9094414392202452 0 0 0 0 -10.076540529260456 2.3703722881809881 0 2.3703722881809881 3.7014058867966924 0 0 0 0 -0.56136105942039283 -0.19117557409134633 0 -0.19117557409134633 1.4612993520479662 0 0 0 0 -3.999877458363585 3.0792145447089752 0 3.0792145447089752 13.301832058299624 0 0 0 0 0.19387142170194238 11.429572957739765 0 11.429572957739765 0.48902561269096623 0 0 0 0 0.38203797641439419 -0.29219450225388144 0 -0.29219450225388144 0.12553121135883316 0 0 0 0 29.695934789571425 -8.1774465392240927 0 -8.1774465392240927 -4.7639475059568213 0 0 0 0 -8.8434923936342784 -35.548249749404931 0 -35.548249749404931 42.366676427387574 0 0 0 0 0.31613568872761366 51.451030305384855 0 51.451030305384855 128.79894372433409 0 0 0 0 -1.1259856604417564 -5.603638812313875 0 -5.603638812313875 13.56971329776934 0 0 0 0 0.073700108477396498 10.718478463861175 0 10.718478463861175 52.234874557034345 0 0 0 0 -2.9308284422980364 -20.364469367484617 0 -20.364469367484617 33.932135717794154 0 0 0 0 3.0134965280644792 -33.034739980519589 0 -33.034739980519589 51.668225339850324 0 0 0 0 -111.18981763738793 -61.576341047861206 0 -61.576341047861206 162.51699440347511 0 0 0 0 -6.9401933420413116 -51.334309901361848 0 -51.334309901361848 18.607492500541412 0 0 0 0 45.534001199602244 -199.51819010923828 0 -199.51819010923828 70.419325179642328 0 0 0 0 68.450571115405182 41.97125072855124 0 41.97125072855124 204.10031775891184 0 0 0 0 101.52093090045935 83.230502796830933 0 83.230502796830933 173.95976164177409 0 0 0 0 26.287959722168353 25.602254932075084 0 25.602254932075084 131.87717550654634 0 0 0 0 4.269892542567618 -26.798142627445031 0 -26.798142627445031 8.5475036071875365 0 0 0 0 6.0109962678109126 -13.476445805106898 0 -13.476445805106898 27.512236467956793 0 0 0 0 -1.5436231906580651 -3.7321271355921031 0 -3.7321271355921031 11.628025780540099 0 0 0 0 -7.7041031170437009 -4.5405121726043944 0 -4.5405121726043944 34.812550834978538 0 0 0 0 -10.928643830282226 -13.20251011878463 0 -13.20251011878463 34.126252981575817 0 0 0 0 -4.1692887350423007 -11.454297638951175 0 -11.454297638951175 22.155062210006236 0 0 0 0 2.788860332629548 -8.1835067341095566 0 -8.1835067341095566 21.231079818338912 0 0 0 0 58.632682998547125 -30.651463551768643 0 -30.651463551768643 28.630616688785722 0 0 0 0 5.7961200482603772 -6.8821961034323067 0 -6.8821961034323067 44.286570245713392 0 0 0 0 36.8178071720356 18.778152396418136 0 18.778152396418136 23.44672808584707 0 0 0 0 -4.90052299867898 8.1861037377382218 0 8.1861037377382218 23.523478811437712 0 0 0 0 -68.507248479844975 -10.469408930133341 0 -10.469408930133341 26.672679063229225 0 0 0 0 -10.436585386024831 -26.252398859260325 0 -26.252398859260325 -64.43777237684526 0 0 0 0 -17.22331790039118 14.455381168620534 0 14.455381168620534 11.913300496402826 0 0 0 0 -4.464657276230902 -12.998407662085469 0 -12.998407662085469 -10.664957746006621 0 0 0 0 -22.616253597203183 -3.4221710159815757 0 -3.4221710159815757 79.252302179260823 0 0 0 0 -21.179082441640276 -14.347514338406654 0 -14.347514338406654 19.899304572530525 0 0 0 0 -42.638917141934371 -4.096659269823931 0 -4.096659269823931 57.796785485353666 0 0 0 0 -27.403986745160864 -20.298493516439976 0 -20.298493516439976 57.5263899859915 0 0 0 0 -12.160893421868423 -12.598318493796569 0 -12.598318493796569 58.700110481810043 0 0 0 0 -24.586578585698561 -31.876618718369059 0 -31.876618718369059 93.363899478270469 0 0 0 0 -32.193519641378884 -18.847711230966524 0 -18.847711230966524 43.731981316877864 0 0 0 0 -21.305245306438849 -44.185969965860522 0 -44.185969965860522 61.371340257426255 0 0 0 0 -6.5254598056918667 -23.983617576904862 0 -23.983617576904862 38.189202026874227 0 0 0 0 -2.5808677888794591 -34.067789277432894 0 -34.067789277432894 63.927945804196952 0 0 0 0 0.76746473756804789 -63.299399023627302 0 -63.299399023627302 -32.029297219588443 0 0 0 0 7.7932394650706023 -14.849042243297596 0 -14.849042243297596 26.662748870231379 0 0 0 0 10.608847175804726 8.3385753487239072 0 8.3385753487239072 45.756900626307015 0 0 0 0 -4.8638884878735098 -14.901874557862357 0 -14.901874557862357 46.962414429104001 0 0 0 0 -14.042891163666013 -3.0191903952791108 0 -3.0191903952791108 37.947094321676587 0 0 0 0 -6.5963051438956768 -24.656634425454968 0 -24.656634425454968 42.755470923419125 0 0 0 0 -17.159889913704546 -23.106716184013749 0 -23.106716184013749 36.361879305652593 0 0 0 0 -9.2898986900310092 -14.839653196693007 0 -14.839653196693007 27.037735047325896 0 0 0 0 -8.1931629976608065 -15.051278201905461 0 -15.051278201905461 -18.540062989355192 0 0 0 0 -8.4369853807577329 -31.955147810506787 0 -31.955147810506787 13.558479839131451 0 0 0 0 -2.7760537670884275 -16.95887876669309 0 -16.95887876669309 11.495532083624312 0 0 0 0 12.079419810697516 -29.861869800635759 0 -29.861869800635759 -10.988638069619128 0 0 0 0 14.944894554782932 -10.050222191373734 0 -10.050222191373734 -12.070156542613404 0 0 0 0 13.165636128220168 -21.348257134978866 0 -21.348257134978866 44.278409600242412 0 0 0 0 11.69552061337231 -35.044853067829081 0 -35.044853067829081 28.15127350870398 0 0 0 0 -3.6809556446170291 -15.478574115650645 0 -15.478574115650645 50.002220547908109 0 0 0 0 12.148591108314776 -42.382898512098564 0 -42.382898512098564 86.991430974988361 0 0 0 0 67.212850432345604 -74.026575115263825 0 -74.026575115263825 96.39891103698119 0 0 0 0 99.738702667315962 33.129247296159974 0 33.129247296159974 55.436759370958043 0 0 0 0 22.153367576288872 -23.139620132269101 0 -23.139620132269101 44.623377038578042 0 0 0 0 9.5052230639879554 -1.2352263341206253 0 -1.2352263341206253 -9.1046933728443946 0 0 0 0 41.654779004841984 5.1617681732281397 0 5.1617681732281397 -7.8327769780562448 0 0 0 0 36.914421599092918 -33.931039378490595 0 -33.931039378490595 7.3334139715007041 0 0 0 0 17.20194782011211 -8.1813319127161321 0 -8.1813319127161321 35.975258780268632 0 0 0 0 21.991425809804781 13.983600634432833 0 13.983600634432833 13.349304421653869 0 0 0 0 -10.935481339005245 -2.0101558324022051 0 -2.0101558324022051 165.13606030086066 0 0 0 0 -12.553196075413098 -16.660625043968139 0 -16.660625043968139 69.843843288429753 0 0 0 0 7.9091663628429956 -49.638480419935149 0 -49.638480419935149 64.808656176145178 0 0 0 0 1.1813839294158512 -10.609964848246364 0 -10.609964848246364 26.039308045273856 0 0 0 0 9.7863197673096476 -17.413353384525628 0 -17.413353384525628 22.377205629467426 0 0 0 0 0.16440429836940718 -0.62819758933894576 0 -0.62819758933894576 1.0329941124453583 0 0 0 0 18.361524896482976 60.491755745322337 0 60.491755745322337 167.60185277689288 0 0 0 0 65.883457216283915 -82.901786490626591 0 -82.901786490626591 83.057053574506426 0 0 0 0 14.520392223302792 28.461027422975803 0 28.461027422975803 52.111784936469121 0 0 0 0 -14.037354585787966 16.067049141641291 0 16.067049141641291 118.85581940456791 0 0 0 0 4.631907991932195 6.3536874851671428 0 6.3536874851671428 23.588346529887531 0 0 0 0 1.1038118788005704 5.0345876773635609 0 5.0345876773635609 32.272471524450793 0 0 0 0 -8.5911645922536195 14.49270792648781 0 14.49270792648781 60.68982312963135 0 0 0 0 -16.414227979306816 -0.77670225192105136 0 -0.77670225192105136 74.31476962285501 0 0 0 0 -14.421897337638711 10.005983129940091 0 10.005983129940091 58.756104588836479 0 0 0 0 -1.2879478939650815 -0.1663108823257668 0 -0.1663108823257668 -0.15285091040409776 0 0 0 0 -0.24863545847995283 1.1274164012535408 0 1.1274164012535408 21.459173291789227 0 0 0 0 -0.62413826436309705 -0.36874605431985685 0 -0.36874605431985685 23.579914133420118 0 0 0 0 -2.1020190783274302 -0.056549316052439735 0 -0.056549316052439735 25.397285413600088 0 0 0 0 -3.5405117856887522 5.029623875497232 0 5.029623875497232 5.1534538479439131 0 0 0 0 4.1742778651077685 11.827820778043588 0 11.827820778043588 19.438239272777537 0 0 0 0 -0.85344353587822752 0.5932691041203384 0 0.5932691041203384 21.960295150854307 0 0 0 0 -1.410882490106208 0.17864378205754949 0 0.17864378205754949 3.210899798112095 0 0 0 0 -4.4323555186927024 -2.1867639895561126 0 -2.1867639895561126 29.891454485481617 0 0 0 0 -0.76170928972638707 -2.4080542917491528 0 -2.4080542917491528 5.1925644568438463 0 0 0 0 -1.704110503976608 -2.7641958688932391 0 -2.7641958688932391 5.5116738350969854 0 0 0 0 -64.451095238962637 -96.494121801145937 0 -96.494121801145937 -30.056621546996212 0 0 0 0 -0.90026637063455839 -2.3375491950818024 0 -2.3375491950818024 10.703637318781864 0 0 0 0 -10.346617603659297 3.2114587853639023 0 3.2114587853639023 33.817806292954629 0 0 0 0 6.3020910463917517 1.8965017815894498 0 1.8965017815894498 28.497561541297728 0 0 0 0 -0.54721083257393932 2.8399189087293895 0 2.8399189087293895 4.6089107899430459 0 0 0 0 -2.9876345071307093 1.3014920283087368 0 1.3014920283087368 18.091939506791814 0 0 0 0 -2.9296773083320886 1.7670164175113143 0 1.7670164175113143 24.178233998668702 0 0 0 0 -0.54682009932389797 0.28000378471404219 0 0.28000378471404219 3.1905484859888809 0 0 0 0 7.5549460181669907 -9.8022505575286232 0 -9.8022505575286232 16.239118709896502 0 0 0 0 -18.386271508374421 -5.2767520173142657 0 -5.2767520173142657 37.915475814100319 0 0 0 0 -1.0253919506547788 11.878160957496448 0 11.878160957496448 27.383463882986007 0 0 0 0 -3.6202734618141235 -0.9131674033771624 0 -0.9131674033771624 2.9006361800066776 0 0 0 0 -4.5149453456495507 -4.8086671971323085 0 -4.8086671971323085 21.057083025967245 0 0 0 0 3.8307105356366264 -2.7825365577973571 0 -2.7825365577973571 10.548448345252837 0 0 0 0 1.7814668645918346 -8.0382295223398614 0 -8.0382295223398614 20.445682935709556 0 0 0 0 1.3531740381000716 -12.582592764798648 0 -12.582592764798648 23.292279898512788 0 0 0 0 -2.4964394747254914 -9.6239789702475491 0 -9.6239789702475491 23.837784646342698 0 0 0 0 5.7610060811730364 -30.988189112644477 0 -30.988189112644477 -83.137898188049803 0 0 0 0 -4.7290585092209767 -36.368524229679679 0 -36.368524229679679 -85.657789196729937 0 0 0 0 -57.848996841586541 -5.2343740836240613 0 -5.2343740836240613 39.49302101342937 0 0 0 0 8.9593748332985683 -12.498214277370835 0 -12.498214277370835 -76.685481385375169 0 0 0 0 -15.871165067447691 -17.768235143952552 0 -17.768235143952552 -76.906240221814187 0 0 0 0 -67.969115894700508 -23.907908278495597 0 -23.907908278495597 -40.764637332775237 0 0 0 0 -47.482229726420655 -49.662263311455717 0 -49.662263311455717 -16.605143731312637 0 0 0 0 -4.7017100192861108 -30.909598899137109 0 -30.909598899137109 -17.884131001977948 0 0 0 0 -8.7842454572401039 -65.294249269196371 0 -65.294249269196371 -31.945908456236793 0 0 0 0 -9.1404437249541388 -49.152769313019235 0 -49.152769313019235 -80.29352681074306 0 0 0 0 -8.0369276303790684 -14.056473597685908 0 -14.056473597685908 5.2150503341431431 0 0 0 0 -16.092649270059553 7.2923821976129375 0 7.2923821976129375 82.830542200252239 0 0 0 0 -27.677068482503728 -59.574212308865299 0 -59.574212308865299 -11.653235659045095 0 0 0 0 -38.89343836687874 -52.864715497657471 0 -52.864715497657471 50.963337143693934 0 0 0 0 17.462116861298654 -69.455635667671686 0 -69.455635667671686 46.368250378840457 0 0 0 0 25.976225744721887 5.6168849399127794 0 5.6168849399127794 64.75672197858421 0 0 0 0 -5.9910405544490004 -30.791504627790346 0 -30.791504627790346 33.444211279922456 0 0 0 0 -1.2186203700745097 -4.3647596518375034 0 -4.3647596518375034 6.8823852952172935 0 0 0 0 13.000039876703283 -12.691524553411682 0 -12.691524553411682 104.92847458898905 0 0 0 0 16.931906397351867 1.8750222377497039 0 1.8750222377497039 76.949894671883158 0 0 0 0 -37.743566721673005 25.057715120447938 0 25.057715120447938 92.515630923828212 0 0 0 0 23.476280011911285 -4.069450728387892 0 -4.069450728387892 22.593253035947725 0 0 0 0 -0.021639419604106758 -1.4072408184092762 0 -1.4072408184092762 -0.46134256578658395 0 0 0 0 -60.629703306816509 -36.395865457797754 0 -36.395865457797754 24.49831939036585 0 0 0 0 -118.68196927849374 -17.732333637212378 0 -17.732333637212378 58.992347729187713 0 0 0 0 -33.283944620892157 -38.562159452643073 0 -38.562159452643073 -54.589011866161854 0 0 0 0 0.39343039608925778 0.42829979409087926 0 0.42829979409087926 21.381181410771603 0 0 0 0 -1.5864910695772076 -5.53160071216376 0 -5.53160071216376 13.225307718570971 0 0 0 0 -3.487860555044108 -7.3714834947143402 0 -7.3714834947143402 21.670144438931214 0 0 0 0 20.675302371042363 -20.289978858644986 0 -20.289978858644986 -10.407638083824168 0 0 0 0 -17.984018222186251 -20.21025988754991 0 -20.21025988754991 24.470944181698542 0 0 0 0 -6.6889021602855792 -11.599155265466422 0 -11.599155265466422 14.476892689038834 0 0 0 0 -17.978915388402129 -21.787585656123611 0 -21.787585656123611 6.5557867057032126 0 0 0 0 -2.2851733174758606 -5.2578274437059971 0 -5.2578274437059971 11.069877604439755 0 0 0 0 -7.1218534320119034 0.47215261842933387 0 0.47215261842933387 40.186802813338886 0 0 0 0 2.2375465771588097 -0.46035899353625354 0 -0.46035899353625354 22.645283472435551 0 0 0 0 -5.8144106309863162 0.47790247957363974 0 0.47790247957363974 22.948809313560844 0 0 0 0 -12.829904834566264 -0.99617824209462924 0 -0.99617824209462924 -60.951946903596763 0 0 0 0 -149.16113197882737 -49.086761569710688 0 -49.086761569710688 95.803353299968876 0 0 0 0 88.020684371957486 36.287282214241714 0 36.287282214241714 12.130010788216168 0 0 0 0 19.046790523458412 -54.772089205272096 0 -54.772089205272096 23.422085085353729 0 0 0 0 106.32132654539009 25.475849504295184 0 25.475849504295184 -10.431360983345087 0 0 0 0 -16.55382776602346 -27.152997266836792 0 -27.152997266836792 -9.8331723562487241 0 0 0 0 67.61777498535983 -73.483238863993293 0 -73.483238863993293 -9.7776230081908579 0 0 0 0 7.1515447115964328 -14.981665562667683 0 -14.981665562667683 28.189869833284096 0 0 0 0 -60.832841267527954 -134.07079041811608 0 -134.07079041811608 -45.695914115714913 0 0 0 0 35.955274196415985 -28.404481352127277 0 -28.404481352127277 36.576245727318565 0 0 0 0 -22.514031626817371 -75.430513262100703 0 -75.430513262100703 50.255454937886498 0 0 0 0 -33.936486367988323 10.777775847627709 0 10.777775847627709 10.660010755974326 0 0 0 0 -71.093426232105003 -18.594416386885769 0 -18.594416386885769 48.251286268741296 0 0 0 0 -1.2034990773074528 -0.34826651889229332 0 -0.34826651889229332 -0.23568518989545861 0 0 0 0 28.979086962694964 -38.534092740288088 0 -38.534092740288088 -141.27416450954843 0 0 0 0 -11.875770993936044 -96.794309366440757 0 -96.794309366440757 13.046767449868639 0 0 0 0 15.020962654047935 -96.962266628853286 0 -96.962266628853286 -105.39253049561785 0 0 0 0 -12.765533167157628 -59.131534150552397 0 -59.131534150552397 -15.597189522720555 0 0 0 0 -5.3503556623795703 -53.942848849161237 0 -53.942848849161237 -16.277923632636885 0 0 0 0 6.6162390610939577 -14.613532271524686 0 -14.613532271524686 28.721510027926922 0 0 0 0 39.665321789071641 88.644714938710877 0 88.644714938710877 -68.81568059755682 0 0 0 0 -152.24178726133596 -99.588413592183713 0 -99.588413592183713 111.44697453314438 0 0 0 0 3.2241477725920049 -304.36748869336589 0 -304.36748869336589 327.86008059796586 0 0 0 0 -74.541349379085659 -104.15850151930545 0 -104.15850151930545 73.20562373487337 0 0 0 0 -82.080151768110682 -106.60745634474188 0 -106.60745634474188 108.96813512858671 0 0 0 0 -79.911291292321494 -97.981737869873541 0 -97.981737869873541 70.641304984917952 0 0 0 0 -0.68806825076148925 27.190871791682412 0 27.190871791682412 105.74261819643652 0 0 0 0 -61.605792391880186 278.65955461293561 0 278.65955461293561 -392.73309632426208 0 0 0 0 0.33304934783929951 -0.6403171798556091 0 -0.6403171798556091 1.2365666716426347 0 0 0 0 -25.245116589657755 -31.426378974188992 0 -31.426378974188992 33.660868193517672 0 0 0 0 -15.279477421775937 -40.05471538702659 0 -40.05471538702659 36.278388768827426 0 0 0 0 -32.007558487790448 -74.726694653852974 0 -74.726694653852974 43.025679084930744 0 0 0 0 -20.058782059448276 -13.648372439711238 0 -13.648372439711238 79.579250240642978 0 0 0 0 -37.569456611834539 -15.212124380774185 0 -15.212124380774185 132.38380430152756 0 0 0 0 -30.049186651648185 -55.53359904082464 0 -55.53359904082464 110.48694731705109 0 0 0 0 -106.50761058651506 -7.3921975365401522 0 -7.3921975365401522 37.781193950368106 0 0 0 0 -3.4656512807453042 0.20859460678747332 0 0.20859460678747332 5.9060641981964892 0 0 0 0 3.6382822942702457 -13.182105093790238 0 -13.182105093790238 29.241860348211535 0 0 0 0 -8.7251028170167046 15.834229403157224 0 15.834229403157224 2.5137797310380847 0 0 0 0 -0.62150583993116015 -57.391404123151005 0 -57.391404123151005 79.483422544111818 0 0 0 0 -69.687468439120039 -20.649310121462804 0 -20.649310121462804 114.83251487744838 0 0 0 0 -68.789280255926542 -16.033600509801545 0 -16.033600509801545 -26.64059681760682 0 0 0 0 -36.466261821219632 3.7681741079500171 0 3.7681741079500171 216.04246440357019 0 0 0 0 -39.817817979953702 -32.856426614059274 0 -32.856426614059274 89.96668608136315 0 0 0 0 43.55221457640755 -130.48197460189931 0 -130.48197460189931 186.20292773194342 0 0 0 0 -45.619483957982538 -79.549055520110869 0 -79.549055520110869 159.82721696330191 0 0 0 0 -50.653805467040911 -60.860026301681501 0 -60.860026301681501 92.5452236226065 0 0 0 0 90.381545809348154 -39.578377640540566 0 -39.578377640540566 20.472777767189655 0 0 0 0 234.21539217983968 10.074892511076541 0 10.074892511076541 -11.205345183228303 0 0 0 0 177.08213628944975 -124.1833017567933 0 -124.1833017567933 83.198720514079469 0 0 0 0 142.73554129864345 -109.9304962415647 0 -109.9304962415647 96.245283472811934 0 0 0 0 70.778120309551923 40.638362671499635 0 40.638362671499635 120.04916713059174 0 0 0 0 -49.456785369467241 53.923815795744076 0 53.923815795744076 40.350325574490853 0 0 0 0 -6.9217465243457355 -63.784443233354068 0 -63.784443233354068 61.811514341348811 0 0 0 0 -4.3729566820575201 -21.91901441632217 0 -21.91901441632217 15.04912185782814 0 0 0 0 -46.78812350414637 64.143881273248553 0 64.143881273248553 -27.075132914201959 0 0 0 0 -28.131359924813296 40.653627784373384 0 40.653627784373384 -25.110532654495273 0 0 0 0 -44.891856893902855 63.842955768178854 0 63.842955768178854 16.055148130435555 0 0 0 0 -42.387801997614588 52.971198038009334 0 52.971198038009334 61.913360370694136 0 0 0 0 -20.138977237671043 -9.1728236319449934 0 -9.1728236319449934 92.891057818333138 0 0 0 0 -62.724790680470278 27.755294336318002 0 27.755294336318002 1.92409578547813 0 0 0 0 -64.783173059624005 26.348246787656535 0 26.348246787656535 36.107724108971524 0 0 0 0 -69.272456020588834 30.592356460478186 0 30.592356460478186 16.383146273845341 0 0 0 0 -4.6420916350228296 -6.7667751279425801 0 -6.7667751279425801 17.03944519650069 0 0 0 0 -5.3661934262307955 -3.3293330114826372 0 -3.3293330114826372 8.8263260588259911 0 0 0 0 -5.7952306931541671 -8.1472045736727523 0 -8.1472045736727523 17.844332430344366 0 0 0 0 -9.8851808836582222 -2.079822574460195 0 -2.079822574460195 12.889069347467739 0 0 0 0 -4.276152944558814 -2.4096826563662503 0 -2.4096826563662503 14.848382966059688 0 0 0 0 -54.205706666162996 45.470410612309024 0 45.470410612309024 -13.267963966089155 0 0 0 0 -51.098741366952027 37.918448759626699 0 37.918448759626699 -37.473359230714777 0 0 0 0 -7.0444002313435821 -1.9374240390858457 0 -1.9374240390858457 8.9276435616228582 0 0 0 0 -0.11363527022644981 -0.054895400258642368 0 -0.054895400258642368 -0.76724179727750652 0 0 0 0 0.82040641617095389 -20.546990786097922 0 -20.546990786097922 5.7297246844218535 0 0 0 0 -3.3728134959056213 -8.842332190570211 0 -8.842332190570211 3.548682274969762 0 0 0 0 35.578276078873841 -23.942338310686864 0 -23.942338310686864 0.82100016343338211 0 0 0 0 20.308449754783851 4.1965277081599197 0 4.1965277081599197 33.096866430701311 0 0 0 0 -0.41876805926813176 -51.935731808283435 0 -51.935731808283435 17.943910870362743 0 0 0 0 85.352955437311948 -8.4823533752369258 0 -8.4823533752369258 42.716192421127516 0 0 0 0 5.5475653253170734 -3.4664705566342491 0 -3.4664705566342491 42.411744323993844 0 0 0 0 -12.267052489186426 20.721977411441912 0 20.721977411441912 90.047489117134319 0 0 0 0 -255.29356130941323 64.068618456087279 0 64.068618456087279 152.06862259498121 0 0 0 0 69.775436746889682 186.44522598894582 0 186.44522598894582 190.68084592239757 0 0 0 0 -20.59399043312601 22.5551462788344 0 22.5551462788344 89.646181086339766 0 0 0 0 -244.08003944297116 64.973960904917476 0 64.973960904917476 64.425047748574798 0 0 0 0 -2.1419565621110142 -0.51338655724111604 0 -0.51338655724111604 -0.32007797916257985 0 0 0 0 -33.47459392760004 105.12632945124233 0 105.12632945124233 -220.03844171157471 0 0 0 0 -21.925803029271719 -2.740146244565949 0 -2.740146244565949 45.414255240095372 0 0 0 0 4.687190775937097 9.9433474680690779 0 9.9433474680690779 10.091846881423407 0 0 0 0 -26.348082109248708 63.071871990178806 0 63.071871990178806 -83.665761247279079 0 0 0 0 -6.4695022905722466 -2.2700419021965956 0 -2.2700419021965956 0.57531819283055441 0 0 0 0 -24.459279347172469 -9.1406624617927719 0 -9.1406624617927719 33.261555033934201 0 0 0 0 -14.680725384045099 -1.5987118821628599 0 -1.5987118821628599 2.4240874209687013 0 0 0 0 -11.845078206934659 -10.173914913090584 0 -10.173914913090584 11.918281686189403 0 0 0 0 -14.424554253619135 -9.0896370749992457 0 -9.0896370749992457 23.490160952734641 0 0 0 0 -17.097422258979805 -2.8636778681960777 0 -2.8636778681960777 24.810656188648863 0 0 0 0 -32.346760312021843 -11.7084350672244 0 -11.7084350672244 19.937837139057592 0 0 0 0 -18.955116769211831 -2.7005918579873569 0 -2.7005918579873569 1.2903062704661643 0 0 0 0 -30.009140133477104 -4.6033998354164396 0 -4.6033998354164396 28.728796512141571 0 0 0 0 -6.7426207695925768 -18.904476726333769 0 -18.904476726333769 15.817338900825916 0 0 0 0 -19.32629374939097 -0.10085223248688635 0 -0.10085223248688635 23.815834758959681 0 0 0 0 -9.3407514244820398 -2.1179614966855866 0 -2.1179614966855866 15.735030459494734 0 0 0 0 -9.8705535215833606 -3.2641024727445256 0 -3.2641024727445256 5.6659143594081343 0 0 0 0 -34.884621329673593 3.6741676900614664 0 3.6741676900614664 23.206108048744227 0 0 0 0 -10.132433527737476 -4.4771020557968768 0 -4.4771020557968768 15.769559401473316 0 0 0 0 -14.265613491067143 -9.546360221071609 0 -9.546360221071609 18.299831680607895 0 0 0 0 -6.1943224807132538 7.7399469111210237 0 7.7399469111210237 24.031906670729541 0 0 0 0 -5.1281495086272626 -2.5199627078402536 0 -2.5199627078402536 18.828026078041738 0 0 0 0 -12.899797521920618 -5.7073935876587711 0 -5.7073935876587711 22.592079051891233 0 0 0 0 -14.295554097519418 1.4877911320941948 0 1.4877911320941948 11.179481213964104 0 0 0 0 -49.948187786438211 -10.986239863726723 0 -10.986239863726723 46.334163248065011 0 0 0 0 0.58501663247283542 -11.931684136849842 0 -11.931684136849842 34.645435014835854 0 0 0 0 -35.332527306667316 -46.430288351207764 0 -46.430288351207764 23.326286026418529 0 0 0 0 -50.678844126809054 -55.997911793291678 0 -55.997911793291678 36.864066267557064 0 0 0 0 -24.295788709847784 31.836944772036645 0 31.836944772036645 85.971039392302373 0 0 0 0 -3.1487250316092563 -0.86917762472398419 0 -0.86917762472398419 1.4762094432450024 0 0 0 0 -36.809752574009508 26.111315943135196 0 26.111315943135196 47.318742413985092 0 0 0 0 -43.199306074682681 0.9089894223684496 0 0.9089894223684496 73.428117569598726 0 0 0 0 -19.609561684312666 -23.402688646564457 0 -23.402688646564457 57.383324304606958 0 0 0 0 -52.955227649770677 22.488118973272321 0 22.488118973272321 15.283763558861665 0 0 0 0 -146.40953172066929 6.7047725532374898 0 6.7047725532374898 16.342312480549481 0 0 0 0 2.8417988166148387 10.477036683823624 0 10.477036683823624 28.225107119442924 0 0 0 0 -40.76167715597694 10.201385012552578 0 10.201385012552578 23.426319907712241 0 0 0 0 -0.7886272439370714 -12.091534923891913 0 -12.091534923891913 13.069623224011593 0 0 0 0 -61.348549456987939 -32.190667047662487 0 -32.190667047662487 6.5785784511490419 0 0 0 0 -30.587674329772199 -5.4376729522264213 0 -5.4376729522264213 78.94809951753723 0 0 0 0 -46.393615887313899 -22.926889232566737 0 -22.926889232566737 -6.9232403698224516 0 0 0 0 1.1371682334971034 -4.8560020105205011 0 -4.8560020105205011 17.273474369555466 0 0 0 0 -65.523287512030265 -49.398364808996121 0 -49.398364808996121 61.46289795533994 0 0 0 0 2.7238638735508207 -8.2717958052921681 0 -8.2717958052921681 26.640229598803547 0 0 0 0 69.341142582699376 48.541120038346435 0 48.541120038346435 26.424849055389132 0 0 0 0 97.249924552099287 88.345236024419648 0 88.345236024419648 227.81643616385645 0 0 0 0 29.649701364004613 67.588160739955129 0 67.588160739955129 192.57375754257191 0 0 0 0 212.6165894783544 84.730326681540646 0 84.730326681540646 129.0127418878651 0 0 0 0 131.45317915652413 153.22790293751359 0 153.22790293751359 62.936960619028468 0 0 0 0 -64.625441066937128 -30.927732096354248 0 -30.927732096354248 -8.2870265278079387 0 0 0 0 -0.028824543809662373 -1.0972168210565769 0 -1.0972168210565769 6.4665988851914378 0 0 0 0 -814.05931425317431 -231.72418855786668 0 -231.72418855786668 343.50631127394672 0 0 0 0 -86.052910493220224 14.422045722140638 0 14.422045722140638 -17.282746958338521 0 0 0 0 2.5338013551660019 9.7843359521558728 0 9.7843359521558728 26.154390784634458 0 0 0 0 -15.707061220408377 140.3327036812434 0 140.3327036812434 13.128947245865334 0 0 0 0 235.05888434164626 101.06838412081925 0 101.06838412081925 222.93514308389695 0 0 0 0 44.759958882447613 -24.930090660900007 0 -24.930090660900007 122.8872717471022 0 0 0 0 45.247541938602069 144.97962456600811 0 144.97962456600811 224.25435203701272 0 0 0 0 12.785979339115443 53.337184193911526 0 53.337184193911526 323.2010305733138 0 0 0 0 -4.9225152681704003 -1.4234658168688838 0 -1.4234658168688838 121.8264852259872 0 0 0 0 60.003878105562535 54.623011787619362 0 54.623011787619362 87.545941514993501 0 0 0 0 32.549022658903255 100.04509211189406 0 100.04509211189406 200.14044509192354 0 0 0 0 128.59037246532364 183.6494451917365 0 183.6494451917365 213.49175432759876 0 0 0 0 79.767487492605369 114.42071759311011 0 114.42071759311011 163.98400949519146 0 0 0 0 136.61393887438598 214.84932099339659 0 214.84932099339659 223.39686997192075 0 0 0 0 281.46607055276075 117.13883218260889 0 117.13883218260889 288.40244971179027 0 0 0 0 283.63726000779059 243.61880296610479 0 243.61880296610479 106.41043236008773 0 0 0 0 68.446988121363859 199.78912248322331 0 199.78912248322331 570.12399866767919 0 0 0 0 194.56336917222825 496.06108842815775 0 496.06108842815775 229.04060330633729 0 0 0 0 2.2392330069108728 3.4605882974622588 0 3.4605882974622588 4.1498411421739441 0 0 0 0 205.02123121384966 525.10154240997883 0 525.10154240997883 -76.309051181413452 0 0 0 0 293.5654880074411 280.18175430298686 0 280.18175430298686 -217.70232009414121 0 0 0 0 -83.191096009269131 272.21748935128016 0 272.21748935128016 627.13384457398934 0 0 0 0 23.809888392506309 13.738027373390651 0 13.738027373390651 27.030671185055326 0 0 0 0 -258.4701515905117 -74.034901989779883 0 -74.034901989779883 458.31397710534111 0 0 0 0 120.61015375605615 388.07267620821267 0 388.07267620821267 441.25891780071106 0 0 0 0 -141.97074147603757 161.6950607442941 0 161.6950607442941 422.16631003348994 0 0 0 0 -12.450246424034049 277.09286535605702 0 277.09286535605702 406.62624046652672 0 0 0 0 -100.60508114673257 234.83777268276572 0 234.83777268276572 332.19613032518282 0 0 0 0 9.8036113797684266 262.92170853575226 0 262.92170853575226 316.41014981573244 0 0 0 0 26.997550134346056 136.05023658059235 0 136.05023658059235 472.61748054170675 0 0 0 0 40.308670183191225 267.19991300472248 0 267.19991300472248 338.97996098187105 0 0 0 0 73.008926466236062 213.61107427144179 0 213.61107427144179 275.46281634397019 0 0 0 0 5.6029238034241189 90.230204206487997 0 90.230204206487997 219.55481000202781 0 0 0 0 122.55317308726944 97.599154651898971 0 97.599154651898971 144.05802256617153 0 0 0 0 19.849537348442936 102.45569297577867 0 102.45569297577867 203.28807706328189 0 0 0 0 -29.6005658718841 68.94820359203004 0 68.94820359203004 209.52741323924204 0 0 0 0 18.175521689381299 -2.3140187575879736 0 -2.3140187575879736 65.525915031166733 0 0 0 0 75.883441870141723 -3.2786304268493041 0 -3.2786304268493041 56.563810401737555 0 0 0 0 70.719951285532261 9.2856460970951957 0 9.2856460970951957 139.8772880332458 0 0 0 0 26.234634501771325 -74.158566263764442 0 -74.158566263764442 36.027476520824166 0 0 0 0 -40.449756398238378 -16.456044027209145 0 -16.456044027209145 -3.7362525523385557 0 0 0 0 117.7711638271071 44.126605989280506 0 44.126605989280506 -18.503978121305636 0 0 0 0 -137.13034735328256 431.06022020316868 0 431.06022020316868 -356.3411882189755 0 0 0 0 -185.90938903425058 -1.8682738445354516 0 -1.8682738445354516 52.131913096522112 0 0 0 0 -8.9524591195440735 -19.174177854008121 0 -19.174177854008121 -136.47306997079147 0 0 0 0 -17.420660971619782 56.565374357575138 0 56.565374357575138 48.206466083251144 0 0 0 0 -171.99721516473801 208.69059551713781 0 208.69059551713781 -103.09859245774646 0 0 0 0 7.1604695229447586 11.948525449401112 0 11.948525449401112 17.403055551230111 0 0 0 0 -139.22040073414905 34.628013918315446 0 34.628013918315446 238.83741981443382 0 0 0 0 6.7779552341457929 -87.490755310367604 0 -87.490755310367604 221.66818771942894 0 0 0 0 18.7909268390531 -259.71536160314827 0 -259.71536160314827 863.16191505158531 0 0 0 0 -54.735367423430603 -26.967320651143837 0 -26.967320651143837 503.72247154790057 0 0 0 0 142.99314280731414 311.62233297681996 0 311.62233297681996 -24.130599679456566 0 0 0 0 2.9579841428976863 4.3659365113989317 0 4.3659365113989317 6.8424334654173364 0 0 0 0 27.009108946132983 287.69878507237536 0 287.69878507237536 685.95656024164055 0 0 0 0 -7.2159559323254143 -216.86150343466397 0 -216.86150343466397 764.64758759398273 0 0 0 0 -103.7681593519942 227.38643644945296 0 227.38643644945296 873.62129811273542 0 0 0 0 389.15943531643052 139.0503463336272 0 139.0503463336272 35.582700801713145 0 0 0 0 6.8814684184479233 0.37077374815451947 0 0.37077374815451947 0.40444920140580365 0 0 0 0 40.636632617586201 58.854475310631642 0 58.854475310631642 296.07228611100118 0 0 0 0 -22.967340426801456 54.850111682933857 0 54.850111682933857 569.3839772837855 0 0 0 0 79.639622670085373 58.807969567484179 0 58.807969567484179 522.42290580062172 0 0 0 0 -40.696509596184114 105.92659466054283 0 105.92659466054283 429.75504444189937 0 0 0 0 25.585531808973428 11.004995838100513 0 11.004995838100513 258.28235993346925 0 0 0 0 5.6437941946642631 0.90807196167767756 0 0.90807196167767756 0.63025626101167376 0 0 0 0 14.779865235941998 -6.1322458842405467 0 -6.1322458842405467 249.23147683414572 0 0 0 0 112.6165267661604 -51.883821984552014 0 -51.883821984552014 234.53377417364072 0 0 0 0 25.816481720652519 19.581080592380204 0 19.581080592380204 242.70484677099557 0 0 0 0 71.477453672779347 -3.3992457254025794 0 -3.3992457254025794 177.95662217268182 0 0 0 0 52.32950105733471 41.268223824852612 0 41.268223824852612 158.72297815268939 0 0 0 0 62.522930993382943 42.964694282611163 0 42.964694282611163 219.71622511198439 0 0 0 0 25.232843886559181 22.558229056059872 0 22.558229056059872 228.74739126656459 0 0 0 0 63.988562883710301 21.176504597898429 0 21.176504597898429 150.24366288072633 0 0 0 0 56.184653928988155 55.820497354769941 0 55.820497354769941 200.5696663559329 0 0 0 0 51.168900501533585 41.585159124626898 0 41.585159124626898 219.66558494523451 0 0 0 0 90.13255398872559 -42.455325251704721 0 -42.455325251704721 107.59870629568104 0 0 0 0 109.98185510742337 55.541294181491139 0 55.541294181491139 131.96639297486308 0 0 0 0 311.74597592556938 -20.667854897115831 0 -20.667854897115831 145.68592386549608 0 0 0 0 134.94395928183781 8.9021620067933327 0 8.9021620067933327 156.04032542282494 0 0 0 0 41.60184279302166 -90.920190225469923 0 -90.920190225469923 129.77367940454582 0 0 0 0 28.810042005942933 -108.6942300770279 0 -108.6942300770279 106.67621105971557 0 0 0 0 -24.139704383028857 -63.030249038161855 0 -63.030249038161855 89.296356975649815 0 0 0 0 -80.443247912632614 -42.228480121209941 0 -42.228480121209941 128.44714242335976 0 0 0 0 104.74830265239882 -124.41650110435694 0 -124.41650110435694 118.19098682381809 0 0 0 0 62.962760372879529 -61.140157459605689 0 -61.140157459605689 49.808318304520071 0 0 0 0 73.669956378287225 -11.69049888135487 0 -11.69049888135487 209.79066378150037 0 0 0 0 -18.227043181877889 245.0471832237472 0 245.0471832237472 62.55762678338715 0 0 0 0 -33.340006316572499 -78.20289810893064 0 -78.20289810893064 86.710518332647553 0 0 0 0 32.083071203334356 157.03802214187056 0 157.03802214187056 178.64290253725267 0 0 0 0 31.457724206832381 151.12198950032143 0 151.12198950032143 408.67504737918352 0 0 0 0 281.2653132014234 63.6570486886867 0 63.6570486886867 376.01940619475681 0 0 0 0 120.12094589763092 197.9292833294794 0 197.9292833294794 392.67129188119543 0 0 0 0 124.83570670658855 -164.62937045625313 0 -164.62937045625313 295.32223927173982 0 0 0 0 3.2561766355721371 -0.370186857765745 0 -0.370186857765745 0.49174182964317037 0 0 0 0 150.31609751267524 169.9710822249499 0 169.9710822249499 391.5563019756537 0 0 0 0 151.05108035249987 -106.38072129909506 0 -106.38072129909506 323.79669745272622 0 0 0 0 
</DataArray>
<DataArray type="Float64" Name="cross_section_updated" format="ascii">
0.010001229881321454 1 1 1 1 1 1 1 1 0.010255650835898515 1 1 0.010680176940195725 1 1 1 1 1 1 1 0.010902735889494775 0.010002457141183536 1 1 1 1 1 1 1 1 1 1 1 1 1 1 1 1 0.0097865487860095968 1 1 1 1 0.011264461904244247 1 1 1 0.009980716033086319 1 1 1 1 1 1 1 0.013170937318658094 1 1 1 0.0098833821755386925 1 0.0095337322227827693 1 1 0.0098982344693821032 1 1 1 1 0.011228171735327617 1 1 0.0099978272716932711 0.010249266388956874 1 1 0.010545404228026191 1 1 1 1 0.010020876737361951 0.010620642338800196 1 1 1 1 0.010601551973719986 0.010156437443469347 1 1 1 1 1 0.011162582822498844 0.0098135214684781716 1 1 1 1 0.010616826058786869 0.010009707282621646 1 1 0.0099520093566687756 1 0.0096974657618766943 1 0.010000158387802292 1 0.010927182928804563 1 1 0.010101582445216891 1 0.0098210008922954249 1 1 1 1 1 0.010002111321613707 1 0.010638690258360735 0.010038729538408212 0.010712791260965093 1 0.011064413803829533 0.010421643592833435 1 1 1 0.01106602990566539 1 0.0095580781253116649 1 1 1 1 1 1 1 1 0.010496421519688768 1 0.009987985124677955 1 1 1 1 0.009997493996723299 1 1 0.0099850299762340305 1 1 1 1 1 1 1 1 0.010002015810363351 1 1 1 1 1 1 1 1 1 1 1 1 1 1 1 1 1 1 1 1 0.010000901290712568 1 1 1 1 1 1 1 1 1 1 1 1 1 1 1 1 1 1 1 1 1 1 1 1 1 1 0.010574773357190759 1 1 1 1 1 1 1 1 1 1 1 1 0.0097846379214587657 1 1 1 1 1 0.0095717193079444436 1 1 1 1 1 1 1 1 1 1 0.009927430861196445 1 1 1 1 1 0.011900162778397774 1 1 1 0.0099824161341771703 1 1 1 1 1 0.011879661077651545 1 1 0.010201065318517968 1 0.010038229941887612 1 1 1 0.011505051664868225 0.0097215555162703908 1 0.010937916097221103 1 1 1 0.01186856465784062 1 1 1 1 1 1 0.011977482501403864 1 1 0.0099512103150469246 1 0.01010962139768164 1 1 1 1 1 0.010184457139016927 1 1 0.011553359558181504 0.01263336111035961 1 1 1 0.01256684989370422 1 1 1 0.01003716226845399 1 1 0.011334842571462724 1 1 1 1 1 1 1 1 1 0.0098515626482507113 1 1 1 1 1 1 1 1 1 1 1 1 1 1 1 1 1 1 1 1 1 1 0.011834225322733467 1 0.012015265917033382 1 1 1 1 1 1 1 0.0099982522005955983 1 1 1 1 1 1 0.0097787383299275561 1 1 0.010467538361323355 1 1 1 1 1 1 0.010363983105198848 0.012439163978913812 1 1 1 1 0.010006191341515567 0.0098692569902825121 1 1 1 1 0.011123088778944532 1 1 1 1 0.011583021550004818 1 0.0099286817007637994 1 0.010923904125360664 0.011824878335367059 1 1 1 1 1 1 0.010027278238654546 1 1 0.010370127908857694 1 0.0099917219032396084 1 1 1 1 1 1 1 1 1 0.010132349158472274 1 1 1 1 1 1 1 1 0.010129450050140612 1 1 1 0.010309232909280156 1 1 1 1 1 0.010179782859139541 1 1 1 1 1 1 1 0.010645621306572886 1 1 0.0098977096403238141 1 0.010170594294491674 0.010193420337893925 1 1 1 1 1 1 1 1 1 1 1 1 1 1 1 1 1 1 1 1 1 1 1 1 1 1 1 1 1 1 1 1 1 1 1 1 1 1 1 1 1 1 1 1 1 1 1 1 0.010175886378829886 0.010177649355052427 1 1 1 0.010009340890802935 1 1 1 1 1 0.0099850838483731639 1 1 1 1 1 1 1 1 1 0.010398241584169928 1 1 1 0.010410906790438441 1 0.0099598672835975594 1 1 1 1 1 0.0099747834352243939 1 1 1 1 1 1 1 1 0.010188551585098401 1 1 1 1 1 1 1 1 1 1 1 1 1 1 1 1 1 1 1 1 1 1 1 1 1 1 1 1 1 1 1 1 1 1 1 1 1 1 1 0.010023061300531256 1 1 0.0099947324259795703 1 1 0.0099844983024586793 1 1 1 1 1 1 1 1 1 1 1 1 1 0.010044198207597291 1 1 1 1 1 1 1 1 1 0.010102182190394974 1 1 1 1 1 1 1 1 0.0119751774905093 1 1 0.010017561327004498 1 1 0.011609213338972366 1 1 1 1 1 1 0.009933025488264453 0.010999840099363497 1 1 1 1 1 1 0.0099927859546516205 1 1 1 1 1 1 1 1 1 1 1 1 1 0.010385999731832522 1 1 1 1 1 1 1 1 1 1 1 1 1 1 1 1 1 1 1 1 1 1 1 1 1 1 1 1 1 1 1 1 1 1 1 1 1 1 1 1 1 1 1 1 1 1 1 1 1 1 0.010176378418289857 1 0.019947365843478611 1 1 1 0.010283044980005852 1 1 0.01049153672105968 0.011998967143911736 1 1 0.018712132569558587 1 1 1 1 1 0.008999448163070297 1 1 1 1 1 1 1 1 0.013428016309284359 0.0094037928151770086 0.015502039038917132 1 1 1 1 1 1 1 0.01102976651287456 1 1 1 1 1 1 1 1 1 1 1 1 1 1 0.0099091932204763561 1 1 1 1 1 1 1 0.0098084577757711552 1 1 1 1 1 1 0.0097800979200430745 1 1 1 1 0.0098636906542183371 1 1 1 0.01078361077189826 1 1 1 1 1 1 0.010000234238738703 1 1 1 1 1 1 1 1 1 1 1 1 0.01007822006717075 1 1 1 1 1 1 1 1 0.010442462233834464 1 0.010102801937427746 1 0.010728729426095296 1 0.01080912909850007 1 1 1 1 0.01000490346800951 0.0083852456084771449 1 1 1 0.010033811696811588 0.013351503842658652 1 1 0.013492213045578273 1 1 1 1 1 1 1 1 1 1 1 1 1 1 1 1 1 0.013559737171681824 1 1 1 1 1 1 1 0.016412654900744547 0.009996252995706733 1 1 1 0.010493205662044298 1 1 1 1 1 1 1 1 1 1 0.010561124590884921 1 1 1 1 0.010127504759248935 1 0.011750096223509799 1 1 1 1 1 1 1 0.012892359591731527 1 1 1 0.0095800051250767952 1 1 1 1 1 1 1 1 1 1 1 1 1 0.01066748538406828 1 1 1 1 1 0.011014841802033166 1 1 1 1 1 1 1 1 1 1 1 1 1 1 1 0.01087261221909102 1 1 1 1 1 0.01034213428021032 1 0.010213768172920031 1 1 1 1 1 1 1 1 1 0.010368363238502352 1 1 1 1 1 1 1 1 1 1 1 1 1 1 1 1 1 1 1 0.011822631030709272 1 0.015289859201779261 1 1 1 1 1 1 1 1 1 1 1 1 1 1 1 1 1 1 1 1 0.010895142867685389 1 1 1 1 1 1 1 1 1 1 0.01094302169317633 1 1 1 1 1 1 1 1 1 0.010558789136009945 1 1 0.017243212864921205 1 1 1 1 0.018344903741300916 1 1 1 1 1 1 1 1 1 1 1 1 1 1 1 0.010425832121340031 1 1 1 0.011181803178030832 1 1 0.0099809888275684978 1 1 1 1 1 1 1 1 1 1 1 1 1 1 1 1 1 1 1 1 1 1 1 1 1 0.010105448672160311 1 1 1 1 1 1 1 1 1 1 1 1 1 1 1 1 1 1 1 1 1 1 0.010021210956449476 1 1 1 1 0.010118313515469362 1 1 0.011644732101444222 1 0.01193796165550055 1 1 1 1 1 0.0093185985765389581 1 1 1 1 1 1 1 0.010146539359805 1 1 1 1 1 1 1 0.010142313825224115 1 1 1 0.0095155298815061094 1 1 1 1 1 1 1 1 1 1 1 1 1 1 1 1 1 0.011803630680316212 1 1 1 0.010249242592280777 1 0.0099110758361384069 1 1 1 1 0.010506943452002662 0.011203478245391817 1 1 1 1 1 1 1 1 1 1 1 1 1 1 1 1 1 1 1 0.0099977592983450294 1 1 1 0.010003084457738266 1 1 0.0096776545562468532 1 1 0.01154134318021933 1 0.0090095598094442272 1 1 0.0093780665202816138 1 1 1 1 1 1 1 1 1 1 1 1 1 1 1 1 0.010209083762008565 0.0097894755674626105 1 1 1 1 1 0.010710205833989739 1 1 1 1 1 1 1 1 1 1 1 1 1 1 1 1 0.011554327275622663 1 1 1 1 1 0.011205805760357053 1 1 1 1 1 1 1 1 1 1 1 1 1 1 1 1 1 0.010060721806139842 1 1 1 1 0.0098142221201508919 1 1 1 1 0.0097426191552133379 1 1 0.009670963273392931 1 1 0.0095171315763951138 1 1 1 1 1 1 1 1 0.0098953306394513676 1 1 1 1 1 1 0.0099950832303684189 1 1 1 0.0099993117580934009 1 0.01001247860206036 1 1 1 1 0.011532755082838899 1 0.011186673378011887 1 1 0.011133665682977398 1 1 1 1 1 0.01111822273118436 1 1 1 1 1 0.012480204666052633 1 1 1 0.0096439767293215323 0.010152083059682869 1 1 1 0.0098906966625100338 1 1 0.010477739957194353 1 1 1 1 1 1 1 1 0.010007733569127415 1 1 1 1 1 1 1 1 1 1 0.010778310211984186 1 1 1 0.0099936339164458637 1 1 1 0.010633447897374134 1 1 1 1 1 0.01082945415275762 1 1 1 1 1 1 1 1 1 1 1 1 1 1 1 1 1 1 1 1 1 1 1 1 1 1 1 1 1 1 1 1 1 1 1 1 0.010017497338431259 1 1 1 0.01001108323095617 1 1 1 1 1 1 1 1 0.011078559412812649 1 0.011047555261883094 1 1 1 1 1 1 1 1 1 0.0098375224726035965 1 1 0.0095849974553850852 1 1 1 0.011015626204224176 1 1 1 1 0.01240156485184076 1 1 1 1 1 1 1 1 1 1 0.010009958023381071 1 1 1 1 1 1 0.0099548797373199462 1 1 1 1 1 0.015214990605300993 1 1 0.014426471104038351 1 0.011256379994814788 1 1 1 0.012722164316093276 1 1 1 0.010586275328423682 1 1 1 1 1 0.010013913606762336 0.010476831485968684 1 1 1 1 1 1 1 1 1 1 1 0.010013776984464243 1 0.010869089124138503 1 1 0.0094067707724906566 1 1 1 1 1 1 1 1 1 0.0096762475915918612 0.0094852534077586332 1 1 1 1 1 0.011360021408453368 1 0.010968894211018357 1 1 1 1 1 0.0098672457853816939 1 1 1 0.013779845619269197 1 0.015050066299603974 1 0.010046676555682869 1 1 1 1 1 1 1 1 1 1 1 1 1 1 1 1 1 1 1 1 1 0.010338748041266242 1 1 1 1 1 1 1 1 1 1 1 1 1 1 1 1 1 1 1 1 1 1 1 1 1 0.0099048258396779026 1 0.014591003005334629 1 1 0.011129149711619893 1 0.012263048770691065 1 1 1 1 0.013149558496734593 1 1 1 1 1 1 1 1 1 1 1 0.010169866893939814 1 1 1 1 1 1 1 0.0099818735112961569 0.02097049812737135 1 1 1 1 1 1 1 1 1 1 1 1 1 1 1 1 1 1 1 1 1 1 1 0.021596788523155351 1 1 1 1 1 1 1 1 1 1 1 1 1 0.012166283174419897 1 1 1 0.010801594159387655 1 1 1 1 0.010905713494154696 1 1 1 1 1 1 1 1 0.011523655250164258 1 1 1 1 1 1 1 1 1 1 1 1 1 1 1 1 1 1 1 1 1 1 1 0.01019351301902599 1 1 1 1 1 0.0098720004195628659 1 1 0.0095959966895610999 1 1 1 1 1 1 1 1 1 1 1 1 1 1 1 1 1 1 1 1 1 1 1 1 1 1 1 1 1 1 1 1 1 1 0.010067056396674247 1 1 1 1 1 1 1 1 1 1 1 1 1 0.01028749201595244 1 0.0099547668940171349 1 1 1 1 1 1 1 1 1 1 1 1 0.011449408269901493 1 1 1 1 1 0.0092622639028024818 1 1 1 1 1 1 1 1 1 1 1 0.01128070644418799 1 1 1 0.010226953510101375 1 1 1 1 0.010819556153316645 1 1 1 1 1 1 1 1 1 1 1 1 0.0097007363238268245 1 1 1 1 0.010114451164040212 1 0.0099823050217619953 0.0098095811741326956 1 1 0.011065141809811234 1 1 1 1 1 1 1 1 1 1 1 1 1 1 1 1 1 1 1 1 1 1 1 0.010537037469482062 1 1 1 1 1 1 1 1 1 0.010502867021200084 1 1 1 1 1 0.010594609891584698 1 1 1 1 1 1 1 1 1 1 1 1 1 1 1 1 1 1 1 1 1 1 1 1 1 1 1 1 1 1 1 1 1 1 1 1 1 1 1 1 1 1 1 1 1 1 1 1 1 1 1 1 1 1 1 1 1 1 1 1 1 1 1 1 1 1 1 1 1 1 1 0.01054605097784608 1 1 1 1 1 1 1 1 0.011452599114111839 1 1 1 1 1 1 1 1 1 1 1 1 1 1 0.010106475467277954 1 1 1 1 1 1 1 1 1 0.010251997695778023 1 1 1 1 1 1 1 1 1 1 1 1 1 1 0.01154396809411049 1 1 1 0.010040011501431984 1 1 1 1 0.012320706540160249 0.009999992000974782 1 0.010033701176224697 1 1 0.011991331739906397 1 1 0.012967999401477083 1 0.01552459894190546 0.0094256968789932366 1 1 1 1 1 0.010378520401729313 1 1 1 1 1 1 0.021676580332510204 1 1 0.0099409496581751213 0.013996371056768288 0.0085782321830025349 1 1 1 1 0.010105535719682762 1 0.01072161337521272 1 1 1 1 1 1 0.012678947051458472 1 1 0.013278093403196047 0.011576579166263253 1 1 1 1 1 1 0.010594316175240426 0.011549882593747772 1 1 1 1 1 1 1 1 1 1 0.011048993586300562 1 0.010128583733275786 1 1 1 1 1 1 0.010375656889133694 1 1 1 1 1 1 1 1 1 1 1 1 1 1 1 1 1 1 0.010285255889410606 1 1 1 1 1 1 1 1 1 1 1 1 1 1 1 1 1 1 1 1 1 1 1 1 1 1 1 1 1 1 1 1 1 1 1 1 1 1 1 1 1 1 1 0.0098569680868119645 0.0097907486998071308 1 1 1 1 1 1 1 1 1 1 1 1 1 1 1 1 1 1 1 1 1 1 1 1 1 1 1 1 1 1 1 1 1 1 1 1 1 1 1 1 1 1 1 1 1 1 1 0.010355588217819484 1 1 1 0.010504356370097688 1 1 1 1 0.009859857637179302 1 0.010523543044241232 1 1 1 1 1 1 0.0095883013564617373 1 1 1 0.009521881205951592 0.0092866163551007762 1 1 1 0.0099871030845639086 1 0.010821677030565309 1 1 1 0.011050345795796754 1 1 1 0.010368841373004062 1 1 0.010714774937116207 1 1 0.0087128163097494188 1 0.0096483036405040114 0.010406491130760372 1 0.0093549171947137546 0.0096500452898184343 1 1 0.010511506792924393 1 0.011756827617946239 1 1 1 1 0.010212219561086413 0.012449122152888355 1 1 1 1 0.014270235613177853 1 1 0.013835563181208155 1 1 0.010084195489306169 0.013334911238914325 0.0098752350198192587 1 0.010776416611008262 1 1 1 0.013355350980365582 1 0.013951356125370826 1 1 0.0099970723316022778 1 1 1 0.010400048837709803 1 1 1 1 1 1 1 0.010051898580695358 1 1 1 0.012093679896533526 1 1 1 1 1 1 1 0.010714365095086598 1 1 1 1 1 1 1 1 1 1 1 1 1 1 1 1 0.01339402388004635 0.013416510694165962 1 1 1 0.012697709614323089 1 0.013427707396847052 1 0.009723248415574804 1 1 1 1 0.010778181087708873 1 0.010183699139453446 1 1 1 1 1 1 1 0.014718841236566554 1 1 0.0099833899469891681 1 1 1 1 1 1 0.0099619427691258252 1 1 1 1 1 1 1 1 1 1 1 0.010208572837580336 1 1 1 1 1 1 1 1 1 1 1 0.010050440270629993 1 1 1 0.010016328266003873 1 1 1 1 1 1 1 1 1 1 1 1 1 1 1 1 0.011023979737560499 1 1 1 1 0.0127391538440209 1 1 0.010002610057048132 1 1 1 1 0.013903950660972178 1 1 0.01008229869592802 1 1 1 1 1 1 1 1 1 1 1 1 1 1 1 1 1 0.010320816016575696 1 1 1 1 1 1 1 1 0.009887709408126286 1 1 1 1 1 1 1 1 1 1 1 1 1 1 1 1 1 1 1 1 1 1 0.011909325422322394 1 1 1 1 0.010296125872536931 1 1 1 0.0096962726227530355 1 0.010036722061674254 1 1 1 1 1 1 1 1 0.010302907951030796 1 1 1 1 1 1 1 1 1 1 0.012723353380973135 1 1 0.01090015231759426 1 0.012559006905642376 1 1 1 1 1 1 1 1 0.0099495521057129822 0.0099621193054627299 1 0.0099074260467567621 0.011481284723526658 1 1 1 0.0095733057495862774 1 0.012531003906716355 1 1 1 1 1 1 1 1 1 1 0.010042544865136926 1 1 1 0.010104129648773847 1 1 1 1 1 1 0.011030066432433665 1 1 1 1 0.0097335413792305845 1 1 1 1 1 1 1 1 1 1 1 1 1 1 1 1 1 1 1 1 1 1 1 1 1 1 1 0.0094992226462127047 1 1 1 1 1 0.0094352848812370351 1 1 1 1 1 1 1 1 1 1 1 1 1 0.0097264636977381497 1 1 1 1 0.0099457182803308689 1 1 1 1 1 1 1 1 1 1 1 1 0.011101420818882116 1 1 1 1 1 1 1 1 1 1 0.010017084373807746 1 1 1 1 1 1 1 1 1 1 1 1 1 1 1 1 1 1 1 1 1 1 1 1 1 1 1 1 1 1 1 1 1 1 1 1 1 1 1 0.010422097026865739 0.010799428658781899 1 1 1 0.010258787865973694 1 1 1 1 1 0.012867620243486786 1 1 0.0099633000433121122 1 1 1 1 1 0.010225392331108172 1 1 1 1 0.012763271435582521 1 1 1 1 1 1 1 1 1 1 1 1 1 1 1 1 1 1 1 0.010694649070265835 1 1 1 1 1 1 1 0.010920041401374009 1 1 1 1 1 1 1 1 1 1 1 1 0.010059119275497908 1 1 0.011410424643496659 1 1 1 1 1 1 1 0.012087669254972375 1 1 1 0.011403418524758041 0.011753360341970571 1 1 1 1 1 1 1 1 1 1 1 1 1 1 1 1 1 1 1 1 1 1 1 1 1 1 1 1 0.010958451415834214 1 1 1 1 1 1 1 0.0092773829820434663 1 1 1 1 1 1 1 1 1 0.010267051525409793 1 1 0.0095289563752872716 1 1 1 1 1 1 1 1 1 1 1 1 1 1 1 0.011270447850563246 1 1 1 1 1 1 1 1 1 1 1 1 1 1 1 1 1 1 1 1 1 1 0.010532074090997427 1 1 1 1 1 1 1 1 1 1 1 1 1 1 1 1 1 1 1 1 1 1 1 0.010904484171438161 1 1 1 0.013131191860720781 1 1 0.010655784950356663 1 1 1 1 1 1 1 1 1 1 1 1 1 1 1 0.013891896759107129 0.0099530039772164295 1 1 1 1 1 0.013869493652482903 1 1 1 1 1 1 1 1 1 1 1 1 1 0.012364788944572342 1 1 1 1 1 1 1 1 1 1 1 1 1 1 1 1 1 0.012396877121635109 1 1 1 1 1 0.011889769813996748 1 1 1 0.010457617802866534 0.010715233201746322 1 1 1 1 1 1 1 1 1 1 1 1 1 1 1 1 1 1 1 1 1 1 1 1 1 1 1 0.010259565949202385 1 1 0.013953686057509336 1 1 1 1 1 1 1 1 1 1 1 1 1 1 0.010891636457544963 1 1 1 1 1 1 1 1 1 1 1 1 1 1 1 1 1 1 0.013809777506179005 1 1 0.010027757019536928 1 1 1 1 1 1 1 1 1 1 1 1 1 1 1 1 1 1 1 1 1 1 0.013595348643522688 1 1 1 1 0.013862067000967031 1 1 1 1 1 1 1 1 1 1 1 1 1 0.010081399371981225 1 1 1 1 1 0.0096818850328723536 0.010226956461969831 1 0.0095729952259004051 1 1 1 1 1 1 0.0097645925422739904 1 1 1 0.010360166806593159 1 1 1 1 1 1 1 0.010141488132225297 1 1 1 0.010495857350557688 1 1 1 1 1 1 1 1 0.010243859654779666 1 1 1 1 1 1 0.012679157622706458 1 1 1 1 1 1 1 1 1 1 0.0097864657316624713 1 0.0096952004737949574 1 0.013509739978330404 0.010819497564125971 1 1 1 1 1 1 1 1 1 1 1 1 1 1 1 1 0.01047350937749366 1 1 1 1 1 1 1 1 1 1 1 1 1 1 1 1 1 1 1 1 1 1 1 0.010847918034378134 1 0.010029823041126885 0.0098670925054432403 1 1 1 1 0.010021649892247315 1 1 1 1 1 1 0.0094865121036193413 1 1 1 0.0099079179845110634 1 1 1 0.010201391844142926 1 1 1 0.010753947554781691 1 1 1 1 1 1 1 1 1 0.01020127530115187 1 1 1 1 1 1 1 1 1 1 1 1 1 1 1 0.010044265814067381 1 1 1 1 1 0.0099129916826178124 1 0.011090368235421361 1 1 0.011239056221005716 1 1 0.0095885946979709577 1 1 1 1 0.010513879381451867 1 1 0.012604404205673271 1 1 1 1 0.0095097830257504859 1 1 0.011054570773842344 1 1 1 1 1 1 1 1 1 1 1 1 1 1 1 1 0.0099705967520438542 1 0.010205186958011384 1 1 1 1 1 1 1 1 1 0.010686298575363675 1 1 1 1 1 1 1 0.011225756009246454 1 0.010191458716745322 1 0.0098884249864690885 1 1 1 1 1 1 1 1 1 1 1 1 1 1 1 1 1 1 1 1 1 1 1 1 0.013687823174455896 1 1 1 1 1 1 1 0.010409671644198797 1 1 1 1 1 1 1 1 1 0.011559871459620738 1 1 1 1 1 0.010549641034826279 1 1 1 1 1 1 1 1 1 1 1 0.010315050828858748 1 1 1 1 1 1 1 1 1 1 1 1 1 1 1 1 1 1 1 1 1 1 1 1 1 0.011827363713174981 1 1 1 1 1 1 1 1 1 0.0097989104993743657 1 1 1 1 1 0.01086939093731526 1 1 1 0.012243378936624747 1 0.0090659371083620238 1 1 1 1 1 1 1 1 1 1 1 1 1 1 0.010285894167743927 1 1 1 1 0.010553747483832546 1 1 1 0.010267853316088617 1 1 1 0.012231986734738361 1 1 1 1 1 1 1 1 1 1 1 1 1 1 1 1 1 1 1 1 1 1 1 1 1 0.011699716954136272 1 0.011043663662739714 1 1 0.010293612868685248 1 1 0.01021561364499041 1 1 1 1 1 1 0.01007685649039817 1 1 1 1 1 1 1 1 1 1 1 0.014655664674622664 0.01000855462734437 1 1 1 1 1 1 1 1 1 1 0.012122066917077625 0.013175623380431246 1 0.009596080945543305 1 1 1 0.0099137122862502786 1 1 1 1 1 1 1 1 1 1 0.012039736389984195 1 0.013957511370878938 1 0.010246779231677862 1 1 1 1 1 1 0.010095381269749949 1 1 1 1 1 1 1 1 1 1 1 1 0.011141346810836726 1 1 1 1 0.014350507029383612 1 1 1 1 1 0.011672569133826459 0.014307152704535954 1 1 1 1 1 1 1 1 1 1 1 1 1 1 1 1 1 1 1 1 1 1 1 1 1 0.01056629995481137 1 1 1 0.010358206536056529 1 1 1 1 1 1 1 1 1 0.010118010660299485 1 1 1 1 1 1 1 1 1 1 1 1 1 1 1 1 1 1 1 1 1 1 1 1 1 1 1 0.010120946307959719 1 1 1 1 1 1 1 1 1 1 1 1 1 1 1 1 1 1 1 1 1 1 1 1 1 1 1 1 1 1 1 1 1 0.010287302785145117 1 1 1 0.010351585913749548 1 1 1 1 0.010668252487360384 1 1 1 1 0.0099553534060592575 1 1 0.011050211293828419 1 1 1 1 1 1 1 0.011082607417197892 1 1 1 1 1 1 1 1 1 1 1 1 1 0.0099990932394825871 0.010144468767963596 1 1 1 0.010553654696467182 1 1 0.010006318416228526 0.010002307604552644 1 1 1 1 1 1 0.010269179985987011 1 1 1 1 1 1 0.010209785230086961 1 1 0.010023556099972094 1 1 1 0.010007052409884025 1 1 1 0.0099052528411445635 1 1 1 1 1 0.0096741636654012197 1 0.011187756356976752 0.0099915763680895157 1 1 0.010578346904585543 1 1 1 0.01042227652827395 1 1 1 1 1 1 1 1 0.010162893531769867 1 1 1 1 1 1 1 1 1 1 1 1 1 1 1 1 1 1 1 1 1 1 1 1 1 1 1 1 1 1 1 1 0.010064962951164724 1 1 1 1 1 1 1 1 1 1 1 1 1 1 1 1 1 1 1 0.010070633090076962 1 1 1 1 1 0.009984891357484961 1 1 1 1 1 1 1 1 1 1 1 1 1 1 1 1 1 1 1 0.010206607374334646 0.010088312394686435 1 1 1 1 0.010240322399297666 1 1 1 1 1 1 0.010065543111130774 1 1 1 1 1 1 1 1 1 0.010026318014886463 1 1 1 1 1 1 1 1 1 1 1 1 1 0.010109146616862328 1 1 1 1 1 1 0.010040308181843469 1 1 1 1 1 1 0.010097050491851313 1 1 1 1 1 0.010056742310007843 1 1 1 1 1 1 0.010169914454213998 1 0.014537767847563839 1 1 1 0.010383505674865883 1 1 1 1 1 1 1 1 1 1 1 1 1 1 1 1 1 1 1 1 1 1 1 1 1 1 1 1 1 1 1 1 1 1 1 1 0.01008324053563041 1 1 1 0.0099685837205764505 1 0.011538194266368339 1 0.011258684558877408 1 1 1 1 1 0.0091958084857467984 1 1 1 0.013950057093831573 1 1 1 0.0097361529120474841 1 1 1 1 1 1 1 1 1 0.010436704806782365 1 1 1 1 1 1 0.011793004103829659 1 1 0.0091563947115013873 0.012331874332566065 1 1 0.010329047660773602 1 1 0.0098874562104507395 1 1 0.010872702205637179 1 1 1 1 1 1 1 1 1 1 1 1 1 1 1 1 1 1 1 1 1 1 1 1 1 0.0094523615557087909 1 1 1 1 1 1 1 1 1 1 1 1 1 1 1 0.0092823489198512067 1 1 0.008728813513638984 1 1 1 0.012359437609995125 1 1 0.012068079525278736 0.012678908756691594 1 1 1 1 1 1 1 0.010534645093375291 1 1 1 1 1 1 1 1 1 1 1 1 1 0.0097826980383191511 1 1 0.010009918455165143 1 1 1 1 1 1 1 1 1 1 1 1 1 1 1 1 1 1 1 1 1 1 1 1 1 1 1 1 1 0.0091666105140767347 1 1 1 1 1 1 1 0.009877345728539863 1 1 1 1 1 0.0099776148990539815 1 1 1 1 0.0093388752894201527 0.0094991075272128026 1 0.009659081754739493 1 1 1 0.011822779176768029 1 1 0.011961839732022611 1 1 1 1 0.010301379273830546 1 1 1 1 1 1 1 1 1 1 1 0.012813885754488486 0.010426917793713943 1 1 1 1 1 1 1 1 1 0.010577805165103657 1 1 0.010578272251708151 1 1 1 1 1 1 1 1 1 0.011283150973129033 1 0.0096120929490624771 1 0.0096130442931997868 1 0.011480706729291723 1 0.012183350068968073 0.0094711427708207927 1 0.011247115143468236 1 0.0099811308451900824 1 1 1 1 1 0.01217196818921768 1 1 0.010070388828538087 1 1 0.013449035266554128 1 0.0093862289189750731 0.011457021751238772 1 0.0097862457812496976 1 1 1 1 1 1 1 1 1 1 1 0.014202352511922525 1 1 1 0.014706149405930936 1 1 0.011247322475874486 1 1 1 1 1 1 1 1 1 1 1 1 1 1 1 1 1 1 1 1 1 1 1 1 1 1 1 1 1 1 1 1 1 1 1 1 0.010132227356381193 1 1 1 1 1 1 0.010282368348472822 0.010009013535790277 1 1 1 1 1 1 1 1 1 1 0.010228356564388138 1 1 1 0.010127853782657632 1 1 1 1 1 1 1 1 0.013263551786451791 1 1 1 1 1 1 1 1 1 1 0.010175810882855076 1 1 1 1 1 1 0.01048559607873196 1 1 1 1 1 1 0.010113464488196279 1 1 1 0.010025401670239843 1 1 1 1 1 1 1 1 1 1 0.010027203673653839 1 1 1 1 1 1 1 0.010035924524034099 1 0.0099562310225653154 1 1 1 1 1 1 1 1 1 1 1 1 1 1 1 1 1 1 1 1 1 1 1 0.010110313617633664 1 1 1 1 1 1 1 1 1 1 1 1 1 1 1 1 1 1 1 1 1 1 1 1 1 1 1 1 1 1 1 1 1 1 1 1 1 1 1 1 1 1 1 1 1 1 1 1 1 1 1 1 1 1 1 1 1 1 1 1 1 1 1 1 1 0.0089540944933660868 1 1 1 1 1 1 1 0.012604535424332947 1 1 1 1 1 1 1 1 1 1 1 1 1 1 1 1 1 1 1 1 1 1 0.009921080539620172 1 1 1 1 1 1 1 1 1 1 1 1 1 1 1 1 1 1 1 1 1 1 1 1 0.010078825654672226 1 1 1 0.010145882051346472 1 1 1 1 1 1 1 1 1 1 1 1 1 1 1 1 1 1 1 1 1 1 1 1 1 1 1 1 1 1 1 1 1 0.013730796391140568 1 0.012802372729561643 1 1 1 1 1 0.011051245392821084 1 0.010109392750025833 1 1 1 1 1 1 1 1 1 1 1 1 1 0.010070496894105019 1 1 1 1 1 1 1 1 1 1 0.011508997497129176 1 1 1 1 1 1 1 1 0.0097949807007791448 1 1 1 0.0091227979653441399 0.012995286738922179 1 1 0.01104101005567336 1 1 1 1 1 1 0.01021668679549916 1 1 0.010294149131488683 1 1 1 0.010018330589076196 1 1 1 1 1 0.011343371974233723 1 1 0.010000963080953718 0.0099955735179291585 0.012942924157826725 1 1 1 1 1 1 1 1 1 1 1 1 1 1 0.010171531348104095 1 1 1 0.0082604715857595417 1 1 1 1 1 1 0.010403397528198199 1 1 0.010882104851283825 1 1 1 1 1 1 1 1 1 1 1 1 1 1 1 1 1 0.0099369104386879594 1 1 1 1 1 1 1 1 1 1 1 1 1 1 1 1 1 0.010930283752570059 1 1 1 1 1 1 0.010195384470604911 1 1 1 1 0.0099949062302764763 1 1 1 1 1 0.010327471899715555 1 1 1 1 1 1 1 1 0.014408309939320369 1 1 1 1 0.0098701963182693062 1 1 1 1 1 1 1 1 1 0.01371478210759784 1 1 1 1 1 1 1 1 1 1 1 1 1 0.010520169761710114 1 1 1 0.01304576735402796 1 1 0.011811467582260551 1 1 1 1 1 0.010194706707338687 1 1 1 1 1 1 0.012340477837650427 1 0.010409365267885679 1 1 1 0.010776193104362335 1 1 1 0.0098583104468054922 0.012312228461418703 1 0.010025559080720399 1 0.012102811499512631 1 0.011744797223815103 1 0.012006294922557639 1 1 1 1 1 0.010142510239445101 1 1 1 1 0.011228776270838823 1 1 1 1 1 1 1 1 1 1 0.010004824685441616 1 1 1 1 1 1 1 1 1 1 1 1 1 1 1 1 1 1 1 1 1 1 1 1 1 1 1 1 1 1 1 1 1 1 0.010058806249693263 1 1 1 1 1 1 1 0.010150888181401849 1 1 0.0097573296031609885 1 1 1 1 1 1 1 1 1 1 0.0088209389663842595 0.010000938409713308 1 1 1 1 1 1 1 1 1 1 1 1 0.012881627258792798 1 0.011992354916224439 1 0.0098405992789505365 1 1 1 1 0.01201395309472052 0.0099832975987247958 0.010342993867057917 1 1 0.010002245453261839 1 1 0.010424374552076735 1 0.012098705021366181 1 1 1 0.011661593915006197 0.011271492297302232 1 1 0.0091599360930002226 0.0094836651822816313 1 1 1 1 1 0.011359703609779148 1 1 1 1 1 1 1 1 1 0.012425666346436409 1 1 1 1 1 1 0.010348514714356135 1 1 0.0098770845326381761 1 1 1 1 1 1 1 1 1 0.01115479100781199 1 1 0.010489594737592778 0.010185447242843109 1 1 1 1 1 1 1 1 1 0.011001828399449288 1 1 1 1 1 1 0.0097031041838441644 1 1 0.012536622809362572 1 1 0.011573302026768829 1 0.0098357301448985055 1 1 1 1 1 1 1 1 1 1 1 1 1 1 1 0.012130826343295639 1 1 1 0.010006658964650361 1 1 1 1 1 1 1 1 1 1 1 1 1 1 0.0099940221567284618 1 1 1 1 0.010008013890739681 1 1 1 1 1 1 1 0.011792308855017 1 0.0099960857689328168 1 1 0.01090334706866616 1 1 1 0.010860290975706262 1 1 1 1 1 1 0.010231139959323092 1 0.010535709531175214 1 1 1 0.010456311867777578 1 0.010450271231689453 1 1 1 1 1 0.010726004354954254 1 0.0096515746507767758 1 1 1 1 1 1 1 1 1 1 1 1 1 1 0.010036507978889898 1 1 1 1 0.011564409074848974 0.010004592266845204 1 1 0.0094880292498984893 0.010651752344758011 0.010558609339754102 1 1 1 0.0099916343765047155 1 1 1 1 1 1 1 1 0.009987671824578475 1 1 1 1 0.0096811962035535867 1 1 1 1 1 1 1 0.0096896866359953201 1 0.0098003884251150544 1 1 1 0.0099059475350696379 1 1 1 1 1 1 0.0099659654215959147 1 1 0.0099023695159120503 1 1 1 0.0099632469566712928 1 1 1 1 1 1 1 0.010006194748336835 1 0.010871347360486221 1 0.010900887847289827 1 1 1 1 1 1 1 1 1 1 1 1 1 1 0.010262594277713413 1 0.0099041153449328078 1 0.010181565901393703 1 1 0.01011700303020038 1 1 1 0.0099701958011916818 1 0.010197482819188419 1 1 1 1 0.0099647012642385818 1 0.011586937360472293 0.011563344895529865 1 1 1 1 1 1 1 0.0099871642436405693 1 1 1 1 1 1 1 1 1 1 1 1 1 1 1 1 0.0097801304252477187 0.011576324593259937 0.01019232782675121 0.0099973234081895766 1 1 0.0096229139992039473 1 1 1 0.010846346047783815 1 1 1 1 0.011504586962269577 1 1 0.010439471207380292 0.0097549772285701192 1 0.010522516656212491 1 1 1 1 1 1 1 1 1 1 0.009203318631559064 0.010073470714447771 1 1 1 1 0.012406487470128274 0.010860314099659972 1 1 0.011121249753411031 1 1 1 1 0.012467640075028385 1 1 1 1 1 1 0.009854740377686029 1 0.010121485336218414 1 1 1 1 0.010475328629565295 1 1 1 1 1 1 1 1 1 1 0.010466577004936807 1 1 1 1 1 1 0.0096714118992454919 0.010372729151858143 0.010870853703342783 1 1 1 1 1 1 1 1 1 0.010698646497315074 1 1 1 0.010016812420463882 1 1 0.0099706286138547609 1 1 1 0.010645518025662281 1 1 1 1 1 0.0099713407104684813 1 0.010824089413836689 1 0.012393522664540581 1 1 1 1 0.0099990200001918821 1 0.0093793059366978782 1 1 1 1 1 1 1 1 1 0.0099403621904942917 1 1 1 1 1 1 1 1 1 1 1 1 1 1 1 1 0.0099663535965274566 0.010951497146233903 1 1 1 1 1 1 1 1 1 1 1 1 1 1 1 0.0097464347547979099 0.0094014182490820414 0.012555798672504396 1 1 1 1 1 0.0091067053102593699 0.012650202094435251 1 1 1 0.015828490271365157 0.0092082708385366006 1 1 1 1 0.010427986170532359 1 1 1 0.0099971591958880786 0.009605915188190893 1 1 0.011939910209022069 1 1 1 1 1 1 1 1 1 1 1 1 1 1 1 1 1 1 1 1 1 1 1 1 1 1 1 1 1 1 1 0.015733902372779822 1 1 1 1 1 1 1 0.010171574008188303 1 0.010505177435066878 1 1 1 1 1 0.010700773370236522 1 0.0099722822624585816 1 0.0095833392879341884 1 1 1 1 0.010005285699327264 1 1 1 1 1 1 1 1 1 1 1 1 1 1 1 1 1 1 1 1 1 1 1 1 1 1 1 1 1 1 1 1 1 1 0.010185156543796385 1 1 1 1 1 1 1 0.01007330908999661 1 1 1 1 1 1 1 1 1 1 1 1 1 1 0.0099429365752438468 0.0099734783909247778 1 1 1 1 1 0.015093375063800596 1 1 1 1 1 1 1 1 1 1 1 1 0.01030612020881308 1 1 1 1 0.010101442568879392 1 1 0.014195243703574823 1 1 0.0099701817791665159 1 0.0094142653878534471 1 1 1 1 1 1 1 0.011661588298550511 1 1 1 1 0.010007768519791882 1 1 1 1 1 1 0.0094860648549429036 1 1 1 1 1 1 1 1 1 0.010616426425377985 1 1 1 1 1 1 1 1 0.0099068467068347543 1 0.0099617735710971281 1 1 0.0097514798264189337 1 1 0.0099472861934418212 1 1 1 1 1 1 1 1 1 0.010069313172381539 1 1 1 0.0099450731357376265 1 1 1 0.0099694581843190692 1 1 1 1 1 1 1 1 1 1 1 1 1 1 1 1 1 1 1 1 0.01314197289534982 1 1 1 1 1 1 0.010025236355807907 1 1 1 0.013085447169080722 1 1 0.010360695191871171 1 1 0.0093661118798061202 1 1 0.01068930166942547 1 0.011063471694607429 1 1 0.0095180826649045539 0.0098161914900323638 1 1 1 1 1 1 1 1 1 1 1 1 1 1 1 1 1 1 1 1 1 0.010287118857136082 1 1 1 1 1 0.0099998822865566689 0.0098795356564207112 0.010345271521087851 1 0.010057029829616163 1 0.0097871715888336805 1 1 1 0.0099981816002521796 1 1 0.010801545179913842 1 0.01077117600831376 1 1 1 0.011290775897581321 1 0.010013230960443696 1 0.011777851422147545 1 1 1 1 1 0.010565664498026662 0.01150477964126108 1 1 1 1 1 1 1 1 1 0.01038187641183054 1 1 1 0.010000096314223631 1 0.010026115636295784 0.010316515111870893 1 1 1 1 1 1 1 1 1 1 1 1 1 1 1 1 1 1 0.010000284192965834 1 1 1 1 1 1 1 1 0.0099691057374150828 1 1 1 0.0098966274966942984 1 1 1 1 1 1 1 1 1 1 1 0.013351951573844513 1 1 1 1 1 1 0.010992280423191492 1 0.010115140052022534 1 1 0.011248856838844086 1 1 1 1 1 1 1 1 1 1 1 1 1 1 1 1 0.01286311890392702 1 1 1 0.010180640477348339 0.012316024528957156 1 1 0.010201105558487945 1 0.0099493621906762593 1 1 1 1 0.0099853807350592586 0.011336837324984288 1 1 1 1 1 1 0.010503487709161392 1 1 1 0.0099987891165616363 0.010301087945069509 1 1 1 1 1 1 1 1 1 0.010184935615425189 1 1 1 1 1 0.010509442840205179 1 1 0.009725557507684942 1 0.011613979521805271 1 1 1 1 1 1 1 1 1 1 1 1 1 1 1 0.011218052715427506 1 1 1 1 1 0.011900966483582135 1 1 1 1 1 1 1 1 1 0.009927094205379159 1 1 1 1 0.01000496349890458 1 1 1 1 1 1 1 1 1 0.0099362298825934822 1 1 1 1 1 1 1 0.010163341838839761 1 1 0.010292420009161961 0.009541070198936099 1 1 1 0.010985613707725137 1 1 0.010690616665384961 1 1 1 1 1 1 0.010021270427833082 1 1 0.011204532621535649 1 0.0099822499280109115 1 1 1 1 1 1 1 0.0098134304357759775 1 0.011003636996726459 1 1 1 0.010994061757374964 1 1 1 1 1 0.0094016689378192287 1 1 0.010263239507332468 1 1 0.010019827361308624 1 0.010088764485294735 1 1 1 1 1 1 1 1 1 1 1 1 1 1 1 1 1 1 1 1 1 0.009407255682487025 1 1 1 1 1 0.0094754117155885879 1 0.009738703072404549 1 1 1 1 1 1 1 0.010259701174083646 1 1 1 1 1 1 1 1 1 1 1 0.010000499290826349 1 1 1 1 1 1 1 1 1 1 1 1 1 1 1 0.010692341082651402 1 0.010083831834799838 1 0.010551219317586583 0.010894981967835834 0.013083748698287979 1 1 0.011692795801355198 0.011666172935489275 1 1 0.010821677299971046 1 1 1 1 0.011316456097407127 1 1 1 0.011177805782483442 1 0.017815290337761462 1 0.010779521709445045 1 1 1 1 0.0099548445739717738 1 1 1 1 1 1 1 1 0.01133295970879027 1 0.0092911649897277227 1 1 1 1 1 1 1 1 1 1 1 1 1 1 1 1 1 1 1 1 1 1 1 0.019704865258836416 1 1 0.011384237066656044 1 1 1 1 1 1 1 1 1 1 0.016197373334500654 0.014723753188769628 1 0.015179438941134634 1 1 1 0.012284714435249842 0.009998227655456873 1 0.01016038531034389 1 1 1 1 1 1 1 1 1 1 1 1 0.010288697495462179 1 1 1 1 1 1 1 1 0.0082788762119723469 1 1 1 1 1 1 1 1 1 1 1 1 1 0.010084921014514062 0.0090980061079606739 1 1 0.010006405442426355 1 1 1 1 1 0.0093157071750292701 1 1 1 1 1 1 1 1 0.010041683828825199 1 1 1 1 0.010073162338216566 1 1 1 1 1 1 1 1 1 0.010025165782936439 0.011512528618956228 1 1 1 1 1 1 0.010134716828891294 1 0.011410465066277329 1 0.009764944132947281 1 1 1 0.012265225525212193 1 1 1 0.0102250567610449 1 1 0.010074954259690294 1 1 1 1 1 1 1 1 1 1 1 0.0099433033473145162 1 1 1 1 0.0099824036782063807 1 1 1 1 1 1 1 1 1 1 1 1 1 1 1 1 1 1 1 1 0.010193761304178268 1 1 1 1 1 0.0098364680896156475 1 1 1 1 1 0.0099920800819260844 1 1 1 1 0.010128245144720719 1 1 1 1 1 1 1 1 1 1 1 1 1 1 1 1 1 1 1 1 1 1 1 1 1 1 0.01055803650020987 1 1 1 1 1 1 1 1 1 1 1 1 1 1 1 1 1 1 1 1 1 1 1 1 1 1 1 1 1 1 1 1 0.011377793408549899 1 1 1 1 1 1 1 1 1 1 0.010005433906987634 0.0099892683366714398 1 1 1 1 1 1 1 1 1 1 1 1 1 0.011030869335124982 1 1 1 1 1 1 1 1 1 1 1 1 1 1 1 1 1 1 1 1 1 1 1 1 1 1 1 1 1 1 1 1 1 1 1 1 1 1 1 1 1 1 1 1 1 1 1 1 0.010239375159650751 1 1 1 1 1 1 1 1 1 1 1 1 1 1 1 1 1 1 1 1 1 1 1 1 1 1 1 1 1 1 0.011654485340184598 1 1 1 0.010151730722858673 1 1 1 1 1 1 1 1 1 0.011703954670646898 1 1 0.010477444915459322 1 1 1 1 1 0.01001995601582233 1 1 1 1 1 0.01004438822233906 1 1 1 1 1 1 1 1 1 1 1 1 1 1 1 1 1 1 1 1 0.01004447730282922 1 1 1 1 1 1 1 1 1 1 1 0.010111130014930031 1 1 1 1 1 1 1 1 1 1 1 1 1 1 1 1 1 1 0.01034429392818596 1 1 1 1 1 1 1 1 1 1 1 1 1 1 1 1 1 0.010163172901053858 1 1 1 1 1 1 1 1 1 1 1 1 1 0.0106860470902601 1 1 1 1 1 1 1 1 1 1 1 1 1 0.010331252859068094 1 0.010231977764275112 1 1 1 1 1 1 1 1 1 1 1 1 1 1 1 1 1 1 1 1 1 1 1 1 1 1 0.010081845932339135 1 1 1 1 1 1 0.0099407555654103044 1 1 1 1 0.012954222074716738 1 1 1 1 0.021733144272846189 1 1 1 1 1 1 1 1 1 1 0.021075501814571723 1 1 1 1 0.010443646376253821 1 1 1 1 1 1 1 1 0.0088678891757071887 1 1 1 0.008133765964315115 1 1 1 1 1 1 1 1 1 1 1 0.01435250874836694 0.01493348776494724 1 1 0.015992025170537848 1 1 1 1 0.014124844830543893 0.0099883946177869842 1 1 1 1 1 1 1 1 1 0.010288513444184893 1 1 1 1 1 1 1 1 1 1 1 1 1 1 1 1 1 1 1 1 1 1 1 0.010376430233311935 1 0.019158103203551859 1 1 1 1 1 1 1 1 1 1 0.012885639565205973 1 1 1 1 0.0089017614476860699 1 1 0.011049641847728171 1 1 0.017337651502305356 1 1 1 0.010016602402901226 1 1 0.010419081738777855 1 1 1 1 1 1 1 1 1 1 1 1 1 1 1 1 1 1 1 1 1 1 1 1 1 1 1 1 1 1 1 1 1 1 1 1 1 1 1 1 1 1 1 1 1 1 1 1 1 1 1 1 1 1 1 1 1 1 1 1 1 1 1 1 1 1 0.0098222016169282802 0.012016566239428775 1 1 1 1 1 1 1 1 1 0.010032323641176526 1 1 1 1 1 0.010956208867344623 1 1 1 0.011449641667789508 1 1 1 1 1 1 1 1 1 1 1 1 1 1 1 1 1 1 1 1 0.011285422855582804 1 1 1 1 1 1 1 1 1 1 1 1 1 1 1 1 1 1 0.010540791960769033 1 1 1 1 0.011084049914509597 1 1 0.011682863153197501 1 1 1 1 1 1 1 1 1 1 1 1 1 1 1 1 1 1 1 1 1 1 1 1 1 1 1 1 1 1 1 1 1 1 1 1 1 1 1 1 0.011812767440191498 1 1 1 1 1 1 1 1 0.010875584107840928 1 1 1 1 1 1 1 1 1 1 1 1 1 1 1 1 1 1 1 1 1 1 1 1 1 1 1 1 0.010462926077006482 0.011148709044880805 1 1 1 1 1 1 1 1 0.0099590712008078095 0.0094444460018157303 1 1 1 0.0098633304676414915 1 1 1 1 1 1 1 1 1 1 0.0100139423177055 1 1 1 1 1 1 1 1 1 1 1 1 1 1 1 1 1 1 1 1 1 1 1 1 1 1 1 1 1 1 1 1 1 1 0.010617709198949554 1 1 1 1 0.010619693924135393 1 1 1 1 1 1 1 1 1 1 1 1 1 1 1 1 0.0099816066073798691 1 0.0099921655301107928 1 1 1 1 0.0099893818422157436 1 1 1 1 1 1 1 1 1 1 1 1 1 1 1 1 1 1 1 1 1 1 1 1 1 1 1 1 1 1 0.010421443768223237 1 1 1 1 1 1 1 1 1 1 1 0.010118867557708099 1 1 0.010285408244641621 1 0.01078076414492447 1 1 1 1 1 1 0.010359320376701233 1 1 1 1 1 1 1 1 1 1 1 1 0.0097716238257822951 1 0.010491244642543578 1 1 0.0099895763281907211 1 1 1 1 1 1 1 1 1 1 1 1 1 1 1 1 1 1 1 1 1 1 1 1 1 1 1 1 1 1 1 1 1 1 1 1 1 1 1 1 1 1 1 1 1 1 1 1 1 1 1 0.010051500760648665 1 1 1 1 1 1 1 1 1 1 1 1 1 1 1 1 1 1 1 1 1 1 1 1 1 1 1 1 1 1 1 1 1 1 1 1 1 1 1 0.0099593165588208413 1 1 1 1 1 0.0096270033600293035 1 1 1 1 1 1 1 1 1 1 1 1 1 1 1 1 1 1 1 1 1 1 1 1 1 1 1 1 1 1 1 1 1 1 1 1 1 1 1 1 1 1 1 1 1 1 1 1 1 1 1 1 1 1 0.0089667513649311879 1 0.0097960831960856361 1 1 1 1 1 1 1 1 0.0083660811261904791 1 1 1 1 1 1 1 1 1 1 1 1 1 1 1 1 1 1 1 0.011183350069342964 1 1 1 1 1 1 1 1 0.0097986902206447998 1 1 1 1 1 1 1 1 1 1 1 1 1 1 1 1 1 1 1 1 1 1 1 1 1 0.0095809903241651818 1 1 1 1 1 1 1 1 1 1 1 1 1 0.0096436629708186311 1 1 1 1 1 1 1 1 1 1 1 1 1 1 1 1 1 1 0.011598764745787022 1 1 1 1 1 1 1 1 1 1 1 1 1 1 1 1 1 1 1 1 1 1 1 1 1 1 0.010877855671180553 1 1 1 1 0.01100211324466599 1 1 1 1 1 1 1 1 1 1 1 1 1 1 1 1 1 1 0.012852295402237431 1 1 0.011356147356807598 1 1 1 1 1 1 1 1 1 0.01030914911852239 1 1 1 1 0.011699179879150435 1 1 0.010618968847030646 1 1 1 1 1 1 1 1 1 1 1 1 1 1 1 1 1 1 1 1 1 1 1 1 1 1 1 1 1 0.012233498385000735 1 1 0.013035922689800052 1 1 1 1 1 1 0.0076238105793876437 1 1 1 0.010050745069216261 1 1 1 1 1 1 1 1 1 1 1 1 1 1 1 1 1 1 1 1 1 1 1 1 1 0.011138232646095042 1 1 1 1 1 0.010525113328040073 1 1 1 1 1 1 1 1 1 1 1 1 1 0.013968470692917831 1 1 1 1 1 1 1 1 1 1 1 1 0.011747350224087181 1 1 1 1 1 0.013318989701070292 1 1 0.013377338197727292 1 1 1 1 1 0.010462799634715815 1 1 0.011343771352239808 1 1 1 1 1 1 1 1 1 1 1 0.010393352130676665 1 1 1 1 1 1 1 1 1 1 1 1 1 1 1 1 1 1 1 1 1 1 1 1 1 1 1 1 1 0.010164744022568339 1 1 0.010264689601489841 1 1 0.010667894772691602 1 1 1 0.010899615472731704 1 1 1 0.010932861801495485 1 1 1 1 1 1 1 1 1 1 1 1 1 1 1 1 0.010367919665965973 1 1 1 1 1 1 1 1 1 1 1 1 1 1 0.010677068784488365 1 1 1 1 1 1 1 1 1 1 1 1 1 1 1 1 1 1 1 1 1 1 1 1 1 1 1 1 1 1 1 1 1 1 1 0.010438814849077417 1 1 1 1 1 1 1 1 1 1 1 1 1 1 1 1 1 0.010355658570199702 1 1 1 1 0.010258252759941076 1 1 1 1 1 1 1 1 1 1 1 1 0.010272274162143893 1 1 1 1 1 1 1 0.010221669454982481 1 1 1 1 1 1 1 1 1 1 1 0.0098983251738530165 1 1 1 1 1 1 1 1 1 1 1 1 1 1 1 1 1 0.010506319598411704 1 1 1 1 0.010109340803453569 1 1 1 1 1 0.0096874106298599112 1 1 0.010132494685097167 1 0.010083248440663889 0.012383936136473293 1 1 1 1 1 1 1 1 1 1 1 1 1 1 1 1 0.010112733657114523 0.011751026089110691 1 1 1 1 1 1 1 1 1 0.01311579156573181 1 1 1 1 1 0.012127954833990269 1 1 1 1 1 1 0.0096744444274428215 1 1 0.0089370374836890455 1 0.011049312073980395 1 1 0.010055685019534702 1 0.010198610092591605 1 1 1 0.010160519361727818 1 1 1 1 1 1 0.012250192991735135 0.010501396766950945 1 0.012401878542559846 1 1 0.010400172048624741 1 1 1 1 1 1 1 1 1 1 1 1 1 0.010020898376656741 1 1 1 1 1 1 1 1 1 1 0.0093927265728154727 0.016504472112003454 1 1 0.013783286350896283 1 1 1 0.010062548430512228 1 0.017810570391448028 1 1 1 1 0.0098522008057023019 1 1 0.009787014882249671 1 1 1 1 1 1 1 0.010441903594715219 1 1 1 1 1 1 1 1 1 1 1 0.010126246431449526 1 1 1 1 1 0.014619391934104156 0.0099743042306789341 1 1 1 1 1 1 0.0096806695328274846 1 1 1 1 0.0094528924107285285 1 0.0099827501993330018 1 1 1 1 1 1 1 1 1 1 1 1 1 0.01057113941232892 1 1 1 1 0.011073957010106191 1 1 1 1 1 1 1 1 1 1 1 1 1 1 1 1 1 1 1 1 1 1 0.010987711985590672 1 1 1 1 1 1 1 1 1 1 1 1 1 1 1 0.010361464869715009 1 1 1 1 1 1 0.010166252767350179 1 1 1 1 1 1 1 1 1 1 1 1 1 1 1 1 1 1 1 1 1 1 1 1 1 1 1 1 1 1 1 1 0.010120933785302681 1 1 1 1 1 1 1 1 1 1 1 1 1 1 1 1 1 1 1 0.0099745497041313115 1 1 1 1 1 1 0.010319756627374705 0.0099922503428399173 1 1 1 1 0.011793597154570628 0.010740444337570014 1 1 1 1 1 1 1 1 1 1 0.010519685823654305 1 1 1 1 1 1 1 1 1 1 1 1 1 1 1 1 1 1 1 1 1 1 1 1 0.011354933354311892 1 1 1 1 1 1 1 1 1 1 0.010609079409188177 1 1 1 1 1 1 1 1 1 1 1 1 1 1 1 1 1 0.01112876523284248 1 1 1 1 1 1 1 1 1 0.010555435613399701 0.009666685926982865 1 0.013557190844082575 1 1 1 1 1 1 1 1 1 1 1 1 1 1 1 1 1 1 1 1 1 1 0.011339282575232647 1 1 1 0.010666723446366103 1 1 1 1 1 1 1 1 1 1 0.010207127989637849 1 1 1 1 1 0.009971486112792919 1 0.013912808436324753 0.010851552505161313 1 1 1 1 1 1 1 1 1 1 1 1 1 1 1 1 1 0.013846448261213113 1 1 0.0098709487086806533 1 1 1 0.010236655307958411 1 1 0.015094572347236922 1 0.01073799454862031 1 1 1 1 1 1 1 1 1 1 1 0.010185831332748535 1 1 1 0.0087278801035844417 1 1 1 1 1 1 1 1 1 1 0.011862521488903623 1 1 1 1 1 0.010742568224972222 1 1 1 1 1 1 1 0.012263234032964448 1 1 1 1 1 1 1 1 1 1 1 1 1 1 0.010010765804607982 0.010129086832671681 1 1 1 1 0.010003474362397381 1 1 1 1 0.0082385606336579445 1 1 1 1 1 0.0099314723489551861 1 0.01118448844794491 1 1 1 1 1 1 1 1 1 1 1 1 1 1 0.0100380162749442 0.010001157236663876 1 1 1 1 1 1 1 1 1 1 1 1 1 1 1 1 1 1 1 1 1 1 1 1 1 1 1 1 1 0.009291930732253784 1 1 1 1 1 1 1 1 1 1 1 1 1 0.010508426444975707 0.010151465493388561 1 1 0.010734703509040648 1 1 1 1 1 1 1 1 1 1 1 1 1 1 1 1 1 1 1 1 1 1 1 1 1 1 1 1 1 1 1 1 1 1 1 1 1 1 1 1 1 1 1 1 1 1 1 1 1 1 1 1 0.0098796113738177527 1 0.010451387626315494 1 1 1 1 1 0.010201266920771687 1 1 1 1 1 0.010100083400499458 0.010052262798516868 1 1 1 1 1 1 1 1 0.010054623752875779 1 1 1 1 1 1 1 1 1 1 0.01026055045457339 1 1 0.0099906710042793143 1 1 0.011130708322054437 1 1 1 1 1 1 1 0.010360541650270619 0.010422745958120613 1 0.011873402196148195 0.010118414173222758 1 1 0.01191812517087442 1 1 1 1 1 1 1 1 1 1 0.011532155298203726 1 1 1 1 1 1 1 1 1 1 1 1 1 1 1 1 1 1 1 1 1 1 1 1 1 1 1 1 1 1 1 1 1 1 1 1 1 1 1 1 1 1 1 0.010857649423423828 1 1 1 1 0.012390625171781246 1 1 0.010639631513816538 1 1 1 1 1 1 1 1 1 1 1 1 1 1 1 1 1 1 1 0.011604818008066979 1 1 1 1 1 1 1 1 1 1 1 1 1 1 1 1 1 1 1 1 1 1 0.011031879837156372 1 1 1 1 1 1 1 1 1 1 0.010975965358497522 1 1 1 1 1 1 0.011725789489910316 1 1 1 0.01045701493344085 1 1 1 0.010935743618858964 1 1 1 1 1 1 0.0090143818374397236 1 1 1 1 0.0098447029526103642 1 0.010751563587069555 0.0094998470889116511 1 1 1 1 1 1 1 1 1 1 1 1 0.011501877724514536 1 1 1 1 1 1 1 1 1 1 1 1 1 1 0.0088404348462934445 1 1 1 1 1 0.009481197145155008 1 1 1 1 1 1 0.012346196348684963 1 1 1 1 1 1 1 1 1 1 1 1 1 1 1 1 1 1 1 1 1 1 1 0.012902348257510632 0.01027342572107645 1 1 1 0.012845631498128479 1 1 1 1 1 0.010228089047238938 1 1 1 1 1 1 1 1 1 1 1 1 1 1 1 1 0.010736435137806548 1 1 1 1 1 1 1 1 1 1 1 1 1 1 1 1 1 1 0.010530205033105377 1 1 1 1 1 1 1 0.010552593599927308 1 1 1 1 1 1 1 1 1 1 0.010088695176916407 1 1 1 1 0.011325883895957419 1 0.011768249603624789 1 1 0.010565576554979 1 1 1 1 1 0.011095781588084374 1 1 1 1 1 0.010537169322148829 1 0.011379224660353113 1 1 1 1 0.01045822083125935 1 1 1 1 1 1 1 1 0.010202800056732377 1 1 1 1 1 1 1 1 1 1 1 1 1 1 1 1 1 0.010230830891607321 1 1 1 1 1 0.01048913356825616 1 1 1 1 1 1 1 1 1 1 1 1 1 1 1 1 1 1 1 1 1 1 1 1 1 1 1 1 1 1 1 1 1 1 1 1 1 1 1 1 1 1 1 1 0.0099917361334090071 1 1 1 1 1 1 1 1 1 1 1 1 1 1 1 1 1 1 1 1 1 1 1 1 1 1 1 0.011203474187626248 1 1 1 1 1 0.009985845904691943 1 1 1 0.009902037072714049 0.010460336514306744 1 1 1 1 1 1 1 1 1 1 1 1 1 0.010140247142775786 1 1 1 1 1 0.010407604384960568 1 0.011509929329943477 1 0.010475383122824535 1 0.0095600627096620386 0.009991825868917191 1 1 1 1 1 1 1 1 1 1 0.0099642078259338449 1 0.011981912793539197 1 1 1 1 1 1 1 1 1 1 1 0.010910510597451926 1 1 1 1 1 1 1 1 0.011272591117281183 1 1 1 1 1 1 1 1 1 1 1 1 0.010219749633967726 1 1 1 1 1 1 1 1 1 1 1 1 1 1 1 1 1 1 1 1 1 1 1 1 1 1 0.010694041762918213 1 1 1 0.010042435042573074 1 1 0.012625889665743602 1 0.010067834449453337 1 1 1 0.0098060622048293661 1 1 1 1 1 1 1 1 1 1 1 1 1 1 1 1 1 1 1 1 1 1 1 1 1 1 0.010202049766210079 1 1 1 1 1 1 1 0.0098117184935779828 1 1 0.0098735486366953382 1 1 1 1 1 1 1 1 1 1 1 0.0099489356614906252 1 1 1 1 1 0.010104567298178546 1 1 1 1 1 1 1 0.0089490722251273028 0.010344234140996536 1 1 1 1 0.0093308574370406048 1 1 1 1 1 1 0.0098080590586686021 1 1 1 1 1 1 1 1 1 0.0096837692165189452 0.010007887381744889 1 1 1 1 1 0.012136002002675358 1 1 1 0.0092690524699785316 1 0.011794844006509684 1 0.0092316477072481046 1 1 1 1 1 0.011323107087135329 1 1 1 1 1 1 1 1 1 1 1 1 0.010484911314187981 1 1 1 1 1 1 1 1 1 1 1 1 1 1 1 1 1 1 1 1 1 0.010741597902292331 1 1 1 1 1 0.012443025045749246 1 1 1 0.011823052151917746 1 1 1 1 1 1 1 1 1 1 1 1 1 1 1 1 1 1 1 1 1 1 1 1 1 1 1 1 1 1 1 1 0.011672188158953814 1 1 1 1 1 1 1 1 1 1 1 1 1 0.011196046125772614 1 1 1 0.011747431710286586 1 1 1 1 0.013287437337472372 1 1 1 1 1 1 1 1 1 1 1 1 1 1 1 1 1 1 1 1 1 1 1 1 1 1 1 1 1 1 1 1 1 1 1 1 0.011057394703671453 1 1 1 0.010557824726246673 1 1 1 0.013495703043294305 1 1 1 0.0097115160833659096 1 1 0.013675313770069222 0.010096268215885914 1 1 1 1 1 1 0.0098255065630672642 1 0.010364667972617083 1 1 0.010255219751438093 1 1 1 1 1 1 1 0.010898747933955327 1 1 1 1 1 1 1 1 1 0.011853068144379229 1 1 0.0095743609173407039 1 1 1 1 1 1 1 1 1 1 1 1 1 1 1 1 1 1 0.010643528182517233 1 1 1 1 1 1 1 1 0.011675034270384622 1 1 1 1 1 1 1 1 1 1 1 1 1 1 1 1 1 1 1 1 1 1 0.010480547487300958 1 1 1 1 1 1 0.010235165052624097 1 1 1 1 1 1 0.010200414966779861 1 1 1 1 1 1 1 1 1 1 1 1 1 1 1 1 1 1 1 1 1 1 1 1 1 1 1 1 1 1 1 1 1 0.011246490656176077 0.0099982614507462524 1 1 0.010026892533884937 0.011078968465603481 1 0.010215126346125708 1 0.010000645616763958 1 0.012603302806677881 1 1 1 1 1 1 1 1 1 1 0.010088615517795965 1 1 1 1 0.01056672878365866 1 1 0.0099981004658570363 0.010232975895237119 1 1 0.010247361041046335 1 1 1 1 1 1 1 1 1 1 1 1 1 1 1 0.012955166626543104 1 1 1 1 0.010183777262251873 1 1 1 1 1 0.010553735153203514 1 1 1 1 1 0.010412870572497564 1 1 1 1 1 0.010000352683373917 1 0.0092711590853879148 0.0100045310194656 1 1 1 1 1 1 1 1 1 1 1 0.0099999058138668072 1 0.0091121950175030129 1 1 1 1 0.010531125679556086 1 1 1 0.011118028710808876 0.014669441320455555 1 0.0098608570964040174 1 1 1 0.016302439736934248 1 1 1 1 1 1 1 1 1 1 1 1 1 1 1 1 1 1 1 1 1 1 1 1 1 1 1 1 1 0.0097016052857354235 1 0.0097272759151322743 1 1 0.010422873899489152 1 1 0.010420166954185628 1 1 0.01055172591550611 1 1 0.010375496109343895 0.010213910671826476 1 1 1 0.0099619030804824968 1 0.0098600072201964432 1 1 1 0.0099164938473289971 1 1 1 0.010206706448526453 1 1 1 1 1 1 0.010056175485593313 1 1 1 1 1 1 1 1 1 1 1 1 1 1 1 1 1 1 1 0.0099800980112910893 1 1 1 0.0099255504348439577 1 1 0.01031729585692032 1 1 1 1 1 1 1 1 1 0.010025840642124594 1 0.010018992242498349 1 1 1 1 1 1 1 1 1 1 1 0.010135999828188871 1 1 1 1 1 1 0.011038536700353596 1 1 1 1 1 1 1 1 1 1 0.012716666042865718 0.014107268571906889 1 1 1 1 1 1 1 1 1 1 1 0.012341376697160374 0.01298245348752183 1 1 0.0099793301061312963 1 1 0.008790377598547363 1 1 1 1 1 1 1 1 1 1 1 1 0.010169636069562584 1 1 1 1 1 1 1 1 1 1 1 1 1 1 1 1 1 1 1 1 1 1 1 1 1 1 1 1 1 1 1 1 0.010060722147196695 1 1 1 1 0.010137946260225043 1 0.010119938241826899 1 1 1 1 1 1 1 1 1 0.01010045551042856 1 1 1 0.010040202807071632 1 1 1 0.010106457604269287 1 1 1 0.010039300427339571 1 1 1 1 1 1 1 1 1 1 1 1 1 1 1 1 1 0.010391805393123697 0.010365241302567637 1 1 1 1 0.010146422958446833 1 0.012382541511884755 0.014710435518660879 1 1 1 1 1 1 1 0.011246913665066902 1 1 0.015542351258660485 1 1 1 1 1 1 1 1 1 1 0.010316079215069432 1 1 1 0.012136350466497251 1 1 1 1 1 1 1 1 1 1 1 1 1 0.017309173979766102 1 1 1 1 1 1 1 1 1 1 0.011005523285558951 0.016976697903880421 1 1 1 1 1 1 1 0.018726812417858157 1 1 1 1 1 0.010390013105701259 1 1 1 1 1 1 1 1 1 1 1 1 1 1 1 1 1 0.010177613388102077 1 1 1 1 1 1 1 1 1 1 1 1 1 1 1 1 1 1 1 1 1 1 1 1 1 1 1 1 1 1 1 1 1 1 1 1 1 1 1 1 1 1 1 1 1 1 1 1 0.010465453362248642 1 1 1 1 0.010413412597093641 1 1 1 0.0099978779545830589 1 1 0.010014140645653705 1 1 1 1 1 1 1 1 0.010016262691070643 1 1 1 1 1 1 0.010256512723081212 1 1 1 1 1 1 1 1 1 1 1 1 1 1 0.0099717073742821849 1 0.010409629593482688 1 1 1 0.010655883864421362 1 1 0.01008381824970017 1 1 1 0.010608943962380199 1 0.010191414369072224 1 1 0.010410924031243066 0.010072515394893117 1 1 1 0.010108125100414875 1 1 0.010045535649905145 1 1 1 1 1 1 1 1 1 1 1 1 1 1 0.013327952730392154 0.010464926212100305 1 1 1 0.012304687696060869 1 1 1 1 1 1 1 1 1 1 1 1 1 1 1 1 1 1 1 0.013452720092403204 1 1 1 1 1 1 1 1 1 1 1 1 1 1 1 1 1 1 1 1 1 1 1 1 1 1 1 1 0.010114930411352559 1 1 1 1 1 1 1 1 1 0.0098759071997140974 1 1 1 0.0099498693443220657 1 1 0.0098602517065524246 1 0.010422706720048318 1 1 0.011105273497626593 1 1 0.0098903931592783673 0.011762223834293137 1 0.010309747165422217 1 1 1 0.0096352628783415925 1 1 1 1 1 1 1 1 1 1 1 1 1 1 1 1 1 1 1 1 1 1 0.010041202161767905 1 1 1 1 0.0099823054635531476 1 1 1 1 0.011036858417148172 1 1 1 1 1 0.010876220072670993 1 1 1 1 1 1 1 1 1 1 0.013549823627381921 1 1 1 1 1 0.0098687752629422077 1 1 1 1 1 0.013535434301524964 1 1 1 1 1 1 1 1 0.010154002788235448 1 1 1 1 1 1 1 0.010471320153952943 0.013345162383121768 1 1 1 1 1 1 1 1 1 1 1 1 1 1 1 1 1 1 1 1 1 1 1 1 1 0.010424109677310188 0.010146011906764868 1 1 0.011421070271499526 1 1 0.010230135719869284 0.009938055420418191 1 0.0093361926582656712 1 1 1 1 1 1 1 1 1 1 0.0097728469093832458 1 1 1 1 0.0092914836689691419 1 0.0085398840308359182 1 1 1 1 0.0080813818743027937 1 1 1 0.010984779270633089 1 1 1 1 1 0.011366422408127481 1 0.0087379586722084179 1 0.013835069449549799 1 1 1 0.010083423901055868 1 1 1 1 1 0.013130383588795733 1 1 1 1 1 0.011852405300984151 1 0.012917459487220867 1 1 1 1 1 1 0.010642667090208124 1 1 0.012904827828962687 1 1 1 1 1 1 1 1 1 1 1 1 1 1 1 0.010672559128866546 1 1 1 1 1 1 1 1 1 1 1 1 1 1 1 1 1 1 1 1 1 1 1 1 1 1 1 1 0.01249365455986794 1 1 1 1 1 0.010953648932682154 1 1 1 1 0.010684457521535306 1 1 1 1 1 0.010556869279908976 1 1 1 1 1 1 1 1 1 1 1 1 1 1 1 1 1 1 1 1 1 1 1 1 1 1 1 1 0.01032800320840619 1 1 
</DataArray>
</CellData>
</Piece>
</UnstructuredGrid>
</VTKFile>
