<?xml version="1.0"?>
<VTKFile type="UnstructuredGrid" version="0.1" byte_order="LittleEndian">
<UnstructuredGrid>
<Piece NumberOfPoints="28665" NumberOfCells="10053">
<Points>
<DataArray type="Float64" NumberOfComponents="3" format="ascii">
-0.5 -0.5 0 -0.487878573178187 -0.47638555973835289 0 -0.50000000000000133 -0.4476490374027996 0 -0.5 -0.5 0 -0.487878573178187 -0.47638555973835289 0 -0.47846195204496839 -0.50000000000000133 0 -0.487878573178187 -0.47638555973835289 0 -0.47409820782652229 -0.48096628867251012 0 -0.47540307444093449 -0.46772636091532099 0 -0.47409820782652229 -0.48096628867251012 0 -0.46455004948243411 -0.47070580495183822 0 -0.47540307444093449 -0.46772636091532099 0 -0.487878573178187 -0.47638555973835289 0 -0.47409820782652229 -0.48096628867251012 0 -0.47846195204496839 -0.50000000000000133 0 -0.47409820782652229 -0.48096628867251012 0 -0.47846195204496839 -0.50000000000000133 0 -0.46419738998608728 -0.4900137177570385 0 -0.47846195204496839 -0.50000000000000133 0 -0.46419738998608728 -0.4900137177570385 0 -0.46419738998608728 -0.4900137177570385 0 -0.44993282792720701 -0.48002743551407429 0 -0.4485379300789557 -0.5 0 -0.47846195204496839 -0.50000000000000133 0 -0.46419738998608728 -0.4900137177570385 0 -0.4485379300789557 -0.5 0 -0.46419738998608728 -0.4900137177570385 0 -0.44993282792720701 -0.48002743551407429 0 -0.46419738998608728 -0.4900137177570385 0 -0.46455004948243411 -0.47070580495183822 0 -0.44993282792720701 -0.48002743551407429 0 -0.47409820782652229 -0.48096628867251012 0 -0.46419738998608728 -0.4900137177570385 0 -0.46455004948243411 -0.47070580495183822 0 -0.46455004948243411 -0.47070580495183822 0 -0.44993282792720701 -0.48002743551407429 0 -0.45261998098022671 -0.47062088036942989 0 -0.46455004948243411 -0.47070580495183822 0 -0.44993282792720701 -0.48002743551407429 0 -0.44993282792720701 -0.48002743551407429 0 -0.43427336802007432 -0.49001371775703539 0 -0.43581641821388611 -0.47014487122134418 0 -0.44993282792720701 -0.48002743551407429 0 -0.45261998098022671 -0.47062088036942989 0 -0.43581641821388611 -0.47014487122134418 0 -0.44993282792720701 -0.48002743551407429 0 -0.43581641821388611 -0.47014487122134418 0 -0.44993282792720701 -0.48002743551407429 0 -0.4485379300789557 -0.5 0 -0.43427336802007432 -0.49001371775703539 0 -0.44993282792720701 -0.48002743551407429 0 -0.43427336802007432 -0.49001371775703539 0 -0.43858296065592473 -0.44687289157078558 0 -0.46018062829737988 -0.4616054097904625 0 -0.43581641821388611 -0.47014487122134418 0 -0.45261998098022671 -0.47062088036942989 0 -0.46018062829737988 -0.4616054097904625 0 -0.43581641821388611 -0.47014487122134418 0 -0.46018062829737988 -0.4616054097904625 0 -0.43581641821388611 -0.47014487122134418 0 -0.46455004948243411 -0.47070580495183822 0 -0.45261998098022671 -0.47062088036942989 0 -0.46018062829737988 -0.4616054097904625 0 -0.46455004948243411 -0.47070580495183822 0 -0.46018062829737988 -0.4616054097904625 0 -0.47540307444093449 -0.46772636091532099 0 -0.43858296065592473 -0.44687289157078558 0 -0.46634642834386569 -0.44474968736679482 0 -0.45861555165165141 -0.42816459057087142 0 -0.43858296065592473 -0.44687289157078558 0 -0.46018062829737988 -0.4616054097904625 0 -0.46634642834386569 -0.44474968736679482 0 -0.48454483838087348 -0.45306594835957947 0 -0.48163251613879571 -0.43269413505585519 0 -0.46634642834386569 -0.44474968736679482 0 -0.48454483838087348 -0.45306594835957947 0 -0.48163251613879571 -0.43269413505585519 0 -0.487878573178187 -0.47638555973835289 0 -0.47540307444093449 -0.46772636091532099 0 -0.48454483838087348 -0.45306594835957947 0 -0.46018062829737988 -0.4616054097904625 0 -0.48454483838087348 -0.45306594835957947 0 -0.46018062829737988 -0.4616054097904625 0 -0.47540307444093449 -0.46772636091532099 0 -0.48454483838087348 -0.45306594835957947 0 -0.46018062829737988 -0.4616054097904625 0 -0.46634642834386569 -0.44474968736679482 0 -0.48454483838087348 -0.45306594835957947 0 -0.487878573178187 -0.47638555973835289 0 -0.48454483838087348 -0.45306594835957947 0 -0.50000000000000133 -0.4476490374027996 0 -0.487878573178187 -0.47638555973835289 0 -0.48454483838087348 -0.45306594835957947 0 -0.48454483838087348 -0.45306594835957947 0 -0.50000000000000133 -0.4476490374027996 0 -0.48163251613879571 -0.43269413505585519 0 -0.48454483838087348 -0.45306594835957947 0 -0.50000000000000133 -0.4476490374027996 0 -0.50000000000000133 -0.4476490374027996 0 -0.5 -0.42022745252400179 0 -0.48163251613879571 -0.43269413505585519 0 -0.5 -0.42022745252400179 0 -0.47872019389671822 -0.4123223217521309 0 -0.4876112155102692 -0.40065719820526302 0 -0.5 -0.42022745252400179 0 -0.47872019389671822 -0.4123223217521309 0 -0.48163251613879571 -0.43269413505585519 0 -0.47872019389671822 -0.4123223217521309 0 -0.48163251613879571 -0.43269413505585519 0 -0.4654454970686534 -0.41562352551598508 0 -0.47872019389671822 -0.4123223217521309 0 -0.46952796869855568 -0.40263403521241509 0 -0.4654454970686534 -0.41562352551598508 0 -0.46634642834386569 -0.44474968736679482 0 -0.48163251613879571 -0.43269413505585519 0 -0.45861555165165141 -0.42816459057087142 0 -0.47872019389671822 -0.4123223217521309 0 -0.48163251613879571 -0.43269413505585519 0 -0.48775659274384608 -0.37901678390888233 0 -0.5 -0.39280586764520409 0 -0.5 -0.36538428276640661 0 -0.48775659274384608 -0.37901678390888233 0 -0.48779391997718891 -0.39110758955193903 0 -0.5 -0.39280586764520409 0 -0.5 -0.42022745252400179 0 -0.5 -0.39280586764520409 0 -0.4876112155102692 -0.40065719820526302 0 -0.48779391997718891 -0.39110758955193903 0 -0.5 -0.39280586764520409 0 -0.4876112155102692 -0.40065719820526302 0 -0.47872019389671822 -0.4123223217521309 0 -0.46952796869855568 -0.40263403521241509 0 -0.47580787165464072 -0.39195050844840662 0 -0.47872019389671822 -0.4123223217521309 0 -0.47580787165464072 -0.39195050844840662 0 -0.47872019389671822 -0.4123223217521309 0 -0.4876112155102692 -0.40065719820526302 0 -0.47580787165464072 -0.39195050844840662 0 -0.46952796869855568 -0.40263403521241509 0 -0.47580787165464072 -0.39195050844840662 0 -0.46596834994279612 -0.39335418548073409 0 -0.48779391997718891 -0.39110758955193903 0 -0.4876112155102692 -0.40065719820526302 0 -0.47580787165464072 -0.39195050844840662 0 -0.47580787165464072 -0.39195050844840662 0 -0.46596834994279612 -0.39335418548073409 0 -0.47155139943215568 -0.37161653544801782 0 -0.48775659274384608 -0.37901678390888233 0 -0.47580787165464072 -0.39195050844840662 0 -0.47155139943215568 -0.37161653544801782 0 -0.48775659274384608 -0.37901678390888233 0 -0.48779391997718891 -0.39110758955193903 0 -0.47580787165464072 -0.39195050844840662 0 -0.4573270991482335 -0.38844345422822218 0 -0.47155139943215568 -0.37161653544801782 0 -0.4573270991482335 -0.38844345422822218 0 -0.46596834994279612 -0.39335418548073409 0 -0.47155139943215568 -0.37161653544801782 0 -0.45715310383216168 -0.37648577713624959 0 -0.4573270991482335 -0.38844345422822218 0 -0.47155139943215568 -0.37161653544801782 0 -0.45715310383216168 -0.37648577713624959 0 -0.4573270991482335 -0.38844345422822218 0 -0.44890922508039133 -0.38144526086021968 0 -0.46952796869855568 -0.40263403521241509 0 -0.44985198322976522 -0.39045032282456399 0 -0.46952796869855568 -0.40263403521241509 0 -0.45618938495728972 -0.40432333077613969 0 -0.44985198322976522 -0.39045032282456399 0 -0.46952796869855568 -0.40263403521241509 0 -0.46596834994279612 -0.39335418548073409 0 -0.44985198322976522 -0.39045032282456399 0 -0.4573270991482335 -0.38844345422822218 0 -0.46596834994279612 -0.39335418548073409 0 -0.44985198322976522 -0.39045032282456399 0 -0.45618938495728972 -0.40432333077613969 0 -0.44677218304452188 -0.40051060101746999 0 -0.44934929274495261 -0.41239816931026407 0 -0.44677218304452188 -0.40051060101746999 0 -0.43663143431178608 -0.39359819182052358 0 -0.43544421306653042 -0.40557221515430758 0 -0.44677218304452188 -0.40051060101746999 0 -0.44934929274495261 -0.41239816931026407 0 -0.43544421306653042 -0.40557221515430758 0 -0.44677218304452188 -0.40051060101746999 0 -0.44985198322976522 -0.39045032282456399 0 -0.43663143431178608 -0.39359819182052358 0 -0.45618938495728972 -0.40432333077613969 0 -0.44677218304452188 -0.40051060101746999 0 -0.44985198322976522 -0.39045032282456399 0 -0.44890922508039133 -0.38144526086021968 0 -0.43017599776097459 -0.37826661043671289 0 -0.44884112785105701 -0.3738876712842224 0 -0.44985198322976522 -0.39045032282456399 0 -0.43017599776097459 -0.37826661043671289 0 -0.44985198322976522 -0.39045032282456399 0 -0.43017599776097459 -0.37826661043671289 0 -0.43663143431178608 -0.39359819182052358 0 -0.44985198322976522 -0.39045032282456399 0 -0.44890922508039133 -0.38144526086021968 0 -0.43017599776097459 -0.37826661043671289 0 -0.4573270991482335 -0.38844345422822218 0 -0.44985198322976522 -0.39045032282456399 0 -0.44890922508039133 -0.38144526086021968 0 -0.45715310383216168 -0.37648577713624959 0 -0.44890922508039133 -0.38144526086021968 0 -0.44884112785105701 -0.3738876712842224 0 -0.48163251613879571 -0.43269413505585519 0 -0.45861555165165141 -0.42816459057087142 0 -0.4654454970686534 -0.41562352551598508 0 -0.45618938495728972 -0.40432333077613969 0 -0.4654454970686534 -0.41562352551598508 0 -0.44934929274495261 -0.41239816931026407 0 -0.45861555165165141 -0.42816459057087142 0 -0.4654454970686534 -0.41562352551598508 0 -0.44934929274495261 -0.41239816931026407 0 -0.46952796869855568 -0.40263403521241509 0 -0.45618938495728972 -0.40432333077613969 0 -0.4654454970686534 -0.41562352551598508 0 -0.44934929274495261 -0.41239816931026407 0 -0.43095581551661949 -0.4276931000858385 0 -0.43544421306653042 -0.40557221515430758 0 -0.45861555165165141 -0.42816459057087142 0 -0.43095581551661949 -0.4276931000858385 0 -0.43858296065592473 -0.44687289157078558 0 -0.45861555165165141 -0.42816459057087142 0 -0.43095581551661949 -0.4276931000858385 0 -0.45861555165165141 -0.42816459057087142 0 -0.44934929274495261 -0.41239816931026407 0 -0.43095581551661949 -0.4276931000858385 0 -0.43858296065592473 -0.44687289157078558 0 -0.43095581551661949 -0.4276931000858385 0 -0.41791495337580092 -0.43599821818647982 0 -0.43095581551661949 -0.4276931000858385 0 -0.42374798958059628 -0.40642051692509962 0 -0.43544421306653042 -0.40557221515430758 0 -0.43095581551661949 -0.4276931000858385 0 -0.42374798958059628 -0.40642051692509962 0 -0.41055092544504729 -0.40940219431403291 0 -0.43095581551661949 -0.4276931000858385 0 -0.41055092544504729 -0.40940219431403291 0 -0.40329607938158779 -0.42722160960080557 0 -0.43095581551661949 -0.4276931000858385 0 -0.40329607938158779 -0.42722160960080557 0 -0.43095581551661949 -0.4276931000858385 0 -0.41791495337580092 -0.43599821818647982 0 -0.40329607938158779 -0.42722160960080557 0 -0.41791495337580092 -0.43599821818647982 0 -0.40329607938158779 -0.42722160960080557 0 -0.40946211341860872 -0.43882361299349432 0 -0.43017599776097459 -0.37826661043671289 0 -0.43663143431178608 -0.39359819182052358 0 -0.42091279445713842 -0.39319120966956311 0 -0.43663143431178608 -0.39359819182052358 0 -0.43544421306653042 -0.40557221515430758 0 -0.42091279445713842 -0.39319120966956311 0 -0.42374798958059628 -0.40642051692509962 0 -0.43544421306653042 -0.40557221515430758 0 -0.42091279445713842 -0.39319120966956311 0 -0.42091279445713842 -0.39319120966956311 0 -0.39825417228598559 -0.39460509276298272 0 -0.42374798958059628 -0.40642051692509962 0 -0.41055092544504729 -0.40940219431403291 0 -0.42091279445713842 -0.39319120966956311 0 -0.41055092544504729 -0.40940219431403291 0 -0.42091279445713842 -0.39319120966956311 0 -0.39825417228598559 -0.39460509276298272 0 -0.43017599776097459 -0.37826661043671289 0 -0.42091279445713842 -0.39319120966956311 0 -0.40749906099606142 -0.38062242474312441 0 -0.42091279445713842 -0.39319120966956311 0 -0.40749906099606142 -0.38062242474312441 0 -0.39825417228598559 -0.39460509276298272 0 -0.40749906099606142 -0.38062242474312441 0 -0.38848369967075169 -0.38122924145697318 0 -0.39666768950933412 -0.3703594960836526 0 -0.40749906099606142 -0.38062242474312441 0 -0.39825417228598559 -0.39460509276298272 0 -0.38848369967075169 -0.38122924145697318 0 -0.41055092544504729 -0.40940219431403291 0 -0.39825417228598559 -0.39460509276298272 0 -0.38814414298862537 -0.41109710579925168 0 -0.39825417228598559 -0.39460509276298272 0 -0.37559555011483292 -0.39601897585640228 0 -0.39825417228598559 -0.39460509276298272 0 -0.37559555011483292 -0.39601897585640228 0 -0.38814414298862537 -0.41109710579925168 0 -0.37559555011483292 -0.39601897585640228 0 -0.38848369967075169 -0.38122924145697318 0 -0.37721818994617851 -0.36908577309200358 0 -0.39825417228598559 -0.39460509276298272 0 -0.37559555011483292 -0.39601897585640228 0 -0.38848369967075169 -0.38122924145697318 0 -0.40329607938158779 -0.42722160960080557 0 -0.38337397263938727 -0.43998558480339051 0 -0.39446207907058728 -0.44151055358998209 0 -0.40256639230371871 -0.43746116342681268 0 -0.40329607938158779 -0.42722160960080557 0 -0.40946211341860872 -0.43882361299349432 0 -0.40256639230371871 -0.43746116342681268 0 -0.40329607938158779 -0.42722160960080557 0 -0.39446207907058728 -0.44151055358998209 0 -0.41055092544504729 -0.40940219431403291 0 -0.40329607938158779 -0.42722160960080557 0 -0.38814414298862537 -0.41109710579925168 0 -0.40329607938158779 -0.42722160960080557 0 -0.38814414298862537 -0.41109710579925168 0 -0.37563634324655598 -0.42675011911577271 0 -0.38814414298862537 -0.41109710579925168 0 -0.37563634324655598 -0.42675011911577271 0 -0.36553178745774328 -0.41258464314551402 0 -0.37559555011483292 -0.39601897585640228 0 -0.38814414298862537 -0.41109710579925168 0 -0.36553178745774328 -0.41258464314551402 0 -0.40329607938158779 -0.42722160960080557 0 -0.37563634324655598 -0.42675011911577271 0 -0.40329607938158779 -0.42722160960080557 0 -0.37563634324655598 -0.42675011911577271 0 -0.38337397263938727 -0.43998558480339051 0 -0.37563634324655598 -0.42675011911577271 0 -0.38337397263938727 -0.43998558480339051 0 -0.37008252033032241 -0.43943717681981831 0 -0.38337397263938727 -0.43998558480339051 0 -0.39446207907058728 -0.44151055358998209 0 -0.38459044759950101 -0.45930196911825338 0 -0.38337397263938727 -0.43998558480339051 0 -0.38459044759950101 -0.45930196911825338 0 -0.3734106594176812 -0.44828421794981149 0 -0.38337397263938727 -0.43998558480339051 0 -0.3734106594176812 -0.44828421794981149 0 -0.37008252033032241 -0.43943717681981831 0 -0.39446207907058728 -0.44151055358998209 0 -0.40349701112476483 -0.44751881934642812 0 -0.38459044759950101 -0.45930196911825338 0 -0.40349701112476483 -0.44751881934642812 0 -0.40605922656029769 -0.44592196816910279 0 -0.40256639230371871 -0.43746116342681268 0 -0.39446207907058728 -0.44151055358998209 0 -0.40026433711206361 -0.44198703845078791 0 -0.40256639230371871 -0.43746116342681268 0 -0.40605922656029769 -0.44592196816910279 0 -0.40946211341860872 -0.43882361299349432 0 -0.39446207907058728 -0.44151055358998209 0 -0.40349701112476483 -0.44751881934642812 0 -0.40026433711206361 -0.44198703845078791 0 -0.40349701112476483 -0.44751881934642812 0 -0.40605922656029769 -0.44592196816910279 0 -0.40026433711206361 -0.44198703845078791 0 -0.40256639230371871 -0.43746116342681268 0 -0.40605922656029769 -0.44592196816910279 0 -0.40026433711206361 -0.44198703845078791 0 -0.40349701112476483 -0.44751881934642812 0 -0.38459044759950101 -0.45930196911825338 0 -0.40349701112476483 -0.44751881934642812 0 -0.38459044759950101 -0.45930196911825338 0 -0.39857500636833509 -0.46957372844418788 0 -0.38459044759950101 -0.45930196911825338 0 -0.36568388407423552 -0.47108511889007609 0 -0.38459044759950101 -0.45930196911825338 0 -0.37214234719024247 -0.46082449266115239 0 -0.3734106594176812 -0.44828421794981149 0 -0.37764920446476108 -0.48032533386194171 0 -0.39183143128235859 -0.48556125854325788 0 -0.39857500636833509 -0.46957372844418788 0 -0.38459044759950101 -0.45930196911825338 0 -0.37764920446476108 -0.48032533386194171 0 -0.36568388407423552 -0.47108511889007609 0 -0.38459044759950101 -0.45930196911825338 0 -0.37764920446476108 -0.48032533386194171 0 -0.39857500636833509 -0.46957372844418788 0 -0.37764920446476108 -0.48032533386194171 0 -0.39183143128235859 -0.48556125854325788 0 -0.36983893781659483 -0.4932694522042147 0 -0.37624094171087819 -0.49999999999999389 0 -0.39742742491191069 -0.5 0 -0.39183143128235859 -0.48556125854325788 0 -0.37624094171087819 -0.49999999999999389 0 -0.39183143128235859 -0.48556125854325788 0 -0.36983893781659483 -0.4932694522042147 0 -0.39183143128235859 -0.48556125854325788 0 -0.36983893781659483 -0.4932694522042147 0 -0.39183143128235859 -0.48556125854325788 0 -0.40537847048629821 -0.49022653665735361 0 -0.41382392474812218 -0.47785306488230112 0 -0.39742742491191069 -0.5 0 -0.39183143128235859 -0.48556125854325788 0 -0.40537847048629821 -0.49022653665735361 0 -0.39183143128235859 -0.48556125854325788 0 -0.41382392474812218 -0.47785306488230112 0 -0.39183143128235859 -0.48556125854325788 0 -0.39857500636833509 -0.46957372844418788 0 -0.41382392474812218 -0.47785306488230112 0 -0.39857500636833509 -0.46957372844418788 0 -0.41382392474812218 -0.47785306488230112 0 -0.4196567146693258 -0.45883184528388571 0 -0.40537847048629821 -0.49022653665735361 0 -0.41382392474812218 -0.47785306488230112 0 -0.41861390811294319 -0.49999999999999861 0 -0.39742742491191069 -0.5 0 -0.40537847048629821 -0.49022653665735361 0 -0.41861390811294319 -0.49999999999999861 0 -0.41861390811294319 -0.49999999999999861 0 -0.43427336802007432 -0.49001371775703539 0 -0.41382392474812218 -0.47785306488230112 0 -0.41861390811294319 -0.49999999999999861 0 -0.43427336802007432 -0.49001371775703539 0 -0.4485379300789557 -0.5 0 -0.41861390811294319 -0.49999999999999861 0 -0.43427336802007432 -0.49001371775703539 0 -0.41382392474812218 -0.47785306488230112 0 -0.43581641821388611 -0.47014487122134418 0 -0.4196567146693258 -0.45883184528388571 0 -0.41382392474812218 -0.47785306488230112 0 -0.43427336802007432 -0.49001371775703539 0 -0.43581641821388611 -0.47014487122134418 0 -0.41382392474812218 -0.47785306488230112 0 -0.43581641821388611 -0.47014487122134418 0 -0.43581641821388611 -0.47014487122134418 0 -0.4196567146693258 -0.45883184528388571 0 -0.43858296065592473 -0.44687289157078558 0 -0.43581641821388611 -0.47014487122134418 0 -0.4196567146693258 -0.45883184528388571 0 -0.43858296065592473 -0.44687289157078558 0 -0.41791495337580092 -0.43599821818647982 0 -0.41747391547163831 -0.4475151055842706 0 -0.43858296065592473 -0.44687289157078558 0 -0.41747391547163831 -0.4475151055842706 0 -0.4196567146693258 -0.45883184528388571 0 -0.40349701112476483 -0.44751881934642812 0 -0.40605922656029769 -0.44592196816910279 0 -0.4196567146693258 -0.45883184528388571 0 -0.40605922656029769 -0.44592196816910279 0 -0.41747391547163831 -0.4475151055842706 0 -0.4196567146693258 -0.45883184528388571 0 -0.41791495337580092 -0.43599821818647982 0 -0.41747391547163831 -0.4475151055842706 0 -0.40946211341860872 -0.43882361299349432 0 -0.40605922656029769 -0.44592196816910279 0 -0.41747391547163831 -0.4475151055842706 0 -0.40946211341860872 -0.43882361299349432 0 -0.40349701112476483 -0.44751881934642812 0 -0.4196567146693258 -0.45883184528388571 0 -0.40349701112476483 -0.44751881934642812 0 -0.39857500636833509 -0.46957372844418788 0 -0.4196567146693258 -0.45883184528388571 0 -0.44215413144481752 -0.26256877105720561 0 -0.43318725347332682 -0.24571171026092681 0 -0.44616390901701281 -0.2456615612993083 0 -0.44215413144481752 -0.26256877105720561 0 -0.46143608762987892 -0.24942768639709001 0 -0.44215413144481752 -0.26256877105720561 0 -0.46143608762987892 -0.24942768639709001 0 -0.44616390901701281 -0.2456615612993083 0 -0.44215413144481752 -0.26256877105720561 0 -0.45091553234529691 -0.27539510764258679 0 -0.43005234500209499 -0.27081640934951501 0 -0.45091553234529691 -0.27539510764258679 0 -0.43005234500209499 -0.27081640934951501 0 -0.45091553234529691 -0.27539510764258679 0 -0.43820147481457128 -0.28600257519798522 0 -0.43005234500209499 -0.27081640934951501 0 -0.44215413144481752 -0.26256877105720561 0 -0.45091553234529691 -0.27539510764258679 0 -0.46739801923826002 -0.27356063764296562 0 -0.45091553234529691 -0.27539510764258679 0 -0.47177871968849888 -0.27997380593565802 0 -0.44215413144481752 -0.26256877105720561 0 -0.46739801923826002 -0.27356063764296562 0 -0.45091553234529691 -0.27539510764258679 0 -0.46739801923826002 -0.27356063764296562 0 -0.47177871968849888 -0.27997380593565802 0 -0.44215413144481752 -0.26256877105720561 0 -0.46739801923826002 -0.27356063764296562 0 -0.46143608762987892 -0.24942768639709001 0 -0.46739801923826002 -0.27356063764296562 0 -0.48079217620769121 -0.25711215722273878 0 -0.46143608762987892 -0.24942768639709001 0 -0.48079217620769121 -0.25711215722273878 0 -0.5 -0.26516006142606802 0 -0.5 -0.24415278925146211 0 -0.48079217620769121 -0.25711215722273878 0 -0.5 -0.26516006142606802 0 -0.48520802561941312 -0.2700963401301254 0 -0.5 -0.26516006142606802 0 -0.48520802561941312 -0.2700963401301254 0 -0.49264190703170102 -0.28455250422872891 0 -0.5 -0.26516006142606802 0 -0.49999999999999778 -0.28616733360067392 0 -0.49264190703170102 -0.28455250422872891 0 -0.46739801923826002 -0.27356063764296562 0 -0.47177871968849888 -0.27997380593565802 0 -0.49264190703170102 -0.28455250422872891 0 -0.46739801923826002 -0.27356063764296562 0 -0.49264190703170102 -0.28455250422872891 0 -0.46739801923826002 -0.27356063764296562 0 -0.48520802561941312 -0.2700963401301254 0 -0.49264190703170102 -0.28455250422872891 0 -0.46739801923826002 -0.27356063764296562 0 -0.48079217620769121 -0.25711215722273878 0 -0.48520802561941312 -0.2700963401301254 0 -0.47177871968849888 -0.27997380593565802 0 -0.47957093866921818 -0.29428966679363222 0 -0.45675363012160758 -0.29547666237357922 0 -0.47177871968849888 -0.27997380593565802 0 -0.49264190703170102 -0.28455250422872891 0 -0.47177871968849888 -0.27997380593565802 0 -0.47957093866921818 -0.29428966679363222 0 -0.49264190703170102 -0.28455250422872891 0 -0.49031816891766089 -0.2938264411770648 0 -0.49999999999999939 -0.28775641548419628 0 -0.49234690373425849 -0.30441079644428098 0 -0.47957093866921818 -0.29428966679363222 0 -0.49031816891766089 -0.2938264411770648 0 -0.49264190703170102 -0.28455250422872891 0 -0.49999999999999939 -0.28775641548419628 0 -0.49264190703170102 -0.28455250422872891 0 -0.49999999999999778 -0.28616733360067392 0 -0.49264190703170102 -0.28455250422872891 0 -0.49031816891766089 -0.2938264411770648 0 -0.49999999999999939 -0.28775641548419628 0 -0.49264190703170102 -0.28455250422872891 0 -0.49999999999999778 -0.28616733360067392 0 -0.49999999999999939 -0.28775641548419628 0 -0.49264190703170102 -0.28455250422872891 0 -0.49999999999999939 -0.28775641548419628 0 -0.49234690373425849 -0.30441079644428098 0 -0.5 -0.3128595566859026 0 -0.47957093866921818 -0.29428966679363222 0 -0.49031816891766089 -0.2938264411770648 0 -0.49234690373425849 -0.30441079644428098 0 -0.47957093866921818 -0.29428966679363222 0 -0.45675363012160758 -0.29547666237357922 0 -0.4736920712282936 -0.31350428985107909 0 -0.47957093866921818 -0.29428966679363222 0 -0.49234690373425849 -0.30441079644428098 0 -0.4736920712282936 -0.31350428985107909 0 -0.49234690373425849 -0.30441079644428098 0 -0.4736920712282936 -0.31350428985107909 0 -0.45675363012160758 -0.29547666237357922 0 -0.44863169995798519 -0.3103370349100506 0 -0.4736920712282936 -0.31350428985107909 0 -0.45091553234529691 -0.27539510764258679 0 -0.47177871968849888 -0.27997380593565802 0 -0.45675363012160758 -0.29547666237357922 0 -0.45091553234529691 -0.27539510764258679 0 -0.45675363012160758 -0.29547666237357922 0 -0.43820147481457128 -0.28600257519798522 0 -0.45675363012160758 -0.29547666237357922 0 -0.43820147481457128 -0.28600257519798522 0 -0.43949309960129618 -0.30122006269695911 0 -0.45675363012160758 -0.29547666237357922 0 -0.43949309960129618 -0.30122006269695911 0 -0.44863169995798519 -0.3103370349100506 0 -0.43949309960129618 -0.30122006269695911 0 -0.44863169995798519 -0.3103370349100506 0 -0.438044724703894 -0.3129225298045436 0 -0.44238121465063218 -0.32001343372101482 0 -0.45503723872232871 -0.32259778325787708 0 -0.43638240621636282 -0.33169127666467307 0 -0.45503723872232871 -0.32259778325787708 0 -0.43638240621636282 -0.33169127666467307 0 -0.44863169995798519 -0.3103370349100506 0 -0.44238121465063218 -0.32001343372101482 0 -0.45503723872232871 -0.32259778325787708 0 -0.44863169995798519 -0.3103370349100506 0 -0.44238121465063218 -0.32001343372101482 0 -0.438044724703894 -0.3129225298045436 0 -0.45121219852841782 -0.33182938783039267 0 -0.45503723872232871 -0.32259778325787708 0 -0.43638240621636282 -0.33169127666467307 0 -0.44198934896515613 -0.33567548993535051 0 -0.45121219852841782 -0.33182938783039267 0 -0.43638240621636282 -0.33169127666467307 0 -0.44198934896515613 -0.33567548993535051 0 -0.43638240621636282 -0.33169127666467307 0 -0.44198934896515613 -0.33567548993535051 0 -0.4391471762275303 -0.34294518087651682 0 -0.44973170544932239 -0.34205063758442211 0 -0.44198934896515613 -0.33567548993535051 0 -0.44973170544932239 -0.34205063758442211 0 -0.45121219852841782 -0.33182938783039267 0 -0.45121219852841782 -0.33182938783039267 0 -0.46129332517436172 -0.34178877128879209 0 -0.46665007603729169 -0.32899113948846559 0 -0.44973170544932239 -0.34205063758442211 0 -0.45121219852841782 -0.33182938783039267 0 -0.46129332517436172 -0.34178877128879209 0 -0.45503723872232871 -0.32259778325787708 0 -0.4736920712282936 -0.31350428985107909 0 -0.44863169995798519 -0.3103370349100506 0 -0.45503723872232871 -0.32259778325787708 0 -0.4736920712282936 -0.31350428985107909 0 -0.46665007603729169 -0.32899113948846559 0 -0.45503723872232871 -0.32259778325787708 0 -0.4736920712282936 -0.31350428985107909 0 -0.45121219852841782 -0.33182938783039267 0 -0.46665007603729169 -0.32899113948846559 0 -0.45503723872232871 -0.32259778325787708 0 -0.46665007603729169 -0.32899113948846559 0 -0.4736920712282936 -0.31350428985107909 0 -0.4799306116946383 -0.33542301434679422 0 -0.4736920712282936 -0.31350428985107909 0 -0.48919391733143808 -0.32083207104313322 0 -0.4799306116946383 -0.33542301434679422 0 -0.49234690373425849 -0.30441079644428098 0 -0.4736920712282936 -0.31350428985107909 0 -0.48919391733143808 -0.32083207104313322 0 -0.5 -0.3128595566859026 0 -0.48919391733143808 -0.32083207104313322 0 -0.50000000000000022 -0.33796269788760891 0 -0.49234690373425849 -0.30441079644428098 0 -0.5 -0.3128595566859026 0 -0.48919391733143808 -0.32083207104313322 0 -0.48919391733143808 -0.32083207104313322 0 -0.50000000000000022 -0.33796269788760891 0 -0.4799306116946383 -0.33542301434679422 0 -0.50000000000000022 -0.33796269788760891 0 -0.4799306116946383 -0.33542301434679422 0 -0.48577569971607809 -0.35478961666781339 0 -0.46129332517436172 -0.34178877128879209 0 -0.46665007603729169 -0.32899113948846559 0 -0.4799306116946383 -0.33542301434679422 0 -0.46129332517436172 -0.34178877128879209 0 -0.4799306116946383 -0.33542301434679422 0 -0.46829712067061219 -0.3546243545167842 0 -0.4799306116946383 -0.33542301434679422 0 -0.48577569971607809 -0.35478961666781339 0 -0.46829712067061219 -0.3546243545167842 0 -0.50000000000000022 -0.33796269788760891 0 -0.48577569971607809 -0.35478961666781339 0 -0.50000000000000022 -0.33796269788760891 0 -0.48577569971607809 -0.35478961666781339 0 -0.5 -0.36538428276640661 0 -0.48577569971607809 -0.35478961666781339 0 -0.5 -0.36538428276640661 0 -0.48627092297301999 -0.36770180469778002 0 -0.48775659274384608 -0.37901678390888233 0 -0.5 -0.36538428276640661 0 -0.48627092297301999 -0.36770180469778002 0 -0.48775659274384608 -0.37901678390888233 0 -0.48627092297301999 -0.36770180469778002 0 -0.47155139943215568 -0.37161653544801782 0 -0.48577569971607809 -0.35478961666781339 0 -0.47155139943215568 -0.37161653544801782 0 -0.46829712067061219 -0.3546243545167842 0 -0.48577569971607809 -0.35478961666781339 0 -0.47155139943215568 -0.37161653544801782 0 -0.48577569971607809 -0.35478961666781339 0 -0.48627092297301999 -0.36770180469778002 0 -0.47155139943215568 -0.37161653544801782 0 -0.45715310383216168 -0.37648577713624959 0 -0.47155139943215568 -0.37161653544801782 0 -0.45913666764897088 -0.36703596386056592 0 -0.47155139943215568 -0.37161653544801782 0 -0.45913666764897088 -0.36703596386056592 0 -0.46829712067061219 -0.3546243545167842 0 -0.45913666764897088 -0.36703596386056592 0 -0.46829712067061219 -0.3546243545167842 0 -0.45137658055559932 -0.35688253426471789 0 -0.45715310383216168 -0.37648577713624959 0 -0.45913666764897088 -0.36703596386056592 0 -0.44884112785105701 -0.3738876712842224 0 -0.46129332517436172 -0.34178877128879209 0 -0.46829712067061219 -0.3546243545167842 0 -0.45137658055559932 -0.35688253426471789 0 -0.44973170544932239 -0.34205063758442211 0 -0.46129332517436172 -0.34178877128879209 0 -0.45137658055559932 -0.35688253426471789 0 -0.44973170544932239 -0.34205063758442211 0 -0.45137658055559932 -0.35688253426471789 0 -0.4425735193688764 -0.34859928215557878 0 -0.4391471762275303 -0.34294518087651682 0 -0.44973170544932239 -0.34205063758442211 0 -0.4425735193688764 -0.34859928215557878 0 -0.45137658055559932 -0.35688253426471789 0 -0.4425735193688764 -0.34859928215557878 0 -0.43640352875351218 -0.35600569666894899 0 -0.43017599776097459 -0.37826661043671289 0 -0.44260248612259429 -0.36591940150169971 0 -0.44884112785105701 -0.3738876712842224 0 -0.45137658055559932 -0.35688253426471789 0 -0.44260248612259429 -0.36591940150169971 0 -0.43640352875351218 -0.35600569666894899 0 -0.45913666764897088 -0.36703596386056592 0 -0.45137658055559932 -0.35688253426471789 0 -0.44260248612259429 -0.36591940150169971 0 -0.45913666764897088 -0.36703596386056592 0 -0.44260248612259429 -0.36591940150169971 0 -0.44884112785105701 -0.3738876712842224 0 -0.43017599776097459 -0.37826661043671289 0 -0.42968101416545268 -0.36343793249503031 0 -0.41050001229218408 -0.36608289804886179 0 -0.43017599776097459 -0.37826661043671289 0 -0.44260248612259429 -0.36591940150169971 0 -0.42968101416545268 -0.36343793249503031 0 -0.44260248612259429 -0.36591940150169971 0 -0.42968101416545268 -0.36343793249503031 0 -0.43640352875351218 -0.35600569666894899 0 -0.43640352875351218 -0.35600569666894899 0 -0.43066214738759329 -0.34728951258343632 0 -0.41997316231702558 -0.35437362788543197 0 -0.42968101416545268 -0.36343793249503031 0 -0.43640352875351218 -0.35600569666894899 0 -0.41997316231702558 -0.35437362788543197 0 -0.4391471762275303 -0.34294518087651682 0 -0.43066214738759329 -0.34728951258343632 0 -0.43077915996670307 -0.34111098212379609 0 -0.4391471762275303 -0.34294518087651682 0 -0.4425735193688764 -0.34859928215557878 0 -0.43066214738759329 -0.34728951258343632 0 -0.4425735193688764 -0.34859928215557878 0 -0.43640352875351218 -0.35600569666894899 0 -0.43066214738759329 -0.34728951258343632 0 -0.43066214738759329 -0.34728951258343632 0 -0.42246359087541302 -0.34669751470510179 0 -0.43077915996670307 -0.34111098212379609 0 -0.43066214738759329 -0.34728951258343632 0 -0.42246359087541302 -0.34669751470510179 0 -0.41997316231702558 -0.35437362788543197 0 -0.41997316231702558 -0.35437362788543197 0 -0.40872510448812033 -0.35428773568953742 0 -0.41360321651987852 -0.34279523116284388 0 -0.42246359087541302 -0.34669751470510179 0 -0.41997316231702558 -0.35437362788543197 0 -0.41360321651987852 -0.34279523116284388 0 -0.41997316231702558 -0.35437362788543197 0 -0.40872510448812033 -0.35428773568953742 0 -0.41050001229218408 -0.36608289804886179 0 -0.43017599776097459 -0.37826661043671289 0 -0.40749906099606142 -0.38062242474312441 0 -0.41050001229218408 -0.36608289804886179 0 -0.42968101416545268 -0.36343793249503031 0 -0.41997316231702558 -0.35437362788543197 0 -0.41050001229218408 -0.36608289804886179 0 -0.43017599776097459 -0.37826661043671289 0 -0.41050001229218408 -0.36608289804886179 0 -0.38848369967075169 -0.38122924145697318 0 -0.39666768950933412 -0.3703594960836526 0 -0.38758936155917101 -0.36497700436884689 0 -0.41050001229218408 -0.36608289804886179 0 -0.39334170262081081 -0.36045996292407778 0 -0.39666768950933412 -0.3703594960836526 0 -0.40749906099606142 -0.38062242474312441 0 -0.41050001229218408 -0.36608289804886179 0 -0.39666768950933412 -0.3703594960836526 0 -0.41050001229218408 -0.36608289804886179 0 -0.39334170262081081 -0.36045996292407778 0 -0.39082402682339301 -0.35389918566101197 0 -0.41050001229218408 -0.36608289804886179 0 -0.39082402682339301 -0.35389918566101197 0 -0.39334170262081081 -0.36045996292407778 0 -0.39666768950933412 -0.3703594960836526 0 -0.38758936155917101 -0.36497700436884689 0 -0.38848369967075169 -0.38122924145697318 0 -0.38758936155917101 -0.36497700436884689 0 -0.37721818994617851 -0.36908577309200358 0 -0.39334170262081081 -0.36045996292407778 0 -0.38758936155917101 -0.36497700436884689 0 -0.39082402682339301 -0.35389918566101197 0 -0.38758936155917101 -0.36497700436884689 0 -0.37721818994617851 -0.36908577309200358 0 -0.38098946118048882 -0.35726475537469449 0 -0.37721818994617851 -0.36908577309200358 0 -0.38098946118048882 -0.35726475537469449 0 -0.37175800699492112 -0.35852200730513178 0 -0.37930311664514871 -0.34676523771819251 0 -0.39067148832146081 -0.34128564550784363 0 -0.36320720215396618 -0.34718522724390521 0 -0.39067148832146081 -0.34128564550784363 0 -0.36320720215396618 -0.34718522724390521 0 -0.37930311664514871 -0.34676523771819251 0 -0.38098946118048882 -0.35726475537469449 0 -0.37175800699492112 -0.35852200730513178 0 -0.38758936155917101 -0.36497700436884689 0 -0.38098946118048882 -0.35726475537469449 0 -0.39082402682339301 -0.35389918566101197 0 -0.37930311664514871 -0.34676523771819251 0 -0.38098946118048882 -0.35726475537469449 0 -0.39082402682339301 -0.35389918566101197 0 -0.37930311664514871 -0.34676523771819251 0 -0.39082402682339301 -0.35389918566101197 0 -0.37930311664514871 -0.34676523771819251 0 -0.39082402682339301 -0.35389918566101197 0 -0.39067148832146081 -0.34128564550784363 0 -0.39082402682339301 -0.35389918566101197 0 -0.39067148832146081 -0.34128564550784363 0 -0.41360321651987852 -0.34279523116284388 0 -0.40872510448812033 -0.35428773568953742 0 -0.41050001229218408 -0.36608289804886179 0 -0.39082402682339301 -0.35389918566101197 0 -0.40872510448812033 -0.35428773568953742 0 -0.39082402682339301 -0.35389918566101197 0 -0.41360321651987852 -0.34279523116284388 0 -0.39082402682339301 -0.35389918566101197 0 -0.41360321651987852 -0.34279523116284388 0 -0.39067148832146081 -0.34128564550784363 0 -0.41813577448895539 -0.33538606377178198 0 -0.39067148832146081 -0.34128564550784363 0 -0.40869753142465781 -0.33467763126881039 0 -0.41813577448895539 -0.33538606377178198 0 -0.39067148832146081 -0.34128564550784363 0 -0.39519651550055102 -0.32570238227127057 0 -0.40869753142465781 -0.33467763126881039 0 -0.39067148832146081 -0.34128564550784363 0 -0.38610509913532792 -0.32739667121661331 0 -0.39519651550055102 -0.32570238227127057 0 -0.39067148832146081 -0.34128564550784363 0 -0.37579728243456989 -0.333881887471148 0 -0.36320720215396618 -0.34718522724390521 0 -0.39067148832146081 -0.34128564550784363 0 -0.37579728243456989 -0.333881887471148 0 -0.38610509913532792 -0.32739667121661331 0 -0.37579728243456989 -0.333881887471148 0 -0.37949981394242199 -0.31932621094437491 0 -0.38610509913532792 -0.32739667121661331 0 -0.37949981394242199 -0.31932621094437491 0 -0.38610509913532792 -0.32739667121661331 0 -0.38936039547763551 -0.31678722988842922 0 -0.38610509913532792 -0.32739667121661331 0 -0.38936039547763551 -0.31678722988842922 0 -0.39519651550055102 -0.32570238227127057 0 -0.37949981394242199 -0.31932621094437491 0 -0.38936039547763551 -0.31678722988842922 0 -0.38570904135523698 -0.3073741272432628 0 -0.40869753142465781 -0.33467763126881039 0 -0.40021867226944352 -0.30599384489766968 0 -0.39519651550055102 -0.32570238227127057 0 -0.40869753142465781 -0.33467763126881039 0 -0.40021867226944352 -0.30599384489766968 0 -0.38936039547763551 -0.31678722988842922 0 -0.39519651550055102 -0.32570238227127057 0 -0.40021867226944352 -0.30599384489766968 0 -0.41830053924290361 -0.31884256078117068 0 -0.40869753142465781 -0.33467763126881039 0 -0.40021867226944352 -0.30599384489766968 0 -0.41830053924290361 -0.31884256078117068 0 -0.40869753142465781 -0.33467763126881039 0 -0.41813577448895539 -0.33538606377178198 0 -0.39067148832146081 -0.34128564550784363 0 -0.41813577448895539 -0.33538606377178198 0 -0.41360321651987852 -0.34279523116284388 0 -0.42246359087541302 -0.34669751470510179 0 -0.41360321651987852 -0.34279523116284388 0 -0.43077915996670307 -0.34111098212379609 0 -0.41830053924290361 -0.31884256078117068 0 -0.41813577448895539 -0.33538606377178198 0 -0.43638240621636282 -0.33169127666467307 0 -0.41360321651987852 -0.34279523116284388 0 -0.43638240621636282 -0.33169127666467307 0 -0.41813577448895539 -0.33538606377178198 0 -0.41360321651987852 -0.34279523116284388 0 -0.43638240621636282 -0.33169127666467307 0 -0.41360321651987852 -0.34279523116284388 0 -0.43077915996670307 -0.34111098212379609 0 -0.43638240621636282 -0.33169127666467307 0 -0.44198934896515613 -0.33567548993535051 0 -0.43077915996670307 -0.34111098212379609 0 -0.43638240621636282 -0.33169127666467307 0 -0.44198934896515613 -0.33567548993535051 0 -0.4391471762275303 -0.34294518087651682 0 -0.43077915996670307 -0.34111098212379609 0 -0.41830053924290361 -0.31884256078117068 0 -0.43638240621636282 -0.33169127666467307 0 -0.43191616313002562 -0.31825441607136251 0 -0.41830053924290361 -0.31884256078117068 0 -0.43638240621636282 -0.33169127666467307 0 -0.44238121465063218 -0.32001343372101482 0 -0.43638240621636282 -0.33169127666467307 0 -0.43191616313002562 -0.31825441607136251 0 -0.438044724703894 -0.3129225298045436 0 -0.43191616313002562 -0.31825441607136251 0 -0.42827177875557909 -0.30776282936873839 0 -0.44238121465063218 -0.32001343372101482 0 -0.438044724703894 -0.3129225298045436 0 -0.43191616313002562 -0.31825441607136251 0 -0.41830053924290361 -0.31884256078117068 0 -0.43191616313002562 -0.31825441607136251 0 -0.42827177875557909 -0.30776282936873839 0 -0.42827177875557909 -0.30776282936873839 0 -0.42705528925414021 -0.29481874452685802 0 -0.41433731943217061 -0.30005325830682711 0 -0.43949309960129618 -0.30122006269695911 0 -0.438044724703894 -0.3129225298045436 0 -0.42827177875557909 -0.30776282936873839 0 -0.43949309960129618 -0.30122006269695911 0 -0.42827177875557909 -0.30776282936873839 0 -0.42705528925414021 -0.29481874452685802 0 -0.43820147481457128 -0.28600257519798522 0 -0.43949309960129618 -0.30122006269695911 0 -0.42705528925414021 -0.29481874452685802 0 -0.43820147481457128 -0.28600257519798522 0 -0.4245810089791428 -0.28324261512128218 0 -0.42705528925414021 -0.29481874452685802 0 -0.4245810089791428 -0.28324261512128218 0 -0.42705528925414021 -0.29481874452685802 0 -0.41781906595143109 -0.29144962524100149 0 -0.42705528925414021 -0.29481874452685802 0 -0.41781906595143109 -0.29144962524100149 0 -0.41433731943217061 -0.30005325830682711 0 -0.4245810089791428 -0.28324261512128218 0 -0.41781906595143109 -0.29144962524100149 0 -0.40530264614027101 -0.28768388300903902 0 -0.41781906595143109 -0.29144962524100149 0 -0.41433731943217061 -0.30005325830682711 0 -0.40530264614027101 -0.28768388300903902 0 -0.41830053924290361 -0.31884256078117068 0 -0.41433731943217061 -0.30005325830682711 0 -0.40021867226944352 -0.30599384489766968 0 -0.41830053924290361 -0.31884256078117068 0 -0.42827177875557909 -0.30776282936873839 0 -0.41433731943217061 -0.30005325830682711 0 -0.41433731943217061 -0.30005325830682711 0 -0.40021867226944352 -0.30599384489766968 0 -0.40530264614027101 -0.28768388300903902 0 -0.41830053924290361 -0.31884256078117068 0 -0.40021867226944352 -0.30599384489766968 0 -0.40021867226944352 -0.30599384489766968 0 -0.38189364434322559 -0.29297234232125913 0 -0.38936039547763551 -0.31678722988842922 0 -0.40021867226944352 -0.30599384489766968 0 -0.38570904135523698 -0.3073741272432628 0 -0.40021867226944352 -0.30599384489766968 0 -0.38570904135523698 -0.3073741272432628 0 -0.38189364434322559 -0.29297234232125913 0 -0.38570904135523698 -0.3073741272432628 0 -0.38189364434322559 -0.29297234232125913 0 -0.37266678408583243 -0.30431392497087312 0 -0.37949981394242199 -0.31932621094437491 0 -0.38570904135523698 -0.3073741272432628 0 -0.37266678408583243 -0.30431392497087312 0 -0.38189364434322559 -0.29297234232125913 0 -0.39334911931948652 -0.28275430456863998 0 -0.37941439412609718 -0.27343891848310892 0 -0.40021867226944352 -0.30599384489766968 0 -0.39334911931948652 -0.28275430456863998 0 -0.40021867226944352 -0.30599384489766968 0 -0.38189364434322559 -0.29297234232125913 0 -0.39334911931948652 -0.28275430456863998 0 -0.40021867226944352 -0.30599384489766968 0 -0.39334911931948652 -0.28275430456863998 0 -0.40530264614027101 -0.28768388300903902 0 -0.39334911931948652 -0.28275430456863998 0 -0.40530264614027101 -0.28768388300903902 0 -0.40269276477309712 -0.27622996972404029 0 -0.40269276477309712 -0.27622996972404029 0 -0.40613593010248172 -0.26653497009978322 0 -0.38647956636953029 -0.25951476423961012 0 -0.39334911931948652 -0.28275430456863998 0 -0.40269276477309712 -0.27622996972404029 0 -0.38647956636953029 -0.25951476423961012 0 -0.39334911931948652 -0.28275430456863998 0 -0.38647956636953029 -0.25951476423961012 0 -0.39334911931948652 -0.28275430456863998 0 -0.37941439412609718 -0.27343891848310892 0 -0.38647956636953029 -0.25951476423961012 0 -0.37941439412609718 -0.27343891848310892 0 -0.38647956636953029 -0.25951476423961012 0 -0.37178102418123588 -0.25200234154118711 0 -0.38647956636953029 -0.25951476423961012 0 -0.40130876001187871 -0.25436073407262788 0 -0.396298729788024 -0.24282391814839641 0 -0.40613593010248172 -0.26653497009978322 0 -0.38647956636953029 -0.25951476423961012 0 -0.40130876001187871 -0.25436073407262788 0 -0.40613593010248172 -0.26653497009978322 0 -0.41622591407374848 -0.25127892899794918 0 -0.42536422700793552 -0.26978754077327832 0 -0.40613593010248172 -0.26653497009978322 0 -0.40130876001187871 -0.25436073407262788 0 -0.41622591407374848 -0.25127892899794918 0 -0.40530264614027101 -0.28768388300903902 0 -0.43005234500209499 -0.27081640934951501 0 -0.4245810089791428 -0.28324261512128218 0 -0.40530264614027101 -0.28768388300903902 0 -0.43005234500209499 -0.27081640934951501 0 -0.40530264614027101 -0.28768388300903902 0 -0.42536422700793552 -0.26978754077327832 0 -0.43005234500209499 -0.27081640934951501 0 -0.40530264614027101 -0.28768388300903902 0 -0.40269276477309712 -0.27622996972404029 0 -0.42536422700793552 -0.26978754077327832 0 -0.40269276477309712 -0.27622996972404029 0 -0.40613593010248172 -0.26653497009978322 0 -0.42536422700793552 -0.26978754077327832 0 -0.44215413144481752 -0.26256877105720561 0 -0.42536422700793552 -0.26978754077327832 0 -0.43005234500209499 -0.27081640934951501 0 -0.42536422700793552 -0.26978754077327832 0 -0.43005234500209499 -0.27081640934951501 0 -0.43820147481457128 -0.28600257519798522 0 -0.4245810089791428 -0.28324261512128218 0 -0.43005234500209499 -0.27081640934951501 0 -0.44215413144481752 -0.26256877105720561 0 -0.43005234500209499 -0.27081640934951501 0 -0.44215413144481752 -0.26256877105720561 0 -0.41622591407374848 -0.25127892899794918 0 -0.43318725347332682 -0.24571171026092681 0 -0.44215413144481752 -0.26256877105720561 0 -0.41622591407374848 -0.25127892899794918 0 -0.42536422700793552 -0.26978754077327832 0 -0.44215413144481752 -0.26256877105720561 0 -0.41622591407374848 -0.25127892899794918 0 -0.32299919822109602 -0.25112279180470409 0 -0.31631882101551467 -0.26876999259796691 0 -0.33078622252974749 -0.25665613983047131 0 -0.32299919822109602 -0.25112279180470409 0 -0.31631882101551467 -0.26876999259796691 0 -0.30409382839077781 -0.25248712099645099 0 -0.32299919822109602 -0.25112279180470409 0 -0.33078622252974749 -0.25665613983047131 0 -0.31631882101551467 -0.26876999259796691 0 -0.33078622252974749 -0.25665613983047131 0 -0.32516186349838172 -0.2854388778364228 0 -0.33078622252974749 -0.25665613983047131 0 -0.32516186349838172 -0.2854388778364228 0 -0.31631882101551467 -0.26876999259796691 0 -0.32516186349838172 -0.2854388778364228 0 -0.30371037320080008 -0.2820113171395503 0 -0.34717741947337732 -0.26830348978766028 0 -0.34629008092103458 -0.28796447004169817 0 -0.32516186349838172 -0.2854388778364228 0 -0.33078622252974749 -0.25665613983047131 0 -0.34717741947337732 -0.26830348978766028 0 -0.32516186349838172 -0.2854388778364228 0 -0.33078622252974749 -0.25665613983047131 0 -0.34717741947337732 -0.26830348978766028 0 -0.33078622252974749 -0.25665613983047131 0 -0.34118553902230248 -0.25599139880999972 0 -0.34717741947337732 -0.26830348978766028 0 -0.32299919822109602 -0.25112279180470409 0 -0.33180142441554661 -0.25146082962016392 0 -0.33078622252974749 -0.25665613983047131 0 -0.33180142441554661 -0.25146082962016392 0 -0.33078622252974749 -0.25665613983047131 0 -0.34118553902230248 -0.25599139880999972 0 -0.33180142441554661 -0.25146082962016392 0 -0.33078622252974749 -0.25665613983047131 0 -0.34118553902230248 -0.25599139880999972 0 -0.34994097381523948 -0.25034073285603931 0 -0.33783866616150648 -0.24712190544539381 0 -0.33180142441554661 -0.25146082962016392 0 -0.34118553902230248 -0.25599139880999972 0 -0.33783866616150648 -0.24712190544539381 0 -0.35884391232293772 -0.25801278068515038 0 -0.34994097381523948 -0.25034073285603931 0 -0.34717741947337732 -0.26830348978766028 0 -0.34118553902230248 -0.25599139880999972 0 -0.34994097381523948 -0.25034073285603931 0 -0.34717741947337732 -0.26830348978766028 0 -0.35884391232293772 -0.25801278068515038 0 -0.37178102418123588 -0.25200234154118711 0 -0.36356861641700799 -0.27995083974484819 0 -0.37941439412609718 -0.27343891848310892 0 -0.37178102418123588 -0.25200234154118711 0 -0.36356861641700799 -0.27995083974484819 0 -0.37178102418123588 -0.25200234154118711 0 -0.36356861641700799 -0.27995083974484819 0 -0.36356861641700799 -0.27995083974484819 0 -0.34717741947337732 -0.26830348978766028 0 -0.36356861641700799 -0.27995083974484819 0 -0.34717741947337732 -0.26830348978766028 0 -0.34629008092103458 -0.28796447004169817 0 -0.35884391232293772 -0.25801278068515038 0 -0.36356861641700799 -0.27995083974484819 0 -0.34717741947337732 -0.26830348978766028 0 -0.36356861641700799 -0.27995083974484819 0 -0.34629008092103458 -0.28796447004169817 0 -0.35756259950497199 -0.30039053997604981 0 -0.36356861641700799 -0.27995083974484819 0 -0.36892291108775949 -0.29440691175325751 0 -0.35756259950497199 -0.30039053997604981 0 -0.38189364434322559 -0.29297234232125913 0 -0.37941439412609718 -0.27343891848310892 0 -0.36356861641700799 -0.27995083974484819 0 -0.38189364434322559 -0.29297234232125913 0 -0.36356861641700799 -0.27995083974484819 0 -0.36892291108775949 -0.29440691175325751 0 -0.36356861641700799 -0.27995083974484819 0 -0.35756259950497199 -0.30039053997604981 0 -0.38189364434322559 -0.29297234232125913 0 -0.36356861641700799 -0.27995083974484819 0 -0.38189364434322559 -0.29297234232125913 0 -0.36892291108775949 -0.29440691175325751 0 -0.37266678408583243 -0.30431392497087312 0 -0.36892291108775949 -0.29440691175325751 0 -0.37266678408583243 -0.30431392497087312 0 -0.35756259950497199 -0.30039053997604981 0 -0.37266678408583243 -0.30431392497087312 0 -0.35756259950497199 -0.30039053997604981 0 -0.36473185775227968 -0.31393742521309592 0 -0.35756259950497199 -0.30039053997604981 0 -0.35155658259293587 -0.32083024020725132 0 -0.36473185775227968 -0.31393742521309592 0 -0.35756259950497199 -0.30039053997604981 0 -0.3394912057555291 -0.3055148585369919 0 -0.35155658259293587 -0.32083024020725132 0 -0.34629008092103458 -0.28796447004169817 0 -0.35756259950497199 -0.30039053997604981 0 -0.3394912057555291 -0.3055148585369919 0 -0.35756259950497199 -0.30039053997604981 0 -0.35155658259293587 -0.32083024020725132 0 -0.34629008092103458 -0.28796447004169817 0 -0.3394912057555291 -0.3055148585369919 0 -0.32516186349838172 -0.2854388778364228 0 -0.32516186349838172 -0.2854388778364228 0 -0.31953750446701551 -0.31422161584237401 0 -0.3394912057555291 -0.3055148585369919 0 -0.32516186349838172 -0.2854388778364228 0 -0.31953750446701551 -0.31422161584237401 0 -0.32516186349838172 -0.2854388778364228 0 -0.31953750446701551 -0.31422161584237401 0 -0.29854147538009529 -0.30405169354012079 0 -0.31953750446701551 -0.31422161584237401 0 -0.31391314543564919 -0.34300435384832523 0 -0.32956845929189021 -0.33915663723918971 0 -0.31953750446701551 -0.31422161584237401 0 -0.31391314543564919 -0.34300435384832523 0 -0.32956845929189021 -0.33915663723918971 0 -0.3368386035488351 -0.32424340731815549 0 -0.34555056568089959 -0.34126994043845282 0 -0.3394912057555291 -0.3055148585369919 0 -0.31953750446701551 -0.31422161584237401 0 -0.3368386035488351 -0.32424340731815549 0 -0.3394912057555291 -0.3055148585369919 0 -0.3368386035488351 -0.32424340731815549 0 -0.35155658259293587 -0.32083024020725132 0 -0.31953750446701551 -0.31422161584237401 0 -0.32956845929189021 -0.33915663723918971 0 -0.3368386035488351 -0.32424340731815549 0 -0.35155658259293587 -0.32083024020725132 0 -0.36722493233327441 -0.32557095189990021 0 -0.35826146573526291 -0.33193209438786558 0 -0.35155658259293587 -0.32083024020725132 0 -0.36473185775227968 -0.31393742521309592 0 -0.36722493233327441 -0.32557095189990021 0 -0.37579728243456989 -0.333881887471148 0 -0.37949981394242199 -0.31932621094437491 0 -0.36722493233327441 -0.32557095189990021 0 -0.37949981394242199 -0.31932621094437491 0 -0.36473185775227968 -0.31393742521309592 0 -0.36722493233327441 -0.32557095189990021 0 -0.37949981394242199 -0.31932621094437491 0 -0.37266678408583243 -0.30431392497087312 0 -0.36473185775227968 -0.31393742521309592 0 -0.37579728243456989 -0.333881887471148 0 -0.36485219043375922 -0.33913707161035861 0 -0.36320720215396618 -0.34718522724390521 0 -0.37579728243456989 -0.333881887471148 0 -0.36834492842046362 -0.33285425820405118 0 -0.36485219043375922 -0.33913707161035861 0 -0.37579728243456989 -0.333881887471148 0 -0.36722493233327441 -0.32557095189990021 0 -0.36834492842046362 -0.33285425820405118 0 -0.36722493233327441 -0.32557095189990021 0 -0.36834492842046362 -0.33285425820405118 0 -0.35826146573526291 -0.33193209438786558 0 -0.36834492842046362 -0.33285425820405118 0 -0.36485219043375922 -0.33913707161035861 0 -0.35826146573526291 -0.33193209438786558 0 -0.36485219043375922 -0.33913707161035861 0 -0.36320720215396618 -0.34718522724390521 0 -0.36485219043375922 -0.33913707161035861 0 -0.35403695651570177 -0.34219480633650301 0 -0.36320720215396618 -0.34718522724390521 0 -0.35155658259293587 -0.32083024020725132 0 -0.35826146573526291 -0.33193209438786558 0 -0.34555056568089959 -0.34126994043845282 0 -0.35403695651570177 -0.34219480633650301 0 -0.35826146573526291 -0.33193209438786558 0 -0.34555056568089959 -0.34126994043845282 0 -0.3368386035488351 -0.32424340731815549 0 -0.35155658259293587 -0.32083024020725132 0 -0.34555056568089959 -0.34126994043845282 0 -0.36485219043375922 -0.33913707161035861 0 -0.35403695651570177 -0.34219480633650301 0 -0.35826146573526291 -0.33193209438786558 0 -0.35155658259293587 -0.32083024020725132 0 -0.34555056568089959 -0.34126994043845282 0 -0.36320720215396618 -0.34718522724390521 0 -0.33868451481955292 -0.35245292644551351 0 -0.35403695651570177 -0.34219480633650301 0 -0.34555056568089959 -0.34126994043845282 0 -0.33868451481955292 -0.35245292644551351 0 -0.35403695651570177 -0.34219480633650301 0 -0.36320720215396618 -0.34718522724390521 0 -0.33868451481955292 -0.35245292644551351 0 -0.35187485478790259 -0.35858397189812591 0 -0.36320720215396618 -0.34718522724390521 0 -0.33868451481955292 -0.35245292644551351 0 -0.35187485478790259 -0.35858397189812591 0 -0.36320720215396618 -0.34718522724390521 0 -0.35807206504882311 -0.37230904309686308 0 -0.35187485478790259 -0.35858397189812591 0 -0.34236619727901102 -0.36657689789595521 0 -0.33868451481955292 -0.35245292644551351 0 -0.36320720215396618 -0.34718522724390521 0 -0.37175800699492112 -0.35852200730513178 0 -0.35807206504882311 -0.37230904309686308 0 -0.37930311664514871 -0.34676523771819251 0 -0.36320720215396618 -0.34718522724390521 0 -0.37175800699492112 -0.35852200730513178 0 -0.36320720215396618 -0.34718522724390521 0 -0.35807206504882311 -0.37230904309686308 0 -0.37721818994617851 -0.36908577309200358 0 -0.37175800699492112 -0.35852200730513178 0 -0.35807206504882311 -0.37230904309686308 0 -0.35807206504882311 -0.37230904309686308 0 -0.34236619727901102 -0.36657689789595521 0 -0.34036576854824419 -0.38202450480928851 0 -0.35187485478790259 -0.35858397189812591 0 -0.35807206504882311 -0.37230904309686308 0 -0.34236619727901102 -0.36657689789595521 0 -0.33047735072314433 -0.37258709744061941 0 -0.34236619727901102 -0.36657689789595521 0 -0.34036576854824419 -0.38202450480928851 0 -0.33047735072314433 -0.37258709744061941 0 -0.32918064201505981 -0.3636124149894327 0 -0.34236619727901102 -0.36657689789595521 0 -0.32918064201505981 -0.3636124149894327 0 -0.34236619727901102 -0.36657689789595521 0 -0.33868451481955292 -0.35245292644551351 0 -0.32956845929189021 -0.33915663723918971 0 -0.34555056568089959 -0.34126994043845282 0 -0.33868451481955292 -0.35245292644551351 0 -0.31391314543564919 -0.34300435384832523 0 -0.32956845929189021 -0.33915663723918971 0 -0.31416182748513949 -0.3577206256471217 0 -0.32918064201505981 -0.3636124149894327 0 -0.33868451481955292 -0.35245292644551351 0 -0.31416182748513949 -0.3577206256471217 0 -0.32956845929189021 -0.33915663723918971 0 -0.33868451481955292 -0.35245292644551351 0 -0.31416182748513949 -0.3577206256471217 0 -0.33868451481955292 -0.35245292644551351 0 -0.31416182748513949 -0.3577206256471217 0 -0.31416182748513949 -0.3577206256471217 0 -0.32021331976845152 -0.36872452751795393 0 -0.30828878640428309 -0.37178709185427627 0 -0.32021331976845152 -0.36872452751795393 0 -0.30828878640428309 -0.37178709185427627 0 -0.32117427271509841 -0.38313875086693389 0 -0.33047735072314433 -0.37258709744061941 0 -0.32918064201505981 -0.3636124149894327 0 -0.32021331976845152 -0.36872452751795393 0 -0.33047735072314433 -0.37258709744061941 0 -0.32021331976845152 -0.36872452751795393 0 -0.32117427271509841 -0.38313875086693389 0 -0.32918064201505981 -0.3636124149894327 0 -0.31416182748513949 -0.3577206256471217 0 -0.32021331976845152 -0.36872452751795393 0 -0.30828878640428309 -0.37178709185427627 0 -0.30145501797982788 -0.35693950460326818 0 -0.29323677229237682 -0.36866275345947952 0 -0.30828878640428309 -0.37178709185427627 0 -0.29323677229237682 -0.36866275345947952 0 -0.29302075919173109 -0.38388816698513373 0 -0.31391314543564919 -0.34300435384832523 0 -0.30828878640428309 -0.37178709185427627 0 -0.31391314543564919 -0.34300435384832523 0 -0.31416182748513949 -0.3577206256471217 0 -0.30828878640428309 -0.37178709185427627 0 -0.31391314543564919 -0.34300435384832523 0 -0.30828878640428309 -0.37178709185427627 0 -0.30145501797982788 -0.35693950460326818 0 -0.31391314543564919 -0.34300435384832523 0 -0.29941577050840701 -0.34614548392961031 0 -0.30145501797982788 -0.35693950460326818 0 -0.29941577050840701 -0.34614548392961031 0 -0.30145501797982788 -0.35693950460326818 0 -0.29242061525842322 -0.35509783992464972 0 -0.29242061525842322 -0.35509783992464972 0 -0.27963145772738512 -0.36061433705083012 0 -0.28439457374198168 -0.34270995214491912 0 -0.29941577050840701 -0.34614548392961031 0 -0.29242061525842322 -0.35509783992464972 0 -0.28439457374198168 -0.34270995214491912 0 -0.29323677229237682 -0.36866275345947952 0 -0.27963145772738512 -0.36061433705083012 0 -0.27773649132113831 -0.37630155594141262 0 -0.29242061525842322 -0.35509783992464972 0 -0.29323677229237682 -0.36866275345947952 0 -0.27963145772738512 -0.36061433705083012 0 -0.30145501797982788 -0.35693950460326818 0 -0.29242061525842322 -0.35509783992464972 0 -0.29323677229237682 -0.36866275345947952 0 -0.27963145772738512 -0.36061433705083012 0 -0.2647245034493575 -0.3695232981608485 0 -0.26622889940051381 -0.35068192512002938 0 -0.27963145772738512 -0.36061433705083012 0 -0.2647245034493575 -0.3695232981608485 0 -0.27773649132113831 -0.37630155594141262 0 -0.2647245034493575 -0.3695232981608485 0 -0.26622889940051381 -0.35068192512002938 0 -0.249525700684118 -0.36077189209700899 0 -0.2647245034493575 -0.3695232981608485 0 -0.2498985981174241 -0.38033679865772863 0 -0.249525700684118 -0.36077189209700899 0 -0.26622889940051381 -0.35068192512002938 0 -0.249525700684118 -0.36077189209700899 0 -0.24957803048236149 -0.34397043495177593 0 -0.27963145772738512 -0.36061433705083012 0 -0.26622889940051381 -0.35068192512002938 0 -0.28439457374198168 -0.34270995214491912 0 -0.26959053712271103 -0.33441403362302208 0 -0.28146265943495719 -0.3223660932293706 0 -0.28439457374198168 -0.34270995214491912 0 -0.26622889940051381 -0.35068192512002938 0 -0.26959053712271103 -0.33441403362302208 0 -0.28439457374198168 -0.34270995214491912 0 -0.26622889940051381 -0.35068192512002938 0 -0.26959053712271103 -0.33441403362302208 0 -0.24957803048236149 -0.34397043495177593 0 -0.26959053712271103 -0.33441403362302208 0 -0.25552753542144307 -0.32990654313790502 0 -0.24957803048236149 -0.34397043495177593 0 -0.2504234289430845 -0.31936718239544581 0 -0.26405167926611273 -0.31954241956296769 0 -0.25359998096172282 -0.30694194894199178 0 -0.25552753542144307 -0.32990654313790502 0 -0.2504234289430845 -0.31936718239544581 0 -0.26405167926611273 -0.31954241956296769 0 -0.26959053712271103 -0.33441403362302208 0 -0.25552753542144307 -0.32990654313790502 0 -0.26405167926611273 -0.31954241956296769 0 -0.26405167926611273 -0.31954241956296769 0 -0.28146265943495719 -0.3223660932293706 0 -0.27376914173637068 -0.30343869269174839 0 -0.26959053712271103 -0.33441403362302208 0 -0.26405167926611273 -0.31954241956296769 0 -0.28146265943495719 -0.3223660932293706 0 -0.28146265943495719 -0.3223660932293706 0 -0.29877966419095642 -0.33067216592674381 0 -0.29854147538009529 -0.30405169354012079 0 -0.28146265943495719 -0.3223660932293706 0 -0.28439457374198168 -0.34270995214491912 0 -0.29877966419095642 -0.33067216592674381 0 -0.29941577050840701 -0.34614548392961031 0 -0.28439457374198168 -0.34270995214491912 0 -0.29877966419095642 -0.33067216592674381 0 -0.31953750446701551 -0.31422161584237401 0 -0.31391314543564919 -0.34300435384832523 0 -0.29877966419095642 -0.33067216592674381 0 -0.31391314543564919 -0.34300435384832523 0 -0.29941577050840701 -0.34614548392961031 0 -0.29877966419095642 -0.33067216592674381 0 -0.31953750446701551 -0.31422161584237401 0 -0.29877966419095642 -0.33067216592674381 0 -0.29854147538009529 -0.30405169354012079 0 -0.32516186349838172 -0.2854388778364228 0 -0.29854147538009529 -0.30405169354012079 0 -0.30371037320080008 -0.2820113171395503 0 -0.29854147538009529 -0.30405169354012079 0 -0.30371037320080008 -0.2820113171395503 0 -0.28736912113218588 -0.2902130921146357 0 -0.28146265943495719 -0.3223660932293706 0 -0.29854147538009529 -0.30405169354012079 0 -0.27376914173637068 -0.30343869269174839 0 -0.29854147538009529 -0.30405169354012079 0 -0.28736912113218588 -0.2902130921146357 0 -0.27376914173637068 -0.30343869269174839 0 -0.26405167926611273 -0.31954241956296769 0 -0.27376914173637068 -0.30343869269174839 0 -0.25359998096172282 -0.30694194894199178 0 -0.27376914173637068 -0.30343869269174839 0 -0.25359998096172282 -0.30694194894199178 0 -0.26002888762789872 -0.29035947214745139 0 -0.25359998096172282 -0.30694194894199178 0 -0.26002888762789872 -0.29035947214745139 0 -0.249011173528006 -0.29486372502063463 0 -0.26002888762789872 -0.29035947214745139 0 -0.26142157199698518 -0.27150057629738972 0 -0.2448217175665422 -0.28265904550320248 0 -0.26002888762789872 -0.29035947214745139 0 -0.2448217175665422 -0.28265904550320248 0 -0.249011173528006 -0.29486372502063463 0 -0.28736912113218588 -0.2902130921146357 0 -0.27376914173637068 -0.30343869269174839 0 -0.27496599804063387 -0.27986738732635053 0 -0.27376914173637068 -0.30343869269174839 0 -0.26002888762789872 -0.29035947214745139 0 -0.27496599804063387 -0.27986738732635053 0 -0.27496599804063387 -0.27986738732635053 0 -0.26142157199698518 -0.27150057629738972 0 -0.27573779829185407 -0.25393917825748641 0 -0.27496599804063387 -0.27986738732635053 0 -0.27573779829185407 -0.25393917825748641 0 -0.29146946745850899 -0.26975331244939182 0 -0.26142157199698518 -0.27150057629738972 0 -0.24748773663790799 -0.26974185585923699 0 -0.2448217175665422 -0.28265904550320248 0 -0.26002888762789872 -0.29035947214745139 0 -0.27496599804063387 -0.27986738732635053 0 -0.26142157199698518 -0.27150057629738972 0 -0.27573779829185407 -0.25393917825748641 0 -0.24738176819293031 -0.25539123551852178 0 -0.26101667401452161 -0.24636134497999021 0 -0.26142157199698518 -0.27150057629738972 0 -0.24738176819293031 -0.25539123551852178 0 -0.24748773663790799 -0.26974185585923699 0 -0.27573779829185407 -0.25393917825748641 0 -0.24738176819293031 -0.25539123551852178 0 -0.26142157199698518 -0.27150057629738972 0 -0.27573779829185407 -0.25393917825748641 0 -0.24738176819293031 -0.25539123551852178 0 -0.27573779829185407 -0.25393917825748641 0 -0.30409382839077781 -0.25248712099645099 0 -0.27573779829185407 -0.25393917825748641 0 -0.29146946745850899 -0.26975331244939182 0 -0.30409382839077781 -0.25248712099645099 0 -0.30371037320080008 -0.2820113171395503 0 -0.28736912113218588 -0.2902130921146357 0 -0.29146946745850899 -0.26975331244939182 0 -0.28736912113218588 -0.2902130921146357 0 -0.27496599804063387 -0.27986738732635053 0 -0.29146946745850899 -0.26975331244939182 0 -0.31631882101551467 -0.26876999259796691 0 -0.30371037320080008 -0.2820113171395503 0 -0.29146946745850899 -0.26975331244939182 0 -0.31631882101551467 -0.26876999259796691 0 -0.29146946745850899 -0.26975331244939182 0 -0.30409382839077781 -0.25248712099645099 0 -0.32126793639073148 -0.46803574303317103 0 -0.35222818257993871 -0.47055464157629229 0 -0.34668108220432642 -0.45828406757558138 0 -0.32121981721841031 -0.45574364249001043 0 -0.34668108220432642 -0.45828406757558138 0 -0.32121981721841031 -0.45574364249001043 0 -0.32126793639073148 -0.46803574303317103 0 -0.34668108220432642 -0.45828406757558138 0 -0.33741897055483699 -0.44510629951558889 0 -0.32121981721841031 -0.45574364249001043 0 -0.34668108220432642 -0.45828406757558138 0 -0.33741897055483699 -0.44510629951558889 0 -0.32633769039583083 -0.44035758512605649 0 -0.32121981721841031 -0.45574364249001043 0 -0.33741897055483699 -0.44510629951558889 0 -0.34503349973133152 -0.43610062398675459 0 -0.3356554893872547 -0.43384965788409469 0 -0.33741897055483699 -0.44510629951558889 0 -0.32633769039583083 -0.44035758512605649 0 -0.3356554893872547 -0.43384965788409469 0 -0.32633769039583083 -0.44035758512605649 0 -0.32121981721841031 -0.45574364249001043 0 -0.31142357187833819 -0.43859041992739323 0 -0.32121981721841031 -0.45574364249001043 0 -0.32126793639073148 -0.46803574303317103 0 -0.29575855223249392 -0.45320321740444208 0 -0.32126793639073148 -0.46803574303317103 0 -0.3206648833051256 -0.48595120807786818 0 -0.30906983994961068 -0.4843349549473529 0 -0.32126793639073148 -0.46803574303317103 0 -0.3206648833051256 -0.48595120807786818 0 -0.33303302580970989 -0.49143413433094851 0 -0.3192887310704503 -0.49999999999999889 0 -0.3206648833051256 -0.48595120807786818 0 -0.30906983994961068 -0.4843349549473529 0 -0.3192887310704503 -0.49999999999999889 0 -0.33303302580970989 -0.49143413433094851 0 -0.3192887310704503 -0.49999999999999889 0 -0.3206648833051256 -0.48595120807786818 0 -0.33303302580970989 -0.49143413433094851 0 -0.33303302580970989 -0.49143413433094851 0 -0.34677732054896981 -0.48286826866189853 0 -0.34776483639066419 -0.5 0 -0.3192887310704503 -0.49999999999999889 0 -0.33303302580970989 -0.49143413433094851 0 -0.34776483639066419 -0.5 0 -0.33303302580970989 -0.49143413433094851 0 -0.34677732054896981 -0.48286826866189853 0 -0.32126793639073148 -0.46803574303317103 0 -0.34677732054896981 -0.48286826866189853 0 -0.32126793639073148 -0.46803574303317103 0 -0.35222818257993871 -0.47055464157629229 0 -0.34677732054896981 -0.48286826866189853 0 -0.32126793639073148 -0.46803574303317103 0 -0.33303302580970989 -0.49143413433094851 0 -0.34677732054896981 -0.48286826866189853 0 -0.34677732054896981 -0.48286826866189853 0 -0.36568388407423552 -0.47108511889007609 0 -0.35222818257993871 -0.47055464157629229 0 -0.34677732054896981 -0.48286826866189853 0 -0.36568388407423552 -0.47108511889007609 0 -0.34677732054896981 -0.48286826866189853 0 -0.34776483639066419 -0.5 0 -0.36150913112992572 -0.49143413433094341 0 -0.34677732054896981 -0.48286826866189853 0 -0.36150913112992572 -0.49143413433094341 0 -0.36770120752890728 -0.48315122920187298 0 -0.34677732054896981 -0.48286826866189853 0 -0.36150913112992572 -0.49143413433094341 0 -0.37624094171087819 -0.49999999999999389 0 -0.34776483639066419 -0.5 0 -0.36150913112992572 -0.49143413433094341 0 -0.36150913112992572 -0.49143413433094341 0 -0.36983893781659483 -0.4932694522042147 0 -0.36770120752890728 -0.48315122920187298 0 -0.37764920446476108 -0.48032533386194171 0 -0.36983893781659483 -0.4932694522042147 0 -0.36770120752890728 -0.48315122920187298 0 -0.37624094171087819 -0.49999999999999389 0 -0.36150913112992572 -0.49143413433094341 0 -0.37624094171087819 -0.49999999999999389 0 -0.36150913112992572 -0.49143413433094341 0 -0.36983893781659483 -0.4932694522042147 0 -0.34677732054896981 -0.48286826866189853 0 -0.36568388407423552 -0.47108511889007609 0 -0.36770120752890728 -0.48315122920187298 0 -0.37764920446476108 -0.48032533386194171 0 -0.36568388407423552 -0.47108511889007609 0 -0.36770120752890728 -0.48315122920187298 0 -0.37214234719024247 -0.46082449266115239 0 -0.36314289374670877 -0.45341632855627928 0 -0.34668108220432642 -0.45828406757558138 0 -0.38459044759950101 -0.45930196911825338 0 -0.36568388407423552 -0.47108511889007609 0 -0.37214234719024247 -0.46082449266115239 0 -0.35222818257993871 -0.47055464157629229 0 -0.36568388407423552 -0.47108511889007609 0 -0.37214234719024247 -0.46082449266115239 0 -0.37214234719024247 -0.46082449266115239 0 -0.34668108220432642 -0.45828406757558138 0 -0.37214234719024247 -0.46082449266115239 0 -0.36314289374670877 -0.45341632855627928 0 -0.3734106594176812 -0.44828421794981149 0 -0.35222818257993871 -0.47055464157629229 0 -0.37214234719024247 -0.46082449266115239 0 -0.34668108220432642 -0.45828406757558138 0 -0.36314289374670877 -0.45341632855627928 0 -0.34668108220432642 -0.45828406757558138 0 -0.36033748617458528 -0.4462725360385722 0 -0.33741897055483699 -0.44510629951558889 0 -0.3494250357676964 -0.44433139066160843 0 -0.34503349973133152 -0.43610062398675459 0 -0.3494250357676964 -0.44433139066160843 0 -0.34503349973133152 -0.43610062398675459 0 -0.35765414017340191 -0.43589342619154459 0 -0.33741897055483699 -0.44510629951558889 0 -0.34668108220432642 -0.45828406757558138 0 -0.3494250357676964 -0.44433139066160843 0 -0.34668108220432642 -0.45828406757558138 0 -0.3494250357676964 -0.44433139066160843 0 -0.36033748617458528 -0.4462725360385722 0 -0.3494250357676964 -0.44433139066160843 0 -0.36033748617458528 -0.4462725360385722 0 -0.35765414017340191 -0.43589342619154459 0 -0.36033748617458528 -0.4462725360385722 0 -0.37008252033032241 -0.43943717681981831 0 -0.35765414017340191 -0.43589342619154459 0 -0.36314289374670877 -0.45341632855627928 0 -0.36033748617458528 -0.4462725360385722 0 -0.3734106594176812 -0.44828421794981149 0 -0.36033748617458528 -0.4462725360385722 0 -0.3734106594176812 -0.44828421794981149 0 -0.37008252033032241 -0.43943717681981831 0 -0.37563634324655598 -0.42675011911577271 0 -0.37008252033032241 -0.43943717681981831 0 -0.35765414017340191 -0.43589342619154459 0 -0.37563634324655598 -0.42675011911577271 0 -0.34797660711152412 -0.42627862863073968 0 -0.35765414017340191 -0.43589342619154459 0 -0.37563634324655598 -0.42675011911577271 0 -0.34797660711152412 -0.42627862863073968 0 -0.37563634324655598 -0.42675011911577271 0 -0.36553178745774328 -0.41258464314551402 0 -0.34797660711152412 -0.42627862863073968 0 -0.36553178745774328 -0.41258464314551402 0 -0.34898521383750569 -0.41676674146828779 0 -0.3529369279436802 -0.39743285894982111 0 -0.36553178745774328 -0.41258464314551402 0 -0.34898521383750569 -0.41676674146828779 0 -0.34797660711152412 -0.42627862863073968 0 -0.34898521383750569 -0.41676674146828779 0 -0.3529369279436802 -0.39743285894982111 0 -0.34898521383750569 -0.41676674146828779 0 -0.3529369279436802 -0.39743285894982111 0 -0.3370510147064073 -0.41123560905057582 0 -0.34898521383750569 -0.41676674146828779 0 -0.34797660711152412 -0.42627862863073968 0 -0.34503349973133152 -0.43610062398675459 0 -0.34898521383750569 -0.41676674146828779 0 -0.34503349973133152 -0.43610062398675459 0 -0.34898521383750569 -0.41676674146828779 0 -0.34503349973133152 -0.43610062398675459 0 -0.3384338608188675 -0.42408306160237941 0 -0.34797660711152412 -0.42627862863073968 0 -0.34503349973133152 -0.43610062398675459 0 -0.35765414017340191 -0.43589342619154459 0 -0.37559555011483292 -0.39601897585640228 0 -0.35807206504882311 -0.37230904309686308 0 -0.3529369279436802 -0.39743285894982111 0 -0.37559555011483292 -0.39601897585640228 0 -0.37721818994617851 -0.36908577309200358 0 -0.35807206504882311 -0.37230904309686308 0 -0.37559555011483292 -0.39601897585640228 0 -0.3529369279436802 -0.39743285894982111 0 -0.37559555011483292 -0.39601897585640228 0 -0.36553178745774328 -0.41258464314551402 0 -0.3529369279436802 -0.39743285894982111 0 -0.35807206504882311 -0.37230904309686308 0 -0.3529369279436802 -0.39743285894982111 0 -0.35807206504882311 -0.37230904309686308 0 -0.3529369279436802 -0.39743285894982111 0 -0.34036576854824419 -0.38202450480928851 0 -0.33047735072314433 -0.37258709744061941 0 -0.34036576854824419 -0.38202450480928851 0 -0.32117427271509841 -0.38313875086693389 0 -0.34036576854824419 -0.38202450480928851 0 -0.32780067765829951 -0.39900134440502788 0 -0.32117427271509841 -0.38313875086693389 0 -0.3529369279436802 -0.39743285894982111 0 -0.32780067765829951 -0.39900134440502788 0 -0.3529369279436802 -0.39743285894982111 0 -0.34036576854824419 -0.38202450480928851 0 -0.32780067765829951 -0.39900134440502788 0 -0.3529369279436802 -0.39743285894982111 0 -0.32780067765829951 -0.39900134440502788 0 -0.3370510147064073 -0.41123560905057582 0 -0.32780067765829951 -0.39900134440502788 0 -0.32117427271509841 -0.38313875086693389 0 -0.30266442737291838 -0.40056982986022782 0 -0.32780067765829951 -0.39900134440502788 0 -0.30266442737291838 -0.40056982986022782 0 -0.32780067765829951 -0.39900134440502788 0 -0.31154841503489739 -0.41636417956094463 0 -0.30266442737291838 -0.40056982986022782 0 -0.32633769039583083 -0.44035758512605649 0 -0.3356554893872547 -0.43384965788409469 0 -0.32652513476838668 -0.42292493427436267 0 -0.3356554893872547 -0.43384965788409469 0 -0.3384338608188675 -0.42408306160237941 0 -0.32652513476838668 -0.42292493427436267 0 -0.34503349973133152 -0.43610062398675459 0 -0.3356554893872547 -0.43384965788409469 0 -0.3384338608188675 -0.42408306160237941 0 -0.32780067765829951 -0.39900134440502788 0 -0.3370510147064073 -0.41123560905057582 0 -0.32652513476838668 -0.42292493427436267 0 -0.34898521383750569 -0.41676674146828779 0 -0.3384338608188675 -0.42408306160237941 0 -0.3370510147064073 -0.41123560905057582 0 -0.3384338608188675 -0.42408306160237941 0 -0.3370510147064073 -0.41123560905057582 0 -0.32652513476838668 -0.42292493427436267 0 -0.32780067765829951 -0.39900134440502788 0 -0.32652513476838668 -0.42292493427436267 0 -0.31154841503489739 -0.41636417956094463 0 -0.32652513476838668 -0.42292493427436267 0 -0.31154841503489739 -0.41636417956094463 0 -0.31142357187833819 -0.43859041992739323 0 -0.32633769039583083 -0.44035758512605649 0 -0.32652513476838668 -0.42292493427436267 0 -0.31142357187833819 -0.43859041992739323 0 -0.29756002613901039 -0.42669167638059352 0 -0.31154841503489739 -0.41636417956094463 0 -0.31142357187833819 -0.43859041992739323 0 -0.29756002613901039 -0.42669167638059352 0 -0.31154841503489739 -0.41636417956094463 0 -0.30266442737291838 -0.40056982986022782 0 -0.29756002613901039 -0.42669167638059352 0 -0.30266442737291838 -0.40056982986022782 0 -0.29756002613901039 -0.42669167638059352 0 -0.27971416275943489 -0.40200191124988799 0 -0.26872794872087802 -0.41919166338541569 0 -0.29756002613901039 -0.42669167638059352 0 -0.30266442737291838 -0.40056982986022782 0 -0.27971416275943489 -0.40200191124988799 0 -0.30828878640428309 -0.37178709185427627 0 -0.30266442737291838 -0.40056982986022782 0 -0.29302075919173109 -0.38388816698513373 0 -0.30828878640428309 -0.37178709185427627 0 -0.32117427271509841 -0.38313875086693389 0 -0.30266442737291838 -0.40056982986022782 0 -0.30828878640428309 -0.37178709185427627 0 -0.30266442737291838 -0.40056982986022782 0 -0.30266442737291838 -0.40056982986022782 0 -0.29302075919173109 -0.38388816698513373 0 -0.27971416275943489 -0.40200191124988799 0 -0.30266442737291838 -0.40056982986022782 0 -0.27971416275943489 -0.40200191124988799 0 -0.29302075919173109 -0.38388816698513373 0 -0.27773649132113831 -0.37630155594141262 0 -0.27971416275943489 -0.40200191124988799 0 -0.29323677229237682 -0.36866275345947952 0 -0.29302075919173109 -0.38388816698513373 0 -0.27773649132113831 -0.37630155594141262 0 -0.2647245034493575 -0.3695232981608485 0 -0.27773649132113831 -0.37630155594141262 0 -0.26554058506740108 -0.38779644578012967 0 -0.27773649132113831 -0.37630155594141262 0 -0.27971416275943489 -0.40200191124988799 0 -0.26554058506740108 -0.38779644578012967 0 -0.27971416275943489 -0.40200191124988799 0 -0.2586797924126884 -0.40177052290131487 0 -0.26554058506740108 -0.38779644578012967 0 -0.2586797924126884 -0.40177052290131487 0 -0.24151371103973129 -0.40139648118772298 0 -0.2498985981174241 -0.38033679865772863 0 -0.2586797924126884 -0.40177052290131487 0 -0.26554058506740108 -0.38779644578012967 0 -0.2498985981174241 -0.38033679865772863 0 -0.2647245034493575 -0.3695232981608485 0 -0.26554058506740108 -0.38779644578012967 0 -0.2498985981174241 -0.38033679865772863 0 -0.29756002613901039 -0.42669167638059352 0 -0.26872794872087802 -0.41919166338541569 0 -0.27191835762574978 -0.43934124820499859 0 -0.27971416275943489 -0.40200191124988799 0 -0.2586797924126884 -0.40177052290131487 0 -0.26872794872087802 -0.41919166338541569 0 -0.2586797924126884 -0.40177052290131487 0 -0.26872794872087802 -0.41919166338541569 0 -0.24807816301900709 -0.42547927900555288 0 -0.26872794872087802 -0.41919166338541569 0 -0.27191835762574978 -0.43934124820499859 0 -0.24807816301900709 -0.42547927900555288 0 -0.27191835762574978 -0.43934124820499859 0 -0.24807816301900709 -0.42547927900555288 0 -0.25471256899839662 -0.44781015633591098 0 -0.27191835762574978 -0.43934124820499859 0 -0.24807816301900709 -0.42547927900555288 0 -0.25471256899839662 -0.44781015633591098 0 -0.26624889546575431 -0.4672518808668511 0 -0.24409294951525171 -0.46330782922185959 0 -0.25471256899839662 -0.44781015633591098 0 -0.26624889546575431 -0.4672518808668511 0 -0.27702325384934717 -0.45625436138336301 0 -0.26624889546575431 -0.4672518808668511 0 -0.27702325384934717 -0.45625436138336301 0 -0.28167071373314739 -0.47039706872006309 0 -0.25471256899839662 -0.44781015633591098 0 -0.27702325384934717 -0.45625436138336301 0 -0.27191835762574978 -0.43934124820499859 0 -0.29756002613901039 -0.42669167638059352 0 -0.27191835762574978 -0.43934124820499859 0 -0.29575855223249392 -0.45320321740444208 0 -0.27702325384934717 -0.45625436138336301 0 -0.27191835762574978 -0.43934124820499859 0 -0.29575855223249392 -0.45320321740444208 0 -0.27191835762574978 -0.43934124820499859 0 -0.29575855223249392 -0.45320321740444208 0 -0.27702325384934717 -0.45625436138336301 0 -0.29265307373376581 -0.46421861715141771 0 -0.28167071373314739 -0.47039706872006309 0 -0.27702325384934717 -0.45625436138336301 0 -0.29575855223249392 -0.45320321740444208 0 -0.29265307373376581 -0.46421861715141771 0 -0.32121981721841031 -0.45574364249001043 0 -0.29575855223249392 -0.45320321740444208 0 -0.29575855223249392 -0.45320321740444208 0 -0.29265307373376581 -0.46421861715141771 0 -0.30317627362820287 -0.47019810130340978 0 -0.32126793639073148 -0.46803574303317103 0 -0.29575855223249392 -0.45320321740444208 0 -0.30317627362820287 -0.47019810130340978 0 -0.32126793639073148 -0.46803574303317103 0 -0.29575855223249392 -0.45320321740444208 0 -0.32121981721841031 -0.45574364249001043 0 -0.29575855223249392 -0.45320321740444208 0 -0.31142357187833819 -0.43859041992739323 0 -0.29756002613901039 -0.42669167638059352 0 -0.29575855223249392 -0.45320321740444208 0 -0.31142357187833819 -0.43859041992739323 0 -0.3192887310704503 -0.49999999999999889 0 -0.30906983994961068 -0.4843349549473529 0 -0.29383731320006762 -0.5 0 -0.30906983994961068 -0.4843349549473529 0 -0.29361735643195508 -0.47795985402402652 0 -0.29383731320006762 -0.5 0 -0.32126793639073148 -0.46803574303317103 0 -0.30906983994961068 -0.4843349549473529 0 -0.30317627362820287 -0.47019810130340978 0 -0.30906983994961068 -0.4843349549473529 0 -0.30317627362820287 -0.47019810130340978 0 -0.29361735643195508 -0.47795985402402652 0 -0.29361735643195508 -0.47795985402402652 0 -0.28167071373314739 -0.47039706872006309 0 -0.27690122712203491 -0.48334387980275823 0 -0.29265307373376581 -0.46421861715141771 0 -0.29361735643195508 -0.47795985402402652 0 -0.28167071373314739 -0.47039706872006309 0 -0.29265307373376581 -0.46421861715141771 0 -0.30317627362820287 -0.47019810130340978 0 -0.29361735643195508 -0.47795985402402652 0 -0.29361735643195508 -0.47795985402402652 0 -0.29383731320006762 -0.5 0 -0.27690122712203491 -0.48334387980275823 0 -0.26838589532968482 -0.5 0 -0.27690122712203491 -0.48334387980275823 0 -0.25613749141370179 -0.48259638813426442 0 -0.29383731320006762 -0.5 0 -0.26838589532968482 -0.5 0 -0.27690122712203491 -0.48334387980275823 0 -0.26624889546575431 -0.4672518808668511 0 -0.27690122712203491 -0.48334387980275823 0 -0.25613749141370179 -0.48259638813426442 0 -0.26624889546575431 -0.4672518808668511 0 -0.28167071373314739 -0.47039706872006309 0 -0.27690122712203491 -0.48334387980275823 0 -0.26624889546575431 -0.4672518808668511 0 -0.25613749141370179 -0.48259638813426442 0 -0.24409294951525171 -0.46330782922185959 0 -0.26838589532968482 -0.5 0 -0.25613749141370179 -0.48259638813426442 0 -0.242934477459302 -0.5 0 -0.25613749141370179 -0.48259638813426442 0 -0.242934477459302 -0.5 0 -0.23826150359018369 -0.48167473891411722 0 -0.25613749141370179 -0.48259638813426442 0 -0.23826150359018369 -0.48167473891411722 0 -0.24409294951525171 -0.46330782922185959 0 -0.23826150359018369 -0.48167473891411722 0 -0.2209107517164649 -0.47223956585465698 0 -0.24409294951525171 -0.46330782922185959 0 -0.242934477459302 -0.5 0 -0.23826150359018369 -0.48167473891411722 0 -0.2174830595889192 -0.49999999999999678 0 -0.2209107517164649 -0.47223956585465698 0 -0.2174830595889192 -0.49999999999999678 0 -0.23826150359018369 -0.48167473891411722 0 -0.2209107517164649 -0.47223956585465698 0 -0.2174830595889192 -0.49999999999999678 0 -0.25471256899839662 -0.44781015633591098 0 -0.24409294951525171 -0.46330782922185959 0 -0.22433844384401111 -0.44447913170931708 0 -0.25471256899839662 -0.44781015633591098 0 -0.22433844384401111 -0.44447913170931708 0 -0.24807816301900709 -0.42547927900555288 0 -0.2209107517164649 -0.47223956585465698 0 -0.24409294951525171 -0.46330782922185959 0 -0.22433844384401111 -0.44447913170931708 0 -0.2209107517164649 -0.47223956585465698 0 -0.22433844384401111 -0.44447913170931708 0 -0.22433844384401111 -0.44447913170931708 0 -0.19996573412874671 -0.44887767030333242 0 -0.20018175396713239 -0.42331650545499822 0 -0.2209107517164649 -0.47223956585465698 0 -0.22433844384401111 -0.44447913170931708 0 -0.19996573412874671 -0.44887767030333242 0 -0.2209107517164649 -0.47223956585465698 0 -0.19996573412874671 -0.44887767030333242 0 -0.1997497142903609 -0.47443883515166668 0 -0.19996573412874671 -0.44887767030333242 0 -0.1997497142903609 -0.47443883515166668 0 -0.1796161482190157 -0.45639878137392548 0 -0.19996573412874671 -0.44887767030333242 0 -0.1997497142903609 -0.47443883515166668 0 -0.2209107517164649 -0.47223956585465698 0 -0.208508377020447 -0.48729435067078758 0 -0.2174830595889192 -0.49999999999999678 0 -0.208508377020447 -0.48729435067078758 0 -0.2174830595889192 -0.49999999999999678 0 -0.19953369445197511 -0.50000000000000089 0 -0.2209107517164649 -0.47223956585465698 0 -0.208508377020447 -0.48729435067078758 0 -0.1997497142903609 -0.47443883515166668 0 -0.1997497142903609 -0.47443883515166668 0 -0.19953369445197511 -0.50000000000000089 0 -0.17634425391571071 -0.47666683595246018 0 -0.1997497142903609 -0.47443883515166668 0 -0.19953369445197511 -0.50000000000000089 0 -0.208508377020447 -0.48729435067078758 0 -0.1997497142903609 -0.47443883515166668 0 -0.19953369445197511 -0.50000000000000089 0 -0.19953369445197511 -0.50000000000000089 0 -0.1734558255457769 -0.5 0 -0.17634425391571071 -0.47666683595246018 0 -0.1734558255457769 -0.5 0 -0.1584765679954091 -0.48280837032780699 0 -0.17634425391571071 -0.47666683595246018 0 -0.1734558255457769 -0.5 0 -0.1584765679954091 -0.48280837032780699 0 -0.14737795663957889 -0.5 0 -0.1584765679954091 -0.48280837032780699 0 -0.17634425391571071 -0.47666683595246018 0 -0.15916952956979699 -0.46215011610186102 0 -0.1997497142903609 -0.47443883515166668 0 -0.17634425391571071 -0.47666683595246018 0 -0.1796161482190157 -0.45639878137392548 0 -0.19996573412874671 -0.44887767030333242 0 -0.1796161482190157 -0.45639878137392548 0 -0.1778987647197843 -0.4318921670623429 0 -0.1796161482190157 -0.45639878137392548 0 -0.15757631129158611 -0.44293584932746588 0 -0.1778987647197843 -0.4318921670623429 0 -0.17634425391571071 -0.47666683595246018 0 -0.1796161482190157 -0.45639878137392548 0 -0.15916952956979699 -0.46215011610186102 0 -0.1796161482190157 -0.45639878137392548 0 -0.15757631129158611 -0.44293584932746588 0 -0.15916952956979699 -0.46215011610186102 0 -0.15916952956979699 -0.46215011610186102 0 -0.14014666860534569 -0.44851584997075189 0 -0.13603527430618201 -0.47522489958471359 0 -0.15757631129158611 -0.44293584932746588 0 -0.15916952956979699 -0.46215011610186102 0 -0.14014666860534569 -0.44851584997075189 0 -0.15757631129158611 -0.44293584932746588 0 -0.14014666860534569 -0.44851584997075189 0 -0.14208723139074361 -0.42658084672722968 0 -0.14014666860534569 -0.44851584997075189 0 -0.11980502334743739 -0.45580407227336939 0 -0.1234872124313089 -0.43385486191162143 0 -0.13603527430618201 -0.47522489958471359 0 -0.1209840654267632 -0.47157437227470489 0 -0.11980502334743739 -0.45580407227336939 0 -0.14014666860534569 -0.44851584997075189 0 -0.13603527430618201 -0.47522489958471359 0 -0.11980502334743739 -0.45580407227336939 0 -0.13603527430618201 -0.47522489958471359 0 -0.14737795663957889 -0.5 0 -0.1213000877333808 -0.49999999999999839 0 -0.1584765679954091 -0.48280837032780699 0 -0.13603527430618201 -0.47522489958471359 0 -0.14737795663957889 -0.5 0 -0.1584765679954091 -0.48280837032780699 0 -0.15916952956979699 -0.46215011610186102 0 -0.13603527430618201 -0.47522489958471359 0 -0.14757133903757871 -0.39684190829570998 0 -0.13770376239773999 -0.40884591113861152 0 -0.15063774096414029 -0.41165705909320111 0 -0.14757133903757871 -0.39684190829570998 0 -0.16252350676347571 -0.39660576839757022 0 -0.15688125818540849 -0.38275700987060518 0 -0.15688125818540849 -0.38275700987060518 0 -0.13277088185079949 -0.36779429260978408 0 -0.14150007377530729 -0.38219302774457398 0 -0.15688125818540849 -0.38275700987060518 0 -0.13277088185079949 -0.36779429260978408 0 -0.14757133903757871 -0.39684190829570998 0 -0.14150007377530729 -0.38219302774457398 0 -0.15688125818540849 -0.38275700987060518 0 -0.14757133903757871 -0.39684190829570998 0 -0.15688125818540849 -0.38275700987060518 0 -0.14757133903757871 -0.39684190829570998 0 -0.12775501264443881 -0.37987702570409732 0 -0.14757133903757871 -0.39684190829570998 0 -0.14150007377530729 -0.38219302774457398 0 -0.12775501264443881 -0.37987702570409732 0 -0.14757133903757871 -0.39684190829570998 0 -0.12775501264443881 -0.37987702570409732 0 -0.13437948266425689 -0.39499629574214989 0 -0.14150007377530729 -0.38219302774457398 0 -0.12775501264443881 -0.37987702570409732 0 -0.13277088185079949 -0.36779429260978408 0 -0.12775501264443881 -0.37987702570409732 0 -0.13437948266425689 -0.39499629574214989 0 -0.12206520484248121 -0.38965787720240291 0 -0.13437948266425689 -0.39499629574214989 0 -0.1247546003374982 -0.4035695807887707 0 -0.12206520484248121 -0.38965787720240291 0 -0.14757133903757871 -0.39684190829570998 0 -0.13437948266425689 -0.39499629574214989 0 -0.13770376239773999 -0.40884591113861152 0 -0.13437948266425689 -0.39499629574214989 0 -0.13770376239773999 -0.40884591113861152 0 -0.1247546003374982 -0.4035695807887707 0 -0.13770376239773999 -0.40884591113861152 0 -0.14208723139074361 -0.42658084672722968 0 -0.1246684549995967 -0.41638466865613261 0 -0.13770376239773999 -0.40884591113861152 0 -0.1246684549995967 -0.41638466865613261 0 -0.1247546003374982 -0.4035695807887707 0 -0.14208723139074361 -0.42658084672722968 0 -0.1234872124313089 -0.43385486191162143 0 -0.1246684549995967 -0.41638466865613261 0 -0.14014666860534569 -0.44851584997075189 0 -0.14208723139074361 -0.42658084672722968 0 -0.1234872124313089 -0.43385486191162143 0 -0.15757631129158611 -0.44293584932746588 0 -0.14208723139074361 -0.42658084672722968 0 -0.1576938265037125 -0.42630759209604091 0 -0.13770376239773999 -0.40884591113861152 0 -0.14208723139074361 -0.42658084672722968 0 -0.15063774096414029 -0.41165705909320111 0 -0.14757133903757871 -0.39684190829570998 0 -0.15063774096414029 -0.41165705909320111 0 -0.1650497512512695 -0.41180528774406561 0 -0.14208723139074361 -0.42658084672722968 0 -0.15063774096414029 -0.41165705909320111 0 -0.1576938265037125 -0.42630759209604091 0 -0.15063774096414029 -0.41165705909320111 0 -0.1650497512512695 -0.41180528774406561 0 -0.1576938265037125 -0.42630759209604091 0 -0.15757631129158611 -0.44293584932746588 0 -0.1576938265037125 -0.42630759209604091 0 -0.1778987647197843 -0.4318921670623429 0 -0.1650497512512695 -0.41180528774406561 0 -0.1576938265037125 -0.42630759209604091 0 -0.1778987647197843 -0.4318921670623429 0 -0.1778987647197843 -0.4318921670623429 0 -0.18041172339242231 -0.41434060995653338 0 -0.20018175396713239 -0.42331650545499822 0 -0.1650497512512695 -0.41180528774406561 0 -0.1778987647197843 -0.4318921670623429 0 -0.18041172339242231 -0.41434060995653338 0 -0.1650497512512695 -0.41180528774406561 0 -0.18041172339242231 -0.41434060995653338 0 -0.17354944853443799 -0.4037207762365439 0 -0.18041172339242231 -0.41434060995653338 0 -0.1869432859688015 -0.40258413400990822 0 -0.17354944853443799 -0.4037207762365439 0 -0.1869432859688015 -0.40258413400990822 0 -0.1774376424557271 -0.39551414652715983 0 -0.18109959458052091 -0.38653434302526207 0 -0.1869432859688015 -0.40258413400990822 0 -0.1774376424557271 -0.39551414652715983 0 -0.17354944853443799 -0.4037207762365439 0 -0.1650497512512695 -0.41180528774406561 0 -0.17354944853443799 -0.4037207762365439 0 -0.16252350676347571 -0.39660576839757022 0 -0.14757133903757871 -0.39684190829570998 0 -0.1650497512512695 -0.41180528774406561 0 -0.1774376424557271 -0.39551414652715983 0 -0.17354944853443799 -0.4037207762365439 0 -0.16252350676347571 -0.39660576839757022 0 -0.1774376424557271 -0.39551414652715983 0 -0.16252350676347571 -0.39660576839757022 0 -0.15688125818540849 -0.38275700987060518 0 -0.14757133903757871 -0.39684190829570998 0 -0.1650497512512695 -0.41180528774406561 0 -0.16252350676347571 -0.39660576839757022 0 -0.16180141535551931 -0.37531334544386408 0 -0.18109959458052091 -0.38653434302526207 0 -0.1774376424557271 -0.39551414652715983 0 -0.15688125818540849 -0.38275700987060518 0 -0.1693049776442942 -0.38502971121672303 0 -0.1774376424557271 -0.39551414652715983 0 -0.15688125818540849 -0.38275700987060518 0 -0.16180141535551931 -0.37531334544386408 0 -0.1693049776442942 -0.38502971121672303 0 -0.18109959458052091 -0.38653434302526207 0 -0.16180141535551931 -0.37531334544386408 0 -0.15688125818540849 -0.38275700987060518 0 -0.1693049776442942 -0.38502971121672303 0 -0.16180141535551931 -0.37531334544386408 0 -0.15688125818540849 -0.38275700987060518 0 -0.16180141535551931 -0.37531334544386408 0 -0.18109959458052091 -0.38653434302526207 0 -0.18341798537636991 -0.36886805586579952 0 -0.1774376424557271 -0.39551414652715983 0 -0.1693049776442942 -0.38502971121672303 0 -0.18109959458052091 -0.38653434302526207 0 -0.2003977738055199 -0.39775534060666418 0 -0.20063933991882241 -0.36917133975711819 0 -0.18109959458052091 -0.38653434302526207 0 -0.2003977738055199 -0.39775534060666418 0 -0.20063933991882241 -0.36917133975711819 0 -0.1869432859688015 -0.40258413400990822 0 -0.18109959458052091 -0.38653434302526207 0 -0.2003977738055199 -0.39775534060666418 0 -0.18109959458052091 -0.38653434302526207 0 -0.2003977738055199 -0.39775534060666418 0 -0.2003977738055199 -0.39775534060666418 0 -0.22423796841226429 -0.411617309806107 0 -0.22667403323727239 -0.38777849556791177 0 -0.2003977738055199 -0.39775534060666418 0 -0.22423796841226429 -0.411617309806107 0 -0.2003977738055199 -0.39775534060666418 0 -0.2148877966221571 -0.37674001460297102 0 -0.22667403323727239 -0.38777849556791177 0 -0.2003977738055199 -0.39775534060666418 0 -0.2148877966221571 -0.37674001460297102 0 -0.20063933991882241 -0.36917133975711819 0 -0.22433844384401111 -0.44447913170931708 0 -0.20018175396713239 -0.42331650545499822 0 -0.22423796841226429 -0.411617309806107 0 -0.19996573412874671 -0.44887767030333242 0 -0.1778987647197843 -0.4318921670623429 0 -0.20018175396713239 -0.42331650545499822 0 -0.19996573412874671 -0.44887767030333242 0 -0.20018175396713239 -0.42331650545499822 0 -0.1869432859688015 -0.40258413400990822 0 -0.2003977738055199 -0.39775534060666418 0 -0.20018175396713239 -0.42331650545499822 0 -0.2003977738055199 -0.39775534060666418 0 -0.20018175396713239 -0.42331650545499822 0 -0.18041172339242231 -0.41434060995653338 0 -0.1869432859688015 -0.40258413400990822 0 -0.20018175396713239 -0.42331650545499822 0 -0.2003977738055199 -0.39775534060666418 0 -0.20018175396713239 -0.42331650545499822 0 -0.22423796841226429 -0.411617309806107 0 -0.22433844384401111 -0.44447913170931708 0 -0.22423796841226429 -0.411617309806107 0 -0.24807816301900709 -0.42547927900555288 0 -0.22423796841226429 -0.411617309806107 0 -0.24807816301900709 -0.42547927900555288 0 -0.24151371103973129 -0.40139648118772298 0 -0.2586797924126884 -0.40177052290131487 0 -0.24807816301900709 -0.42547927900555288 0 -0.24151371103973129 -0.40139648118772298 0 -0.22423796841226429 -0.411617309806107 0 -0.24807816301900709 -0.42547927900555288 0 -0.2148877966221571 -0.37674001460297102 0 -0.22667403323727239 -0.38777849556791177 0 -0.23326261540742399 -0.36991911689766438 0 -0.22423796841226429 -0.411617309806107 0 -0.22667403323727239 -0.38777849556791177 0 -0.24151371103973129 -0.40139648118772298 0 -0.22667403323727239 -0.38777849556791177 0 -0.2498985981174241 -0.38033679865772863 0 -0.23326261540742399 -0.36991911689766438 0 -0.22667403323727239 -0.38777849556791177 0 -0.24151371103973129 -0.40139648118772298 0 -0.2498985981174241 -0.38033679865772863 0 -0.2498985981174241 -0.38033679865772863 0 -0.249525700684118 -0.36077189209700899 0 -0.23326261540742399 -0.36991911689766438 0 -0.249525700684118 -0.36077189209700899 0 -0.23326261540742399 -0.36991911689766438 0 -0.231818404927633 -0.35562002786361008 0 -0.2148877966221571 -0.37674001460297102 0 -0.23326261540742399 -0.36991911689766438 0 -0.21807654790980949 -0.36174373223131701 0 -0.23326261540742399 -0.36991911689766438 0 -0.231818404927633 -0.35562002786361008 0 -0.21807654790980949 -0.36174373223131701 0 -0.22315044264842579 -0.34565704428835681 0 -0.231818404927633 -0.35562002786361008 0 -0.21807654790980949 -0.36174373223131701 0 -0.22315044264842579 -0.34565704428835681 0 -0.231818404927633 -0.35562002786361008 0 -0.23321901018398861 -0.34113070111333932 0 -0.231818404927633 -0.35562002786361008 0 -0.24957803048236149 -0.34397043495177593 0 -0.23321901018398861 -0.34113070111333932 0 -0.249525700684118 -0.36077189209700899 0 -0.231818404927633 -0.35562002786361008 0 -0.24957803048236149 -0.34397043495177593 0 -0.25552753542144307 -0.32990654313790502 0 -0.24957803048236149 -0.34397043495177593 0 -0.23804476121919421 -0.32763803429190641 0 -0.24957803048236149 -0.34397043495177593 0 -0.23804476121919421 -0.32763803429190641 0 -0.23321901018398861 -0.34113070111333932 0 -0.25552753542144307 -0.32990654313790502 0 -0.2504234289430845 -0.31936718239544581 0 -0.23804476121919421 -0.32763803429190641 0 -0.2504234289430845 -0.31936718239544581 0 -0.23804476121919421 -0.32763803429190641 0 -0.2408931878469498 -0.31280696604245772 0 -0.2504234289430845 -0.31936718239544581 0 -0.25359998096172282 -0.30694194894199178 0 -0.2408931878469498 -0.31280696604245772 0 -0.23804476121919421 -0.32763803429190641 0 -0.2408931878469498 -0.31280696604245772 0 -0.22970776322355191 -0.31670571928273861 0 -0.23804476121919421 -0.32763803429190641 0 -0.22330549111978359 -0.32317180984342969 0 -0.22312188015691459 -0.33285553214421959 0 -0.23804476121919421 -0.32763803429190641 0 -0.22970776322355191 -0.31670571928273861 0 -0.22330549111978359 -0.32317180984342969 0 -0.22330549111978359 -0.32317180984342969 0 -0.22312188015691459 -0.33285553214421959 0 -0.21312678802354451 -0.32180835550779002 0 -0.22330549111978359 -0.32317180984342969 0 -0.22060382120138999 -0.31498900380803979 0 -0.21312678802354451 -0.32180835550779002 0 -0.22970776322355191 -0.31670571928273861 0 -0.22330549111978359 -0.32317180984342969 0 -0.22060382120138999 -0.31498900380803979 0 -0.23804476121919421 -0.32763803429190641 0 -0.23321901018398861 -0.34113070111333932 0 -0.22312188015691459 -0.33285553214421959 0 -0.22315044264842579 -0.34565704428835681 0 -0.23321901018398861 -0.34113070111333932 0 -0.22312188015691459 -0.33285553214421959 0 -0.22315044264842579 -0.34565704428835681 0 -0.22312188015691459 -0.33285553214421959 0 -0.20951637006378321 -0.33693522808929782 0 -0.22312188015691459 -0.33285553214421959 0 -0.20951637006378321 -0.33693522808929782 0 -0.21312678802354451 -0.32180835550779002 0 -0.20951637006378321 -0.33693522808929782 0 -0.20088090603212649 -0.3405873389075722 0 -0.20068093595715919 -0.33038721527311732 0 -0.20951637006378321 -0.33693522808929782 0 -0.20095619221775701 -0.31212672394727858 0 -0.20951637006378321 -0.33693522808929782 0 -0.20068093595715919 -0.33038721527311732 0 -0.20095619221775701 -0.31212672394727858 0 -0.20951637006378321 -0.33693522808929782 0 -0.21312678802354451 -0.32180835550779002 0 -0.20095619221775701 -0.31212672394727858 0 -0.22060382120138999 -0.31498900380803979 0 -0.21312678802354451 -0.32180835550779002 0 -0.2136592289026108 -0.30771112537049528 0 -0.21312678802354451 -0.32180835550779002 0 -0.2136592289026108 -0.30771112537049528 0 -0.20095619221775701 -0.31212672394727858 0 -0.1974015764858067 -0.32145416090365558 0 -0.20068093595715919 -0.33038721527311732 0 -0.20095619221775701 -0.31212672394727858 0 -0.1974015764858067 -0.32145416090365558 0 -0.20095619221775701 -0.31212672394727858 0 -0.19064655751415191 -0.3108686284798291 0 -0.1974015764858067 -0.32145416090365558 0 -0.19064655751415191 -0.3108686284798291 0 -0.1827755939457163 -0.32468499092226749 0 -0.1974015764858067 -0.32145416090365558 0 -0.18553485610904419 -0.33940722241705851 0 -0.1827755939457163 -0.32468499092226749 0 -0.1974015764858067 -0.32145416090365558 0 -0.20068093595715919 -0.33038721527311732 0 -0.18553485610904419 -0.33940722241705851 0 -0.1974015764858067 -0.32145416090365558 0 -0.18553485610904419 -0.33940722241705851 0 -0.20088090603212649 -0.3405873389075722 0 -0.20068093595715919 -0.33038721527311732 0 -0.18553485610904419 -0.33940722241705851 0 -0.20088090603212649 -0.3405873389075722 0 -0.20063933991882241 -0.36917133975711819 0 -0.20088090603212649 -0.3405873389075722 0 -0.1890760741552755 -0.35509862662844249 0 -0.18553485610904419 -0.33940722241705851 0 -0.20088090603212649 -0.3405873389075722 0 -0.1890760741552755 -0.35509862662844249 0 -0.20063933991882241 -0.36917133975711819 0 -0.1890760741552755 -0.35509862662844249 0 -0.20063933991882241 -0.36917133975711819 0 -0.18341798537636991 -0.36886805586579952 0 -0.18109959458052091 -0.38653434302526207 0 -0.20063933991882241 -0.36917133975711819 0 -0.18341798537636991 -0.36886805586579952 0 -0.2148877966221571 -0.37674001460297102 0 -0.20063933991882241 -0.36917133975711819 0 -0.21807654790980949 -0.36174373223131701 0 -0.20951637006378321 -0.33693522808929782 0 -0.21807654790980949 -0.36174373223131701 0 -0.20951637006378321 -0.33693522808929782 0 -0.20088090603212649 -0.3405873389075722 0 -0.21807654790980949 -0.36174373223131701 0 -0.22315044264842579 -0.34565704428835681 0 -0.20951637006378321 -0.33693522808929782 0 -0.21807654790980949 -0.36174373223131701 0 -0.20088090603212649 -0.3405873389075722 0 -0.20063933991882241 -0.36917133975711819 0 -0.21807654790980949 -0.36174373223131701 0 -0.21902573809400649 -0.2568432927795572 0 -0.24738176819293031 -0.25539123551852178 0 -0.21902573809400649 -0.2568432927795572 0 -0.24738176819293031 -0.25539123551852178 0 -0.2346233508180996 -0.2700727740923185 0 -0.21902573809400649 -0.2568432927795572 0 -0.24738176819293031 -0.25539123551852178 0 -0.23579184864694269 -0.24406508798076759 0 -0.24738176819293031 -0.25539123551852178 0 -0.2346233508180996 -0.2700727740923185 0 -0.24748773663790799 -0.26974185585923699 0 -0.2346233508180996 -0.2700727740923185 0 -0.23068176997914319 -0.28760801114253498 0 -0.2448217175665422 -0.28265904550320248 0 -0.2346233508180996 -0.2700727740923185 0 -0.24748773663790799 -0.26974185585923699 0 -0.2448217175665422 -0.28265904550320248 0 -0.21902573809400649 -0.2568432927795572 0 -0.2346233508180996 -0.2700727740923185 0 -0.21399448109250879 -0.27962854782872582 0 -0.2346233508180996 -0.2700727740923185 0 -0.23068176997914319 -0.28760801114253498 0 -0.21399448109250879 -0.27962854782872582 0 -0.23068176997914319 -0.28760801114253498 0 -0.21897512030674551 -0.29451631011570661 0 -0.21399448109250879 -0.27962854782872582 0 -0.23068176997914319 -0.28760801114253498 0 -0.21897512030674551 -0.29451631011570661 0 -0.2263666670200683 -0.30536907650075479 0 -0.2448217175665422 -0.28265904550320248 0 -0.249011173528006 -0.29486372502063463 0 -0.23759410795586039 -0.29949443348989258 0 -0.23068176997914319 -0.28760801114253498 0 -0.2448217175665422 -0.28265904550320248 0 -0.23759410795586039 -0.29949443348989258 0 -0.25359998096172282 -0.30694194894199178 0 -0.249011173528006 -0.29486372502063463 0 -0.23759410795586039 -0.29949443348989258 0 -0.25359998096172282 -0.30694194894199178 0 -0.2408931878469498 -0.31280696604245772 0 -0.23759410795586039 -0.29949443348989258 0 -0.2408931878469498 -0.31280696604245772 0 -0.23759410795586039 -0.29949443348989258 0 -0.2263666670200683 -0.30536907650075479 0 -0.23068176997914319 -0.28760801114253498 0 -0.23759410795586039 -0.29949443348989258 0 -0.2263666670200683 -0.30536907650075479 0 -0.2408931878469498 -0.31280696604245772 0 -0.22970776322355191 -0.31670571928273861 0 -0.2263666670200683 -0.30536907650075479 0 -0.21897512030674551 -0.29451631011570661 0 -0.2263666670200683 -0.30536907650075479 0 -0.2136592289026108 -0.30771112537049528 0 -0.22970776322355191 -0.31670571928273861 0 -0.22060382120138999 -0.31498900380803979 0 -0.2263666670200683 -0.30536907650075479 0 -0.22060382120138999 -0.31498900380803979 0 -0.2263666670200683 -0.30536907650075479 0 -0.2136592289026108 -0.30771112537049528 0 -0.21897512030674551 -0.29451631011570661 0 -0.2136592289026108 -0.30771112537049528 0 -0.20493418302879329 -0.29686342203289362 0 -0.2136592289026108 -0.30771112537049528 0 -0.20095619221775701 -0.31212672394727858 0 -0.20493418302879329 -0.29686342203289362 0 -0.20095619221775701 -0.31212672394727858 0 -0.19239601437173071 -0.28731821980525929 0 -0.20493418302879329 -0.29686342203289362 0 -0.20095619221775701 -0.31212672394727858 0 -0.19239601437173071 -0.28731821980525929 0 -0.19064655751415191 -0.3108686284798291 0 -0.19239601437173071 -0.28731821980525929 0 -0.17970341054974909 -0.30875904682068439 0 -0.20095619221775701 -0.31212672394727858 0 -0.19064655751415191 -0.3108686284798291 0 -0.19239601437173071 -0.28731821980525929 0 -0.21897512030674551 -0.29451631011570661 0 -0.20493418302879329 -0.29686342203289362 0 -0.21399448109250879 -0.27962854782872582 0 -0.19239601437173071 -0.28731821980525929 0 -0.20493418302879329 -0.29686342203289362 0 -0.21399448109250879 -0.27962854782872582 0 -0.21902573809400649 -0.2568432927795572 0 -0.21399448109250879 -0.27962854782872582 0 -0.19732519104904259 -0.26417780483281039 0 -0.19239601437173071 -0.28731821980525929 0 -0.21399448109250879 -0.27962854782872582 0 -0.19732519104904259 -0.26417780483281039 0 -0.19732519104904259 -0.26417780483281039 0 -0.18001217520760859 -0.2488334474964092 0 -0.20223247230675451 -0.24152321636748639 0 -0.21902573809400649 -0.2568432927795572 0 -0.19732519104904259 -0.26417780483281039 0 -0.20223247230675451 -0.24152321636748639 0 -0.1604646036632511 -0.2580885807568094 0 -0.17181308799630229 -0.27411418106155427 0 -0.18001217520760859 -0.2488334474964092 0 -0.19732519104904259 -0.26417780483281039 0 -0.17181308799630229 -0.27411418106155427 0 -0.18001217520760859 -0.2488334474964092 0 -0.17181308799630229 -0.27411418106155427 0 -0.18001217520760859 -0.2488334474964092 0 -0.19239601437173071 -0.28731821980525929 0 -0.19732519104904259 -0.26417780483281039 0 -0.17181308799630229 -0.27411418106155427 0 -0.1604646036632511 -0.2580885807568094 0 -0.17181308799630229 -0.27411418106155427 0 -0.15010004161543869 -0.27272905188436908 0 -0.17181308799630229 -0.27411418106155427 0 -0.16361400078499599 -0.29939491462669932 0 -0.15010004161543869 -0.27272905188436908 0 -0.17181308799630229 -0.27411418106155427 0 -0.16361400078499599 -0.29939491462669932 0 -0.19239601437173071 -0.28731821980525929 0 -0.17181308799630229 -0.27411418106155427 0 -0.16361400078499599 -0.29939491462669932 0 -0.19239601437173071 -0.28731821980525929 0 -0.17970341054974909 -0.30875904682068439 0 -0.16361400078499599 -0.29939491462669932 0 -0.17970341054974909 -0.30875904682068439 0 -0.16361400078499599 -0.29939491462669932 0 -0.16967693318916269 -0.31944084507394122 0 -0.16361400078499599 -0.29939491462669932 0 -0.15541491357368969 -0.32467564819184419 0 -0.16361400078499599 -0.29939491462669932 0 -0.13347519830552909 -0.31095268360857481 0 -0.15541491357368969 -0.32467564819184419 0 -0.16361400078499599 -0.29939491462669932 0 -0.13347519830552909 -0.31095268360857481 0 -0.1358269359669875 -0.28915017916367519 0 -0.13347519830552909 -0.31095268360857481 0 -0.1358269359669875 -0.28915017916367519 0 -0.1164874883859727 -0.28784178091233248 0 -0.16361400078499599 -0.29939491462669932 0 -0.1358269359669875 -0.28915017916367519 0 -0.15010004161543869 -0.27272905188436908 0 -0.15010004161543869 -0.27272905188436908 0 -0.13831404478925111 -0.25444066090024692 0 -0.1145444208708475 -0.26855575935902598 0 -0.1358269359669875 -0.28915017916367519 0 -0.15010004161543869 -0.27272905188436908 0 -0.1145444208708475 -0.26855575935902598 0 -0.13831404478925111 -0.25444066090024692 0 -0.1145444208708475 -0.26855575935902598 0 -0.1604646036632511 -0.2580885807568094 0 -0.13831404478925111 -0.25444066090024692 0 -0.16208366870765459 -0.24032556244146769 0 -0.1604646036632511 -0.2580885807568094 0 -0.15010004161543869 -0.27272905188436908 0 -0.13831404478925111 -0.25444066090024692 0 -0.15865614342655709 -0.36003868851595722 0 -0.17366813573228179 -0.35736028393046138 0 -0.16687674709166239 -0.33968962480821041 0 -0.15865614342655709 -0.36003868851595722 0 -0.16687674709166239 -0.33968962480821041 0 -0.14721582636238331 -0.34995638175698918 0 -0.16180141535551931 -0.37531334544386408 0 -0.17366813573228179 -0.35736028393046138 0 -0.16180141535551931 -0.37531334544386408 0 -0.15865614342655709 -0.36003868851595722 0 -0.17366813573228179 -0.35736028393046138 0 -0.16180141535551931 -0.37531334544386408 0 -0.18341798537636991 -0.36886805586579952 0 -0.17366813573228179 -0.35736028393046138 0 -0.1890760741552755 -0.35509862662844249 0 -0.18341798537636991 -0.36886805586579952 0 -0.17366813573228179 -0.35736028393046138 0 -0.1890760741552755 -0.35509862662844249 0 -0.17366813573228179 -0.35736028393046138 0 -0.18553485610904419 -0.33940722241705851 0 -0.17366813573228179 -0.35736028393046138 0 -0.18553485610904419 -0.33940722241705851 0 -0.16687674709166239 -0.33968962480821041 0 -0.17366813573228179 -0.35736028393046138 0 -0.18553485610904419 -0.33940722241705851 0 -0.18553485610904419 -0.33940722241705851 0 -0.1827755939457163 -0.32468499092226749 0 -0.16687674709166239 -0.33968962480821041 0 -0.17970341054974909 -0.30875904682068439 0 -0.1827755939457163 -0.32468499092226749 0 -0.16967693318916269 -0.31944084507394122 0 -0.1827755939457163 -0.32468499092226749 0 -0.16967693318916269 -0.31944084507394122 0 -0.16687674709166239 -0.33968962480821041 0 -0.19064655751415191 -0.3108686284798291 0 -0.17970341054974909 -0.30875904682068439 0 -0.1827755939457163 -0.32468499092226749 0 -0.16361400078499599 -0.29939491462669932 0 -0.16967693318916269 -0.31944084507394122 0 -0.15541491357368969 -0.32467564819184419 0 -0.16967693318916269 -0.31944084507394122 0 -0.16687674709166239 -0.33968962480821041 0 -0.15541491357368969 -0.32467564819184419 0 -0.16687674709166239 -0.33968962480821041 0 -0.15541491357368969 -0.32467564819184419 0 -0.14721582636238331 -0.34995638175698918 0 -0.15541491357368969 -0.32467564819184419 0 -0.14721582636238331 -0.34995638175698918 0 -0.15541491357368969 -0.32467564819184419 0 -0.13045112456352689 -0.33516573685179041 0 -0.14721582636238331 -0.34995638175698918 0 -0.13347519830552909 -0.31095268360857481 0 -0.15541491357368969 -0.32467564819184419 0 -0.13045112456352689 -0.33516573685179041 0 -0.13045112456352689 -0.33516573685179041 0 -0.1267598910500668 -0.35493832172293899 0 -0.14721582636238331 -0.34995638175698918 0 -0.1267598910500668 -0.35493832172293899 0 -0.14721582636238331 -0.34995638175698918 0 -0.1442806532027934 -0.36512583358340089 0 -0.15865614342655709 -0.36003868851595722 0 -0.14721582636238331 -0.34995638175698918 0 -0.1442806532027934 -0.36512583358340089 0 -0.16180141535551931 -0.37531334544386408 0 -0.1442806532027934 -0.36512583358340089 0 -0.16180141535551931 -0.37531334544386408 0 -0.15865614342655709 -0.36003868851595722 0 -0.1442806532027934 -0.36512583358340089 0 -0.15688125818540849 -0.38275700987060518 0 -0.1442806532027934 -0.36512583358340089 0 -0.13277088185079949 -0.36779429260978408 0 -0.16180141535551931 -0.37531334544386408 0 -0.15688125818540849 -0.38275700987060518 0 -0.1442806532027934 -0.36512583358340089 0 -0.1267598910500668 -0.35493832172293899 0 -0.1442806532027934 -0.36512583358340089 0 -0.1267598910500668 -0.35493832172293899 0 -0.1442806532027934 -0.36512583358340089 0 -0.13277088185079949 -0.36779429260978408 0 -0.12775501264443881 -0.37987702570409732 0 -0.13277088185079949 -0.36779429260978408 0 -0.1147133618620146 -0.36933407418863179 0 -0.13277088185079949 -0.36779429260978408 0 -0.1078747058024158 -0.36380566214401072 0 -0.1086605055161913 -0.35283157534896181 0 -0.1147133618620146 -0.36933407418863179 0 -0.1078747058024158 -0.36380566214401072 0 -0.1061309811997134 -0.38815765006312769 0 -0.13277088185079949 -0.36779429260978408 0 -0.1086605055161913 -0.35283157534896181 0 -0.13277088185079949 -0.36779429260978408 0 -0.1147133618620146 -0.36933407418863179 0 -0.1078747058024158 -0.36380566214401072 0 -0.12775501264443881 -0.37987702570409732 0 -0.1147133618620146 -0.36933407418863179 0 -0.1147133618620146 -0.36933407418863179 0 -0.1078747058024158 -0.36380566214401072 0 -0.1078747058024158 -0.36380566214401072 0 -0.097320531280810793 -0.37059952794984652 0 -0.089963984121169266 -0.36274996210674543 0 -0.1078747058024158 -0.36380566214401072 0 -0.097320531280810793 -0.37059952794984652 0 -0.099855527835169947 -0.37720633614856752 0 -0.097320531280810793 -0.37059952794984652 0 -0.091178155979708145 -0.37473537120224948 0 -0.099855527835169947 -0.37720633614856752 0 -0.1078747058024158 -0.36380566214401072 0 -0.092978280087184645 -0.350104444598554 0 -0.086448039115633576 -0.34609970043516819 0 -0.1078747058024158 -0.36380566214401072 0 -0.1086605055161913 -0.35283157534896181 0 -0.092978280087184645 -0.350104444598554 0 -0.1086605055161913 -0.35283157534896181 0 -0.1092391288973404 -0.34475080986247658 0 -0.090483374215109658 -0.34155098509618931 0 -0.1086605055161913 -0.35283157534896181 0 -0.090483374215109658 -0.34155098509618931 0 -0.1078747058024158 -0.36380566214401072 0 -0.089963984121169266 -0.36274996210674543 0 -0.086448039115633576 -0.34609970043516819 0 -0.1078747058024158 -0.36380566214401072 0 -0.086448039115633576 -0.34609970043516819 0 -0.1086605055161913 -0.35283157534896181 0 -0.090483374215109658 -0.34155098509618931 0 -0.092978280087184645 -0.350104444598554 0 -0.1078747058024158 -0.36380566214401072 0 -0.092978280087184645 -0.350104444598554 0 -0.1078747058024158 -0.36380566214401072 0 -0.1086605055161913 -0.35283157534896181 0 -0.1086605055161913 -0.35283157534896181 0 -0.1092391288973404 -0.34475080986247658 0 -0.1267598910500668 -0.35493832172293899 0 -0.1092391288973404 -0.34475080986247658 0 -0.13045112456352689 -0.33516573685179041 0 -0.1267598910500668 -0.35493832172293899 0 -0.1092391288973404 -0.34475080986247658 0 -0.1267598910500668 -0.35493832172293899 0 -0.13277088185079949 -0.36779429260978408 0 -0.1086605055161913 -0.35283157534896181 0 -0.1267598910500668 -0.35493832172293899 0 -0.1086605055161913 -0.35283157534896181 0 -0.1092391288973404 -0.34475080986247658 0 -0.1092391288973404 -0.34475080986247658 0 -0.1106017891921528 -0.32572057596791831 0 -0.13045112456352689 -0.33516573685179041 0 -0.1092391288973404 -0.34475080986247658 0 -0.1106017891921528 -0.32572057596791831 0 -0.13347519830552909 -0.31095268360857481 0 -0.1106017891921528 -0.32572057596791831 0 -0.11196444948696491 -0.30669034207335988 0 -0.13347519830552909 -0.31095268360857481 0 -0.13045112456352689 -0.33516573685179041 0 -0.1106017891921528 -0.32572057596791831 0 -0.1106017891921528 -0.32572057596791831 0 -0.11196444948696491 -0.30669034207335988 0 -0.1106017891921528 -0.32572057596791831 0 -0.097242846721303983 -0.31545257278057748 0 -0.088522241979318184 -0.33270489945347392 0 -0.1106017891921528 -0.32572057596791831 0 -0.097242846721303983 -0.31545257278057748 0 -0.11196444948696491 -0.30669034207335988 0 -0.1092391288973404 -0.34475080986247658 0 -0.1106017891921528 -0.32572057596791831 0 -0.088522241979318184 -0.33270489945347392 0 -0.1092391288973404 -0.34475080986247658 0 -0.090483374215109658 -0.34155098509618931 0 -0.088522241979318184 -0.33270489945347392 0 -0.1092391288973404 -0.34475080986247658 0 -0.088522241979318184 -0.33270489945347392 0 -0.090483374215109658 -0.34155098509618931 0 -0.072306242914028707 -0.33027039484341558 0 -0.090483374215109658 -0.34155098509618931 0 -0.078017873923070954 -0.33729674608462218 0 -0.072306242914028707 -0.33027039484341558 0 -0.090483374215109658 -0.34155098509618931 0 -0.088522241979318184 -0.33270489945347392 0 -0.072306242914028707 -0.33027039484341558 0 -0.090483374215109658 -0.34155098509618931 0 -0.078017873923070954 -0.33729674608462218 0 -0.092978280087184645 -0.350104444598554 0 -0.078017873923070954 -0.33729674608462218 0 -0.092978280087184645 -0.350104444598554 0 -0.088522241979318184 -0.33270489945347392 0 -0.067805355061296146 -0.32065898904447082 0 -0.088522241979318184 -0.33270489945347392 0 -0.08175347803328184 -0.31302768365582712 0 -0.067805355061296146 -0.32065898904447082 0 -0.097242846721303983 -0.31545257278057748 0 -0.088522241979318184 -0.33270489945347392 0 -0.08175347803328184 -0.31302768365582712 0 -0.088522241979318184 -0.33270489945347392 0 -0.067805355061296146 -0.32065898904447082 0 -0.072306242914028707 -0.33027039484341558 0 -0.067805355061296146 -0.32065898904447082 0 -0.072306242914028707 -0.33027039484341558 0 -0.065021372428851337 -0.3283937387263256 0 -0.065021372428851337 -0.3283937387263256 0 -0.086448039115633576 -0.34609970043516819 0 -0.065021372428851337 -0.3283937387263256 0 -0.06855943216606375 -0.35132328400101048 0 -0.086448039115633576 -0.34609970043516819 0 -0.078017873923070954 -0.33729674608462218 0 -0.065021372428851337 -0.3283937387263256 0 -0.086448039115633576 -0.34609970043516819 0 -0.078017873923070954 -0.33729674608462218 0 -0.072306242914028707 -0.33027039484341558 0 -0.065021372428851337 -0.3283937387263256 0 -0.06855943216606375 -0.35132328400101048 0 -0.075163014007473689 -0.3748777628665349 0 -0.089963984121169266 -0.36274996210674543 0 -0.06855943216606375 -0.35132328400101048 0 -0.075163014007473689 -0.3748777628665349 0 -0.050367220842461417 -0.36053185390541698 0 -0.075163014007473689 -0.3748777628665349 0 -0.050367220842461417 -0.36053185390541698 0 -0.075163014007473689 -0.3748777628665349 0 -0.091178155979708145 -0.37473537120224948 0 -0.089963984121169266 -0.36274996210674543 0 -0.097320531280810793 -0.37059952794984652 0 -0.091178155979708145 -0.37473537120224948 0 -0.089963984121169266 -0.36274996210674543 0 -0.06855943216606375 -0.35132328400101048 0 -0.089963984121169266 -0.36274996210674543 0 -0.086448039115633576 -0.34609970043516819 0 -0.078017873923070954 -0.33729674608462218 0 -0.092978280087184645 -0.350104444598554 0 -0.086448039115633576 -0.34609970043516819 0 -0.1145444208708475 -0.26855575935902598 0 -0.086960282333319372 -0.26352630763578849 0 -0.100136301148218 -0.24907987653969471 0 -0.13831404478925111 -0.25444066090024692 0 -0.1145444208708475 -0.26855575935902598 0 -0.11915498205697291 -0.2408068844890873 0 -0.1145444208708475 -0.26855575935902598 0 -0.11915498205697291 -0.2408068844890873 0 -0.100136301148218 -0.24907987653969471 0 -0.1145444208708475 -0.26855575935902598 0 -0.090774796952443823 -0.28267085781780521 0 -0.1145444208708475 -0.26855575935902598 0 -0.1164874883859727 -0.28784178091233248 0 -0.090774796952443823 -0.28267085781780521 0 -0.1145444208708475 -0.26855575935902598 0 -0.090774796952443823 -0.28267085781780521 0 -0.086960282333319372 -0.26352630763578849 0 -0.1164874883859727 -0.28784178091233248 0 -0.094204705435667904 -0.30041153225274769 0 -0.090774796952443823 -0.28267085781780521 0 -0.1358269359669875 -0.28915017916367519 0 -0.1145444208708475 -0.26855575935902598 0 -0.1164874883859727 -0.28784178091233248 0 -0.13347519830552909 -0.31095268360857481 0 -0.1164874883859727 -0.28784178091233248 0 -0.11196444948696491 -0.30669034207335988 0 -0.097242846721303983 -0.31545257278057748 0 -0.11196444948696491 -0.30669034207335988 0 -0.094204705435667904 -0.30041153225274769 0 -0.1164874883859727 -0.28784178091233248 0 -0.11196444948696491 -0.30669034207335988 0 -0.094204705435667904 -0.30041153225274769 0 -0.08175347803328184 -0.31302768365582712 0 -0.094204705435667904 -0.30041153225274769 0 -0.067005173034040244 -0.29678595627658438 0 -0.097242846721303983 -0.31545257278057748 0 -0.08175347803328184 -0.31302768365582712 0 -0.094204705435667904 -0.30041153225274769 0 -0.08175347803328184 -0.31302768365582712 0 -0.067005173034040244 -0.29678595627658438 0 -0.08175347803328184 -0.31302768365582712 0 -0.067805355061296146 -0.32065898904447082 0 -0.067005173034040244 -0.29678595627658438 0 -0.067005173034040244 -0.29678595627658438 0 -0.069417761037913764 -0.27569379934030819 0 -0.054743236562054723 -0.28328236862160838 0 -0.067005173034040244 -0.29678595627658438 0 -0.090774796952443823 -0.28267085781780521 0 -0.069417761037913764 -0.27569379934030819 0 -0.094204705435667904 -0.30041153225274769 0 -0.067005173034040244 -0.29678595627658438 0 -0.090774796952443823 -0.28267085781780521 0 -0.067005173034040244 -0.29678595627658438 0 -0.090774796952443823 -0.28267085781780521 0 -0.090774796952443823 -0.28267085781780521 0 -0.069417761037913764 -0.27569379934030819 0 -0.086960282333319372 -0.26352630763578849 0 -0.069417761037913764 -0.27569379934030819 0 -0.065681829444391299 -0.26090662295952782 0 -0.053791072767916788 -0.26717570423075648 0 -0.069417761037913764 -0.27569379934030819 0 -0.065681829444391299 -0.26090662295952782 0 -0.086960282333319372 -0.26352630763578849 0 -0.065681829444391299 -0.26090662295952782 0 -0.086960282333319372 -0.26352630763578849 0 -0.079718954688658 -0.24192108577507071 0 -0.086960282333319372 -0.26352630763578849 0 -0.079718954688658 -0.24192108577507071 0 -0.100136301148218 -0.24907987653969471 0 -0.037921739916834271 -0.26475751694295208 0 -0.042602229245921719 -0.25698688725396762 0 -0.04536552575691985 -0.24226698162929269 0 -0.037921739916834271 -0.26475751694295208 0 -0.04536552575691985 -0.24226698162929269 0 -0.034666144001367923 -0.2483971056500785 0 -0.037921739916834271 -0.26475751694295208 0 -0.04536552575691985 -0.24226698162929269 0 -0.037921739916834271 -0.26475751694295208 0 -0.022528228236615339 -0.2478052488597971 0 -0.034666144001367923 -0.2483971056500785 0 -0.042602229245921719 -0.25698688725396762 0 -0.047041301159421983 -0.25761939211544649 0 -0.040563180771266118 -0.26766643171304388 0 -0.042602229245921719 -0.25698688725396762 0 -0.040563180771266118 -0.26766643171304388 0 -0.047041301159421983 -0.25761939211544649 0 -0.042481300090069118 -0.2697787809666326 0 -0.037921739916834271 -0.26475751694295208 0 -0.042602229245921719 -0.25698688725396762 0 -0.040563180771266118 -0.26766643171304388 0 -0.047041301159421983 -0.25761939211544649 0 -0.040563180771266118 -0.26766643171304388 0 -0.042481300090069118 -0.2697787809666326 0 -0.065681829444391299 -0.26090662295952782 0 -0.059245570520698329 -0.24034153463758051 0 -0.065681829444391299 -0.26090662295952782 0 -0.052933631942767102 -0.25169649631914642 0 -0.059245570520698329 -0.24034153463758051 0 -0.042602229245921719 -0.25698688725396762 0 -0.047041301159421983 -0.25761939211544649 0 -0.052933631942767102 -0.25169649631914642 0 -0.042602229245921719 -0.25698688725396762 0 -0.052933631942767102 -0.25169649631914642 0 -0.04536552575691985 -0.24226698162929269 0 -0.047041301159421983 -0.25761939211544649 0 -0.052933631942767102 -0.25169649631914642 0 -0.054248774964090182 -0.2590970278086997 0 -0.065681829444391299 -0.26090662295952782 0 -0.052933631942767102 -0.25169649631914642 0 -0.054248774964090182 -0.2590970278086997 0 -0.065681829444391299 -0.26090662295952782 0 -0.054248774964090182 -0.2590970278086997 0 -0.053791072767916788 -0.26717570423075648 0 -0.047041301159421983 -0.25761939211544649 0 -0.054248774964090182 -0.2590970278086997 0 -0.053791072767916788 -0.26717570423075648 0 -0.047041301159421983 -0.25761939211544649 0 -0.053791072767916788 -0.26717570423075648 0 -0.042481300090069118 -0.2697787809666326 0 -0.069417761037913764 -0.27569379934030819 0 -0.053791072767916788 -0.26717570423075648 0 -0.054743236562054723 -0.28328236862160838 0 -0.053791072767916788 -0.26717570423075648 0 -0.042481300090069118 -0.2697787809666326 0 -0.054743236562054723 -0.28328236862160838 0 -0.042481300090069118 -0.2697787809666326 0 -0.054743236562054723 -0.28328236862160838 0 -0.040563180771266118 -0.26766643171304388 0 -0.037752162828474989 -0.28238917688974269 0 -0.042481300090069118 -0.2697787809666326 0 -0.037752162828474989 -0.28238917688974269 0 -0.042481300090069118 -0.2697787809666326 0 -0.037752162828474989 -0.28238917688974269 0 -0.054743236562054723 -0.28328236862160838 0 -0.040563180771266118 -0.26766643171304388 0 -0.042481300090069118 -0.2697787809666326 0 -0.037752162828474989 -0.28238917688974269 0 -0.040563180771266118 -0.26766643171304388 0 -0.042481300090069118 -0.2697787809666326 0 -0.037921739916834271 -0.26475751694295208 0 -0.040563180771266118 -0.26766643171304388 0 -0.037921739916834271 -0.26475751694295208 0 -0.034301598316689733 -0.27569535479154622 0 -0.027149524211612468 -0.26600630237639988 0 -0.037921739916834271 -0.26475751694295208 0 -0.034301598316689733 -0.27569535479154622 0 -0.037921739916834271 -0.26475751694295208 0 -0.040563180771266118 -0.26766643171304388 0 -0.034301598316689733 -0.27569535479154622 0 -0.040563180771266118 -0.26766643171304388 0 -0.034301598316689733 -0.27569535479154622 0 -0.037752162828474989 -0.28238917688974269 0 -0.034301598316689733 -0.27569535479154622 0 -0.037752162828474989 -0.28238917688974269 0 -0.02991847187427767 -0.28375980719712712 0 -0.037752162828474989 -0.28238917688974269 0 -0.033941957588812979 -0.30234517929034233 0 -0.030971082894403409 -0.30047114364704919 0 -0.037752162828474989 -0.28238917688974269 0 -0.046577141959815938 -0.29621435745012459 0 -0.033941957588812979 -0.30234517929034233 0 -0.037752162828474989 -0.28238917688974269 0 -0.033941957588812979 -0.30234517929034233 0 -0.037752162828474989 -0.28238917688974269 0 -0.030971082894403409 -0.30047114364704919 0 -0.037752162828474989 -0.28238917688974269 0 -0.046577141959815938 -0.29621435745012459 0 -0.054743236562054723 -0.28328236862160838 0 -0.037752162828474989 -0.28238917688974269 0 -0.030971082894403409 -0.30047114364704919 0 -0.02991847187427767 -0.28375980719712712 0 -0.067005173034040244 -0.29678595627658438 0 -0.046577141959815938 -0.29621435745012459 0 -0.054743236562054723 -0.28328236862160838 0 -0.067005173034040244 -0.29678595627658438 0 -0.054743236562054723 -0.28328236862160838 0 -0.067005173034040244 -0.29678595627658438 0 -0.046577141959815938 -0.29621435745012459 0 -0.04708846814327397 -0.30861307863546777 0 -0.067805355061296146 -0.32065898904447082 0 -0.067005173034040244 -0.29678595627658438 0 -0.04708846814327397 -0.30861307863546777 0 -0.067005173034040244 -0.29678595627658438 0 -0.04708846814327397 -0.30861307863546777 0 -0.04708846814327397 -0.30861307863546777 0 -0.038931853602238498 -0.30387038498700181 0 -0.04708846814327397 -0.30861307863546777 0 -0.041905670795549389 -0.30929204017585737 0 -0.038931853602238498 -0.30387038498700181 0 -0.033941957588812979 -0.30234517929034233 0 -0.036949575040286439 -0.30797575028282809 0 -0.03091102770021727 -0.31821971631087648 0 -0.04708846814327397 -0.30861307863546777 0 -0.043594705742069202 -0.31068777701748279 0 -0.041905670795549389 -0.30929204017585737 0 -0.033941957588812979 -0.30234517929034233 0 -0.03091102770021727 -0.31821971631087648 0 -0.033941957588812979 -0.30234517929034233 0 -0.030971082894403409 -0.30047114364704919 0 -0.03091102770021727 -0.31821971631087648 0 -0.04708846814327397 -0.30861307863546777 0 -0.043594705742069202 -0.31068777701748279 0 -0.043594705742069202 -0.31068777701748279 0 -0.041905670795549389 -0.30929204017585737 0 -0.041905670795549389 -0.30929204017585737 0 -0.038931853602238498 -0.30387038498700181 0 -0.037712434808600898 -0.30577938994319948 0 -0.046577141959815938 -0.29621435745012459 0 -0.04708846814327397 -0.30861307863546777 0 -0.038931853602238498 -0.30387038498700181 0 -0.046577141959815938 -0.29621435745012459 0 -0.038931853602238498 -0.30387038498700181 0 -0.033941957588812979 -0.30234517929034233 0 -0.038931853602238498 -0.30387038498700181 0 -0.036428097175547243 -0.30391344274100479 0 -0.033941957588812979 -0.30234517929034233 0 -0.038931853602238498 -0.30387038498700181 0 -0.036428097175547243 -0.30391344274100479 0 -0.037712434808600898 -0.30577938994319948 0 -0.036428097175547243 -0.30391344274100479 0 -0.033941957588812979 -0.30234517929034233 0 -0.033941957588812979 -0.30234517929034233 0 -0.030971082894403409 -0.30047114364704919 0 -0.041905670795549389 -0.30929204017585737 0 -0.036949575040286439 -0.30797575028282809 0 -0.03091102770021727 -0.31821971631087648 0 -0.036428097175547243 -0.30391344274100479 0 -0.033941957588812979 -0.30234517929034233 0 -0.036949575040286439 -0.30797575028282809 0 -0.036428097175547243 -0.30391344274100479 0 -0.036949575040286439 -0.30797575028282809 0 -0.037712434808600898 -0.30577938994319948 0 -0.041905670795549389 -0.30929204017585737 0 -0.036949575040286439 -0.30797575028282809 0 -0.037712434808600898 -0.30577938994319948 0 -0.030971082894403409 -0.30047114364704919 0 -0.019868303152904301 -0.31110420236808428 0 -0.02242527951416377 -0.32325880197557588 0 -0.030971082894403409 -0.30047114364704919 0 -0.02242527951416377 -0.32325880197557588 0 -0.030971082894403409 -0.30047114364704919 0 -0.020172986073922611 -0.30214517017956788 0 -0.019868303152904301 -0.31110420236808428 0 -0.020172986073922611 -0.30214517017956788 0 -0.019868303152904301 -0.31110420236808428 0 -0.0079363146907776363 -0.31552421472962983 0 -0.0055278170408027639 -0.30103592497543102 0 -0.0079363146907776363 -0.31552421472962983 0 0.0079546546982776217 -0.30858623800606599 0 -0.020172986073922611 -0.30214517017956788 0 -0.0079363146907776363 -0.31552421472962983 0 -0.020172986073922611 -0.30214517017956788 0 -0.0055278170408027639 -0.30103592497543102 0 -0.0079363146907776363 -0.31552421472962983 0 -0.0055278170408027639 -0.30103592497543102 0 -0.0094123067770376725 -0.2868718104453718 0 0.0062447098493534289 -0.29133125270458748 0 -0.020172986073922611 -0.30214517017956788 0 -0.0055278170408027639 -0.30103592497543102 0 -0.0094123067770376725 -0.2868718104453718 0 -0.0094123067770376725 -0.2868718104453718 0 -0.0219324908489986 -0.28444767612666189 0 -0.015301478395761211 -0.27666654708838262 0 -0.030971082894403409 -0.30047114364704919 0 -0.020172986073922611 -0.30214517017956788 0 -0.0094123067770376725 -0.2868718104453718 0 -0.030971082894403409 -0.30047114364704919 0 -0.0094123067770376725 -0.2868718104453718 0 -0.030971082894403409 -0.30047114364704919 0 -0.0094123067770376725 -0.2868718104453718 0 -0.0219324908489986 -0.28444767612666189 0 -0.030971082894403409 -0.30047114364704919 0 -0.0219324908489986 -0.28444767612666189 0 -0.02991847187427767 -0.28375980719712712 0 -0.0219324908489986 -0.28444767612666189 0 -0.02991847187427767 -0.28375980719712712 0 -0.02463502448281954 -0.27579568453063469 0 -0.034301598316689733 -0.27569535479154622 0 -0.02991847187427767 -0.28375980719712712 0 -0.02463502448281954 -0.27579568453063469 0 -0.034301598316689733 -0.27569535479154622 0 -0.02463502448281954 -0.27579568453063469 0 -0.027149524211612468 -0.26600630237639988 0 -0.02463502448281954 -0.27579568453063469 0 -0.015301478395761211 -0.27666654708838262 0 -0.01595679294492118 -0.26555859934663978 0 -0.02463502448281954 -0.27579568453063469 0 -0.027149524211612468 -0.26600630237639988 0 -0.01595679294492118 -0.26555859934663978 0 -0.0219324908489986 -0.28444767612666189 0 -0.02463502448281954 -0.27579568453063469 0 -0.015301478395761211 -0.27666654708838262 0 -0.0094123067770376725 -0.2868718104453718 0 -0.015301478395761211 -0.27666654708838262 0 -0.0045707769250290598 -0.27065896499260461 0 -0.0094123067770376725 -0.2868718104453718 0 -0.0045707769250290598 -0.27065896499260461 0 0.01214646934032841 -0.27327247724369491 0 -0.015301478395761211 -0.27666654708838262 0 -0.0045707769250290598 -0.27065896499260461 0 -0.01595679294492118 -0.26555859934663978 0 -0.0045707769250290598 -0.27065896499260461 0 -0.001841693348385491 -0.25076144787433541 0 -0.01595679294492118 -0.26555859934663978 0 -0.001841693348385491 -0.25076144787433541 0 -0.01595679294492118 -0.26555859934663978 0 -0.022528228236615339 -0.2478052488597971 0 -0.027149524211612468 -0.26600630237639988 0 -0.01595679294492118 -0.26555859934663978 0 -0.022528228236615339 -0.2478052488597971 0 -0.037921739916834271 -0.26475751694295208 0 -0.022528228236615339 -0.2478052488597971 0 -0.037921739916834271 -0.26475751694295208 0 -0.027149524211612468 -0.26600630237639988 0 -0.022528228236615339 -0.2478052488597971 0 -0.050367220842461417 -0.36053185390541698 0 -0.044392962480793267 -0.33528668596587208 0 -0.025571427677448189 -0.34618594494430088 0 -0.050367220842461417 -0.36053185390541698 0 -0.025571427677448189 -0.34618594494430088 0 -0.032344624468214393 -0.36422070655022798 0 -0.050367220842461417 -0.36053185390541698 0 -0.025571427677448189 -0.34618594494430088 0 -0.032344624468214393 -0.36422070655022798 0 -0.042710130422149183 -0.37416567633806802 0 -0.050367220842461417 -0.36053185390541698 0 -0.032344624468214393 -0.36422070655022798 0 -0.042710130422149183 -0.37416567633806802 0 -0.029099469517123382 -0.37912769612214009 0 -0.075163014007473689 -0.3748777628665349 0 -0.050367220842461417 -0.36053185390541698 0 -0.055973763789587808 -0.38107544908912272 0 -0.042710130422149183 -0.37416567633806802 0 -0.050367220842461417 -0.36053185390541698 0 -0.055973763789587808 -0.38107544908912272 0 -0.06855943216606375 -0.35132328400101048 0 -0.050367220842461417 -0.36053185390541698 0 -0.044392962480793267 -0.33528668596587208 0 -0.065021372428851337 -0.3283937387263256 0 -0.042351939591658887 -0.32304051244683812 0 -0.044392962480793267 -0.33528668596587208 0 -0.065021372428851337 -0.3283937387263256 0 -0.06855943216606375 -0.35132328400101048 0 -0.044392962480793267 -0.33528668596587208 0 -0.065021372428851337 -0.3283937387263256 0 -0.043594705742069202 -0.31068777701748279 0 -0.067805355061296146 -0.32065898904447082 0 -0.04708846814327397 -0.30861307863546777 0 -0.067805355061296146 -0.32065898904447082 0 -0.065021372428851337 -0.3283937387263256 0 -0.04708846814327397 -0.30861307863546777 0 -0.065021372428851337 -0.3283937387263256 0 -0.04708846814327397 -0.30861307863546777 0 -0.043594705742069202 -0.31068777701748279 0 -0.065021372428851337 -0.3283937387263256 0 -0.043594705742069202 -0.31068777701748279 0 -0.042351939591658887 -0.32304051244683812 0 -0.042351939591658887 -0.32304051244683812 0 -0.044392962480793267 -0.33528668596587208 0 -0.03091102770021727 -0.31821971631087648 0 -0.043594705742069202 -0.31068777701748279 0 -0.03091102770021727 -0.31821971631087648 0 -0.043594705742069202 -0.31068777701748279 0 -0.042351939591658887 -0.32304051244683812 0 -0.03091102770021727 -0.31821971631087648 0 -0.043594705742069202 -0.31068777701748279 0 -0.041905670795549389 -0.30929204017585737 0 -0.03091102770021727 -0.31821971631087648 0 -0.044392962480793267 -0.33528668596587208 0 -0.03091102770021727 -0.31821971631087648 0 -0.025571427677448189 -0.34618594494430088 0 -0.03091102770021727 -0.31821971631087648 0 -0.025571427677448189 -0.34618594494430088 0 -0.03091102770021727 -0.31821971631087648 0 -0.02242527951416377 -0.32325880197557588 0 -0.025571427677448189 -0.34618594494430088 0 -0.015921030630162321 -0.34060258987444109 0 -0.02242527951416377 -0.32325880197557588 0 -0.025571427677448189 -0.34618594494430088 0 -0.015921030630162321 -0.34060258987444109 0 -0.02242527951416377 -0.32325880197557588 0 -0.015921030630162321 -0.34060258987444109 0 -0.025571427677448189 -0.34618594494430088 0 -0.030971082894403409 -0.30047114364704919 0 -0.03091102770021727 -0.31821971631087648 0 -0.02242527951416377 -0.32325880197557588 0 -0.03091102770021727 -0.31821971631087648 0 -0.02242527951416377 -0.32325880197557588 0 -0.019868303152904301 -0.31110420236808428 0 -0.02242527951416377 -0.32325880197557588 0 -0.0079363146907776363 -0.31552421472962983 0 -0.02242527951416377 -0.32325880197557588 0 -0.0079363146907776363 -0.31552421472962983 0 -0.0044219923817750287 -0.33394968086064442 0 -0.0079363146907776363 -0.31552421472962983 0 -0.0044219923817750287 -0.33394968086064442 0 0.0043003566923673908 -0.32890325927969177 0 -0.0079363146907776363 -0.31552421472962983 0 0.0043003566923673908 -0.32890325927969177 0 -0.02242527951416377 -0.32325880197557588 0 -0.0044219923817750287 -0.33394968086064442 0 -0.015921030630162321 -0.34060258987444109 0 -0.02242527951416377 -0.32325880197557588 0 -0.0044219923817750287 -0.33394968086064442 0 -0.015921030630162321 -0.34060258987444109 0 -0.0044219923817750287 -0.33394968086064442 0 -0.0044219923817750287 -0.33394968086064442 0 0.0043003566923673908 -0.32890325927969177 0 -0.015921030630162321 -0.34060258987444109 0 -0.0044219923817750287 -0.33394968086064442 0 -0.00045700258022138111 -0.347650870328647 0 -0.015921030630162321 -0.34060258987444109 0 -0.0238594241589275 -0.35515258694294882 0 -0.0057633599520367524 -0.36768834396071098 0 -0.015921030630162321 -0.34060258987444109 0 -0.0057633599520367524 -0.36768834396071098 0 -0.015921030630162321 -0.34060258987444109 0 -0.00045700258022138111 -0.347650870328647 0 -0.0057633599520367524 -0.36768834396071098 0 -0.032344624468214393 -0.36422070655022798 0 -0.0238594241589275 -0.35515258694294882 0 -0.025571427677448189 -0.34618594494430088 0 -0.015921030630162321 -0.34060258987444109 0 -0.0238594241589275 -0.35515258694294882 0 -0.025571427677448189 -0.34618594494430088 0 -0.0238594241589275 -0.35515258694294882 0 -0.025571427677448189 -0.34618594494430088 0 -0.0238594241589275 -0.35515258694294882 0 -0.020087390795422971 -0.36996943324122789 0 -0.0057633599520367524 -0.36768834396071098 0 -0.032344624468214393 -0.36422070655022798 0 -0.020087390795422971 -0.36996943324122789 0 -0.029099469517123382 -0.37912769612214009 0 -0.032344624468214393 -0.36422070655022798 0 -0.0238594241589275 -0.35515258694294882 0 -0.020087390795422971 -0.36996943324122789 0 -0.020087390795422971 -0.36996943324122789 0 -0.0057633599520367524 -0.36768834396071098 0 -0.01297537682993823 -0.38579860771997548 0 -0.0057633599520367524 -0.36768834396071098 0 -0.01297537682993823 -0.38579860771997548 0 0.0043943107260996693 -0.39477409804697688 0 -0.0057633599520367524 -0.36768834396071098 0 0.0043943107260996693 -0.39477409804697688 0 -0.01297537682993823 -0.38579860771997548 0 -0.010041786161490349 -0.41003669318270453 0 0.0043943107260996693 -0.39477409804697688 0 -0.010041786161490349 -0.41003669318270453 0 0.0043943107260996693 -0.39477409804697688 0 -0.010041786161490349 -0.41003669318270453 0 0.0043943107260996693 -0.39477409804697688 0 0.0012401442745701111 -0.41039122975193348 0 -0.01297537682993823 -0.38579860771997548 0 -0.026349715222125949 -0.39604753969358852 0 -0.010041786161490349 -0.41003669318270453 0 -0.026349715222125949 -0.39604753969358852 0 -0.010041786161490349 -0.41003669318270453 0 -0.01297537682993823 -0.38579860771997548 0 -0.026349715222125949 -0.39604753969358852 0 -0.029099469517123382 -0.37912769612214009 0 -0.020087390795422971 -0.36996943324122789 0 -0.01297537682993823 -0.38579860771997548 0 -0.029099469517123382 -0.37912769612214009 0 -0.042710130422149183 -0.37416567633806802 0 -0.029099469517123382 -0.37912769612214009 0 -0.041020206701853593 -0.38549058040889772 0 -0.026349715222125949 -0.39604753969358852 0 -0.029099469517123382 -0.37912769612214009 0 -0.041020206701853593 -0.38549058040889772 0 -0.042710130422149183 -0.37416567633806802 0 -0.041020206701853593 -0.38549058040889772 0 -0.055973763789587808 -0.38107544908912272 0 -0.026349715222125949 -0.39604753969358852 0 -0.041020206701853593 -0.38549058040889772 0 -0.048595271162528972 -0.39684549299430227 0 -0.026349715222125949 -0.39604753969358852 0 -0.048595271162528972 -0.39684549299430227 0 -0.039532429310728007 -0.4107673017433594 0 -0.048595271162528972 -0.39684549299430227 0 -0.054406617772318082 -0.40841591962796953 0 -0.039532429310728007 -0.4107673017433594 0 -0.048595271162528972 -0.39684549299430227 0 -0.054406617772318082 -0.40841591962796953 0 -0.06382775928903546 -0.40146032158249623 0 -0.048595271162528972 -0.39684549299430227 0 -0.061652270954676403 -0.39096115740384563 0 -0.06382775928903546 -0.40146032158249623 0 -0.041020206701853593 -0.38549058040889772 0 -0.048595271162528972 -0.39684549299430227 0 -0.055973763789587808 -0.38107544908912272 0 -0.048595271162528972 -0.39684549299430227 0 -0.061652270954676403 -0.39096115740384563 0 -0.055973763789587808 -0.38107544908912272 0 -0.061652270954676403 -0.39096115740384563 0 -0.055973763789587808 -0.38107544908912272 0 -0.069268614760270728 -0.3861055675618098 0 -0.057579474594017258 -0.43011907333341692 0 -0.049434256185225567 -0.41778349584469671 0 -0.066104783148606516 -0.40895552918793499 0 -0.057579474594017258 -0.43011907333341692 0 -0.066104783148606516 -0.40895552918793499 0 -0.054406617772318082 -0.40841591962796953 0 -0.049434256185225567 -0.41778349584469671 0 -0.066104783148606516 -0.40895552918793499 0 -0.054406617772318082 -0.40841591962796953 0 -0.06382775928903546 -0.40146032158249623 0 -0.066104783148606516 -0.40895552918793499 0 -0.054406617772318082 -0.40841591962796953 0 -0.049434256185225567 -0.41778349584469671 0 -0.039532429310728007 -0.4107673017433594 0 -0.049434256185225567 -0.41778349584469671 0 -0.039532429310728007 -0.4107673017433594 0 -0.02954797610045801 -0.43065965533080269 0 -0.039532429310728007 -0.4107673017433594 0 -0.02954797610045801 -0.43065965533080269 0 -0.026523736152057741 -0.41275050917323569 0 -0.057579474594017258 -0.43011907333341692 0 -0.02954797610045801 -0.43065965533080269 0 -0.049054166039427832 -0.45128261747889881 0 -0.057579474594017258 -0.43011907333341692 0 -0.049434256185225567 -0.41778349584469671 0 -0.02954797610045801 -0.43065965533080269 0 -0.02954797610045801 -0.43065965533080269 0 -0.01243087601490207 -0.42739405813615461 0 -0.018758010447622171 -0.44089046969529538 0 -0.02954797610045801 -0.43065965533080269 0 -0.010041786161490349 -0.41003669318270453 0 -0.01243087601490207 -0.42739405813615461 0 -0.026349715222125949 -0.39604753969358852 0 -0.026523736152057741 -0.41275050917323569 0 -0.010041786161490349 -0.41003669318270453 0 -0.02954797610045801 -0.43065965533080269 0 -0.010041786161490349 -0.41003669318270453 0 -0.02954797610045801 -0.43065965533080269 0 -0.026523736152057741 -0.41275050917323569 0 -0.010041786161490349 -0.41003669318270453 0 -0.026349715222125949 -0.39604753969358852 0 -0.039532429310728007 -0.4107673017433594 0 -0.026523736152057741 -0.41275050917323569 0 -0.010041786161490349 -0.41003669318270453 0 -0.01243087601490207 -0.42739405813615461 0 0.003046948381176199 -0.421264379777051 0 -0.010041786161490349 -0.41003669318270453 0 0.003046948381176199 -0.421264379777051 0 -0.010041786161490349 -0.41003669318270453 0 0.003046948381176199 -0.421264379777051 0 0.0012401442745701111 -0.41039122975193348 0 -0.01243087601490207 -0.42739405813615461 0 -0.0065585337705159749 -0.43300207866463092 0 -0.018758010447622171 -0.44089046969529538 0 -0.01243087601490207 -0.42739405813615461 0 -0.0065585337705159749 -0.43300207866463092 0 0.003046948381176199 -0.421264379777051 0 -0.0065585337705159749 -0.43300207866463092 0 0.003046948381176199 -0.421264379777051 0 0.001065975389985023 -0.43277259632701881 0 -0.0065585337705159749 -0.43300207866463092 0 -0.0057167061612168526 -0.44268888938763429 0 0.001065975389985023 -0.43277259632701881 0 -0.0057167061612168526 -0.44268888938763429 0 -0.02522062740853059 -0.45235975532679812 0 -0.0057167061612168526 -0.44268888938763429 0 -0.0096881076435810561 -0.45338442867615592 0 -0.02522062740853059 -0.45235975532679812 0 -0.0065585337705159749 -0.43300207866463092 0 -0.0057167061612168526 -0.44268888938763429 0 -0.018758010447622171 -0.44089046969529538 0 -0.0057167061612168526 -0.44268888938763429 0 -0.0096881076435810561 -0.45338442867615592 0 0.001472854377528484 -0.45396397847149073 0 -0.0057167061612168526 -0.44268888938763429 0 0.0027657136627727771 -0.44065436054092061 0 0.001472854377528484 -0.45396397847149073 0 -0.0092879513821052685 -0.46452509151870047 0 -0.0096881076435810561 -0.45338442867615592 0 -0.02522062740853059 -0.45235975532679812 0 -0.0092879513821052685 -0.46452509151870047 0 -0.0096881076435810561 -0.45338442867615592 0 0.001472854377528484 -0.45396397847149073 0 -0.0092879513821052685 -0.46452509151870047 0 -0.0019559089577449651 -0.47409726781104972 0 0.002710617743064444 -0.46593022637184228 0 -0.0092879513821052685 -0.46452509151870047 0 0.002710617743064444 -0.46593022637184228 0 0.001472854377528484 -0.45396397847149073 0 -0.0092879513821052685 -0.46452509151870047 0 -0.02522062740853059 -0.45235975532679812 0 -0.023537059068117729 -0.47110908445242727 0 -0.02522062740853059 -0.45235975532679812 0 -0.023537059068117729 -0.47110908445242727 0 -0.044724548655844201 -0.46203062126596212 0 -0.0057167061612168526 -0.44268888938763429 0 -0.02522062740853059 -0.45235975532679812 0 -0.018758010447622171 -0.44089046969529538 0 -0.02954797610045801 -0.43065965533080269 0 -0.02522062740853059 -0.45235975532679812 0 -0.018758010447622171 -0.44089046969529538 0 -0.01455213586255011 -0.5 0 -0.0087188664673210035 -0.49186552508696668 0 0.0015067012270580161 -0.5 0 -0.01455213586255011 -0.5 0 -0.0087188664673210035 -0.49186552508696668 0 -0.022575955138942418 -0.48832751421651338 0 -0.0018263063229271811 -0.48556017921041428 0 -0.0087188664673210035 -0.49186552508696668 0 0.0015067012270580161 -0.5 0 -0.0018263063229271811 -0.48556017921041428 0 -0.0087188664673210035 -0.49186552508696668 0 -0.01033414253048056 -0.4806949406679647 0 -0.0087188664673210035 -0.49186552508696668 0 -0.01033414253048056 -0.4806949406679647 0 -0.022575955138942418 -0.48832751421651338 0 -0.0092879513821052685 -0.46452509151870047 0 -0.01033414253048056 -0.4806949406679647 0 -0.0019559089577449651 -0.47409726781104972 0 -0.0092879513821052685 -0.46452509151870047 0 -0.01033414253048056 -0.4806949406679647 0 -0.023537059068117729 -0.47110908445242727 0 -0.0018263063229271811 -0.48556017921041428 0 -0.01033414253048056 -0.4806949406679647 0 -0.0019559089577449651 -0.47409726781104972 0 -0.01033414253048056 -0.4806949406679647 0 -0.023537059068117729 -0.47110908445242727 0 -0.022575955138942418 -0.48832751421651338 0 -0.023537059068117729 -0.47110908445242727 0 -0.022575955138942418 -0.48832751421651338 0 -0.035977990074470598 -0.48374340473562488 0 -0.01455213586255011 -0.5 0 -0.022575955138942418 -0.48832751421651338 0 -0.041239123830257803 -0.5 0 -0.022575955138942418 -0.48832751421651338 0 -0.041239123830257803 -0.5 0 -0.035977990074470598 -0.48374340473562488 0 -0.041239123830257803 -0.5 0 -0.035977990074470598 -0.48374340473562488 0 -0.056937503573643328 -0.48703612847859651 0 -0.035977990074470598 -0.48374340473562488 0 -0.044724548655844201 -0.46203062126596212 0 -0.023537059068117729 -0.47110908445242727 0 -0.035977990074470598 -0.48374340473562488 0 -0.044724548655844201 -0.46203062126596212 0 -0.035977990074470598 -0.48374340473562488 0 -0.05197244266307869 -0.47687430883103921 0 -0.044724548655844201 -0.46203062126596212 0 -0.05197244266307869 -0.47687430883103921 0 -0.056937503573643328 -0.48703612847859651 0 -0.070249728348356549 -0.47468708084397349 0 -0.05197244266307869 -0.47687430883103921 0 -0.044724548655844201 -0.46203062126596212 0 -0.070249728348356549 -0.47468708084397349 0 -0.035977990074470598 -0.48374340473562488 0 -0.05197244266307869 -0.47687430883103921 0 -0.056937503573643328 -0.48703612847859651 0 -0.041239123830257803 -0.5 0 -0.056937503573643328 -0.48703612847859651 0 -0.067926111797965483 -0.5 0 -0.02954797610045801 -0.43065965533080269 0 -0.049054166039427832 -0.45128261747889881 0 -0.02954797610045801 -0.43065965533080269 0 -0.02522062740853059 -0.45235975532679812 0 -0.049054166039427832 -0.45128261747889881 0 -0.02522062740853059 -0.45235975532679812 0 -0.044724548655844201 -0.46203062126596212 0 -0.02522062740853059 -0.45235975532679812 0 -0.044724548655844201 -0.46203062126596212 0 -0.049054166039427832 -0.45128261747889881 0 -0.044724548655844201 -0.46203062126596212 0 -0.049054166039427832 -0.45128261747889881 0 -0.044724548655844201 -0.46203062126596212 0 -0.070249728348356549 -0.47468708084397349 0 -0.044724548655844201 -0.46203062126596212 0 -0.05372105037485729 -0.45621669119089758 0 -0.070249728348356549 -0.47468708084397349 0 -0.044724548655844201 -0.46203062126596212 0 -0.05372105037485729 -0.45621669119089758 0 -0.049054166039427832 -0.45128261747889881 0 -0.05372105037485729 -0.45621669119089758 0 -0.049054166039427832 -0.45128261747889881 0 -0.05372105037485729 -0.45621669119089758 0 -0.058855893967602692 -0.44790752392722932 0 -0.066997956486151602 -0.45725218996349681 0 -0.057579474594017258 -0.43011907333341692 0 -0.058855893967602692 -0.44790752392722932 0 -0.06692682234355922 -0.44466704766943599 0 -0.057579474594017258 -0.43011907333341692 0 -0.049054166039427832 -0.45128261747889881 0 -0.057579474594017258 -0.43011907333341692 0 -0.058855893967602692 -0.44790752392722932 0 -0.049054166039427832 -0.45128261747889881 0 -0.05372105037485729 -0.45621669119089758 0 -0.058855893967602692 -0.44790752392722932 0 -0.049054166039427832 -0.45128261747889881 0 -0.080158602159747808 -0.45521604187206999 0 -0.073131692654177183 -0.43208578553000238 0 -0.06692682234355922 -0.44466704766943599 0 -0.080158602159747808 -0.45521604187206999 0 -0.073131692654177183 -0.43208578553000238 0 -0.06692682234355922 -0.44466704766943599 0 -0.066997956486151602 -0.45725218996349681 0 -0.080158602159747808 -0.45521604187206999 0 -0.058855893967602692 -0.44790752392722932 0 -0.06692682234355922 -0.44466704766943599 0 -0.066997956486151602 -0.45725218996349681 0 -0.066997956486151602 -0.45725218996349681 0 -0.080158602159747808 -0.45521604187206999 0 -0.070249728348356549 -0.47468708084397349 0 -0.05372105037485729 -0.45621669119089758 0 -0.066997956486151602 -0.45725218996349681 0 -0.070249728348356549 -0.47468708084397349 0 -0.092222339083136901 -0.46463362427216648 0 -0.080158602159747808 -0.45521604187206999 0 -0.087185511665318446 -0.47834629821413749 0 -0.092222339083136901 -0.46463362427216648 0 -0.080158602159747808 -0.45521604187206999 0 -0.097720567229125227 -0.45397272843693248 0 -0.080158602159747808 -0.45521604187206999 0 -0.087185511665318446 -0.47834629821413749 0 -0.080158602159747808 -0.45521604187206999 0 -0.089300712578812252 -0.44045710931024568 0 -0.073131692654177183 -0.43208578553000238 0 -0.080158602159747808 -0.45521604187206999 0 -0.089300712578812252 -0.44045710931024568 0 -0.097720567229125227 -0.45397272843693248 0 -0.056937503573643328 -0.48703612847859651 0 -0.067926111797965483 -0.5 0 -0.077758743003375874 -0.4893782776351141 0 -0.056937503573643328 -0.48703612847859651 0 -0.077758743003375874 -0.4893782776351141 0 -0.070249728348356549 -0.47468708084397349 0 -0.070249728348356549 -0.47468708084397349 0 -0.087185511665318446 -0.47834629821413749 0 -0.095774908040869036 -0.48734354042198541 0 -0.070249728348356549 -0.47468708084397349 0 -0.095774908040869036 -0.48734354042198541 0 -0.080158602159747808 -0.45521604187206999 0 -0.070249728348356549 -0.47468708084397349 0 -0.087185511665318446 -0.47834629821413749 0 -0.077758743003375874 -0.4893782776351141 0 -0.070249728348356549 -0.47468708084397349 0 -0.095774908040869036 -0.48734354042198541 0 -0.077758743003375874 -0.4893782776351141 0 -0.095774908040869036 -0.48734354042198541 0 -0.09461309976567317 -0.5 0 -0.067926111797965483 -0.5 0 -0.077758743003375874 -0.4893782776351141 0 -0.09461309976567317 -0.5 0 -0.095774908040869036 -0.48734354042198541 0 -0.09461309976567317 -0.5 0 -0.1213000877333808 -0.49999999999999839 0 -0.095774908040869036 -0.48734354042198541 0 -0.1213000877333808 -0.49999999999999839 0 -0.095774908040869036 -0.48734354042198541 0 -0.10382467527835609 -0.47099942856552579 0 -0.11351589072335951 -0.48403951486393798 0 -0.092222339083136901 -0.46463362427216648 0 -0.087185511665318446 -0.47834629821413749 0 -0.10382467527835609 -0.47099942856552579 0 -0.087185511665318446 -0.47834629821413749 0 -0.095774908040869036 -0.48734354042198541 0 -0.10382467527835609 -0.47099942856552579 0 -0.13603527430618201 -0.47522489958471359 0 -0.11351589072335951 -0.48403951486393798 0 -0.1209840654267632 -0.47157437227470489 0 -0.10382467527835609 -0.47099942856552579 0 -0.11351589072335951 -0.48403951486393798 0 -0.1209840654267632 -0.47157437227470489 0 -0.095774908040869036 -0.48734354042198541 0 -0.11351589072335951 -0.48403951486393798 0 -0.1213000877333808 -0.49999999999999839 0 -0.13603527430618201 -0.47522489958471359 0 -0.11351589072335951 -0.48403951486393798 0 -0.1213000877333808 -0.49999999999999839 0 -0.089300712578812252 -0.44045710931024568 0 -0.097720567229125227 -0.45397272843693248 0 -0.1040091463684429 -0.43716925102654941 0 -0.097720567229125227 -0.45397272843693248 0 -0.11980502334743739 -0.45580407227336939 0 -0.1040091463684429 -0.43716925102654941 0 -0.092222339083136901 -0.46463362427216648 0 -0.10382467527835609 -0.47099942856552579 0 -0.097720567229125227 -0.45397272843693248 0 -0.10382467527835609 -0.47099942856552579 0 -0.097720567229125227 -0.45397272843693248 0 -0.11980502334743739 -0.45580407227336939 0 -0.10382467527835609 -0.47099942856552579 0 -0.1209840654267632 -0.47157437227470489 0 -0.11980502334743739 -0.45580407227336939 0 -0.11980502334743739 -0.45580407227336939 0 -0.1234872124313089 -0.43385486191162143 0 -0.1040091463684429 -0.43716925102654941 0 -0.1234872124313089 -0.43385486191162143 0 -0.1091015336200734 -0.42136003062443278 0 -0.1246684549995967 -0.41638466865613261 0 -0.1234872124313089 -0.43385486191162143 0 -0.1040091463684429 -0.43716925102654941 0 -0.1091015336200734 -0.42136003062443278 0 -0.1040091463684429 -0.43716925102654941 0 -0.1091015336200734 -0.42136003062443278 0 -0.091483554482568147 -0.42384173968567418 0 -0.089300712578812252 -0.44045710931024568 0 -0.1040091463684429 -0.43716925102654941 0 -0.091483554482568147 -0.42384173968567418 0 -0.1091015336200734 -0.42136003062443278 0 -0.099135710476455377 -0.41229865115804237 0 -0.1108763898202158 -0.40409678074612959 0 -0.1091015336200734 -0.42136003062443278 0 -0.099135710476455377 -0.41229865115804237 0 -0.091483554482568147 -0.42384173968567418 0 -0.099135710476455377 -0.41229865115804237 0 -0.095172439954515492 -0.40202971568088458 0 -0.089044634504904061 -0.41016498905309101 0 -0.1091015336200734 -0.42136003062443278 0 -0.1246684549995967 -0.41638466865613261 0 -0.1108763898202158 -0.40409678074612959 0 -0.1246684549995967 -0.41638466865613261 0 -0.1247546003374982 -0.4035695807887707 0 -0.1108763898202158 -0.40409678074612959 0 -0.1247546003374982 -0.4035695807887707 0 -0.1061309811997134 -0.38815765006312769 0 -0.099958807172485925 -0.38922367182765277 0 -0.1247546003374982 -0.4035695807887707 0 -0.12206520484248121 -0.38965787720240291 0 -0.1061309811997134 -0.38815765006312769 0 -0.1247546003374982 -0.4035695807887707 0 -0.099958807172485925 -0.38922367182765277 0 -0.1247546003374982 -0.4035695807887707 0 -0.1108763898202158 -0.40409678074612959 0 -0.099958807172485925 -0.38922367182765277 0 -0.1147133618620146 -0.36933407418863179 0 -0.11730594736649839 -0.38168883371386852 0 -0.1061309811997134 -0.38815765006312769 0 -0.11730594736649839 -0.38168883371386852 0 -0.12206520484248121 -0.38965787720240291 0 -0.1061309811997134 -0.38815765006312769 0 -0.12775501264443881 -0.37987702570409732 0 -0.1147133618620146 -0.36933407418863179 0 -0.11730594736649839 -0.38168883371386852 0 -0.12775501264443881 -0.37987702570409732 0 -0.11730594736649839 -0.38168883371386852 0 -0.12206520484248121 -0.38965787720240291 0 -0.1078747058024158 -0.36380566214401072 0 -0.1061309811997134 -0.38815765006312769 0 -0.099855527835169947 -0.37720633614856752 0 -0.1078747058024158 -0.36380566214401072 0 -0.1061309811997134 -0.38815765006312769 0 -0.1061309811997134 -0.38815765006312769 0 -0.099958807172485925 -0.38922367182765277 0 -0.099855527835169947 -0.37720633614856752 0 -0.091178155979708145 -0.37473537120224948 0 -0.099958807172485925 -0.38922367182765277 0 -0.099855527835169947 -0.37720633614856752 0 -0.099135710476455377 -0.41229865115804237 0 -0.1108763898202158 -0.40409678074612959 0 -0.095172439954515492 -0.40202971568088458 0 -0.1108763898202158 -0.40409678074612959 0 -0.099708213755259525 -0.3974383658351951 0 -0.095172439954515492 -0.40202971568088458 0 -0.1108763898202158 -0.40409678074612959 0 -0.099958807172485925 -0.38922367182765277 0 -0.099708213755259525 -0.3974383658351951 0 -0.099958807172485925 -0.38922367182765277 0 -0.099708213755259525 -0.3974383658351951 0 -0.092825218073820867 -0.39440329508611349 0 -0.099708213755259525 -0.3974383658351951 0 -0.095172439954515492 -0.40202971568088458 0 -0.092825218073820867 -0.39440329508611349 0 -0.099958807172485925 -0.38922367182765277 0 -0.092825218073820867 -0.39440329508611349 0 -0.081684278276804051 -0.38896910012772268 0 -0.095172439954515492 -0.40202971568088458 0 -0.087155821307497133 -0.39636023674610699 0 -0.085671029951645383 -0.40292840531466578 0 -0.095172439954515492 -0.40202971568088458 0 -0.085671029951645383 -0.40292840531466578 0 -0.089044634504904061 -0.41016498905309101 0 -0.095172439954515492 -0.40202971568088458 0 -0.092825218073820867 -0.39440329508611349 0 -0.087155821307497133 -0.39636023674610699 0 -0.092825218073820867 -0.39440329508611349 0 -0.087155821307497133 -0.39636023674610699 0 -0.081684278276804051 -0.38896910012772268 0 -0.080823767899809149 -0.39772956693860761 0 -0.081684278276804051 -0.38896910012772268 0 -0.071869746772811716 -0.39464436832182309 0 -0.087155821307497133 -0.39636023674610699 0 -0.080823767899809149 -0.39772956693860761 0 -0.081684278276804051 -0.38896910012772268 0 -0.085671029951645383 -0.40292840531466578 0 -0.07794255866940486 -0.40540740890138288 0 -0.089044634504904061 -0.41016498905309101 0 -0.080823767899809149 -0.39772956693860761 0 -0.085671029951645383 -0.40292840531466578 0 -0.07794255866940486 -0.40540740890138288 0 -0.087155821307497133 -0.39636023674610699 0 -0.080823767899809149 -0.39772956693860761 0 -0.085671029951645383 -0.40292840531466578 0 -0.075163014007473689 -0.3748777628665349 0 -0.091178155979708145 -0.37473537120224948 0 -0.099958807172485925 -0.38922367182765277 0 -0.075163014007473689 -0.3748777628665349 0 -0.099958807172485925 -0.38922367182765277 0 -0.081684278276804051 -0.38896910012772268 0 -0.075163014007473689 -0.3748777628665349 0 -0.099958807172485925 -0.38922367182765277 0 -0.075163014007473689 -0.3748777628665349 0 -0.055973763789587808 -0.38107544908912272 0 -0.069268614760270728 -0.3861055675618098 0 -0.075163014007473689 -0.3748777628665349 0 -0.081684278276804051 -0.38896910012772268 0 -0.069268614760270728 -0.3861055675618098 0 -0.081684278276804051 -0.38896910012772268 0 -0.069268614760270728 -0.3861055675618098 0 -0.071869746772811716 -0.39464436832182309 0 -0.061652270954676403 -0.39096115740384563 0 -0.069268614760270728 -0.3861055675618098 0 -0.071869746772811716 -0.39464436832182309 0 -0.07794255866940486 -0.40540740890138288 0 -0.071869746772811716 -0.39464436832182309 0 -0.066104783148606516 -0.40895552918793499 0 -0.080823767899809149 -0.39772956693860761 0 -0.07794255866940486 -0.40540740890138288 0 -0.071869746772811716 -0.39464436832182309 0 -0.061652270954676403 -0.39096115740384563 0 -0.071869746772811716 -0.39464436832182309 0 -0.06382775928903546 -0.40146032158249623 0 -0.071869746772811716 -0.39464436832182309 0 -0.06382775928903546 -0.40146032158249623 0 -0.066104783148606516 -0.40895552918793499 0 -0.071869746772811716 -0.39464436832182309 0 -0.066104783148606516 -0.40895552918793499 0 -0.06382775928903546 -0.40146032158249623 0 -0.066104783148606516 -0.40895552918793499 0 -0.066104783148606516 -0.40895552918793499 0 -0.073131692654177183 -0.43208578553000238 0 -0.079361978650202003 -0.41627397091425161 0 -0.066104783148606516 -0.40895552918793499 0 -0.073131692654177183 -0.43208578553000238 0 -0.07794255866940486 -0.40540740890138288 0 -0.066104783148606516 -0.40895552918793499 0 -0.079361978650202003 -0.41627397091425161 0 -0.057579474594017258 -0.43011907333341692 0 -0.066104783148606516 -0.40895552918793499 0 -0.073131692654177183 -0.43208578553000238 0 -0.057579474594017258 -0.43011907333341692 0 -0.06692682234355922 -0.44466704766943599 0 -0.073131692654177183 -0.43208578553000238 0 -0.073131692654177183 -0.43208578553000238 0 -0.091483554482568147 -0.42384173968567418 0 -0.079361978650202003 -0.41627397091425161 0 -0.089300712578812252 -0.44045710931024568 0 -0.073131692654177183 -0.43208578553000238 0 -0.091483554482568147 -0.42384173968567418 0 -0.099135710476455377 -0.41229865115804237 0 -0.091483554482568147 -0.42384173968567418 0 -0.089044634504904061 -0.41016498905309101 0 -0.091483554482568147 -0.42384173968567418 0 -0.089044634504904061 -0.41016498905309101 0 -0.079361978650202003 -0.41627397091425161 0 -0.07794255866940486 -0.40540740890138288 0 -0.089044634504904061 -0.41016498905309101 0 -0.079361978650202003 -0.41627397091425161 0 -0.091723304373959522 -0.089958866382618352 0 -0.085595179634662483 -0.073795703799194395 0 -0.096929353172333851 -0.079534513623763792 0 -0.080186690479239958 -0.087537774995420925 0 -0.091723304373959522 -0.089958866382618352 0 -0.085595179634662483 -0.073795703799194395 0 -0.080186690479239958 -0.087537774995420925 0 -0.085595179634662483 -0.073795703799194395 0 -0.072197143381939555 -0.078240292422133553 0 -0.080186690479239958 -0.087537774995420925 0 -0.091723304373959522 -0.089958866382618352 0 -0.081718323229017939 -0.097664833150102395 0 -0.085595179634662483 -0.073795703799194395 0 -0.096929353172333851 -0.079534513623763792 0 -0.097353331681544086 -0.067431001874808966 0 -0.085595179634662483 -0.073795703799194395 0 -0.097353331681544086 -0.067431001874808966 0 -0.087797153317576634 -0.061159585408788832 0 -0.085595179634662483 -0.073795703799194395 0 -0.087797153317576634 -0.061159585408788832 0 -0.072568881724038747 -0.06082670480838441 0 -0.072197143381939555 -0.078240292422133553 0 -0.072568881724038747 -0.06082670480838441 0 -0.06134635428525001 -0.070554122180418594 0 -0.072197143381939555 -0.078240292422133553 0 -0.056004664984075261 -0.085333452857546968 0 -0.06134635428525001 -0.070554122180418594 0 -0.085595179634662483 -0.073795703799194395 0 -0.072197143381939555 -0.078240292422133553 0 -0.072568881724038747 -0.06082670480838441 0 -0.072568881724038747 -0.06082670480838441 0 -0.061947466597036573 -0.056503935068308399 0 -0.06134635428525001 -0.070554122180418594 0 -0.072197143381939555 -0.078240292422133553 0 -0.070373678771730966 -0.093887050303172237 0 -0.056004664984075261 -0.085333452857546968 0 -0.080186690479239958 -0.087537774995420925 0 -0.072197143381939555 -0.078240292422133553 0 -0.070373678771730966 -0.093887050303172237 0 -0.080186690479239958 -0.087537774995420925 0 -0.070373678771730966 -0.093887050303172237 0 -0.081718323229017939 -0.097664833150102395 0 -0.074328383199125825 -0.104937657322901 0 -0.070373678771730966 -0.093887050303172237 0 -0.065259527237691684 -0.11081742302572779 0 -0.070373678771730966 -0.093887050303172237 0 -0.065259527237691684 -0.11081742302572779 0 -0.056004664984075261 -0.085333452857546968 0 -0.074328383199125825 -0.104937657322901 0 -0.065259527237691684 -0.11081742302572779 0 -0.081894693362505655 -0.1070706862671353 0 -0.074328383199125825 -0.104937657322901 0 -0.065259527237691684 -0.11081742302572779 0 -0.074328383199125825 -0.104937657322901 0 -0.070373678771730966 -0.093887050303172237 0 -0.081718323229017939 -0.097664833150102395 0 -0.065259527237691684 -0.11081742302572779 0 -0.088094875122265812 -0.11399319870862171 0 -0.065259527237691684 -0.11081742302572779 0 -0.076557217710688616 -0.1162891022165304 0 -0.088094875122265812 -0.11399319870862171 0 -0.070031842587628512 -0.1239583578854994 0 -0.064229736692819797 -0.11674043391592411 0 -0.05766759592737563 -0.1215492632532455 0 -0.070031842587628512 -0.1239583578854994 0 -0.065259527237691684 -0.11081742302572779 0 -0.070031842587628512 -0.1239583578854994 0 -0.065259527237691684 -0.11081742302572779 0 -0.064229736692819797 -0.11674043391592411 0 -0.070031842587628512 -0.1239583578854994 0 -0.065259527237691684 -0.11081742302572779 0 -0.076557217710688616 -0.1162891022165304 0 -0.070031842587628512 -0.1239583578854994 0 -0.077474792220485381 -0.1204041351214192 0 -0.081530962183724798 -0.1235834522153986 0 -0.070031842587628512 -0.1239583578854994 0 -0.076557217710688616 -0.1162891022165304 0 -0.077474792220485381 -0.1204041351214192 0 -0.065259527237691684 -0.11081742302572779 0 -0.088094875122265812 -0.11399319870862171 0 -0.081894693362505655 -0.1070706862671353 0 -0.081530962183724798 -0.1235834522153986 0 -0.08640755830639088 -0.12027723301051189 0 -0.085825028631900099 -0.12527396053213469 0 -0.077474792220485381 -0.1204041351214192 0 -0.081530962183724798 -0.1235834522153986 0 -0.081987088363287594 -0.118784558022691 0 -0.076557217710688616 -0.1162891022165304 0 -0.077474792220485381 -0.1204041351214192 0 -0.081987088363287594 -0.118784558022691 0 -0.081530962183724798 -0.1235834522153986 0 -0.081987088363287594 -0.118784558022691 0 -0.08640755830639088 -0.12027723301051189 0 -0.081987088363287594 -0.118784558022691 0 -0.088094875122265812 -0.11399319870862171 0 -0.08640755830639088 -0.12027723301051189 0 -0.076557217710688616 -0.1162891022165304 0 -0.081987088363287594 -0.118784558022691 0 -0.088094875122265812 -0.11399319870862171 0 -0.088094875122265812 -0.11399319870862171 0 -0.091177116440961853 -0.1021924091548847 0 -0.094841420962537212 -0.11451428887090211 0 -0.088094875122265812 -0.11399319870862171 0 -0.09159599610033993 -0.12000380720075671 0 -0.094841420962537212 -0.11451428887090211 0 -0.088094875122265812 -0.11399319870862171 0 -0.08640755830639088 -0.12027723301051189 0 -0.09159599610033993 -0.12000380720075671 0 -0.08640755830639088 -0.12027723301051189 0 -0.09159599610033993 -0.12000380720075671 0 -0.085825028631900099 -0.12527396053213469 0 -0.074328383199125825 -0.104937657322901 0 -0.081718323229017939 -0.097664833150102395 0 -0.081894693362505655 -0.1070706862671353 0 -0.081718323229017939 -0.097664833150102395 0 -0.081894693362505655 -0.1070706862671353 0 -0.091177116440961853 -0.1021924091548847 0 -0.088094875122265812 -0.11399319870862171 0 -0.081894693362505655 -0.1070706862671353 0 -0.091177116440961853 -0.1021924091548847 0 -0.091723304373959522 -0.089958866382618352 0 -0.081718323229017939 -0.097664833150102395 0 -0.091177116440961853 -0.1021924091548847 0 -0.091177116440961853 -0.1021924091548847 0 -0.1007236568148612 -0.1124700208031659 0 -0.1135729306367686 -0.1080435392294234 0 -0.091177116440961853 -0.1021924091548847 0 -0.1135729306367686 -0.1080435392294234 0 -0.091723304373959522 -0.089958866382618352 0 -0.091177116440961853 -0.1021924091548847 0 -0.1025658083216804 -0.096533384934897493 0 -0.091177116440961853 -0.1021924091548847 0 -0.1025658083216804 -0.096533384934897493 0 -0.1135729306367686 -0.1080435392294234 0 -0.1135729306367686 -0.1080435392294234 0 -0.1034841326099455 -0.12545032950228829 0 -0.1007236568148612 -0.1124700208031659 0 -0.1135729306367686 -0.1080435392294234 0 -0.1034841326099455 -0.12545032950228829 0 -0.1007236568148612 -0.1124700208031659 0 -0.094841420962537212 -0.11451428887090211 0 -0.1034841326099455 -0.12545032950228829 0 -0.09159599610033993 -0.12000380720075671 0 -0.094841420962537212 -0.11451428887090211 0 -0.1034841326099455 -0.12545032950228829 0 -0.091177116440961853 -0.1021924091548847 0 -0.1007236568148612 -0.1124700208031659 0 -0.094841420962537212 -0.11451428887090211 0 -0.1185943650647143 -0.1209392102696407 0 -0.1135729306367686 -0.1080435392294234 0 -0.1034841326099455 -0.12545032950228829 0 -0.1185943650647143 -0.1209392102696407 0 -0.1135729306367686 -0.1080435392294234 0 -0.1283743103555019 -0.1119105474685451 0 -0.1135729306367686 -0.1080435392294234 0 -0.1283743103555019 -0.1119105474685451 0 -0.1135729306367686 -0.1080435392294234 0 -0.1230566579520736 -0.091680712662405989 0 -0.13105215396019559 -0.10448681915509141 0 -0.1135729306367686 -0.1080435392294234 0 -0.13105215396019559 -0.10448681915509141 0 -0.1283743103555019 -0.1119105474685451 0 -0.1135729306367686 -0.1080435392294234 0 -0.1230566579520736 -0.091680712662405989 0 -0.11202959184633 -0.093999365492093478 0 -0.1135729306367686 -0.1080435392294234 0 -0.1230566579520736 -0.091680712662405989 0 -0.1025658083216804 -0.096533384934897493 0 -0.11202959184633 -0.093999365492093478 0 -0.1135729306367686 -0.1080435392294234 0 -0.1230566579520736 -0.091680712662405989 0 -0.11733867252327559 -0.082535888320736328 0 -0.13254038526737899 -0.075317886095388836 0 -0.11202959184633 -0.093999365492093478 0 -0.1230566579520736 -0.091680712662405989 0 -0.11733867252327559 -0.082535888320736328 0 -0.11733867252327559 -0.082535888320736328 0 -0.1043260983103818 -0.088472744415467541 0 -0.1068302995171405 -0.078081142196548992 0 -0.11733867252327559 -0.082535888320736328 0 -0.1068302995171405 -0.078081142196548992 0 -0.1147354357964778 -0.074945751831306084 0 -0.11202959184633 -0.093999365492093478 0 -0.11733867252327559 -0.082535888320736328 0 -0.1043260983103818 -0.088472744415467541 0 -0.1025658083216804 -0.096533384934897493 0 -0.11202959184633 -0.093999365492093478 0 -0.1043260983103818 -0.088472744415467541 0 -0.1043260983103818 -0.088472744415467541 0 -0.096929353172333851 -0.079534513623763792 0 -0.1068302995171405 -0.078081142196548992 0 -0.091723304373959522 -0.089958866382618352 0 -0.1025658083216804 -0.096533384934897493 0 -0.1043260983103818 -0.088472744415467541 0 -0.091723304373959522 -0.089958866382618352 0 -0.1043260983103818 -0.088472744415467541 0 -0.096929353172333851 -0.079534513623763792 0 -0.096929353172333851 -0.079534513623763792 0 -0.097353331681544086 -0.067431001874808966 0 -0.1068302995171405 -0.078081142196548992 0 -0.097353331681544086 -0.067431001874808966 0 -0.1068302995171405 -0.078081142196548992 0 -0.1089651576083932 -0.068408227265504634 0 -0.097353331681544086 -0.067431001874808966 0 -0.1089651576083932 -0.068408227265504634 0 -0.1027359123129206 -0.060826648846144318 0 -0.10939118480747501 -0.056016502715566227 0 -0.1327190099277149 -0.072358624390746556 0 -0.1089651576083932 -0.068408227265504634 0 -0.1227723878029595 -0.072724480258005542 0 -0.10939118480747501 -0.056016502715566227 0 -0.1227723878029595 -0.072724480258005542 0 -0.10939118480747501 -0.056016502715566227 0 -0.1327190099277149 -0.072358624390746556 0 -0.10939118480747501 -0.056016502715566227 0 -0.1327190099277149 -0.072358624390746556 0 -0.12830683906837259 -0.060882061302543228 0 -0.1068302995171405 -0.078081142196548992 0 -0.1089651576083932 -0.068408227265504634 0 -0.1147354357964778 -0.074945751831306084 0 -0.1089651576083932 -0.068408227265504634 0 -0.1147354357964778 -0.074945751831306084 0 -0.1227723878029595 -0.072724480258005542 0 -0.11733867252327559 -0.082535888320736328 0 -0.1147354357964778 -0.074945751831306084 0 -0.1227723878029595 -0.072724480258005542 0 -0.11733867252327559 -0.082535888320736328 0 -0.1227723878029595 -0.072724480258005542 0 -0.13254038526737899 -0.075317886095388836 0 -0.10939118480747501 -0.056016502715566227 0 -0.12230163337004731 -0.054171453131155067 0 -0.12830683906837259 -0.060882061302543228 0 -0.12230163337004731 -0.054171453131155067 0 -0.10787348768937841 -0.047604537857552733 0 -0.10939118480747501 -0.056016502715566227 0 -0.12230163337004731 -0.054171453131155067 0 -0.10787348768937841 -0.047604537857552733 0 -0.12230163337004731 -0.054171453131155067 0 -0.12173388593092579 -0.042227674110756362 0 -0.10787348768937841 -0.047604537857552733 0 -0.12173388593092579 -0.042227674110756362 0 -0.106026590287689 -0.032064938808297493 0 -0.11703904229678511 -0.028691737824364062 0 -0.12173388593092579 -0.042227674110756362 0 -0.11703904229678511 -0.028691737824364062 0 -0.13148733631698101 -0.025222264621334419 0 -0.12173388593092579 -0.042227674110756362 0 -0.106026590287689 -0.032064938808297493 0 -0.093445342008708993 -0.041037622583951439 0 -0.12173388593092579 -0.042227674110756362 0 -0.093445342008708993 -0.041037622583951439 0 -0.12173388593092579 -0.042227674110756362 0 -0.10787348768937841 -0.047604537857552733 0 -0.093445342008708993 -0.041037622583951439 0 -0.106026590287689 -0.032064938808297493 0 -0.091436802706903214 -0.02476054079659731 0 -0.093445342008708993 -0.041037622583951439 0 -0.10787348768937841 -0.047604537857552733 0 -0.093445342008708993 -0.041037622583951439 0 -0.096996527521725287 -0.054409459345158159 0 -0.10787348768937841 -0.047604537857552733 0 -0.093445342008708993 -0.041037622583951439 0 -0.097353331681544086 -0.067431001874808966 0 -0.096996527521725287 -0.054409459345158159 0 -0.1027359123129206 -0.060826648846144318 0 -0.097353331681544086 -0.067431001874808966 0 -0.096996527521725287 -0.054409459345158159 0 -0.087797153317576634 -0.061159585408788832 0 -0.1089651576083932 -0.068408227265504634 0 -0.10939118480747501 -0.056016502715566227 0 -0.1027359123129206 -0.060826648846144318 0 -0.10939118480747501 -0.056016502715566227 0 -0.096996527521725287 -0.054409459345158159 0 -0.1027359123129206 -0.060826648846144318 0 -0.10939118480747501 -0.056016502715566227 0 -0.096996527521725287 -0.054409459345158159 0 -0.10787348768937841 -0.047604537857552733 0 -0.1230400690862873 -0.00083517126394756997 0 -0.1186664083726537 -0.01452970433968514 0 -0.1053611418549569 -0.00094003954812623466 0 -0.1186664083726537 -0.01452970433968514 0 -0.11703904229678511 -0.028691737824364062 0 -0.10647787849512171 -0.02360711872581716 0 -0.1186664083726537 -0.01452970433968514 0 -0.11703904229678511 -0.028691737824364062 0 -0.13148733631698101 -0.025222264621334419 0 -0.106026590287689 -0.032064938808297493 0 -0.11703904229678511 -0.028691737824364062 0 -0.10647787849512171 -0.02360711872581716 0 -0.1186664083726537 -0.01452970433968514 0 -0.10647787849512171 -0.02360711872581716 0 -0.1019744605207575 -0.014288665626015299 0 -0.106026590287689 -0.032064938808297493 0 -0.10647787849512171 -0.02360711872581716 0 -0.091436802706903214 -0.02476054079659731 0 -0.10647787849512171 -0.02360711872581716 0 -0.1019744605207575 -0.014288665626015299 0 -0.091436802706903214 -0.02476054079659731 0 -0.1053611418549569 -0.00094003954812623466 0 -0.087930071174152094 -0.0076059247198506513 0 -0.093604694052265153 0.0068576603825617234 0 -0.1019744605207575 -0.014288665626015299 0 -0.087930071174152094 -0.0076059247198506513 0 -0.091436802706903214 -0.02476054079659731 0 -0.1019744605207575 -0.014288665626015299 0 -0.1053611418549569 -0.00094003954812623466 0 -0.087930071174152094 -0.0076059247198506513 0 -0.1186664083726537 -0.01452970433968514 0 -0.1019744605207575 -0.014288665626015299 0 -0.1053611418549569 -0.00094003954812623466 0 -0.087930071174152094 -0.0076059247198506513 0 -0.07369493063430016 -0.00541966735999788 0 -0.080629402512300122 0.0077332449891345774 0 -0.087930071174152094 -0.0076059247198506513 0 -0.074214119196097217 -0.01934098661089375 0 -0.07369493063430016 -0.00541966735999788 0 -0.087930071174152094 -0.0076059247198506513 0 -0.091436802706903214 -0.02476054079659731 0 -0.074214119196097217 -0.01934098661089375 0 -0.091436802706903214 -0.02476054079659731 0 -0.074214119196097217 -0.01934098661089375 0 -0.074054140964835563 -0.032211791661053382 0 -0.074214119196097217 -0.01934098661089375 0 -0.074054140964835563 -0.032211791661053382 0 -0.054662939920961447 -0.023385960738156811 0 -0.074054140964835563 -0.032211791661053382 0 -0.054662939920961447 -0.023385960738156811 0 -0.074214119196097217 -0.01934098661089375 0 -0.063243410855469362 -0.01423428299835414 0 -0.054662939920961447 -0.023385960738156811 0 -0.074214119196097217 -0.01934098661089375 0 -0.063243410855469362 -0.01423428299835414 0 -0.07369493063430016 -0.00541966735999788 0 -0.063243410855469362 -0.01423428299835414 0 -0.063366955347830864 -0.00068398306854730584 0 -0.07369493063430016 -0.00541966735999788 0 -0.084367940613502238 -0.051505618920490909 0 -0.087797153317576634 -0.061159585408788832 0 -0.072568881724038747 -0.06082670480838441 0 -0.096996527521725287 -0.054409459345158159 0 -0.084367940613502238 -0.051505618920490909 0 -0.087797153317576634 -0.061159585408788832 0 -0.096996527521725287 -0.054409459345158159 0 -0.084367940613502238 -0.051505618920490909 0 -0.093445342008708993 -0.041037622583951439 0 -0.093445342008708993 -0.041037622583951439 0 -0.071031798495461568 -0.040094722456170608 0 -0.093445342008708993 -0.041037622583951439 0 -0.074054140964835563 -0.032211791661053382 0 -0.071031798495461568 -0.040094722456170608 0 -0.093445342008708993 -0.041037622583951439 0 -0.074054140964835563 -0.032211791661053382 0 -0.091436802706903214 -0.02476054079659731 0 -0.093445342008708993 -0.041037622583951439 0 -0.074054140964835563 -0.032211791661053382 0 -0.084367940613502238 -0.051505618920490909 0 -0.093445342008708993 -0.041037622583951439 0 -0.071031798495461568 -0.040094722456170608 0 -0.074054140964835563 -0.032211791661053382 0 -0.071031798495461568 -0.040094722456170608 0 -0.054662939920961447 -0.023385960738156811 0 -0.071031798495461568 -0.040094722456170608 0 -0.072568881724038747 -0.06082670480838441 0 -0.061947466597036573 -0.056503935068308399 0 -0.071031798495461568 -0.040094722456170608 0 -0.061947466597036573 -0.056503935068308399 0 -0.055464767857435072 -0.048754396171078677 0 -0.084367940613502238 -0.051505618920490909 0 -0.071031798495461568 -0.040094722456170608 0 -0.072568881724038747 -0.06082670480838441 0 -0.061947466597036573 -0.056503935068308399 0 -0.054786004466877869 -0.055827893061827588 0 -0.05580506534351317 -0.061480628344561333 0 -0.047020759413214 -0.060595582612950033 0 -0.049935375830805727 -0.052810950565968899 0 -0.043798491282312023 -0.051722821174528928 0 -0.05580506534351317 -0.061480628344561333 0 -0.047020759413214 -0.060595582612950033 0 -0.050369653020418917 -0.059028408314650518 0 -0.054786004466877869 -0.055827893061827588 0 -0.05580506534351317 -0.061480628344561333 0 -0.050369653020418917 -0.059028408314650518 0 -0.054786004466877869 -0.055827893061827588 0 -0.050369653020418917 -0.059028408314650518 0 -0.049935375830805727 -0.052810950565968899 0 -0.047020759413214 -0.060595582612950033 0 -0.050369653020418917 -0.059028408314650518 0 -0.049935375830805727 -0.052810950565968899 0 -0.047020759413214 -0.060595582612950033 0 -0.050369653020418917 -0.059028408314650518 0 -0.049935375830805727 -0.052810950565968899 0 -0.048618254982214171 -0.039151822328388652 0 -0.043798491282312023 -0.051722821174528928 0 -0.049935375830805727 -0.052810950565968899 0 -0.055464767857435072 -0.048754396171078677 0 -0.048618254982214171 -0.039151822328388652 0 -0.054786004466877869 -0.055827893061827588 0 -0.049935375830805727 -0.052810950565968899 0 -0.055464767857435072 -0.048754396171078677 0 -0.061947466597036573 -0.056503935068308399 0 -0.054786004466877869 -0.055827893061827588 0 -0.055464767857435072 -0.048754396171078677 0 -0.071031798495461568 -0.040094722456170608 0 -0.048618254982214171 -0.039151822328388652 0 -0.048618254982214171 -0.039151822328388652 0 -0.043526645525744333 -0.034276030132949803 0 -0.054662939920961447 -0.023385960738156811 0 -0.048618254982214171 -0.039151822328388652 0 -0.054662939920961447 -0.023385960738156811 0 -0.071031798495461568 -0.040094722456170608 0 -0.055464767857435072 -0.048754396171078677 0 -0.048618254982214171 -0.039151822328388652 0 -0.071031798495461568 -0.040094722456170608 0 -0.048618254982214171 -0.039151822328388652 0 -0.054662939920961447 -0.023385960738156811 0 -0.048618254982214171 -0.039151822328388652 0 -0.04042915277545206 -0.042445090221614433 0 -0.043798491282312023 -0.051722821174528928 0 -0.048618254982214171 -0.039151822328388652 0 -0.04042915277545206 -0.042445090221614433 0 -0.041786842582427278 -0.038864436283389918 0 -0.039102637893547947 -0.038760485633140461 0 -0.02359335394211871 -0.054537872417845468 0 -0.04042915277545206 -0.042445090221614433 0 -0.039102637893547947 -0.038760485633140461 0 -0.02359335394211871 -0.054537872417845468 0 -0.048618254982214171 -0.039151822328388652 0 -0.043798491282312023 -0.051722821174528928 0 -0.04042915277545206 -0.042445090221614433 0 -0.041786842582427278 -0.038864436283389918 0 -0.04042915277545206 -0.042445090221614433 0 -0.041786842582427278 -0.038864436283389918 0 -0.039102637893547947 -0.038760485633140461 0 -0.04042915277545206 -0.042445090221614433 0 -0.039102637893547947 -0.038760485633140461 0 -0.043526645525744333 -0.034276030132949803 0 -0.039102637893547947 -0.038760485633140461 0 -0.04219352120730685 -0.025135832460745491 0 -0.048618254982214171 -0.039151822328388652 0 -0.041786842582427278 -0.038864436283389918 0 -0.048618254982214171 -0.039151822328388652 0 -0.043526645525744333 -0.034276030132949803 0 -0.041786842582427278 -0.038864436283389918 0 -0.043526645525744333 -0.034276030132949803 0 -0.041786842582427278 -0.038864436283389918 0 -0.043526645525744333 -0.034276030132949803 0 -0.041786842582427278 -0.038864436283389918 0 -0.039102637893547947 -0.038760485633140461 0 -0.043526645525744333 -0.034276030132949803 0 -0.039102637893547947 -0.038760485633140461 0 -0.041786842582427278 -0.038864436283389918 0 -0.039102637893547947 -0.038760485633140461 0 -0.043798491282312023 -0.051722821174528928 0 -0.030640418020362051 -0.068261054568529711 0 -0.038948275850256522 -0.064373244804455845 0 -0.04042915277545206 -0.042445090221614433 0 -0.043798491282312023 -0.051722821174528928 0 -0.030640418020362051 -0.068261054568529711 0 -0.04042915277545206 -0.042445090221614433 0 -0.02359335394211871 -0.054537872417845468 0 -0.030640418020362051 -0.068261054568529711 0 -0.04042915277545206 -0.042445090221614433 0 -0.030640418020362051 -0.068261054568529711 0 -0.047020759413214 -0.060595582612950033 0 -0.038948275850256522 -0.064373244804455845 0 -0.043798491282312023 -0.051722821174528928 0 -0.038948275850256522 -0.064373244804455845 0 -0.047020759413214 -0.060595582612950033 0 -0.043798491282312023 -0.051722821174528928 0 -0.047020759413214 -0.060595582612950033 0 -0.043798491282312023 -0.051722821174528928 0 -0.038948275850256522 -0.064373244804455845 0 -0.04042915277545206 -0.042445090221614433 0 -0.043798491282312023 -0.051722821174528928 0 -0.063366955347830864 -0.00068398306854730584 0 -0.054662939920961447 -0.023385960738156811 0 -0.063243410855469362 -0.01423428299835414 0 -0.063366955347830864 -0.00068398306854730584 0 -0.054662939920961447 -0.023385960738156811 0 -0.063366955347830864 -0.00068398306854730584 0 -0.054094444701140637 -0.0064054285114794026 0 -0.054662939920961447 -0.023385960738156811 0 -0.054094444701140637 -0.0064054285114794026 0 -0.04355313737474608 -0.008879831384554452 0 -0.045863819550670551 0.0023506768644189139 0 -0.054094444701140637 -0.0064054285114794026 0 -0.048687168792328983 -0.020666111385046121 0 -0.04355313737474608 -0.008879831384554452 0 -0.054094444701140637 -0.0064054285114794026 0 -0.048687168792328983 -0.020666111385046121 0 -0.054094444701140637 -0.0064054285114794026 0 -0.048687168792328983 -0.020666111385046121 0 -0.054662939920961447 -0.023385960738156811 0 -0.048687168792328983 -0.020666111385046121 0 -0.054662939920961447 -0.023385960738156811 0 -0.063243410855469362 -0.01423428299835414 0 -0.054662939920961447 -0.023385960738156811 0 -0.043526645525744333 -0.034276030132949803 0 -0.048687168792328983 -0.020666111385046121 0 -0.054662939920961447 -0.023385960738156811 0 -0.043526645525744333 -0.034276030132949803 0 -0.054662939920961447 -0.023385960738156811 0 -0.039102637893547947 -0.038760485633140461 0 -0.029413298008365101 -0.01211209265033961 0 -0.039102637893547947 -0.038760485633140461 0 -0.029413298008365101 -0.01211209265033961 0 -0.028695270402691351 -0.014180904166664669 0 -0.039102637893547947 -0.038760485633140461 0 -0.04219352120730685 -0.025135832460745491 0 -0.029413298008365101 -0.01211209265033961 0 -0.043526645525744333 -0.034276030132949803 0 -0.048687168792328983 -0.020666111385046121 0 -0.04219352120730685 -0.025135832460745491 0 -0.043526645525744333 -0.034276030132949803 0 -0.048687168792328983 -0.020666111385046121 0 -0.04219352120730685 -0.025135832460745491 0 -0.039136768694682002 -0.01538224539625188 0 -0.029413298008365101 -0.01211209265033961 0 -0.048687168792328983 -0.020666111385046121 0 -0.0439718162427001 -0.01851993672310831 0 -0.04355313737474608 -0.008879831384554452 0 -0.04219352120730685 -0.025135832460745491 0 -0.0439718162427001 -0.01851993672310831 0 -0.039136768694682002 -0.01538224539625188 0 -0.048687168792328983 -0.020666111385046121 0 -0.04219352120730685 -0.025135832460745491 0 -0.0439718162427001 -0.01851993672310831 0 -0.048687168792328983 -0.020666111385046121 0 -0.0439718162427001 -0.01851993672310831 0 -0.029413298008365101 -0.01211209265033961 0 -0.033108163316616937 0.0010776279703956699 0 -0.045863819550670551 0.0023506768644189139 0 -0.04355313737474608 -0.008879831384554452 0 -0.029413298008365101 -0.01211209265033961 0 -0.045863819550670551 0.0023506768644189139 0 -0.029413298008365101 -0.01211209265033961 0 -0.045863819550670551 0.0023506768644189139 0 -0.0439718162427001 -0.01851993672310831 0 -0.039136768694682002 -0.01538224539625188 0 -0.04355313737474608 -0.008879831384554452 0 -0.039136768694682002 -0.01538224539625188 0 -0.04355313737474608 -0.008879831384554452 0 -0.029413298008365101 -0.01211209265033961 0 -0.029413298008365101 -0.01211209265033961 0 -0.0223015843635277 0.0074705541144841348 0 -0.029413298008365101 -0.01211209265033961 0 -0.033108163316616937 0.0010776279703956699 0 -0.0223015843635277 0.0074705541144841348 0 -0.0239633457502983 -0.00035824565639873673 0 -0.029413298008365101 -0.01211209265033961 0 -0.0223015843635277 0.0074705541144841348 0 -0.0266546044040771 -0.014537447351591119 0 -0.01650674213179696 -0.01104110913020781 0 -0.01081376563339061 -0.017305143344494619 0 -0.0239633457502983 -0.00035824565639873673 0 -0.021940992986334201 -0.0088520945412933066 0 -0.01316697463713384 -0.0062115779179296076 0 -0.0239633457502983 -0.00035824565639873673 0 -0.029413298008365101 -0.01211209265033961 0 -0.021940992986334201 -0.0088520945412933066 0 -0.029413298008365101 -0.01211209265033961 0 -0.0266546044040771 -0.014537447351591119 0 -0.029413298008365101 -0.01211209265033961 0 -0.028695270402691351 -0.014180904166664669 0 -0.0266546044040771 -0.014537447351591119 0 -0.028695270402691351 -0.014180904166664669 0 -0.0266546044040771 -0.014537447351591119 0 -0.029413298008365101 -0.01211209265033961 0 -0.0266546044040771 -0.014537447351591119 0 -0.021940992986334201 -0.0088520945412933066 0 -0.0266546044040771 -0.014537447351591119 0 -0.021940992986334201 -0.0088520945412933066 0 -0.01650674213179696 -0.01104110913020781 0 -0.021940992986334201 -0.0088520945412933066 0 -0.01650674213179696 -0.01104110913020781 0 -0.01316697463713384 -0.0062115779179296076 0 -0.039102637893547947 -0.038760485633140461 0 -0.028695270402691351 -0.014180904166664669 0 -0.025654084104872271 -0.026252079572565871 0 -0.0266546044040771 -0.014537447351591119 0 -0.01081376563339061 -0.017305143344494619 0 -0.0266546044040771 -0.014537447351591119 0 -0.01775160021597998 -0.01911353429021095 0 -0.01081376563339061 -0.017305143344494619 0 -0.0266546044040771 -0.014537447351591119 0 -0.01775160021597998 -0.01911353429021095 0 -0.013796663046035881 -0.02584173590058253 0 -0.0266546044040771 -0.014537447351591119 0 -0.013796663046035881 -0.02584173590058253 0 -0.0266546044040771 -0.014537447351591119 0 -0.025654084104872271 -0.026252079572565871 0 -0.013796663046035881 -0.02584173590058253 0 -0.028695270402691351 -0.014180904166664669 0 -0.0266546044040771 -0.014537447351591119 0 -0.025654084104872271 -0.026252079572565871 0 -0.025654084104872271 -0.026252079572565871 0 -0.013796663046035881 -0.02584173590058253 0 -0.02002086811985029 -0.03794877829785348 0 -0.01775160021597998 -0.01911353429021095 0 -0.01081376563339061 -0.017305143344494619 0 0.0050270731372961336 -0.02007283933739697 0 -0.01775160021597998 -0.01911353429021095 0 -0.013796663046035881 -0.02584173590058253 0 0.0050270731372961336 -0.02007283933739697 0 -0.01081376563339061 -0.017305143344494619 0 0.0050270731372961336 -0.02007283933739697 0 -0.01081376563339061 -0.017305143344494619 0 -0.0052589533860224764 -0.01017220301341587 0 0.0050270731372961336 -0.02007283933739697 0 -0.013796663046035881 -0.02584173590058253 0 -0.00093872168799334806 -0.037146024449572483 0 0.0050270731372961336 -0.02007283933739697 0 -0.01775160021597998 -0.01911353429021095 0 0.0050270731372961336 -0.02007283933739697 0 -0.0239633457502983 -0.00035824565639873673 0 -0.001232130621416663 -0.0020777928871192441 0 -0.01316697463713384 -0.0062115779179296076 0 -0.0239633457502983 -0.00035824565639873673 0 -0.001232130621416663 -0.0020777928871192441 0 -0.01143660894708597 -0.01118250835151197 0 -0.0052589533860224764 -0.01017220301341587 0 -0.01316697463713384 -0.0062115779179296076 0 -0.01650674213179696 -0.01104110913020781 0 -0.01081376563339061 -0.017305143344494619 0 -0.01143660894708597 -0.01118250835151197 0 -0.01650674213179696 -0.01104110913020781 0 -0.01143660894708597 -0.01118250835151197 0 -0.01316697463713384 -0.0062115779179296076 0 -0.01081376563339061 -0.017305143344494619 0 -0.01143660894708597 -0.01118250835151197 0 -0.0052589533860224764 -0.01017220301341587 0 -0.0052589533860224764 -0.01017220301341587 0 -0.001232130621416663 -0.0020777928871192441 0 0.0048002851011445212 -0.0098149369470188989 0 -0.0052589533860224764 -0.01017220301341587 0 -0.001232130621416663 -0.0020777928871192441 0 -0.01316697463713384 -0.0062115779179296076 0 -0.02359335394211871 -0.054537872417845468 0 -0.008077835380225655 -0.070309125687811821 0 -0.02359335394211871 -0.054537872417845468 0 -0.02002086811985029 -0.03794877829785348 0 -0.0044789716013532866 -0.053407019180766097 0 -0.039102637893547947 -0.038760485633140461 0 -0.02359335394211871 -0.054537872417845468 0 -0.02002086811985029 -0.03794877829785348 0 -0.039102637893547947 -0.038760485633140461 0 -0.02002086811985029 -0.03794877829785348 0 -0.039102637893547947 -0.038760485633140461 0 -0.025654084104872271 -0.026252079572565871 0 -0.02002086811985029 -0.03794877829785348 0 -0.02002086811985029 -0.03794877829785348 0 -0.00093872168799334806 -0.037146024449572483 0 -0.02002086811985029 -0.03794877829785348 0 -0.00093872168799334806 -0.037146024449572483 0 -0.0044789716013532866 -0.053407019180766097 0 -0.013796663046035881 -0.02584173590058253 0 -0.02002086811985029 -0.03794877829785348 0 -0.00093872168799334806 -0.037146024449572483 0 -0.013796663046035881 -0.02584173590058253 0 -0.00093872168799334806 -0.037146024449572483 0 -0.02359335394211871 -0.054537872417845468 0 -0.0044789716013532866 -0.053407019180766097 0 -0.008077835380225655 -0.070309125687811821 0 -0.008077835380225655 -0.070309125687811821 0 -0.0116013674193476 -0.077170716763154401 0 0.0075922794467472637 -0.086271804569981403 0 -0.0044789716013532866 -0.053407019180766097 0 -0.008077835380225655 -0.070309125687811821 0 0.0088488608190478643 -0.065407910567130981 0 -0.0116013674193476 -0.077170716763154401 0 0.0075922794467472637 -0.086271804569981403 0 -0.0093140495460253391 -0.091654074076176359 0 0.0015244818648049859 -0.1015295841372684 0 0.0075922794467472637 -0.086271804569981403 0 -0.0116013674193476 -0.077170716763154401 0 -0.0093140495460253391 -0.091654074076176359 0 0.0075922794467472637 -0.086271804569981403 0 -0.008077835380225655 -0.070309125687811821 0 0.0075922794467472637 -0.086271804569981403 0 -0.0116013674193476 -0.077170716763154401 0 -0.0093140495460253391 -0.091654074076176359 0 -0.02384349113577032 -0.086186683008910622 0 -0.02384349113577032 -0.086186683008910622 0 -0.033097905381904318 -0.079632291717617681 0 -0.02724753491355171 -0.094891338630779393 0 -0.033097905381904318 -0.079632291717617681 0 -0.02724753491355171 -0.094891338630779393 0 -0.02384349113577032 -0.086186683008910622 0 -0.030640418020362051 -0.068261054568529711 0 -0.008077835380225655 -0.070309125687811821 0 -0.0116013674193476 -0.077170716763154401 0 -0.030640418020362051 -0.068261054568529711 0 -0.02359335394211871 -0.054537872417845468 0 -0.008077835380225655 -0.070309125687811821 0 -0.030640418020362051 -0.068261054568529711 0 -0.02384349113577032 -0.086186683008910622 0 -0.030640418020362051 -0.068261054568529711 0 -0.033097905381904318 -0.079632291717617681 0 -0.0116013674193476 -0.077170716763154401 0 -0.030640418020362051 -0.068261054568529711 0 -0.0116013674193476 -0.077170716763154401 0 -0.02384349113577032 -0.086186683008910622 0 -0.030640418020362051 -0.068261054568529711 0 -0.038948275850256522 -0.064373244804455845 0 -0.033097905381904318 -0.079632291717617681 0 -0.056004664984075261 -0.085333452857546968 0 -0.030640418020362051 -0.068261054568529711 0 -0.038948275850256522 -0.064373244804455845 0 -0.030640418020362051 -0.068261054568529711 0 -0.038948275850256522 -0.064373244804455845 0 -0.033097905381904318 -0.079632291717617681 0 -0.038948275850256522 -0.064373244804455845 0 -0.033097905381904318 -0.079632291717617681 0 -0.033097905381904318 -0.079632291717617681 0 -0.04204107640788949 -0.093636226379584908 0 -0.056004664984075261 -0.085333452857546968 0 -0.033097905381904318 -0.079632291717617681 0 -0.04204107640788949 -0.093636226379584908 0 -0.02724753491355171 -0.094891338630779393 0 -0.04204107640788949 -0.093636226379584908 0 -0.056004664984075261 -0.085333452857546968 0 -0.053499513120073089 -0.1014104390625514 0 -0.047020759413214 -0.060595582612950033 0 -0.038948275850256522 -0.064373244804455845 0 -0.056004664984075261 -0.085333452857546968 0 -0.047020759413214 -0.060595582612950033 0 -0.056004664984075261 -0.085333452857546968 0 -0.06134635428525001 -0.070554122180418594 0 -0.047020759413214 -0.060595582612950033 0 -0.056004664984075261 -0.085333452857546968 0 -0.061947466597036573 -0.056503935068308399 0 -0.05580506534351317 -0.061480628344561333 0 -0.06134635428525001 -0.070554122180418594 0 -0.05580506534351317 -0.061480628344561333 0 -0.047020759413214 -0.060595582612950033 0 -0.06134635428525001 -0.070554122180418594 0 -0.065259527237691684 -0.11081742302572779 0 -0.045082261050525638 -0.1210129065992622 0 -0.065259527237691684 -0.11081742302572779 0 -0.040503272634880759 -0.10737450147425751 0 -0.045082261050525638 -0.1210129065992622 0 -0.065259527237691684 -0.11081742302572779 0 -0.05766759592737563 -0.1215492632532455 0 -0.045082261050525638 -0.1210129065992622 0 -0.065259527237691684 -0.11081742302572779 0 -0.064229736692819797 -0.11674043391592411 0 -0.05766759592737563 -0.1215492632532455 0 -0.065259527237691684 -0.11081742302572779 0 -0.056004664984075261 -0.085333452857546968 0 -0.053499513120073089 -0.1014104390625514 0 -0.065259527237691684 -0.11081742302572779 0 -0.040503272634880759 -0.10737450147425751 0 -0.065259527237691684 -0.11081742302572779 0 -0.056004664984075261 -0.085333452857546968 0 -0.065259527237691684 -0.11081742302572779 0 -0.053499513120073089 -0.1014104390625514 0 -0.040503272634880759 -0.10737450147425751 0 -0.04204107640788949 -0.093636226379584908 0 -0.053499513120073089 -0.1014104390625514 0 -0.040503272634880759 -0.10737450147425751 0 -0.04204107640788949 -0.093636226379584908 0 -0.040503272634880759 -0.10737450147425751 0 -0.02724753491355171 -0.094891338630779393 0 -0.040503272634880759 -0.10737450147425751 0 -0.045082261050525638 -0.1210129065992622 0 -0.02738413751336554 -0.1170859931618761 0 -0.045082261050525638 -0.1210129065992622 0 -0.02738413751336554 -0.1170859931618761 0 -0.026204541082468079 -0.13138912169930039 0 -0.02738413751336554 -0.1170859931618761 0 -0.01704656425117828 -0.10411231144929139 0 -0.0081355370482946183 -0.12761348563775271 0 -0.040503272634880759 -0.10737450147425751 0 -0.02738413751336554 -0.1170859931618761 0 -0.01704656425117828 -0.10411231144929139 0 -0.0093140495460253391 -0.091654074076176359 0 -0.02384349113577032 -0.086186683008910622 0 -0.01704656425117828 -0.10411231144929139 0 -0.02384349113577032 -0.086186683008910622 0 -0.01704656425117828 -0.10411231144929139 0 -0.040503272634880759 -0.10737450147425751 0 -0.01704656425117828 -0.10411231144929139 0 -0.02384349113577032 -0.086186683008910622 0 -0.01704656425117828 -0.10411231144929139 0 -0.02724753491355171 -0.094891338630779393 0 -0.040503272634880759 -0.10737450147425751 0 -0.01704656425117828 -0.10411231144929139 0 -0.02724753491355171 -0.094891338630779393 0 -0.01704656425117828 -0.10411231144929139 0 -0.001299756369630731 -0.1141944796169557 0 0.0015244818648049859 -0.1015295841372684 0 -0.01704656425117828 -0.10411231144929139 0 0.0015244818648049859 -0.1015295841372684 0 -0.0093140495460253391 -0.091654074076176359 0 -0.01704656425117828 -0.10411231144929139 0 0.0015244818648049859 -0.1015295841372684 0 -0.01704656425117828 -0.10411231144929139 0 -0.0081355370482946183 -0.12761348563775271 0 -0.01704656425117828 -0.10411231144929139 0 -0.001299756369630731 -0.1141944796169557 0 -0.0081355370482946183 -0.12761348563775271 0 -0.001299756369630731 -0.1141944796169557 0 -0.0081355370482946183 -0.12761348563775271 0 0.0040948909323074321 -0.12423840619106639 0 -0.0081355370482946183 -0.12761348563775271 0 0.00077549015458932419 -0.15111465982621389 0 -0.0081355370482946183 -0.12761348563775271 0 0.00077549015458932419 -0.15111465982621389 0 0.0046317928176044009 -0.1356308567720941 0 -0.0081355370482946183 -0.12761348563775271 0 -0.026204541082468079 -0.13138912169930039 0 -0.00732682111441052 -0.14176533679933859 0 -0.0081355370482946183 -0.12761348563775271 0 -0.00732682111441052 -0.14176533679933859 0 0.00077549015458932419 -0.15111465982621389 0 -0.026204541082468079 -0.13138912169930039 0 -0.00732682111441052 -0.14176533679933859 0 -0.026204541082468079 -0.13138912169930039 0 -0.021209915447075331 -0.14817665011690159 0 -0.00732682111441052 -0.14176533679933859 0 -0.02738413751336554 -0.1170859931618761 0 -0.0081355370482946183 -0.12761348563775271 0 -0.026204541082468079 -0.13138912169930039 0 -0.026204541082468079 -0.13138912169930039 0 -0.021209915447075331 -0.14817665011690159 0 -0.035129056650379832 -0.14836559482525971 0 -0.021209915447075331 -0.14817665011690159 0 -0.0233266899937997 -0.16367983702216221 0 -0.035129056650379832 -0.14836559482525971 0 -0.021209915447075331 -0.14817665011690159 0 -0.01148917422841879 -0.15671129496519329 0 -0.0233266899937997 -0.16367983702216221 0 -0.021209915447075331 -0.14817665011690159 0 -0.00732682111441052 -0.14176533679933859 0 -0.01148917422841879 -0.15671129496519329 0 -0.0019297413353718011 -0.16049645125388881 0 -0.01148917422841879 -0.15671129496519329 0 0.00077549015458932419 -0.15111465982621389 0 -0.00732682111441052 -0.14176533679933859 0 -0.01148917422841879 -0.15671129496519329 0 0.00077549015458932419 -0.15111465982621389 0 -0.0056786655710443232 -0.17108805736843311 0 -0.01148917422841879 -0.15671129496519329 0 -0.0233266899937997 -0.16367983702216221 0 -0.0019297413353718011 -0.16049645125388881 0 -0.0056786655710443232 -0.17108805736843311 0 -0.01148917422841879 -0.15671129496519329 0 -0.0056786655710443232 -0.17108805736843311 0 -0.0020810285990212089 -0.1910928021709582 0 0.0068873562046781866 -0.17989815760727279 0 -0.0056786655710443232 -0.17108805736843311 0 -0.018323208334559249 -0.18218951512868131 0 -0.0020810285990212089 -0.1910928021709582 0 -0.030694951876594719 -0.17489762803052089 0 -0.018323208334559249 -0.18218951512868131 0 -0.0233266899937997 -0.16367983702216221 0 -0.0056786655710443232 -0.17108805736843311 0 -0.018323208334559249 -0.18218951512868131 0 -0.0233266899937997 -0.16367983702216221 0 -0.030694951876594719 -0.17489762803052089 0 -0.018323208334559249 -0.18218951512868131 0 -0.030238931423591141 -0.19402834319651971 0 -0.030694951876594719 -0.17489762803052089 0 -0.0233266899937997 -0.16367983702216221 0 -0.041692290348795617 -0.16445582385651161 0 -0.0233266899937997 -0.16367983702216221 0 -0.041692290348795617 -0.16445582385651161 0 -0.035129056650379832 -0.14836559482525971 0 -0.041692290348795617 -0.16445582385651161 0 -0.041401271093822502 -0.18332555717183599 0 -0.054123976046935821 -0.1766664861398515 0 -0.030694951876594719 -0.17489762803052089 0 -0.041692290348795617 -0.16445582385651161 0 -0.041401271093822502 -0.18332555717183599 0 -0.030694951876594719 -0.17489762803052089 0 -0.041401271093822502 -0.18332555717183599 0 -0.030238931423591141 -0.19402834319651971 0 -0.054123976046935821 -0.1766664861398515 0 -0.068795044584957443 -0.17038229164330171 0 -0.063538701836205622 -0.1873588384944469 0 -0.041401271093822502 -0.18332555717183599 0 -0.054123976046935821 -0.1766664861398515 0 -0.052833431640643219 -0.19060669972916769 0 -0.054123976046935821 -0.1766664861398515 0 -0.052833431640643219 -0.19060669972916769 0 -0.063538701836205622 -0.1873588384944469 0 -0.054123976046935821 -0.1766664861398515 0 -0.058325710354657632 -0.1579682957059598 0 -0.068795044584957443 -0.17038229164330171 0 -0.041692290348795617 -0.16445582385651161 0 -0.054123976046935821 -0.1766664861398515 0 -0.058325710354657632 -0.1579682957059598 0 -0.041692290348795617 -0.16445582385651161 0 -0.058325710354657632 -0.1579682957059598 0 -0.049315323046972108 -0.1465526054565412 0 -0.058325710354657632 -0.1579682957059598 0 -0.049315323046972108 -0.1465526054565412 0 -0.065964239214327355 -0.14552422251820191 0 -0.049315323046972108 -0.1465526054565412 0 -0.055648973979708638 -0.13531695505296959 0 -0.065964239214327355 -0.14552422251820191 0 -0.05766759592737563 -0.1215492632532455 0 -0.055648973979708638 -0.13531695505296959 0 -0.068753000705048625 -0.13396018363183931 0 -0.045082261050525638 -0.1210129065992622 0 -0.055648973979708638 -0.13531695505296959 0 -0.042217059604845682 -0.13636159471717069 0 -0.05766759592737563 -0.1215492632532455 0 -0.045082261050525638 -0.1210129065992622 0 -0.055648973979708638 -0.13531695505296959 0 -0.049315323046972108 -0.1465526054565412 0 -0.055648973979708638 -0.13531695505296959 0 -0.042217059604845682 -0.13636159471717069 0 -0.026204541082468079 -0.13138912169930039 0 -0.042217059604845682 -0.13636159471717069 0 -0.035129056650379832 -0.14836559482525971 0 -0.045082261050525638 -0.1210129065992622 0 -0.026204541082468079 -0.13138912169930039 0 -0.045082261050525638 -0.1210129065992622 0 -0.026204541082468079 -0.13138912169930039 0 -0.042217059604845682 -0.13636159471717069 0 -0.041692290348795617 -0.16445582385651161 0 -0.049315323046972108 -0.1465526054565412 0 -0.035129056650379832 -0.14836559482525971 0 -0.049315323046972108 -0.1465526054565412 0 -0.042217059604845682 -0.13636159471717069 0 -0.035129056650379832 -0.14836559482525971 0 -0.022528228236615339 -0.2478052488597971 0 -0.0071347165563972817 -0.23085298077664149 0 -0.020654376781319039 -0.22582562504012979 0 -0.022528228236615339 -0.2478052488597971 0 -0.020654376781319039 -0.22582562504012979 0 -0.032849082095102212 -0.23875867516827221 0 -0.022528228236615339 -0.2478052488597971 0 -0.032849082095102212 -0.23875867516827221 0 -0.034666144001367923 -0.2483971056500785 0 -0.001841693348385491 -0.25076144787433541 0 -0.022528228236615339 -0.2478052488597971 0 -0.0071347165563972817 -0.23085298077664149 0 -0.022528228236615339 -0.2478052488597971 0 -0.0071347165563972817 -0.23085298077664149 0 -0.0071347165563972817 -0.23085298077664149 0 -0.020654376781319039 -0.22582562504012979 0 -0.0098167651199830442 -0.21037455983162739 0 -0.020654376781319039 -0.22582562504012979 0 -0.02169449992678785 -0.208801108401028 0 -0.033584921744227718 -0.22530122478349479 0 -0.020654376781319039 -0.22582562504012979 0 -0.033584921744227718 -0.22530122478349479 0 -0.032849082095102212 -0.23875867516827221 0 -0.020654376781319039 -0.22582562504012979 0 -0.02169449992678785 -0.208801108401028 0 -0.0098167651199830442 -0.21037455983162739 0 -0.02169449992678785 -0.208801108401028 0 -0.036406114364776553 -0.21098391518622781 0 -0.033584921744227718 -0.22530122478349479 0 -0.02169449992678785 -0.208801108401028 0 -0.030238931423591141 -0.19402834319651971 0 -0.036406114364776553 -0.21098391518622781 0 -0.02169449992678785 -0.208801108401028 0 -0.0098167651199830442 -0.21037455983162739 0 -0.016339216061354161 -0.19651425694765931 0 -0.0098167651199830442 -0.21037455983162739 0 -0.0020810285990212089 -0.1910928021709582 0 0.0074165366967401903 -0.21250124507974069 0 -0.0071347165563972817 -0.23085298077664149 0 -0.0098167651199830442 -0.21037455983162739 0 0.0074165366967401903 -0.21250124507974069 0 -0.018323208334559249 -0.18218951512868131 0 -0.0020810285990212089 -0.1910928021709582 0 -0.016339216061354161 -0.19651425694765931 0 -0.0098167651199830442 -0.21037455983162739 0 -0.0020810285990212089 -0.1910928021709582 0 -0.016339216061354161 -0.19651425694765931 0 -0.018323208334559249 -0.18218951512868131 0 -0.016339216061354161 -0.19651425694765931 0 -0.030238931423591141 -0.19402834319651971 0 -0.02169449992678785 -0.208801108401028 0 -0.016339216061354161 -0.19651425694765931 0 -0.030238931423591141 -0.19402834319651971 0 -0.041401271093822502 -0.18332555717183599 0 -0.047105291345413927 -0.20155100174373461 0 -0.030238931423591141 -0.19402834319651971 0 -0.047105291345413927 -0.20155100174373461 0 -0.036406114364776553 -0.21098391518622781 0 -0.041401271093822502 -0.18332555717183599 0 -0.030238931423591141 -0.19402834319651971 0 -0.047105291345413927 -0.20155100174373461 0 -0.052833431640643219 -0.19060669972916769 0 -0.058174006716605289 -0.20356764240503999 0 -0.063538701836205622 -0.1873588384944469 0 -0.058174006716605289 -0.20356764240503999 0 -0.063538701836205622 -0.1873588384944469 0 -0.041401271093822502 -0.18332555717183599 0 -0.052833431640643219 -0.19060669972916769 0 -0.047105291345413927 -0.20155100174373461 0 -0.052833431640643219 -0.19060669972916769 0 -0.047105291345413927 -0.20155100174373461 0 -0.058174006716605289 -0.20356764240503999 0 -0.047105291345413927 -0.20155100174373461 0 -0.052809311597005117 -0.21977644631563309 0 -0.058174006716605289 -0.20356764240503999 0 -0.052809311597005117 -0.21977644631563309 0 -0.058174006716605289 -0.20356764240503999 0 -0.052809311597005117 -0.21977644631563309 0 -0.066629353878872241 -0.2143112738483034 0 -0.047105291345413927 -0.20155100174373461 0 -0.058174006716605289 -0.20356764240503999 0 -0.052809311597005117 -0.21977644631563309 0 -0.047105291345413927 -0.20155100174373461 0 -0.036406114364776553 -0.21098391518622781 0 -0.052809311597005117 -0.21977644631563309 0 -0.036406114364776553 -0.21098391518622781 0 -0.033584921744227718 -0.22530122478349479 0 -0.052809311597005117 -0.21977644631563309 0 -0.033584921744227718 -0.22530122478349479 0 -0.052809311597005117 -0.21977644631563309 0 -0.04536552575691985 -0.24226698162929269 0 -0.052809311597005117 -0.21977644631563309 0 -0.059245570520698329 -0.24034153463758051 0 -0.04536552575691985 -0.24226698162929269 0 -0.052809311597005117 -0.21977644631563309 0 -0.059245570520698329 -0.24034153463758051 0 -0.052809311597005117 -0.21977644631563309 0 -0.04536552575691985 -0.24226698162929269 0 -0.052809311597005117 -0.21977644631563309 0 -0.059245570520698329 -0.24034153463758051 0 -0.066895911858599666 -0.22721976559563259 0 -0.052809311597005117 -0.21977644631563309 0 -0.066895911858599666 -0.22721976559563259 0 -0.066629353878872241 -0.2143112738483034 0 -0.052933631942767102 -0.25169649631914642 0 -0.059245570520698329 -0.24034153463758051 0 -0.04536552575691985 -0.24226698162929269 0 -0.033584921744227718 -0.22530122478349479 0 -0.04536552575691985 -0.24226698162929269 0 -0.032849082095102212 -0.23875867516827221 0 -0.04536552575691985 -0.24226698162929269 0 -0.032849082095102212 -0.23875867516827221 0 -0.034666144001367923 -0.2483971056500785 0 -0.079718954688658 -0.24192108577507071 0 -0.1003028657912923 -0.2305893454395008 0 -0.100136301148218 -0.24907987653969471 0 -0.059245570520698329 -0.24034153463758051 0 -0.079718954688658 -0.24192108577507071 0 -0.066895911858599666 -0.22721976559563259 0 -0.065681829444391299 -0.26090662295952782 0 -0.059245570520698329 -0.24034153463758051 0 -0.079718954688658 -0.24192108577507071 0 -0.079718954688658 -0.24192108577507071 0 -0.066895911858599666 -0.22721976559563259 0 -0.081088351626788513 -0.21978966498633551 0 -0.066895911858599666 -0.22721976559563259 0 -0.081088351626788513 -0.21978966498633551 0 -0.066629353878872241 -0.2143112738483034 0 -0.079718954688658 -0.24192108577507071 0 -0.081088351626788513 -0.21978966498633551 0 -0.1003028657912923 -0.2305893454395008 0 -0.081088351626788513 -0.21978966498633551 0 -0.098000355388568022 -0.2013452702180514 0 -0.1003028657912923 -0.2305893454395008 0 -0.081088351626788513 -0.21978966498633551 0 -0.074179187595362614 -0.20120284993887549 0 -0.098000355388568022 -0.2013452702180514 0 -0.058174006716605289 -0.20356764240503999 0 -0.066629353878872241 -0.2143112738483034 0 -0.074179187595362614 -0.20120284993887549 0 -0.081088351626788513 -0.21978966498633551 0 -0.066629353878872241 -0.2143112738483034 0 -0.074179187595362614 -0.20120284993887549 0 -0.074179187595362614 -0.20120284993887549 0 -0.063538701836205622 -0.1873588384944469 0 -0.080762552416607139 -0.18249471748343721 0 -0.058174006716605289 -0.20356764240503999 0 -0.074179187595362614 -0.20120284993887549 0 -0.063538701836205622 -0.1873588384944469 0 -0.074179187595362614 -0.20120284993887549 0 -0.098000355388568022 -0.2013452702180514 0 -0.080762552416607139 -0.18249471748343721 0 -0.098000355388568022 -0.2013452702180514 0 -0.1236809962028726 -0.18121873804428801 0 -0.12900102379686479 -0.2024486387909683 0 -0.098000355388568022 -0.2013452702180514 0 -0.1162300111570551 -0.21889853302688941 0 -0.12900102379686479 -0.2024486387909683 0 -0.098000355388568022 -0.2013452702180514 0 -0.1003028657912923 -0.2305893454395008 0 -0.098000355388568022 -0.2013452702180514 0 -0.1003028657912923 -0.2305893454395008 0 -0.1162300111570551 -0.21889853302688941 0 -0.1162300111570551 -0.21889853302688941 0 -0.11915498205697291 -0.2408068844890873 0 -0.1343238210827073 -0.22564451399072141 0 -0.1003028657912923 -0.2305893454395008 0 -0.1162300111570551 -0.21889853302688941 0 -0.11915498205697291 -0.2408068844890873 0 -0.1003028657912923 -0.2305893454395008 0 -0.11915498205697291 -0.2408068844890873 0 -0.100136301148218 -0.24907987653969471 0 -0.089841736690259924 -0.14898834899301511 0 -0.093395334583121159 -0.14285711977515239 0 -0.095697844985843772 -0.17210119499660201 0 -0.085145364951011437 -0.14217095070557689 0 -0.078998762147788379 -0.14918878379989969 0 -0.077224431787463105 -0.1391114853406562 0 -0.085145364951011437 -0.14217095070557689 0 -0.078998762147788379 -0.14918878379989969 0 -0.089841736690259924 -0.14898834899301511 0 -0.078998762147788379 -0.14918878379989969 0 -0.071452620134963105 -0.1567598356326029 0 -0.084364180108705389 -0.16257785960934551 0 -0.078998762147788379 -0.14918878379989969 0 -0.089841736690259924 -0.14898834899301511 0 -0.084364180108705389 -0.16257785960934551 0 -0.089841736690259924 -0.14898834899301511 0 -0.093395334583121159 -0.14285711977515239 0 -0.085145364951011437 -0.14217095070557689 0 -0.089841736690259924 -0.14898834899301511 0 -0.093395334583121159 -0.14285711977515239 0 -0.085145364951011437 -0.14217095070557689 0 -0.093395334583121159 -0.14285711977515239 0 -0.087024975853848663 -0.13702123229954771 0 -0.09159599610033993 -0.12000380720075671 0 -0.093395334583121159 -0.14285711977515239 0 -0.093395334583121159 -0.14285711977515239 0 -0.087024975853848663 -0.13702123229954771 0 -0.088673842903006769 -0.1314186864316545 0 -0.09159599610033993 -0.12000380720075671 0 -0.093395334583121159 -0.14285711977515239 0 -0.088673842903006769 -0.1314186864316545 0 -0.09159599610033993 -0.12000380720075671 0 -0.088673842903006769 -0.1314186864316545 0 -0.085825028631900099 -0.12527396053213469 0 -0.081530962183724798 -0.1235834522153986 0 -0.085825028631900099 -0.12527396053213469 0 -0.080885360978255272 -0.13163817228580699 0 -0.088673842903006769 -0.1314186864316545 0 -0.085825028631900099 -0.12527396053213469 0 -0.080885360978255272 -0.13163817228580699 0 -0.085145364951011437 -0.14217095070557689 0 -0.080885360978255272 -0.13163817228580699 0 -0.077224431787463105 -0.1391114853406562 0 -0.085145364951011437 -0.14217095070557689 0 -0.087024975853848663 -0.13702123229954771 0 -0.080885360978255272 -0.13163817228580699 0 -0.087024975853848663 -0.13702123229954771 0 -0.088673842903006769 -0.1314186864316545 0 -0.080885360978255272 -0.13163817228580699 0 -0.077224431787463105 -0.1391114853406562 0 -0.068753000705048625 -0.13396018363183931 0 -0.065964239214327355 -0.14552422251820191 0 -0.080885360978255272 -0.13163817228580699 0 -0.077224431787463105 -0.1391114853406562 0 -0.068753000705048625 -0.13396018363183931 0 -0.070031842587628512 -0.1239583578854994 0 -0.081530962183724798 -0.1235834522153986 0 -0.080885360978255272 -0.13163817228580699 0 -0.070031842587628512 -0.1239583578854994 0 -0.080885360978255272 -0.13163817228580699 0 -0.068753000705048625 -0.13396018363183931 0 -0.070031842587628512 -0.1239583578854994 0 -0.05766759592737563 -0.1215492632532455 0 -0.068753000705048625 -0.13396018363183931 0 -0.055648973979708638 -0.13531695505296959 0 -0.068753000705048625 -0.13396018363183931 0 -0.065964239214327355 -0.14552422251820191 0 -0.078998762147788379 -0.14918878379989969 0 -0.077224431787463105 -0.1391114853406562 0 -0.065964239214327355 -0.14552422251820191 0 -0.078998762147788379 -0.14918878379989969 0 -0.065964239214327355 -0.14552422251820191 0 -0.071452620134963105 -0.1567598356326029 0 -0.058325710354657632 -0.1579682957059598 0 -0.065964239214327355 -0.14552422251820191 0 -0.071452620134963105 -0.1567598356326029 0 -0.068795044584957443 -0.17038229164330171 0 -0.080762552416607139 -0.18249471748343721 0 -0.084364180108705389 -0.16257785960934551 0 -0.058325710354657632 -0.1579682957059598 0 -0.068795044584957443 -0.17038229164330171 0 -0.071452620134963105 -0.1567598356326029 0 -0.068795044584957443 -0.17038229164330171 0 -0.071452620134963105 -0.1567598356326029 0 -0.084364180108705389 -0.16257785960934551 0 -0.068795044584957443 -0.17038229164330171 0 -0.063538701836205622 -0.1873588384944469 0 -0.080762552416607139 -0.18249471748343721 0 -0.080762552416607139 -0.18249471748343721 0 -0.084364180108705389 -0.16257785960934551 0 -0.095697844985843772 -0.17210119499660201 0 -0.098000355388568022 -0.2013452702180514 0 -0.080762552416607139 -0.18249471748343721 0 -0.095697844985843772 -0.17210119499660201 0 -0.089841736690259924 -0.14898834899301511 0 -0.084364180108705389 -0.16257785960934551 0 -0.095697844985843772 -0.17210119499660201 0 -0.093395334583121159 -0.14285711977515239 0 -0.095697844985843772 -0.17210119499660201 0 -0.1054347212795245 -0.15841743127569199 0 -0.1089994776409005 -0.17664338443759611 0 -0.095697844985843772 -0.17210119499660201 0 -0.093395334583121159 -0.14285711977515239 0 -0.1054347212795245 -0.15841743127569199 0 -0.095697844985843772 -0.17210119499660201 0 -0.098000355388568022 -0.2013452702180514 0 -0.095697844985843772 -0.17210119499660201 0 -0.098000355388568022 -0.2013452702180514 0 -0.1089994776409005 -0.17664338443759611 0 -0.095697844985843772 -0.17210119499660201 0 -0.1089994776409005 -0.17664338443759611 0 -0.1236809962028726 -0.18121873804428801 0 -0.1181476018456389 -0.1639114331686474 0 -0.098000355388568022 -0.2013452702180514 0 -0.1089994776409005 -0.17664338443759611 0 -0.1236809962028726 -0.18121873804428801 0 -0.1054347212795245 -0.15841743127569199 0 -0.1089994776409005 -0.17664338443759611 0 -0.1181476018456389 -0.1639114331686474 0 -0.1236809962028726 -0.18121873804428801 0 -0.1181476018456389 -0.1639114331686474 0 -0.13316378211783331 -0.16642048515704569 0 -0.1054347212795245 -0.15841743127569199 0 -0.1181476018456389 -0.1639114331686474 0 -0.1117997533654272 -0.1474361407101841 0 -0.1181476018456389 -0.1639114331686474 0 -0.1117997533654272 -0.1474361407101841 0 -0.12599870368397331 -0.1519001841015539 0 -0.1215102238744796 -0.14157017066475011 0 -0.1117997533654272 -0.1474361407101841 0 -0.12599870368397331 -0.1519001841015539 0 -0.1215102238744796 -0.14157017066475011 0 -0.1117997533654272 -0.1474361407101841 0 -0.1136468180114546 -0.1335077476471718 0 -0.1054347212795245 -0.15841743127569199 0 -0.1117997533654272 -0.1474361407101841 0 -0.1041054862995579 -0.14684168446451371 0 -0.1117997533654272 -0.1474361407101841 0 -0.1041054862995579 -0.14684168446451371 0 -0.10471843942141421 -0.13872473363889321 0 -0.093395334583121159 -0.14285711977515239 0 -0.1041054862995579 -0.14684168446451371 0 -0.10471843942141421 -0.13872473363889321 0 -0.093395334583121159 -0.14285711977515239 0 -0.1054347212795245 -0.15841743127569199 0 -0.1041054862995579 -0.14684168446451371 0 -0.09159599610033993 -0.12000380720075671 0 -0.093395334583121159 -0.14285711977515239 0 -0.1034841326099455 -0.12545032950228829 0 -0.093395334583121159 -0.14285711977515239 0 -0.10471843942141421 -0.13872473363889321 0 -0.1034841326099455 -0.12545032950228829 0 -0.093395334583121159 -0.14285711977515239 0 -0.1034841326099455 -0.12545032950228829 0 -0.10471843942141421 -0.13872473363889321 0 -0.1034841326099455 -0.12545032950228829 0 -0.1136468180114546 -0.1335077476471718 0 -0.1185943650647143 -0.1209392102696407 0 -0.1034841326099455 -0.12545032950228829 0 -0.1136468180114546 -0.1335077476471718 0 -0.1117997533654272 -0.1474361407101841 0 -0.10471843942141421 -0.13872473363889321 0 -0.1136468180114546 -0.1335077476471718 0 -0.1215102238744796 -0.14157017066475011 0 -0.1136468180114546 -0.1335077476471718 0 -0.12363108020965161 -0.1317740304526093 0 -0.1185943650647143 -0.1209392102696407 0 -0.12363108020965161 -0.1317740304526093 0 -0.13245210949065311 -0.12500036425937139 0 -0.1185943650647143 -0.1209392102696407 0 -0.1136468180114546 -0.1335077476471718 0 -0.12363108020965161 -0.1317740304526093 0 -0.12363108020965161 -0.1317740304526093 0 -0.13245210949065311 -0.12500036425937139 0 -0.13205977536411281 -0.1401227900770643 0 -0.13245210949065311 -0.12500036425937139 0 -0.1447274677098721 -0.13514179971524701 0 -0.14317569007423531 -0.115777555707666 0 -0.1215102238744796 -0.14157017066475011 0 -0.12363108020965161 -0.1317740304526093 0 -0.13205977536411281 -0.1401227900770643 0 -0.13245210949065311 -0.12500036425937139 0 -0.13205977536411281 -0.1401227900770643 0 -0.1447274677098721 -0.13514179971524701 0 -0.1636536056633337 -0.13484878607210279 0 -0.14317569007423531 -0.115777555707666 0 -0.1447274677098721 -0.13514179971524701 0 -0.1636536056633337 -0.13484878607210279 0 -0.14317569007423531 -0.115777555707666 0 -0.1447274677098721 -0.13514179971524701 0 -0.15423904671493491 -0.1472942674107337 0 -0.1636536056633337 -0.13484878607210279 0 -0.1447274677098721 -0.13514179971524701 0 -0.15423904671493491 -0.1472942674107337 0 -0.14102726795497261 -0.15094011622149431 0 -0.15423904671493491 -0.1472942674107337 0 -0.14102726795497261 -0.15094011622149431 0 -0.15770318086120999 -0.16397387814138639 0 -0.13205977536411281 -0.1401227900770643 0 -0.1447274677098721 -0.13514179971524701 0 -0.14102726795497261 -0.15094011622149431 0 -0.13205977536411281 -0.1401227900770643 0 -0.14102726795497261 -0.15094011622149431 0 -0.12599870368397331 -0.1519001841015539 0 -0.1215102238744796 -0.14157017066475011 0 -0.13205977536411281 -0.1401227900770643 0 -0.12599870368397331 -0.1519001841015539 0 -0.1181476018456389 -0.1639114331686474 0 -0.12599870368397331 -0.1519001841015539 0 -0.13316378211783331 -0.16642048515704569 0 -0.14102726795497261 -0.15094011622149431 0 -0.12599870368397331 -0.1519001841015539 0 -0.13316378211783331 -0.16642048515704569 0 -0.1236809962028726 -0.18121873804428801 0 -0.13316378211783331 -0.16642048515704569 0 -0.14238023079762999 -0.18204375516351931 0 -0.14238023079762999 -0.18204375516351931 0 -0.15770318086120999 -0.16397387814138639 0 -0.1572778728626357 -0.18149730845064149 0 -0.14238023079762999 -0.18204375516351931 0 -0.1572778728626357 -0.18149730845064149 0 -0.15441212779025201 -0.19587202408132801 0 -0.14102726795497261 -0.15094011622149431 0 -0.13316378211783331 -0.16642048515704569 0 -0.15770318086120999 -0.16397387814138639 0 -0.13316378211783331 -0.16642048515704569 0 -0.14238023079762999 -0.18204375516351931 0 -0.15770318086120999 -0.16397387814138639 0 -0.15770318086120999 -0.16397387814138639 0 -0.1572778728626357 -0.18149730845064149 0 -0.17338275219951171 -0.18402891147309591 0 -0.1572778728626357 -0.18149730845064149 0 -0.17338275219951171 -0.18402891147309591 0 -0.15441212779025201 -0.19587202408132801 0 -0.15770318086120999 -0.16397387814138639 0 -0.18597020602464881 -0.17227717987962229 0 -0.17338275219951171 -0.18402891147309591 0 -0.18597020602464881 -0.17227717987962229 0 -0.17338275219951171 -0.18402891147309591 0 -0.19641034963022119 -0.19827198036611951 0 -0.15770318086120999 -0.16397387814138639 0 -0.18597020602464881 -0.17227717987962229 0 -0.18413152125243279 -0.1539200164365388 0 -0.18413152125243279 -0.1539200164365388 0 -0.1636536056633337 -0.13484878607210279 0 -0.18413152125243279 -0.1539200164365388 0 -0.18684601676772811 -0.127186864592231 0 -0.1636536056633337 -0.13484878607210279 0 -0.18684601676772811 -0.127186864592231 0 -0.1636536056633337 -0.13484878607210279 0 -0.16501085342098179 -0.12148221014994789 0 -0.15423904671493491 -0.1472942674107337 0 -0.15770318086120999 -0.16397387814138639 0 -0.18413152125243279 -0.1539200164365388 0 -0.15423904671493491 -0.1472942674107337 0 -0.18413152125243279 -0.1539200164365388 0 -0.1636536056633337 -0.13484878607210279 0 -0.13831404478925111 -0.25444066090024692 0 -0.15045791995768751 -0.22896502586596271 0 -0.16208366870765459 -0.24032556244146769 0 -0.13831404478925111 -0.25444066090024692 0 -0.1343238210827073 -0.22564451399072141 0 -0.15045791995768751 -0.22896502586596271 0 -0.13831404478925111 -0.25444066090024692 0 -0.16208366870765459 -0.24032556244146769 0 -0.13831404478925111 -0.25444066090024692 0 -0.11915498205697291 -0.2408068844890873 0 -0.1343238210827073 -0.22564451399072141 0 -0.1343238210827073 -0.22564451399072141 0 -0.15045791995768751 -0.22896502586596271 0 -0.14713180265815329 -0.21323777715513539 0 -0.15045791995768751 -0.22896502586596271 0 -0.14713180265815329 -0.21323777715513539 0 -0.16449197877583821 -0.21534075125115071 0 -0.14713180265815329 -0.21323777715513539 0 -0.12900102379686479 -0.2024486387909683 0 -0.15441212779025201 -0.19587202408132801 0 -0.14713180265815329 -0.21323777715513539 0 -0.15441212779025201 -0.19587202408132801 0 -0.16449197877583821 -0.21534075125115071 0 -0.1343238210827073 -0.22564451399072141 0 -0.14713180265815329 -0.21323777715513539 0 -0.12900102379686479 -0.2024486387909683 0 -0.1162300111570551 -0.21889853302688941 0 -0.1343238210827073 -0.22564451399072141 0 -0.12900102379686479 -0.2024486387909683 0 -0.1236809962028726 -0.18121873804428801 0 -0.14238023079762999 -0.18204375516351931 0 -0.12900102379686479 -0.2024486387909683 0 -0.14238023079762999 -0.18204375516351931 0 -0.12900102379686479 -0.2024486387909683 0 -0.15441212779025201 -0.19587202408132801 0 -0.17338275219951171 -0.18402891147309591 0 -0.15441212779025201 -0.19587202408132801 0 -0.17722588507496781 -0.20235956862413279 0 -0.17338275219951171 -0.18402891147309591 0 -0.17722588507496781 -0.20235956862413279 0 -0.19641034963022119 -0.19827198036611951 0 -0.17722588507496781 -0.20235956862413279 0 -0.188211262418915 -0.2235527139312643 0 -0.19641034963022119 -0.19827198036611951 0 -0.17722588507496781 -0.20235956862413279 0 -0.16449197877583821 -0.21534075125115071 0 -0.188211262418915 -0.2235527139312643 0 -0.15441212779025201 -0.19587202408132801 0 -0.17722588507496781 -0.20235956862413279 0 -0.16449197877583821 -0.21534075125115071 0 -0.16449197877583821 -0.21534075125115071 0 -0.16208366870765459 -0.24032556244146769 0 -0.188211262418915 -0.2235527139312643 0 -0.15045791995768751 -0.22896502586596271 0 -0.16449197877583821 -0.21534075125115071 0 -0.16208366870765459 -0.24032556244146769 0 -0.18001217520760859 -0.2488334474964092 0 -0.16208366870765459 -0.24032556244146769 0 -0.188211262418915 -0.2235527139312643 0 -0.18001217520760859 -0.2488334474964092 0 -0.188211262418915 -0.2235527139312643 0 -0.1604646036632511 -0.2580885807568094 0 -0.18001217520760859 -0.2488334474964092 0 -0.16208366870765459 -0.24032556244146769 0 -0.21902573809400649 -0.2568432927795572 0 -0.20223247230675451 -0.24152321636748639 0 -0.22277578307695081 -0.233761905058291 0 -0.18001217520760859 -0.2488334474964092 0 -0.20223247230675451 -0.24152321636748639 0 -0.188211262418915 -0.2235527139312643 0 -0.20223247230675451 -0.24152321636748639 0 -0.188211262418915 -0.2235527139312643 0 -0.21039253409755501 -0.21684755629994101 0 -0.20223247230675451 -0.24152321636748639 0 -0.21039253409755501 -0.21684755629994101 0 -0.22277578307695081 -0.233761905058291 0 -0.188211262418915 -0.2235527139312643 0 -0.19641034963022119 -0.19827198036611951 0 -0.188211262418915 -0.2235527139312643 0 -0.21039253409755501 -0.21684755629994101 0 -0.19641034963022119 -0.19827198036611951 0 -0.19641034963022119 -0.19827198036611951 0 -0.22618036219573509 -0.19308040503654511 0 -0.2046094368415308 -0.1729912468009758 0 -0.21039253409755501 -0.21684755629994101 0 -0.19641034963022119 -0.19827198036611951 0 -0.22618036219573509 -0.19308040503654511 0 -0.22618036219573509 -0.19308040503654511 0 -0.24775128754993839 -0.21316956327211539 0 -0.22618036219573509 -0.19308040503654511 0 -0.24373569801737971 -0.1899896809100155 0 -0.24775128754993839 -0.21316956327211539 0 -0.24373569801737971 -0.1899896809100155 0 -0.24775128754993839 -0.21316956327211539 0 -0.25485350440778992 -0.19932326154474719 0 -0.22618036219573509 -0.19308040503654511 0 -0.24775128754993839 -0.21316956327211539 0 -0.22946084623397531 -0.21700787251680359 0 -0.21039253409755501 -0.21684755629994101 0 -0.22618036219573509 -0.19308040503654511 0 -0.22946084623397531 -0.21700787251680359 0 -0.22946084623397531 -0.21700787251680359 0 -0.22277578307695081 -0.233761905058291 0 -0.24020426424969679 -0.22817993291712579 0 -0.21039253409755501 -0.21684755629994101 0 -0.22946084623397531 -0.21700787251680359 0 -0.22277578307695081 -0.233761905058291 0 -0.24020426424969679 -0.22817993291712579 0 -0.25179492109792379 -0.2415137108510427 0 -0.25424275704486898 -0.22475029041832451 0 -0.24775128754993839 -0.21316956327211539 0 -0.22946084623397531 -0.21700787251680359 0 -0.24020426424969679 -0.22817993291712579 0 -0.24775128754993839 -0.21316956327211539 0 -0.24020426424969679 -0.22817993291712579 0 -0.25424275704486898 -0.22475029041832451 0 -0.24020426424969679 -0.22817993291712579 0 -0.23579184864694269 -0.24406508798076759 0 -0.25179492109792379 -0.2415137108510427 0 -0.24738176819293031 -0.25539123551852178 0 -0.23579184864694269 -0.24406508798076759 0 -0.25179492109792379 -0.2415137108510427 0 -0.21902573809400649 -0.2568432927795572 0 -0.22277578307695081 -0.233761905058291 0 -0.23579184864694269 -0.24406508798076759 0 -0.22277578307695081 -0.233761905058291 0 -0.24020426424969679 -0.22817993291712579 0 -0.23579184864694269 -0.24406508798076759 0 -0.21102119048743639 -0.15322150519070779 0 -0.2174329441333453 -0.13345176358044081 0 -0.21102119048743639 -0.15322150519070779 0 -0.20868118011447431 -0.1328915190345141 0 -0.19684153174757471 -0.1417166696785796 0 -0.21102119048743639 -0.15322150519070779 0 -0.2174329441333453 -0.13345176358044081 0 -0.2274226797125084 -0.13924226327626549 0 -0.21102119048743639 -0.15322150519070779 0 -0.2174329441333453 -0.13345176358044081 0 -0.20868118011447431 -0.1328915190345141 0 -0.2174329441333453 -0.13345176358044081 0 -0.20868118011447431 -0.1328915190345141 0 -0.21250856012640909 -0.1223939818451073 0 -0.20868118011447431 -0.1328915190345141 0 -0.21250856012640909 -0.1223939818451073 0 -0.2027024852884349 -0.1213849894162876 0 -0.18684601676772811 -0.127186864592231 0 -0.20868118011447431 -0.1328915190345141 0 -0.2027024852884349 -0.1213849894162876 0 -0.18684601676772811 -0.127186864592231 0 -0.20868118011447431 -0.1328915190345141 0 -0.18684601676772811 -0.127186864592231 0 -0.20868118011447431 -0.1328915190345141 0 -0.19684153174757471 -0.1417166696785796 0 -0.18413152125243279 -0.1539200164365388 0 -0.21102119048743639 -0.15322150519070779 0 -0.19684153174757471 -0.1417166696785796 0 -0.18413152125243279 -0.1539200164365388 0 -0.18684601676772811 -0.127186864592231 0 -0.19684153174757471 -0.1417166696785796 0 -0.18413152125243279 -0.1539200164365388 0 -0.21102119048743639 -0.15322150519070779 0 -0.2046094368415308 -0.1729912468009758 0 -0.18597020602464881 -0.17227717987962229 0 -0.18413152125243279 -0.1539200164365388 0 -0.2046094368415308 -0.1729912468009758 0 -0.18413152125243279 -0.1539200164365388 0 -0.2046094368415308 -0.1729912468009758 0 -0.18597020602464881 -0.17227717987962229 0 -0.19641034963022119 -0.19827198036611951 0 -0.2046094368415308 -0.1729912468009758 0 -0.19641034963022119 -0.19827198036611951 0 -0.2046094368415308 -0.1729912468009758 0 -0.22618036219573509 -0.19308040503654511 0 -0.2046094368415308 -0.1729912468009758 0 -0.22404776549289299 -0.16371428276303079 0 -0.22618036219573509 -0.19308040503654511 0 -0.2046094368415308 -0.1729912468009758 0 -0.21102119048743639 -0.15322150519070779 0 -0.2046094368415308 -0.1729912468009758 0 -0.22404776549289299 -0.16371428276303079 0 -0.21102119048743639 -0.15322150519070779 0 -0.2046094368415308 -0.1729912468009758 0 -0.22404776549289299 -0.16371428276303079 0 -0.24277889253473359 -0.15910855771960619 0 -0.23203936984611331 -0.1499180875563236 0 -0.22618036219573509 -0.19308040503654511 0 -0.22404776549289299 -0.16371428276303079 0 -0.23948447958899721 -0.17344241292360141 0 -0.22618036219573509 -0.19308040503654511 0 -0.24373569801737971 -0.1899896809100155 0 -0.23948447958899721 -0.17344241292360141 0 -0.24373569801737971 -0.1899896809100155 0 -0.23948447958899721 -0.17344241292360141 0 -0.25019810589812103 -0.17757451758895951 0 -0.23948447958899721 -0.17344241292360141 0 -0.25019810589812103 -0.17757451758895951 0 -0.25044094514587317 -0.16683759268974169 0 -0.22404776549289299 -0.16371428276303079 0 -0.23948447958899721 -0.17344241292360141 0 -0.24277889253473359 -0.15910855771960619 0 -0.23948447958899721 -0.17344241292360141 0 -0.24277889253473359 -0.15910855771960619 0 -0.25044094514587317 -0.16683759268974169 0 -0.24277889253473359 -0.15910855771960619 0 -0.24611506428877319 -0.14737099558365599 0 -0.2569363904481663 -0.15707914903180101 0 -0.24611506428877319 -0.14737099558365599 0 -0.23203936984611331 -0.1499180875563236 0 -0.23748655437819691 -0.1395697266282287 0 -0.24277889253473359 -0.15910855771960619 0 -0.24611506428877319 -0.14737099558365599 0 -0.23203936984611331 -0.1499180875563236 0 -0.21102119048743639 -0.15322150519070779 0 -0.22404776549289299 -0.16371428276303079 0 -0.23203936984611331 -0.1499180875563236 0 -0.21102119048743639 -0.15322150519070779 0 -0.23203936984611331 -0.1499180875563236 0 -0.2274226797125084 -0.13924226327626549 0 -0.23203936984611331 -0.1499180875563236 0 -0.2274226797125084 -0.13924226327626549 0 -0.23748655437819691 -0.1395697266282287 0 -0.2174329441333453 -0.13345176358044081 0 -0.23196526083781099 -0.12820126734941339 0 -0.22384469777925431 -0.1136820219701738 0 -0.2174329441333453 -0.13345176358044081 0 -0.2274226797125084 -0.13924226327626549 0 -0.23196526083781099 -0.12820126734941339 0 -0.2274226797125084 -0.13924226327626549 0 -0.23196526083781099 -0.12820126734941339 0 -0.23748655437819691 -0.1395697266282287 0 -0.23196526083781099 -0.12820126734941339 0 -0.23748655437819691 -0.1395697266282287 0 -0.2479207332698648 -0.1331273038523644 0 -0.23196526083781099 -0.12820126734941339 0 -0.2479207332698648 -0.1331273038523644 0 -0.2407223585488554 -0.1163718022958172 0 -0.24611506428877319 -0.14737099558365599 0 -0.23748655437819691 -0.1395697266282287 0 -0.2479207332698648 -0.1331273038523644 0 -0.2479207332698648 -0.1331273038523644 0 -0.2407223585488554 -0.1163718022958172 0 -0.26130936171505359 -0.1209636408006369 0 -0.23098149552406341 -0.10155423543593239 0 -0.25560420689769248 -0.1050515514690087 0 -0.23098149552406341 -0.10155423543593239 0 -0.2468928881044046 -0.090576005664204429 0 -0.25560420689769248 -0.1050515514690087 0 -0.2407223585488554 -0.1163718022958172 0 -0.23098149552406341 -0.10155423543593239 0 -0.25560420689769248 -0.1050515514690087 0 -0.23098149552406341 -0.10155423543593239 0 -0.22384469777925431 -0.1136820219701738 0 -0.2098814933165371 -0.11055961522412031 0 -0.23098149552406341 -0.10155423543593239 0 -0.22697308561788049 -0.084318914616224358 0 -0.20635878415043421 -0.098056919402856213 0 -0.2174329441333453 -0.13345176358044081 0 -0.22384469777925431 -0.1136820219701738 0 -0.23196526083781099 -0.12820126734941339 0 -0.2407223585488554 -0.1163718022958172 0 -0.22384469777925431 -0.1136820219701738 0 -0.2407223585488554 -0.1163718022958172 0 -0.23098149552406341 -0.10155423543593239 0 -0.22384469777925431 -0.1136820219701738 0 -0.2363820550675497 -0.067935317869267917 0 -0.24667108682110711 -0.076862771728794313 0 -0.25310173845858758 -0.061214150039665467 0 -0.2363820550675497 -0.067935317869267917 0 -0.24667108682110711 -0.076862771728794313 0 -0.22697308561788049 -0.084318914616224358 0 -0.23098149552406341 -0.10155423543593239 0 -0.2468928881044046 -0.090576005664204429 0 -0.22697308561788049 -0.084318914616224358 0 -0.24667108682110711 -0.076862771728794313 0 -0.2468928881044046 -0.090576005664204429 0 -0.22697308561788049 -0.084318914616224358 0 -0.2363820550675497 -0.067935317869267917 0 -0.22697308561788049 -0.084318914616224358 0 -0.2202763028203801 -0.070292872743683885 0 -0.22697308561788049 -0.084318914616224358 0 -0.2202763028203801 -0.070292872743683885 0 -0.20714456439812351 -0.079584685056369522 0 -0.2202763028203801 -0.070292872743683885 0 -0.20714456439812351 -0.079584685056369522 0 -0.20684868778992421 -0.061946096853359132 0 -0.22697308561788049 -0.084318914616224358 0 -0.20714456439812351 -0.079584685056369522 0 -0.20635878415043421 -0.098056919402856213 0 -0.20714456439812351 -0.079584685056369522 0 -0.19206916416722419 -0.088050233389767377 0 -0.19058330198890461 -0.072871095299689645 0 -0.20714456439812351 -0.079584685056369522 0 -0.19206916416722419 -0.088050233389767377 0 -0.20635878415043421 -0.098056919402856213 0 -0.19058330198890461 -0.072871095299689645 0 -0.1905682190546697 -0.05801384420086686 0 -0.20684868778992421 -0.061946096853359132 0 -0.20714456439812351 -0.079584685056369522 0 -0.19058330198890461 -0.072871095299689645 0 -0.20684868778992421 -0.061946096853359132 0 -0.2174329441333453 -0.13345176358044081 0 -0.22384469777925431 -0.1136820219701738 0 -0.21250856012640909 -0.1223939818451073 0 -0.2098814933165371 -0.11055961522412031 0 -0.21250856012640909 -0.1223939818451073 0 -0.2027024852884349 -0.1213849894162876 0 -0.22384469777925431 -0.1136820219701738 0 -0.2098814933165371 -0.11055961522412031 0 -0.21250856012640909 -0.1223939818451073 0 -0.23098149552406341 -0.10155423543593239 0 -0.2098814933165371 -0.11055961522412031 0 -0.20635878415043421 -0.098056919402856213 0 -0.23098149552406341 -0.10155423543593239 0 -0.20635878415043421 -0.098056919402856213 0 -0.2098814933165371 -0.11055961522412031 0 -0.20635878415043421 -0.098056919402856213 0 -0.17937466016819481 -0.1050428677411072 0 -0.19206916416722419 -0.088050233389767377 0 -0.20635878415043421 -0.098056919402856213 0 -0.17937466016819481 -0.1050428677411072 0 -0.18684601676772811 -0.127186864592231 0 -0.2027024852884349 -0.1213849894162876 0 -0.17758922697426541 -0.1179776822189164 0 -0.2027024852884349 -0.1213849894162876 0 -0.17937466016819481 -0.1050428677411072 0 -0.2098814933165371 -0.11055961522412031 0 -0.2027024852884349 -0.1213849894162876 0 -0.17937466016819481 -0.1050428677411072 0 -0.18684601676772811 -0.127186864592231 0 -0.16501085342098179 -0.12148221014994789 0 -0.2027024852884349 -0.1213849894162876 0 -0.17758922697426541 -0.1179776822189164 0 -0.17937466016819481 -0.1050428677411072 0 -0.18684601676772811 -0.127186864592231 0 -0.17758922697426541 -0.1179776822189164 0 -0.16501085342098179 -0.12148221014994789 0 -0.17758922697426541 -0.1179776822189164 0 -0.16501085342098179 -0.12148221014994789 0 -0.17937466016819481 -0.1050428677411072 0 -0.1636536056633337 -0.13484878607210279 0 -0.16501085342098179 -0.12148221014994789 0 -0.14317569007423531 -0.115777555707666 0 -0.16501085342098179 -0.12148221014994789 0 -0.15713322314211711 -0.1075922549906602 0 -0.17937466016819481 -0.1050428677411072 0 -0.17937466016819481 -0.1050428677411072 0 -0.15604683504795491 -0.088700746065926886 0 -0.15713322314211711 -0.1075922549906602 0 -0.17937466016819481 -0.1050428677411072 0 -0.15604683504795491 -0.088700746065926886 0 -0.19206916416722419 -0.088050233389767377 0 -0.17937466016819481 -0.1050428677411072 0 -0.176884510130464 -0.084695599448814288 0 -0.19206916416722419 -0.088050233389767377 0 -0.19058330198890461 -0.072871095299689645 0 -0.176884510130464 -0.084695599448814288 0 -0.19058330198890461 -0.072871095299689645 0 -0.1709434882357922 -0.065038708881979795 0 -0.1905682190546697 -0.05801384420086686 0 -0.19058330198890461 -0.072871095299689645 0 -0.176884510130464 -0.084695599448814288 0 -0.1709434882357922 -0.065038708881979795 0 -0.1709434882357922 -0.065038708881979795 0 -0.15604683504795491 -0.088700746065926886 0 -0.15002543301737459 -0.068702036097262165 0 -0.176884510130464 -0.084695599448814288 0 -0.1709434882357922 -0.065038708881979795 0 -0.15604683504795491 -0.088700746065926886 0 -0.17937466016819481 -0.1050428677411072 0 -0.176884510130464 -0.084695599448814288 0 -0.15604683504795491 -0.088700746065926886 0 -0.15604683504795491 -0.088700746065926886 0 -0.13952657864031659 -0.090296761563130795 0 -0.14367662567952899 -0.1019589402991001 0 -0.15604683504795491 -0.088700746065926886 0 -0.13254038526737899 -0.075317886095388836 0 -0.13952657864031659 -0.090296761563130795 0 -0.15604683504795491 -0.088700746065926886 0 -0.1327190099277149 -0.072358624390746556 0 -0.15604683504795491 -0.088700746065926886 0 -0.15002543301737459 -0.068702036097262165 0 -0.1327190099277149 -0.072358624390746556 0 -0.15002543301737459 -0.068702036097262165 0 -0.13755833906918799 -0.064630582889176086 0 -0.13918207426328991 -0.056579609766152381 0 -0.15002543301737459 -0.068702036097262165 0 -0.13755833906918799 -0.064630582889176086 0 -0.1327190099277149 -0.072358624390746556 0 -0.13755833906918799 -0.064630582889176086 0 -0.1327190099277149 -0.072358624390746556 0 -0.12830683906837259 -0.060882061302543228 0 -0.1227723878029595 -0.072724480258005542 0 -0.13254038526737899 -0.075317886095388836 0 -0.1327190099277149 -0.072358624390746556 0 -0.1230566579520736 -0.091680712662405989 0 -0.13254038526737899 -0.075317886095388836 0 -0.13187400478191319 -0.088083375203635905 0 -0.1230566579520736 -0.091680712662405989 0 -0.13254038526737899 -0.075317886095388836 0 -0.15604683504795491 -0.088700746065926886 0 -0.13254038526737899 -0.075317886095388836 0 -0.1327190099277149 -0.072358624390746556 0 -0.13952657864031659 -0.090296761563130795 0 -0.13187400478191319 -0.088083375203635905 0 -0.13237239726788361 -0.095038140493618015 0 -0.13254038526737899 -0.075317886095388836 0 -0.13952657864031659 -0.090296761563130795 0 -0.13187400478191319 -0.088083375203635905 0 -0.1230566579520736 -0.091680712662405989 0 -0.13187400478191319 -0.088083375203635905 0 -0.13237239726788361 -0.095038140493618015 0 -0.1230566579520736 -0.091680712662405989 0 -0.13237239726788361 -0.095038140493618015 0 -0.13105215396019559 -0.10448681915509141 0 -0.13237239726788361 -0.095038140493618015 0 -0.13105215396019559 -0.10448681915509141 0 -0.14367662567952899 -0.1019589402991001 0 -0.13952657864031659 -0.090296761563130795 0 -0.13237239726788361 -0.095038140493618015 0 -0.14367662567952899 -0.1019589402991001 0 -0.13105215396019559 -0.10448681915509141 0 -0.14317569007423531 -0.115777555707666 0 -0.14367662567952899 -0.1019589402991001 0 -0.1185943650647143 -0.1209392102696407 0 -0.13245210949065311 -0.12500036425937139 0 -0.1283743103555019 -0.1119105474685451 0 -0.13245210949065311 -0.12500036425937139 0 -0.1283743103555019 -0.1119105474685451 0 -0.14317569007423531 -0.115777555707666 0 -0.1283743103555019 -0.1119105474685451 0 -0.14317569007423531 -0.115777555707666 0 -0.13105215396019559 -0.10448681915509141 0 -0.1283743103555019 -0.1119105474685451 0 -0.14317569007423531 -0.115777555707666 0 -0.13105215396019559 -0.10448681915509141 0 -0.14317569007423531 -0.115777555707666 0 -0.16501085342098179 -0.12148221014994789 0 -0.15713322314211711 -0.1075922549906602 0 -0.14317569007423531 -0.115777555707666 0 -0.16501085342098179 -0.12148221014994789 0 -0.14317569007423531 -0.115777555707666 0 -0.15713322314211711 -0.1075922549906602 0 -0.15604683504795491 -0.088700746065926886 0 -0.14367662567952899 -0.1019589402991001 0 -0.15713322314211711 -0.1075922549906602 0 -0.14317569007423531 -0.115777555707666 0 -0.14367662567952899 -0.1019589402991001 0 -0.13148733631698101 -0.025222264621334419 0 -0.15002242985314251 -0.043417725637560162 0 -0.1574302172809485 -0.0242895222569098 0 -0.14162860272554489 -0.0086780269109793026 0 -0.13148733631698101 -0.025222264621334419 0 -0.1574302172809485 -0.0242895222569098 0 -0.14162860272554489 -0.0086780269109793026 0 -0.1574302172809485 -0.0242895222569098 0 -0.16491498881667049 -0.002936604489886772 0 -0.14162860272554489 -0.0086780269109793026 0 -0.16491498881667049 -0.002936604489886772 0 -0.14162860272554489 -0.0086780269109793026 0 -0.16491498881667049 -0.002936604489886772 0 -0.14742449342534139 0.0064160790279211583 0 -0.1230400690862873 -0.00083517126394756997 0 -0.1186664083726537 -0.01452970433968514 0 -0.14162860272554489 -0.0086780269109793026 0 -0.1230400690862873 -0.00083517126394756997 0 -0.14162860272554489 -0.0086780269109793026 0 -0.1326551359459831 0.0072180599274277628 0 -0.1186664083726537 -0.01452970433968514 0 -0.14162860272554489 -0.0086780269109793026 0 -0.13148733631698101 -0.025222264621334419 0 -0.12173388593092579 -0.042227674110756362 0 -0.13148733631698101 -0.025222264621334419 0 -0.15002242985314251 -0.043417725637560162 0 -0.12173388593092579 -0.042227674110756362 0 -0.15002242985314251 -0.043417725637560162 0 -0.12230163337004731 -0.054171453131155067 0 -0.12830683906837259 -0.060882061302543228 0 -0.13918207426328991 -0.056579609766152381 0 -0.12230163337004731 -0.054171453131155067 0 -0.12173388593092579 -0.042227674110756362 0 -0.13918207426328991 -0.056579609766152381 0 -0.12173388593092579 -0.042227674110756362 0 -0.13918207426328991 -0.056579609766152381 0 -0.15002242985314251 -0.043417725637560162 0 -0.13755833906918799 -0.064630582889176086 0 -0.12830683906837259 -0.060882061302543228 0 -0.13918207426328991 -0.056579609766152381 0 -0.15002543301737459 -0.068702036097262165 0 -0.13918207426328991 -0.056579609766152381 0 -0.15002242985314251 -0.043417725637560162 0 -0.15002242985314251 -0.043417725637560162 0 -0.17831097377535929 -0.044607777164363968 0 -0.1574302172809485 -0.0242895222569098 0 -0.17831097377535929 -0.044607777164363968 0 -0.1782798866195871 -0.025008895018990229 0 -0.1574302172809485 -0.0242895222569098 0 -0.15002242985314251 -0.043417725637560162 0 -0.17831097377535929 -0.044607777164363968 0 -0.1709434882357922 -0.065038708881979795 0 -0.15002543301737459 -0.068702036097262165 0 -0.15002242985314251 -0.043417725637560162 0 -0.1709434882357922 -0.065038708881979795 0 -0.15002242985314251 -0.043417725637560162 0 -0.17831097377535929 -0.044607777164363968 0 -0.1709434882357922 -0.065038708881979795 0 -0.17831097377535929 -0.044607777164363968 0 -0.1905682190546697 -0.05801384420086686 0 -0.17831097377535929 -0.044607777164363968 0 -0.1782798866195871 -0.025008895018990229 0 -0.19336624151661941 -0.032627432234927749 0 -0.1782798866195871 -0.025008895018990229 0 -0.18284617701865699 -0.01034158866242681 0 -0.20046884649001381 -0.01987250448005197 0 -0.1782798866195871 -0.025008895018990229 0 -0.1574302172809485 -0.0242895222569098 0 -0.16491498881667049 -0.002936604489886772 0 -0.1782798866195871 -0.025008895018990229 0 -0.16491498881667049 -0.002936604489886772 0 -0.18284617701865699 -0.01034158866242681 0 -0.16491498881667049 -0.002936604489886772 0 -0.18820137490779609 0.0028048179312057582 0 -0.16491498881667049 -0.002936604489886772 0 -0.18284617701865699 -0.01034158866242681 0 -0.18820137490779609 0.0028048179312057582 0 -0.18284617701865699 -0.01034158866242681 0 -0.20098663595279639 -0.0045317241816546592 0 -0.18820137490779609 0.0028048179312057582 0 -0.18284617701865699 -0.01034158866242681 0 -0.20098663595279639 -0.0045317241816546592 0 -0.20046884649001381 -0.01987250448005197 0 -0.1782798866195871 -0.025008895018990229 0 -0.20046884649001381 -0.01987250448005197 0 -0.19336624151661941 -0.032627432234927749 0 -0.1782798866195871 -0.025008895018990229 0 -0.20046884649001381 -0.01987250448005197 0 -0.20046884649001381 -0.01987250448005197 0 -0.20643572846050501 -0.027833428721334989 0 -0.19336624151661941 -0.032627432234927749 0 -0.20046884649001381 -0.01987250448005197 0 -0.22265780636044061 -0.01473611394111371 0 -0.20046884649001381 -0.01987250448005197 0 -0.20643572846050501 -0.027833428721334989 0 -0.22265780636044061 -0.01473611394111371 0 -0.21085716741850721 -0.0085402072346372187 0 -0.2216061714511057 -0.00064016918626373653 0 -0.22265780636044061 -0.01473611394111371 0 -0.20046884649001381 -0.01987250448005197 0 -0.21085716741850721 -0.0085402072346372187 0 -0.22265780636044061 -0.01473611394111371 0 -0.21123443395533281 -0.0012914650625643271 0 -0.21085716741850721 -0.0085402072346372187 0 -0.2216061714511057 -0.00064016918626373653 0 -0.20098663595279639 -0.0045317241816546592 0 -0.21123443395533281 -0.0012914650625643271 0 -0.21085716741850721 -0.0085402072346372187 0 -0.20098663595279639 -0.0045317241816546592 0 -0.20046884649001381 -0.01987250448005197 0 -0.21085716741850721 -0.0085402072346372187 0 -0.1905682190546697 -0.05801384420086686 0 -0.20659951769757609 -0.045797828691167761 0 -0.20684868778992421 -0.061946096853359132 0 -0.17831097377535929 -0.044607777164363968 0 -0.1905682190546697 -0.05801384420086686 0 -0.20659951769757609 -0.045797828691167761 0 -0.17831097377535929 -0.044607777164363968 0 -0.19336624151661941 -0.032627432234927749 0 -0.20659951769757609 -0.045797828691167761 0 -0.20643572846050501 -0.027833428721334989 0 -0.19336624151661941 -0.032627432234927749 0 -0.20659951769757609 -0.045797828691167761 0 -0.17831097377535929 -0.044607777164363968 0 -0.20659951769757609 -0.045797828691167761 0 -0.20643572846050501 -0.027833428721334989 0 -0.21836073185375859 -0.038338691871154643 0 -0.2255196196371605 -0.03273562985414423 0 -0.20643572846050501 -0.027833428721334989 0 -0.21836073185375859 -0.038338691871154643 0 -0.20659951769757609 -0.045797828691167761 0 -0.20659951769757609 -0.045797828691167761 0 -0.20684868778992421 -0.061946096853359132 0 -0.23488806161979289 -0.046987880217971567 0 -0.2363820550675497 -0.067935317869267917 0 -0.2202763028203801 -0.070292872743683885 0 -0.23488806161979289 -0.046987880217971567 0 -0.2202763028203801 -0.070292872743683885 0 -0.20684868778992421 -0.061946096853359132 0 -0.23488806161979289 -0.046987880217971567 0 -0.20659951769757609 -0.045797828691167761 0 -0.23488806161979289 -0.046987880217971567 0 -0.21836073185375859 -0.038338691871154643 0 -0.20659951769757609 -0.045797828691167761 0 -0.23488806161979289 -0.046987880217971567 0 -0.21836073185375859 -0.038338691871154643 0 -0.2255196196371605 -0.03273562985414423 0 -0.23488806161979289 -0.046987880217971567 0 -0.24328601085452409 -0.034795490685063747 0 -0.23488806161979289 -0.046987880217971567 0 -0.251058681750091 -0.044875316789340508 0 -0.2255196196371605 -0.03273562985414423 0 -0.24328601085452409 -0.034795490685063747 0 -0.23488806161979289 -0.046987880217971567 0 -0.23488806161979289 -0.046987880217971567 0 -0.251058681750091 -0.044875316789340508 0 -0.25310173845858758 -0.061214150039665467 0 -0.2363820550675497 -0.067935317869267917 0 -0.23488806161979289 -0.046987880217971567 0 -0.25310173845858758 -0.061214150039665467 0 -0.22265780636044061 -0.01473611394111371 0 -0.2345864828111342 -0.020214827672407249 0 -0.24484676623086721 -0.009599723402175464 0 -0.22265780636044061 -0.01473611394111371 0 -0.24484676623086721 -0.009599723402175464 0 -0.22265780636044061 -0.01473611394111371 0 -0.24484676623086721 -0.009599723402175464 0 -0.23541307807521419 0.00048972245313083597 0 -0.2216061714511057 -0.00064016918626373653 0 -0.22265780636044061 -0.01473611394111371 0 -0.23541307807521419 0.00048972245313083597 0 -0.20643572846050501 -0.027833428721334989 0 -0.2255196196371605 -0.03273562985414423 0 -0.2345864828111342 -0.020214827672407249 0 -0.20643572846050501 -0.027833428721334989 0 -0.22265780636044061 -0.01473611394111371 0 -0.2345864828111342 -0.020214827672407249 0 -0.20643572846050501 -0.027833428721334989 0 -0.2345864828111342 -0.020214827672407249 0 -0.24328601085452409 -0.034795490685063747 0 -0.2345864828111342 -0.020214827672407249 0 -0.25309301813505453 -0.025031356971250921 0 -0.2255196196371605 -0.03273562985414423 0 -0.24328601085452409 -0.034795490685063747 0 -0.2345864828111342 -0.020214827672407249 0 -0.2345864828111342 -0.020214827672407249 0 -0.26273723716176339 -0.01259622662347951 0 -0.24484676623086721 -0.009599723402175464 0 -0.25178156673050811 0.0072016021390982014 0 -0.23541307807521419 0.00048972245313083597 0 -0.2345864828111342 -0.020214827672407249 0 -0.24484676623086721 -0.009599723402175464 0 -0.26273723716176339 -0.01259622662347951 0 -0.24484676623086721 -0.009599723402175464 0 -0.26703572610129378 -0.0044633328632372486 0 -0.25178156673050811 0.0072016021390982014 0 -0.24484676623086721 -0.009599723402175464 0 -0.26703572610129378 -0.0044633328632372486 0 -0.24484676623086721 -0.009599723402175464 0 -0.26273723716176339 -0.01259622662347951 0 -0.26703572610129378 -0.0044633328632372486 0 -0.2345864828111342 -0.020214827672407249 0 -0.26273723716176339 -0.01259622662347951 0 -0.25309301813505453 -0.025031356971250921 0 -0.26273723716176339 -0.01259622662347951 0 -0.25309301813505453 -0.025031356971250921 0 -0.26723054994952178 -0.027201064254229319 0 -0.25309301813505453 -0.025031356971250921 0 -0.26723054994952178 -0.027201064254229319 0 -0.25713692997614562 -0.035254884093615303 0 -0.26273723716176339 -0.01259622662347951 0 -0.26723054994952178 -0.027201064254229319 0 -0.28094786545899442 -0.022755327501273171 0 -0.26723054994952178 -0.027201064254229319 0 -0.28094786545899442 -0.022755327501273171 0 -0.27972902103084718 -0.036628046008224828 0 -0.26273723716176339 -0.01259622662347951 0 -0.28094786545899442 -0.022755327501273171 0 -0.29088799151239259 -0.0049776255745517719 0 -0.26273723716176339 -0.01259622662347951 0 -0.29088799151239259 -0.0049776255745517719 0 -0.26273723716176339 -0.01259622662347951 0 -0.26703572610129378 -0.0044633328632372486 0 -0.29088799151239259 -0.0049776255745517719 0 -0.26703572610129378 -0.0044633328632372486 0 -0.29088799151239259 -0.0049776255745517719 0 -0.27737550464354538 0.0033681709572339481 0 -0.28094786545899442 -0.022755327501273171 0 -0.29088799151239259 -0.0049776255745517719 0 -0.29553507059527828 -0.02181913944806008 0 -0.28094786545899442 -0.022755327501273171 0 -0.28979679844275869 -0.031771121497915417 0 -0.27972902103084718 -0.036628046008224828 0 -0.28094786545899442 -0.022755327501273171 0 -0.29553507059527828 -0.02181913944806008 0 -0.28979679844275869 -0.031771121497915417 0 -0.29553507059527828 -0.02181913944806008 0 -0.29941750254795468 -0.03444900472066479 0 -0.28979679844275869 -0.031771121497915417 0 -0.29553507059527828 -0.02181913944806008 0 -0.30567530221874861 -0.026373024177429139 0 -0.30631177103484369 -0.013744952364924869 0 -0.30567530221874861 -0.026373024177429139 0 -0.30841964419777629 -0.040138694122149633 0 -0.31869252271788978 -0.02171333023134632 0 -0.29553507059527828 -0.02181913944806008 0 -0.30567530221874861 -0.026373024177429139 0 -0.29941750254795468 -0.03444900472066479 0 -0.30567530221874861 -0.026373024177429139 0 -0.30631177103484369 -0.013744952364924869 0 -0.31869252271788978 -0.02171333023134632 0 -0.29088799151239259 -0.0049776255745517719 0 -0.31903874586302211 0.0026409754743748912 0 -0.29088799151239259 -0.0049776255745517719 0 -0.30631177103484369 -0.013744952364924869 0 -0.31903874586302211 0.0026409754743748912 0 -0.29088799151239259 -0.0049776255745517719 0 -0.29553507059527828 -0.02181913944806008 0 -0.30631177103484369 -0.013744952364924869 0 -0.3050049218812878 -0.058368664189993417 0 -0.30841964419777629 -0.040138694122149633 0 -0.3157792689223114 -0.067858134786572627 0 -0.30096810837955879 -0.050385068504580223 0 -0.3050049218812878 -0.058368664189993417 0 -0.30841964419777629 -0.040138694122149633 0 -0.30841964419777629 -0.040138694122149633 0 -0.3157792689223114 -0.067858134786572627 0 -0.3050049218812878 -0.058368664189993417 0 -0.29535825697206702 -0.057617054458647662 0 -0.30102917516195388 -0.071420826205665033 0 -0.30096810837955879 -0.050385068504580223 0 -0.3050049218812878 -0.058368664189993417 0 -0.29535825697206702 -0.057617054458647662 0 -0.30567530221874861 -0.026373024177429139 0 -0.30841964419777629 -0.040138694122149633 0 -0.29941750254795468 -0.03444900472066479 0 -0.30841964419777629 -0.040138694122149633 0 -0.29941750254795468 -0.03444900472066479 0 -0.29335453258071859 -0.043204089811354207 0 -0.30096810837955879 -0.050385068504580223 0 -0.30841964419777629 -0.040138694122149633 0 -0.29335453258071859 -0.043204089811354207 0 -0.29941750254795468 -0.03444900472066479 0 -0.29335453258071859 -0.043204089811354207 0 -0.28979679844275869 -0.031771121497915417 0 -0.29335453258071859 -0.043204089811354207 0 -0.28979679844275869 -0.031771121497915417 0 -0.27972902103084718 -0.036628046008224828 0 -0.29335453258071859 -0.043204089811354207 0 -0.28165903507625611 -0.050893119912075853 0 -0.27972902103084718 -0.036628046008224828 0 -0.28165903507625611 -0.050893119912075853 0 -0.29535825697206702 -0.057617054458647662 0 -0.28686663295569498 -0.070419715446061543 0 -0.29335453258071859 -0.043204089811354207 0 -0.28165903507625611 -0.050893119912075853 0 -0.29535825697206702 -0.057617054458647662 0 -0.30096810837955879 -0.050385068504580223 0 -0.29335453258071859 -0.043204089811354207 0 -0.29535825697206702 -0.057617054458647662 0 -0.28165903507625611 -0.050893119912075853 0 -0.26688066784140502 -0.046124178910386483 0 -0.27228893879965321 -0.0648165381630946 0 -0.28165903507625611 -0.050893119912075853 0 -0.27228893879965321 -0.0648165381630946 0 -0.28686663295569498 -0.070419715446061543 0 -0.26723054994952178 -0.027201064254229319 0 -0.27972902103084718 -0.036628046008224828 0 -0.26688066784140502 -0.046124178910386483 0 -0.28165903507625611 -0.050893119912075853 0 -0.27972902103084718 -0.036628046008224828 0 -0.26688066784140502 -0.046124178910386483 0 -0.26723054994952178 -0.027201064254229319 0 -0.26688066784140502 -0.046124178910386483 0 -0.25713692997614562 -0.035254884093615303 0 -0.26688066784140502 -0.046124178910386483 0 -0.251058681750091 -0.044875316789340508 0 -0.25713692997614562 -0.035254884093615303 0 -0.24328601085452409 -0.034795490685063747 0 -0.25309301813505453 -0.025031356971250921 0 -0.25713692997614562 -0.035254884093615303 0 -0.24328601085452409 -0.034795490685063747 0 -0.251058681750091 -0.044875316789340508 0 -0.25713692997614562 -0.035254884093615303 0 -0.26688066784140502 -0.046124178910386483 0 -0.25310173845858758 -0.061214150039665467 0 -0.27228893879965321 -0.0648165381630946 0 -0.26688066784140502 -0.046124178910386483 0 -0.251058681750091 -0.044875316789340508 0 -0.25310173845858758 -0.061214150039665467 0 -0.24667108682110711 -0.076862771728794313 0 -0.25310173845858758 -0.061214150039665467 0 -0.25940639408946259 -0.07594316354602576 0 -0.25310173845858758 -0.061214150039665467 0 -0.25940639408946259 -0.07594316354602576 0 -0.27228893879965321 -0.0648165381630946 0 -0.24667108682110711 -0.076862771728794313 0 -0.2468928881044046 -0.090576005664204429 0 -0.25940639408946259 -0.07594316354602576 0 -0.2468928881044046 -0.090576005664204429 0 -0.25940639408946259 -0.07594316354602576 0 -0.27232688296167629 -0.087073748366429476 0 -0.27232688296167629 -0.087073748366429476 0 -0.27228893879965321 -0.0648165381630946 0 -0.28686663295569498 -0.070419715446061543 0 -0.25940639408946259 -0.07594316354602576 0 -0.27232688296167629 -0.087073748366429476 0 -0.27228893879965321 -0.0648165381630946 0 -0.2407223585488554 -0.1163718022958172 0 -0.26130936171505359 -0.1209636408006369 0 -0.25560420689769248 -0.1050515514690087 0 -0.2468928881044046 -0.090576005664204429 0 -0.27232688296167629 -0.087073748366429476 0 -0.25560420689769248 -0.1050515514690087 0 -0.27232688296167629 -0.087073748366429476 0 -0.25560420689769248 -0.1050515514690087 0 -0.28022691827132162 -0.10854886750208489 0 -0.25560420689769248 -0.1050515514690087 0 -0.28022691827132162 -0.10854886750208489 0 -0.26130936171505359 -0.1209636408006369 0 -0.25560420689769248 -0.1050515514690087 0 -0.28022691827132162 -0.10854886750208489 0 -0.26130936171505359 -0.1209636408006369 0 -0.28022691827132162 -0.10854886750208489 0 -0.27891725506883142 -0.12790627073946881 0 -0.28022691827132162 -0.10854886750208489 0 -0.27891725506883142 -0.12790627073946881 0 -0.29916762052704832 -0.12864416601049869 0 -0.28022691827132162 -0.10854886750208489 0 -0.30484962964495083 -0.1120461835351612 0 -0.28022691827132162 -0.10854886750208489 0 -0.30484962964495083 -0.1120461835351612 0 -0.29916762052704832 -0.12864416601049869 0 -0.28022691827132162 -0.10854886750208489 0 -0.3032412814130816 -0.097216022920081122 0 -0.29286963252380682 -0.086517471609640101 0 -0.27232688296167629 -0.087073748366429476 0 -0.28022691827132162 -0.10854886750208489 0 -0.29286963252380682 -0.086517471609640101 0 -0.28022691827132162 -0.10854886750208489 0 -0.3032412814130816 -0.097216022920081122 0 -0.30484962964495083 -0.1120461835351612 0 -0.3032412814130816 -0.097216022920081122 0 -0.30484962964495083 -0.1120461835351612 0 -0.32313889364684639 -0.0955775754509956 0 -0.30484962964495083 -0.1120461835351612 0 -0.31609835619936089 -0.11963822228794931 0 -0.29916762052704832 -0.12864416601049869 0 -0.28686663295569498 -0.070419715446061543 0 -0.29286963252380682 -0.086517471609640101 0 -0.30102917516195388 -0.071420826205665033 0 -0.29535825697206702 -0.057617054458647662 0 -0.28686663295569498 -0.070419715446061543 0 -0.30102917516195388 -0.071420826205665033 0 -0.27232688296167629 -0.087073748366429476 0 -0.28686663295569498 -0.070419715446061543 0 -0.29286963252380682 -0.086517471609640101 0 -0.3032412814130816 -0.097216022920081122 0 -0.30760457261648971 -0.083840239103203817 0 -0.32313889364684639 -0.0955775754509956 0 -0.29286963252380682 -0.086517471609640101 0 -0.30760457261648971 -0.083840239103203817 0 -0.30102917516195388 -0.071420826205665033 0 -0.3032412814130816 -0.097216022920081122 0 -0.29286963252380682 -0.086517471609640101 0 -0.30760457261648971 -0.083840239103203817 0 -0.30760457261648971 -0.083840239103203817 0 -0.30102917516195388 -0.071420826205665033 0 -0.3157792689223114 -0.067858134786572627 0 -0.3050049218812878 -0.058368664189993417 0 -0.30102917516195388 -0.071420826205665033 0 -0.3157792689223114 -0.067858134786572627 0 -0.30760457261648971 -0.083840239103203817 0 -0.3157792689223114 -0.067858134786572627 0 -0.32313889364684639 -0.0955775754509956 0 -0.3157792689223114 -0.067858134786572627 0 -0.32313889364684639 -0.0955775754509956 0 -0.3157792689223114 -0.067858134786572627 0 -0.32649099832699202 -0.072719063015538404 0 -0.32313889364684639 -0.0955775754509956 0 -0.32649099832699202 -0.072719063015538404 0 -0.33742411473797718 -0.08212377106349121 0 -0.32313889364684639 -0.0955775754509956 0 -0.33742411473797718 -0.08212377106349121 0 -0.32313889364684639 -0.0955775754509956 0 -0.33689151734901779 -0.10174905129346359 0 -0.33742411473797718 -0.08212377106349121 0 -0.33776150695738322 -0.066865532112104595 0 -0.34852086796279691 -0.073980248288703615 0 -0.32649099832699202 -0.072719063015538404 0 -0.33742411473797718 -0.08212377106349121 0 -0.33776150695738322 -0.066865532112104595 0 -0.32313889364684639 -0.0955775754509956 0 -0.33049851837138139 -0.1232970161154185 0 -0.31609835619936089 -0.11963822228794931 0 -0.32313889364684639 -0.0955775754509956 0 -0.33049851837138139 -0.1232970161154185 0 -0.30484962964495083 -0.1120461835351612 0 -0.31609835619936089 -0.11963822228794931 0 -0.32313889364684639 -0.0955775754509956 0 -0.32313889364684639 -0.0955775754509956 0 -0.33689151734901779 -0.10174905129346359 0 -0.33049851837138139 -0.1232970161154185 0 -0.33742411473797718 -0.08212377106349121 0 -0.33689151734901779 -0.10174905129346359 0 -0.35080421357027508 -0.1005602988603379 0 -0.33689151734901779 -0.10174905129346359 0 -0.3428844465437268 -0.1120334721204328 0 -0.35080421357027508 -0.1005602988603379 0 -0.3428844465437268 -0.1120334721204328 0 -0.33049851837138139 -0.1232970161154185 0 -0.33876896996697831 -0.13011096860524049 0 -0.33689151734901779 -0.10174905129346359 0 -0.3428844465437268 -0.1120334721204328 0 -0.33049851837138139 -0.1232970161154185 0 -0.3428844465437268 -0.1120334721204328 0 -0.34329809186857901 -0.1308772482998147 0 -0.33876896996697831 -0.13011096860524049 0 -0.3428844465437268 -0.1120334721204328 0 -0.35051208240572179 -0.1247599066077659 0 -0.36418431240257287 -0.1189968266571844 0 -0.3428844465437268 -0.1120334721204328 0 -0.35080421357027508 -0.1005602988603379 0 -0.36418431240257287 -0.1189968266571844 0 -0.35080421357027508 -0.1005602988603379 0 -0.36418431240257287 -0.1189968266571844 0 -0.35080421357027508 -0.1005602988603379 0 -0.36597337251583828 -0.094988406679560558 0 -0.35250110953949471 -0.086163941109607303 0 -0.35080421357027508 -0.1005602988603379 0 -0.36597337251583828 -0.094988406679560558 0 -0.36418431240257287 -0.1189968266571844 0 -0.36597337251583828 -0.094988406679560558 0 -0.36418431240257287 -0.1189968266571844 0 -0.38199416445260043 -0.1128063426245649 0 -0.36418431240257287 -0.1189968266571844 0 -0.37756441123487061 -0.13743335445403099 0 -0.38199416445260043 -0.1128063426245649 0 -0.34852086796279691 -0.073980248288703615 0 -0.36174147837473841 -0.063483952008672323 0 -0.34593553736084542 -0.059645473031513963 0 -0.34852086796279691 -0.073980248288703615 0 -0.3605352619026026 -0.078723520139890424 0 -0.36174147837473841 -0.063483952008672323 0 -0.33776150695738322 -0.066865532112104595 0 -0.34852086796279691 -0.073980248288703615 0 -0.34593553736084542 -0.059645473031513963 0 -0.33742411473797718 -0.08212377106349121 0 -0.35080421357027508 -0.1005602988603379 0 -0.33742411473797718 -0.08212377106349121 0 -0.35080421357027508 -0.1005602988603379 0 -0.35250110953949471 -0.086163941109607303 0 -0.33742411473797718 -0.08212377106349121 0 -0.34852086796279691 -0.073980248288703615 0 -0.35250110953949471 -0.086163941109607303 0 -0.34852086796279691 -0.073980248288703615 0 -0.35250110953949471 -0.086163941109607303 0 -0.3605352619026026 -0.078723520139890424 0 -0.36597337251583828 -0.094988406679560558 0 -0.35250110953949471 -0.086163941109607303 0 -0.3605352619026026 -0.078723520139890424 0 -0.36597337251583828 -0.094988406679560558 0 -0.3605352619026026 -0.078723520139890424 0 -0.37859861411716361 -0.076392292479374721 0 -0.3605352619026026 -0.078723520139890424 0 -0.36174147837473841 -0.063483952008672323 0 -0.37859861411716361 -0.076392292479374721 0 -0.36174147837473841 -0.063483952008672323 0 -0.37773838874545929 -0.057181087558389937 0 -0.37859861411716361 -0.076392292479374721 0 -0.36174147837473841 -0.063483952008672323 0 -0.35749190709554929 -0.043708904101640411 0 -0.37773838874545929 -0.057181087558389937 0 -0.35749190709554929 -0.043708904101640411 0 -0.37773838874545929 -0.057181087558389937 0 -0.34593553736084542 -0.059645473031513963 0 -0.35749190709554929 -0.043708904101640411 0 -0.34277722157508461 -0.044862550734830281 0 -0.36174147837473841 -0.063483952008672323 0 -0.34593553736084542 -0.059645473031513963 0 -0.35749190709554929 -0.043708904101640411 0 -0.35749190709554929 -0.043708904101640411 0 -0.33724542544563951 -0.030236720644890941 0 -0.34277722157508461 -0.044862550734830281 0 -0.35749190709554929 -0.043708904101640411 0 -0.33724542544563951 -0.030236720644890941 0 -0.35749190709554929 -0.043708904101640411 0 -0.34705834808469538 -0.021751619877790888 0 -0.33724542544563951 -0.030236720644890941 0 -0.35749190709554929 -0.043708904101640411 0 -0.37162630021381737 -0.032188622448302721 0 -0.37773838874545929 -0.057181087558389937 0 -0.35749190709554929 -0.043708904101640411 0 -0.37162630021381737 -0.032188622448302721 0 -0.3601229693353929 -0.021651715368859441 0 -0.37162630021381737 -0.032188622448302721 0 -0.3601229693353929 -0.021651715368859441 0 -0.37340042744594659 -0.0086351566667626813 0 -0.37340042744594659 -0.0086351566667626813 0 -0.34891131864993152 -0.0074799462333180432 0 -0.36231109551829499 0.01435202109564061 0 -0.3601229693353929 -0.021651715368859441 0 -0.37340042744594659 -0.0086351566667626813 0 -0.34891131864993152 -0.0074799462333180432 0 -0.35749190709554929 -0.043708904101640411 0 -0.3601229693353929 -0.021651715368859441 0 -0.34705834808469538 -0.021751619877790888 0 -0.3601229693353929 -0.021651715368859441 0 -0.34891131864993152 -0.0074799462333180432 0 -0.34705834808469538 -0.021751619877790888 0 -0.34705834808469538 -0.021751619877790888 0 -0.33724542544563951 -0.030236720644890941 0 -0.3343810344696167 -0.01899914730701327 0 -0.34891131864993152 -0.0074799462333180432 0 -0.34705834808469538 -0.021751619877790888 0 -0.3343810344696167 -0.01899914730701327 0 -0.34891131864993152 -0.0074799462333180432 0 -0.3343810344696167 -0.01899914730701327 0 -0.33832605254092868 0.0078608105472494257 0 -0.3343810344696167 -0.01899914730701327 0 -0.31903874586302211 0.0026409754743748912 0 -0.33832605254092868 0.0078608105472494257 0 -0.3343810344696167 -0.01899914730701327 0 -0.33832605254092868 0.0078608105472494257 0 -0.31869252271788978 -0.02171333023134632 0 -0.31903874586302211 0.0026409754743748912 0 -0.3343810344696167 -0.01899914730701327 0 -0.31869252271788978 -0.02171333023134632 0 -0.31903874586302211 0.0026409754743748912 0 -0.30631177103484369 -0.013744952364924869 0 -0.31869252271788978 -0.02171333023134632 0 -0.31903874586302211 0.0026409754743748912 0 -0.3343810344696167 -0.01899914730701327 0 -0.31869252271788978 -0.02171333023134632 0 -0.32451741301484882 -0.033759850869878573 0 -0.31869252271788978 -0.02171333023134632 0 -0.32451741301484882 -0.033759850869878573 0 -0.31834629957275362 -0.046067635937067392 0 -0.31869252271788978 -0.02171333023134632 0 -0.31834629957275362 -0.046067635937067392 0 -0.30841964419777629 -0.040138694122149633 0 -0.31869252271788978 -0.02171333023134632 0 -0.31834629957275362 -0.046067635937067392 0 -0.32451741301484882 -0.033759850869878573 0 -0.31834629957275362 -0.046067635937067392 0 -0.33043601639830428 -0.04585910516127583 0 -0.30841964419777629 -0.040138694122149633 0 -0.3157792689223114 -0.067858134786572627 0 -0.31834629957275362 -0.046067635937067392 0 -0.3157792689223114 -0.067858134786572627 0 -0.32649099832699202 -0.072719063015538404 0 -0.33043601639830428 -0.04585910516127583 0 -0.3157792689223114 -0.067858134786572627 0 -0.31834629957275362 -0.046067635937067392 0 -0.33043601639830428 -0.04585910516127583 0 -0.32649099832699202 -0.072719063015538404 0 -0.33043601639830428 -0.04585910516127583 0 -0.32649099832699202 -0.072719063015538404 0 -0.33776150695738322 -0.066865532112104595 0 -0.33043601639830428 -0.04585910516127583 0 -0.33776150695738322 -0.066865532112104595 0 -0.34593553736084542 -0.059645473031513963 0 -0.33043601639830428 -0.04585910516127583 0 -0.34593553736084542 -0.059645473031513963 0 -0.34277722157508461 -0.044862550734830281 0 -0.33043601639830428 -0.04585910516127583 0 -0.3343810344696167 -0.01899914730701327 0 -0.32451741301484882 -0.033759850869878573 0 -0.33043601639830428 -0.04585910516127583 0 -0.3343810344696167 -0.01899914730701327 0 -0.33043601639830428 -0.04585910516127583 0 -0.33724542544563951 -0.030236720644890941 0 -0.34277722157508461 -0.044862550734830281 0 -0.33043601639830428 -0.04585910516127583 0 -0.33724542544563951 -0.030236720644890941 0 -0.3343810344696167 -0.01899914730701327 0 -0.33043601639830428 -0.04585910516127583 0 -0.30409382839077781 -0.25248712099645099 0 -0.29420899384532462 -0.23949482487040941 0 -0.31274465306979732 -0.24246923326052641 0 -0.30511140518498392 -0.2243695227772369 0 -0.29420899384532462 -0.23949482487040941 0 -0.31274465306979732 -0.24246923326052641 0 -0.30511140518498392 -0.2243695227772369 0 -0.31901483679888459 -0.2307556290827959 0 -0.31274465306979732 -0.24246923326052641 0 -0.30511140518498392 -0.2243695227772369 0 -0.28890769798577037 -0.22687280263429599 0 -0.29420899384532462 -0.23949482487040941 0 -0.28890769798577037 -0.22687280263429599 0 -0.27846697516457708 -0.2359516126601944 0 -0.27849819934401659 -0.21775820870243781 0 -0.30511140518498392 -0.2243695227772369 0 -0.28890769798577037 -0.22687280263429599 0 -0.29416014494170267 -0.21494705133910191 0 -0.28890769798577037 -0.22687280263429599 0 -0.29420899384532462 -0.23949482487040941 0 -0.27846697516457708 -0.2359516126601944 0 -0.28890769798577037 -0.22687280263429599 0 -0.27849819934401659 -0.21775820870243781 0 -0.29416014494170267 -0.21494705133910191 0 -0.27573779829185407 -0.25393917825748641 0 -0.29420899384532462 -0.23949482487040941 0 -0.27846697516457708 -0.2359516126601944 0 -0.27573779829185407 -0.25393917825748641 0 -0.30409382839077781 -0.25248712099645099 0 -0.29420899384532462 -0.23949482487040941 0 -0.27573779829185407 -0.25393917825748641 0 -0.27846697516457708 -0.2359516126601944 0 -0.26985801595476078 -0.24384623787326279 0 -0.27846697516457708 -0.2359516126601944 0 -0.26985801595476078 -0.24384623787326279 0 -0.26031086653513891 -0.23711636239963749 0 -0.27573779829185407 -0.25393917825748641 0 -0.26985801595476078 -0.24384623787326279 0 -0.26101667401452161 -0.24636134497999021 0 -0.26985801595476078 -0.24384623787326279 0 -0.26101667401452161 -0.24636134497999021 0 -0.26031086653513891 -0.23711636239963749 0 -0.26101667401452161 -0.24636134497999021 0 -0.26031086653513891 -0.23711636239963749 0 -0.25179492109792379 -0.2415137108510427 0 -0.24738176819293031 -0.25539123551852178 0 -0.26101667401452161 -0.24636134497999021 0 -0.25179492109792379 -0.2415137108510427 0 -0.25179492109792379 -0.2415137108510427 0 -0.26811894390039459 -0.2171451420692703 0 -0.25179492109792379 -0.2415137108510427 0 -0.25424275704486898 -0.22475029041832451 0 -0.26811894390039459 -0.2171451420692703 0 -0.26031086653513891 -0.23711636239963749 0 -0.25179492109792379 -0.2415137108510427 0 -0.26811894390039459 -0.2171451420692703 0 -0.25424275704486898 -0.22475029041832451 0 -0.26811894390039459 -0.2171451420692703 0 -0.25735569879684361 -0.21607147517970321 0 -0.26031086653513891 -0.23711636239963749 0 -0.27849819934401659 -0.21775820870243781 0 -0.26811894390039459 -0.2171451420692703 0 -0.26031086653513891 -0.23711636239963749 0 -0.27849819934401659 -0.21775820870243781 0 -0.27846697516457708 -0.2359516126601944 0 -0.26031086653513891 -0.23711636239963749 0 -0.27849819934401659 -0.21775820870243781 0 -0.26811894390039459 -0.2171451420692703 0 -0.28444296670286551 -0.19277657328749789 0 -0.27849819934401659 -0.21775820870243781 0 -0.26811894390039459 -0.2171451420692703 0 -0.28444296670286551 -0.19277657328749789 0 -0.26811894390039459 -0.2171451420692703 0 -0.25930980669217207 -0.2092209049591027 0 -0.26713437787396199 -0.19893073617240939 0 -0.26811894390039459 -0.2171451420692703 0 -0.25930980669217207 -0.2092209049591027 0 -0.25735569879684361 -0.21607147517970321 0 -0.24775128754993839 -0.21316956327211539 0 -0.25930980669217207 -0.2092209049591027 0 -0.25485350440778992 -0.19932326154474719 0 -0.24775128754993839 -0.21316956327211539 0 -0.25930980669217207 -0.2092209049591027 0 -0.25735569879684361 -0.21607147517970321 0 -0.24775128754993839 -0.21316956327211539 0 -0.25424275704486898 -0.22475029041832451 0 -0.25735569879684361 -0.21607147517970321 0 -0.24373569801737971 -0.1899896809100155 0 -0.25485350440778992 -0.19932326154474719 0 -0.25719566552877698 -0.18651581528734479 0 -0.25930980669217207 -0.2092209049591027 0 -0.25485350440778992 -0.19932326154474719 0 -0.26713437787396199 -0.19893073617240939 0 -0.25485350440778992 -0.19932326154474719 0 -0.26713437787396199 -0.19893073617240939 0 -0.25719566552877698 -0.18651581528734479 0 -0.26713437787396199 -0.19893073617240939 0 -0.27150537426548671 -0.18430934065042279 0 -0.25719566552877698 -0.18651581528734479 0 -0.26811894390039459 -0.2171451420692703 0 -0.26713437787396199 -0.19893073617240939 0 -0.28444296670286551 -0.19277657328749789 0 -0.26713437787396199 -0.19893073617240939 0 -0.28444296670286551 -0.19277657328749789 0 -0.27150537426548671 -0.18430934065042279 0 -0.27849819934401659 -0.21775820870243781 0 -0.28444296670286551 -0.19277657328749789 0 -0.29668553215289423 -0.19840005500523819 0 -0.28444296670286551 -0.19277657328749789 0 -0.29668553215289423 -0.19840005500523819 0 -0.29919208833071692 -0.18465663352662509 0 -0.27849819934401659 -0.21775820870243781 0 -0.29668553215289423 -0.19840005500523819 0 -0.29416014494170267 -0.21494705133910191 0 -0.27849819934401659 -0.21775820870243781 0 -0.29668553215289423 -0.19840005500523819 0 -0.29668553215289423 -0.19840005500523819 0 -0.29416014494170267 -0.21494705133910191 0 -0.30235063284770852 -0.20762151177287039 0 -0.30511140518498392 -0.2243695227772369 0 -0.29416014494170267 -0.21494705133910191 0 -0.30235063284770852 -0.20762151177287039 0 -0.30511140518498392 -0.2243695227772369 0 -0.30235063284770852 -0.20762151177287039 0 -0.31425311480125889 -0.20848471723449699 0 -0.30235063284770852 -0.20762151177287039 0 -0.31223793695757512 -0.1959816948531469 0 -0.31425311480125889 -0.20848471723449699 0 -0.29668553215289423 -0.19840005500523819 0 -0.31487286496177191 -0.17904190130803849 0 -0.29668553215289423 -0.19840005500523819 0 -0.31223793695757512 -0.1959816948531469 0 -0.31487286496177191 -0.17904190130803849 0 -0.29668553215289423 -0.19840005500523819 0 -0.30235063284770852 -0.20762151177287039 0 -0.31223793695757512 -0.1959816948531469 0 -0.29668553215289423 -0.19840005500523819 0 -0.29919208833071692 -0.18465663352662509 0 -0.31487286496177191 -0.17904190130803849 0 -0.29919208833071692 -0.18465663352662509 0 -0.30076698950533609 -0.16840800450572579 0 -0.31487286496177191 -0.17904190130803849 0 -0.30076698950533609 -0.16840800450572579 0 -0.31415440635183861 -0.16037972272615189 0 -0.31487286496177191 -0.17904190130803849 0 -0.30076698950533609 -0.16840800450572579 0 -0.29935410721450878 -0.1559857411163684 0 -0.31415440635183861 -0.16037972272615189 0 -0.30076698950533609 -0.16840800450572579 0 -0.28613052837236203 -0.1618998397241819 0 -0.28339520757921022 -0.1754244887740069 0 -0.30076698950533609 -0.16840800450572579 0 -0.28613052837236203 -0.1618998397241819 0 -0.29935410721450878 -0.1559857411163684 0 -0.28444296670286551 -0.19277657328749789 0 -0.30076698950533609 -0.16840800450572579 0 -0.28339520757921022 -0.1754244887740069 0 -0.28444296670286551 -0.19277657328749789 0 -0.30076698950533609 -0.16840800450572579 0 -0.28444296670286551 -0.19277657328749789 0 -0.29919208833071692 -0.18465663352662509 0 -0.30076698950533609 -0.16840800450572579 0 -0.28444296670286551 -0.19277657328749789 0 -0.28339520757921022 -0.1754244887740069 0 -0.27150537426548671 -0.18430934065042279 0 -0.28339520757921022 -0.1754244887740069 0 -0.27150537426548671 -0.18430934065042279 0 -0.27413017905000048 -0.16972868570220601 0 -0.27150537426548671 -0.18430934065042279 0 -0.26013374120957827 -0.17108708613409429 0 -0.27413017905000048 -0.16972868570220601 0 -0.27150537426548671 -0.18430934065042279 0 -0.25719566552877698 -0.18651581528734479 0 -0.26013374120957827 -0.17108708613409429 0 -0.25019810589812103 -0.17757451758895951 0 -0.25719566552877698 -0.18651581528734479 0 -0.26013374120957827 -0.17108708613409429 0 -0.24373569801737971 -0.1899896809100155 0 -0.25019810589812103 -0.17757451758895951 0 -0.25719566552877698 -0.18651581528734479 0 -0.2569363904481663 -0.15707914903180101 0 -0.26598652982772958 -0.16296907765015969 0 -0.27274580860317338 -0.1539813897325375 0 -0.24277889253473359 -0.15910855771960619 0 -0.2569363904481663 -0.15707914903180101 0 -0.25044094514587317 -0.16683759268974169 0 -0.25019810589812103 -0.17757451758895951 0 -0.25044094514587317 -0.16683759268974169 0 -0.26013374120957827 -0.17108708613409429 0 -0.2569363904481663 -0.15707914903180101 0 -0.25044094514587317 -0.16683759268974169 0 -0.26013374120957827 -0.17108708613409429 0 -0.2569363904481663 -0.15707914903180101 0 -0.26013374120957827 -0.17108708613409429 0 -0.26598652982772958 -0.16296907765015969 0 -0.28613052837236203 -0.1618998397241819 0 -0.27413017905000048 -0.16972868570220601 0 -0.27274580860317338 -0.1539813897325375 0 -0.26598652982772958 -0.16296907765015969 0 -0.27413017905000048 -0.16972868570220601 0 -0.27274580860317338 -0.1539813897325375 0 -0.26013374120957827 -0.17108708613409429 0 -0.26598652982772958 -0.16296907765015969 0 -0.27413017905000048 -0.16972868570220601 0 -0.28613052837236203 -0.1618998397241819 0 -0.28339520757921022 -0.1754244887740069 0 -0.27413017905000048 -0.16972868570220601 0 -0.27274580860317338 -0.1539813897325375 0 -0.25778406659185371 -0.14580256711560011 0 -0.26691784151492248 -0.1373360281557553 0 -0.27274580860317338 -0.1539813897325375 0 -0.26691784151492248 -0.1373360281557553 0 -0.28696453331581079 -0.14403865122836779 0 -0.2569363904481663 -0.15707914903180101 0 -0.27274580860317338 -0.1539813897325375 0 -0.25778406659185371 -0.14580256711560011 0 -0.24611506428877319 -0.14737099558365599 0 -0.2479207332698648 -0.1331273038523644 0 -0.25778406659185371 -0.14580256711560011 0 -0.24611506428877319 -0.14737099558365599 0 -0.2569363904481663 -0.15707914903180101 0 -0.25778406659185371 -0.14580256711560011 0 -0.2479207332698648 -0.1331273038523644 0 -0.26130936171505359 -0.1209636408006369 0 -0.26691784151492248 -0.1373360281557553 0 -0.2479207332698648 -0.1331273038523644 0 -0.25778406659185371 -0.14580256711560011 0 -0.26691784151492248 -0.1373360281557553 0 -0.27891725506883142 -0.12790627073946881 0 -0.26691784151492248 -0.1373360281557553 0 -0.28696453331581079 -0.14403865122836779 0 -0.26130936171505359 -0.1209636408006369 0 -0.27891725506883142 -0.12790627073946881 0 -0.26691784151492248 -0.1373360281557553 0 -0.27891725506883142 -0.12790627073946881 0 -0.28696453331581079 -0.14403865122836779 0 -0.29916762052704832 -0.12864416601049869 0 -0.28613052837236203 -0.1618998397241819 0 -0.28696453331581079 -0.14403865122836779 0 -0.29935410721450878 -0.1559857411163684 0 -0.28613052837236203 -0.1618998397241819 0 -0.27274580860317338 -0.1539813897325375 0 -0.28696453331581079 -0.14403865122836779 0 -0.28696453331581079 -0.14403865122836779 0 -0.29935410721450878 -0.1559857411163684 0 -0.3087540785271965 -0.14520248739741479 0 -0.29935410721450878 -0.1559857411163684 0 -0.3087540785271965 -0.14520248739741479 0 -0.31415440635183861 -0.16037972272615189 0 -0.31609835619936089 -0.11963822228794931 0 -0.29916762052704832 -0.12864416601049869 0 -0.31832261737709427 -0.1347428581302203 0 -0.28696453331581079 -0.14403865122836779 0 -0.3087540785271965 -0.14520248739741479 0 -0.29916762052704832 -0.12864416601049869 0 -0.3087540785271965 -0.14520248739741479 0 -0.29916762052704832 -0.12864416601049869 0 -0.31832261737709427 -0.1347428581302203 0 -0.33049851837138139 -0.1232970161154185 0 -0.31832261737709427 -0.1347428581302203 0 -0.33162088046548022 -0.13979306284454709 0 -0.31609835619936089 -0.11963822228794931 0 -0.33049851837138139 -0.1232970161154185 0 -0.31832261737709427 -0.1347428581302203 0 -0.3087540785271965 -0.14520248739741479 0 -0.31832261737709427 -0.1347428581302203 0 -0.32261321135234361 -0.14989568378754611 0 -0.3087540785271965 -0.14520248739741479 0 -0.32261321135234361 -0.14989568378754611 0 -0.31415440635183861 -0.16037972272615189 0 -0.31832261737709427 -0.1347428581302203 0 -0.32261321135234361 -0.14989568378754611 0 -0.33162088046548022 -0.13979306284454709 0 -0.32261321135234361 -0.14989568378754611 0 -0.33162088046548022 -0.13979306284454709 0 -0.3330601977706496 -0.15968374761083881 0 -0.35124753057952718 -0.140325593913639 0 -0.3330601977706496 -0.15968374761083881 0 -0.34029142038408389 -0.1410389585599463 0 -0.33162088046548022 -0.13979306284454709 0 -0.3330601977706496 -0.15968374761083881 0 -0.34029142038408389 -0.1410389585599463 0 -0.35124753057952718 -0.140325593913639 0 -0.3330601977706496 -0.15968374761083881 0 -0.35124753057952718 -0.140325593913639 0 -0.34655050736044191 -0.16059654228076661 0 -0.3330601977706496 -0.15968374761083881 0 -0.33049851837138139 -0.1232970161154185 0 -0.33162088046548022 -0.13979306284454709 0 -0.33876896996697831 -0.13011096860524049 0 -0.34029142038408389 -0.1410389585599463 0 -0.34329809186857901 -0.1308772482998147 0 -0.33876896996697831 -0.13011096860524049 0 -0.34029142038408389 -0.1410389585599463 0 -0.33162088046548022 -0.13979306284454709 0 -0.33876896996697831 -0.13011096860524049 0 -0.3428844465437268 -0.1120334721204328 0 -0.35124753057952718 -0.140325593913639 0 -0.3428844465437268 -0.1120334721204328 0 -0.34329809186857901 -0.1308772482998147 0 -0.35124753057952718 -0.140325593913639 0 -0.3428844465437268 -0.1120334721204328 0 -0.35051208240572179 -0.1247599066077659 0 -0.35124753057952718 -0.140325593913639 0 -0.35051208240572179 -0.1247599066077659 0 -0.35124753057952718 -0.140325593913639 0 -0.3528214960591225 -0.13539506331928369 0 -0.34029142038408389 -0.1410389585599463 0 -0.34329809186857901 -0.1308772482998147 0 -0.35124753057952718 -0.140325593913639 0 -0.35124753057952718 -0.140325593913639 0 -0.35486821439954003 -0.1385055230021176 0 -0.3528214960591225 -0.13539506331928369 0 -0.35290329446365287 -0.14027126294745271 0 -0.35486821439954003 -0.1385055230021176 0 -0.35420077105701908 -0.1420292453655774 0 -0.35486821439954003 -0.1385055230021176 0 -0.35649094716313318 -0.14116532074593599 0 -0.35420077105701908 -0.1420292453655774 0 -0.35124753057952718 -0.140325593913639 0 -0.35290329446365287 -0.14027126294745271 0 -0.35486821439954003 -0.1385055230021176 0 -0.35486821439954003 -0.1385055230021176 0 -0.3528214960591225 -0.13539506331928369 0 -0.35692598500606287 -0.13180522233496361 0 -0.35486821439954003 -0.1385055230021176 0 -0.35917367624810592 -0.13891133513795109 0 -0.35692598500606287 -0.13180522233496361 0 -0.35486821439954003 -0.1385055230021176 0 -0.35917367624810592 -0.13891133513795109 0 -0.35649094716313318 -0.14116532074593599 0 -0.35051208240572179 -0.1247599066077659 0 -0.3528214960591225 -0.13539506331928369 0 -0.35692598500606287 -0.13180522233496361 0 -0.35051208240572179 -0.1247599066077659 0 -0.36418431240257287 -0.1189968266571844 0 -0.35692598500606287 -0.13180522233496361 0 -0.36418431240257287 -0.1189968266571844 0 -0.35692598500606287 -0.13180522233496361 0 -0.36441590547494801 -0.1339799469628094 0 -0.36418431240257287 -0.1189968266571844 0 -0.36441590547494801 -0.1339799469628094 0 -0.37756441123487061 -0.13743335445403099 0 -0.36418431240257287 -0.1189968266571844 0 -0.37756441123487061 -0.13743335445403099 0 -0.35917367624810592 -0.13891133513795109 0 -0.35692598500606287 -0.13180522233496361 0 -0.36441590547494801 -0.1339799469628094 0 -0.35917367624810592 -0.13891133513795109 0 -0.36441590547494801 -0.1339799469628094 0 -0.3671463255806936 -0.14213600104426169 0 -0.36441590547494801 -0.1339799469628094 0 -0.3671463255806936 -0.14213600104426169 0 -0.37756441123487061 -0.13743335445403099 0 -0.3697615025205101 -0.1558432189639114 0 -0.37369660808158328 -0.15127492405271831 0 -0.36549892324083222 -0.15274164636111581 0 -0.37369660808158328 -0.15127492405271831 0 -0.36340601674517242 -0.14693862175295569 0 -0.36549892324083222 -0.15274164636111581 0 -0.3697615025205101 -0.1558432189639114 0 -0.37369660808158328 -0.15127492405271831 0 -0.37335196315153618 -0.15861222745989301 0 -0.37369660808158328 -0.15127492405271831 0 -0.3671463255806936 -0.14213600104426169 0 -0.36340601674517242 -0.14693862175295569 0 -0.37369660808158328 -0.15127492405271831 0 -0.3671463255806936 -0.14213600104426169 0 -0.37756441123487061 -0.13743335445403099 0 -0.35917367624810592 -0.13891133513795109 0 -0.3671463255806936 -0.14213600104426169 0 -0.36340601674517242 -0.14693862175295569 0 -0.35917367624810592 -0.13891133513795109 0 -0.36340601674517242 -0.14693862175295569 0 -0.3582173343324796 -0.14528907583444589 0 -0.36340601674517242 -0.14693862175295569 0 -0.35984266241883928 -0.1510609449488903 0 -0.3582173343324796 -0.14528907583444589 0 -0.35984266241883928 -0.1510609449488903 0 -0.36549892324083222 -0.15274164636111581 0 -0.36649851560808883 -0.1607440779819187 0 -0.36340601674517242 -0.14693862175295569 0 -0.35984266241883928 -0.1510609449488903 0 -0.36549892324083222 -0.15274164636111581 0 -0.35124753057952718 -0.140325593913639 0 -0.35984266241883928 -0.1510609449488903 0 -0.35982954536875622 -0.16935835343257979 0 -0.35124753057952718 -0.140325593913639 0 -0.35982954536875622 -0.16935835343257979 0 -0.35984266241883928 -0.1510609449488903 0 -0.3582173343324796 -0.14528907583444589 0 -0.35420077105701908 -0.1420292453655774 0 -0.35124753057952718 -0.140325593913639 0 -0.35984266241883928 -0.1510609449488903 0 -0.35420077105701908 -0.1420292453655774 0 -0.35917367624810592 -0.13891133513795109 0 -0.35649094716313318 -0.14116532074593599 0 -0.3582173343324796 -0.14528907583444589 0 -0.35649094716313318 -0.14116532074593599 0 -0.3582173343324796 -0.14528907583444589 0 -0.35420077105701908 -0.1420292453655774 0 -0.35124753057952718 -0.140325593913639 0 -0.35290329446365287 -0.14027126294745271 0 -0.35420077105701908 -0.1420292453655774 0 -0.35124753057952718 -0.140325593913639 0 -0.34655050736044191 -0.16059654228076661 0 -0.35982954536875622 -0.16935835343257979 0 -0.34655050736044191 -0.16059654228076661 0 -0.35982954536875622 -0.16935835343257979 0 -0.34206475572283451 -0.17301847416600841 0 -0.35982954536875622 -0.16935835343257979 0 -0.34206475572283451 -0.17301847416600841 0 -0.35982954536875622 -0.16935835343257979 0 -0.36649851560808883 -0.1607440779819187 0 -0.37762126240838778 -0.165692684785893 0 -0.35984266241883928 -0.1510609449488903 0 -0.35982954536875622 -0.16935835343257979 0 -0.36649851560808883 -0.1607440779819187 0 -0.35982954536875622 -0.16935835343257979 0 -0.37213725559605781 -0.17725329869639081 0 -0.37762126240838778 -0.165692684785893 0 -0.35982954536875622 -0.16935835343257979 0 -0.37762126240838778 -0.165692684785893 0 -0.36649851560808883 -0.1607440779819187 0 -0.37335196315153618 -0.15861222745989301 0 -0.37762126240838778 -0.165692684785893 0 -0.3697615025205101 -0.1558432189639114 0 -0.36549892324083222 -0.15274164636111581 0 -0.36649851560808883 -0.1607440779819187 0 -0.3697615025205101 -0.1558432189639114 0 -0.36649851560808883 -0.1607440779819187 0 -0.37335196315153618 -0.15861222745989301 0 -0.35982954536875622 -0.16935835343257979 0 -0.3665146855449592 -0.19197402957071411 0 -0.35982954536875622 -0.16935835343257979 0 -0.37213725559605781 -0.17725329869639081 0 -0.3665146855449592 -0.19197402957071411 0 -0.37213725559605781 -0.17725329869639081 0 -0.3665146855449592 -0.19197402957071411 0 -0.38458352906212789 -0.18198812699637609 0 -0.35982954536875622 -0.16935835343257979 0 -0.34898538938310841 -0.1864717639648234 0 -0.3665146855449592 -0.19197402957071411 0 -0.35982954536875622 -0.16935835343257979 0 -0.34898538938310841 -0.1864717639648234 0 -0.34206475572283451 -0.17301847416600841 0 -0.34206475572283451 -0.17301847416600841 0 -0.32429996607691269 -0.17667859489943691 0 -0.34898538938310841 -0.1864717639648234 0 -0.33490240905337437 -0.1860639372036946 0 -0.34206475572283451 -0.17301847416600841 0 -0.33490240905337437 -0.1860639372036946 0 -0.34206475572283451 -0.17301847416600841 0 -0.32429996607691269 -0.17667859489943691 0 -0.34655050736044191 -0.16059654228076661 0 -0.34206475572283451 -0.17301847416600841 0 -0.3330601977706496 -0.15968374761083881 0 -0.34206475572283451 -0.17301847416600841 0 -0.3330601977706496 -0.15968374761083881 0 -0.32429996607691269 -0.17667859489943691 0 -0.3330601977706496 -0.15968374761083881 0 -0.31487286496177191 -0.17904190130803849 0 -0.32261321135234361 -0.14989568378754611 0 -0.3330601977706496 -0.15968374761083881 0 -0.31415440635183861 -0.16037972272615189 0 -0.3330601977706496 -0.15968374761083881 0 -0.31487286496177191 -0.17904190130803849 0 -0.32429996607691269 -0.17667859489943691 0 -0.3330601977706496 -0.15968374761083881 0 -0.31415440635183861 -0.16037972272615189 0 -0.31487286496177191 -0.17904190130803849 0 -0.31223793695757512 -0.1959816948531469 0 -0.31487286496177191 -0.17904190130803849 0 -0.32215658968289279 -0.18694165305785779 0 -0.33490240905337437 -0.1860639372036946 0 -0.32215658968289279 -0.18694165305785779 0 -0.32429996607691269 -0.17667859489943691 0 -0.31487286496177191 -0.17904190130803849 0 -0.32215658968289279 -0.18694165305785779 0 -0.32429996607691269 -0.17667859489943691 0 -0.33490240905337437 -0.1860639372036946 0 -0.32215658968289279 -0.18694165305785779 0 -0.32446977136483052 -0.19694213702497251 0 -0.31223793695757512 -0.1959816948531469 0 -0.32215658968289279 -0.18694165305785779 0 -0.32446977136483052 -0.19694213702497251 0 -0.31223793695757512 -0.1959816948531469 0 -0.32446977136483052 -0.19694213702497251 0 -0.31425311480125889 -0.20848471723449699 0 -0.30511140518498392 -0.2243695227772369 0 -0.31425311480125889 -0.20848471723449699 0 -0.31929129854256511 -0.21992100019137281 0 -0.31425311480125889 -0.20848471723449699 0 -0.33243945612266051 -0.21080599969021771 0 -0.31929129854256511 -0.21992100019137281 0 -0.32446977136483052 -0.19694213702497251 0 -0.31425311480125889 -0.20848471723449699 0 -0.33243945612266051 -0.21080599969021771 0 -0.33243945612266051 -0.21080599969021771 0 -0.33146637178659788 -0.2254517036239847 0 -0.31929129854256511 -0.21992100019137281 0 -0.33243945612266051 -0.21080599969021771 0 -0.33643456450190012 -0.19805284196207729 0 -0.34947707083380991 -0.20139001463046599 0 -0.33243945612266051 -0.21080599969021771 0 -0.34947707083380991 -0.20139001463046599 0 -0.32446977136483052 -0.19694213702497251 0 -0.33243945612266051 -0.21080599969021771 0 -0.33643456450190012 -0.19805284196207729 0 -0.33490240905337437 -0.1860639372036946 0 -0.32446977136483052 -0.19694213702497251 0 -0.33643456450190012 -0.19805284196207729 0 -0.34898538938310841 -0.1864717639648234 0 -0.33490240905337437 -0.1860639372036946 0 -0.33643456450190012 -0.19805284196207729 0 -0.34947707083380991 -0.20139001463046599 0 -0.3665146855449592 -0.19197402957071411 0 -0.34898538938310841 -0.1864717639648234 0 -0.33643456450190012 -0.19805284196207729 0 -0.34947707083380991 -0.20139001463046599 0 -0.34898538938310841 -0.1864717639648234 0 -0.34947707083380991 -0.20139001463046599 0 -0.3665146855449592 -0.19197402957071411 0 -0.34947707083380991 -0.20139001463046599 0 -0.3665146855449592 -0.19197402957071411 0 -0.37274046046961878 -0.21303568358155009 0 -0.3665146855449592 -0.19197402957071411 0 -0.37274046046961878 -0.21303568358155009 0 -0.33243945612266051 -0.21080599969021771 0 -0.34947707083380991 -0.20139001463046599 0 -0.35561649319237232 -0.22463074922381501 0 -0.34947707083380991 -0.20139001463046599 0 -0.37274046046961878 -0.21303568358155009 0 -0.35561649319237232 -0.22463074922381501 0 -0.35561649319237232 -0.22463074922381501 0 -0.36175152772782743 -0.23946649949601709 0 -0.33849252591512557 -0.23622581486607969 0 -0.35561649319237232 -0.22463074922381501 0 -0.33849252591512557 -0.23622581486607969 0 -0.37274046046961878 -0.21303568358155009 0 -0.36742962370234822 -0.22835203905299059 0 -0.37961001341957412 -0.23627522391058031 0 -0.37274046046961878 -0.21303568358155009 0 -0.35561649319237232 -0.22463074922381501 0 -0.37274046046961878 -0.21303568358155009 0 -0.35561649319237232 -0.22463074922381501 0 -0.36742962370234822 -0.22835203905299059 0 -0.35561649319237232 -0.22463074922381501 0 -0.36742962370234822 -0.22835203905299059 0 -0.36175152772782743 -0.23946649949601709 0 -0.36742962370234822 -0.22835203905299059 0 -0.36175152772782743 -0.23946649949601709 0 -0.37961001341957412 -0.23627522391058031 0 -0.37178102418123588 -0.25200234154118711 0 -0.36175152772782743 -0.23946649949601709 0 -0.37961001341957412 -0.23627522391058031 0 -0.35884391232293772 -0.25801278068515038 0 -0.37178102418123588 -0.25200234154118711 0 -0.36175152772782743 -0.23946649949601709 0 -0.34994097381523948 -0.25034073285603931 0 -0.36175152772782743 -0.23946649949601709 0 -0.33849252591512557 -0.23622581486607969 0 -0.35884391232293772 -0.25801278068515038 0 -0.34994097381523948 -0.25034073285603931 0 -0.36175152772782743 -0.23946649949601709 0 -0.34994097381523948 -0.25034073285603931 0 -0.33783866616150648 -0.24712190544539381 0 -0.33849252591512557 -0.23622581486607969 0 -0.33849252591512557 -0.23622581486607969 0 -0.33146637178659788 -0.2254517036239847 0 -0.32777286763931862 -0.24159075107468639 0 -0.33180142441554661 -0.25146082962016392 0 -0.33783866616150648 -0.24712190544539381 0 -0.32777286763931862 -0.24159075107468639 0 -0.33783866616150648 -0.24712190544539381 0 -0.33849252591512557 -0.23622581486607969 0 -0.32777286763931862 -0.24159075107468639 0 -0.35561649319237232 -0.22463074922381501 0 -0.33849252591512557 -0.23622581486607969 0 -0.33146637178659788 -0.2254517036239847 0 -0.33243945612266051 -0.21080599969021771 0 -0.35561649319237232 -0.22463074922381501 0 -0.33146637178659788 -0.2254517036239847 0 -0.33146637178659788 -0.2254517036239847 0 -0.31901483679888459 -0.2307556290827959 0 -0.32777286763931862 -0.24159075107468639 0 -0.33146637178659788 -0.2254517036239847 0 -0.31929129854256511 -0.21992100019137281 0 -0.31901483679888459 -0.2307556290827959 0 -0.30511140518498392 -0.2243695227772369 0 -0.31929129854256511 -0.21992100019137281 0 -0.31901483679888459 -0.2307556290827959 0 -0.32299919822109602 -0.25112279180470409 0 -0.30409382839077781 -0.25248712099645099 0 -0.31274465306979732 -0.24246923326052641 0 -0.31901483679888459 -0.2307556290827959 0 -0.31274465306979732 -0.24246923326052641 0 -0.32777286763931862 -0.24159075107468639 0 -0.32299919822109602 -0.25112279180470409 0 -0.33180142441554661 -0.25146082962016392 0 -0.32777286763931862 -0.24159075107468639 0 -0.32299919822109602 -0.25112279180470409 0 -0.31274465306979732 -0.24246923326052641 0 -0.32777286763931862 -0.24159075107468639 0 -0.41622591407374848 -0.25127892899794918 0 -0.43318725347332682 -0.24571171026092681 0 -0.42147922818714473 -0.23331328991576999 0 -0.43318725347332682 -0.24571171026092681 0 -0.42147922818714473 -0.23331328991576999 0 -0.43880379729023328 -0.2320343504766437 0 -0.42147922818714473 -0.23331328991576999 0 -0.43089274945281819 -0.21759818926402419 0 -0.43880379729023328 -0.2320343504766437 0 -0.42147922818714473 -0.23331328991576999 0 -0.41622400894974448 -0.21806057519930969 0 -0.43089274945281819 -0.21759818926402419 0 -0.42147922818714473 -0.23331328991576999 0 -0.40964804625781948 -0.23946024321629711 0 -0.4048721994360247 -0.2268055616421126 0 -0.42147922818714473 -0.23331328991576999 0 -0.4048721994360247 -0.2268055616421126 0 -0.41622400894974448 -0.21806057519930969 0 -0.41622591407374848 -0.25127892899794918 0 -0.42147922818714473 -0.23331328991576999 0 -0.40964804625781948 -0.23946024321629711 0 -0.40130876001187871 -0.25436073407262788 0 -0.41622591407374848 -0.25127892899794918 0 -0.40964804625781948 -0.23946024321629711 0 -0.40964804625781948 -0.23946024321629711 0 -0.396298729788024 -0.24282391814839641 0 -0.4048721994360247 -0.2268055616421126 0 -0.40130876001187871 -0.25436073407262788 0 -0.40964804625781948 -0.23946024321629711 0 -0.396298729788024 -0.24282391814839641 0 -0.38647956636953029 -0.25951476423961012 0 -0.37961001341957412 -0.23627522391058031 0 -0.38647956636953029 -0.25951476423961012 0 -0.396298729788024 -0.24282391814839641 0 -0.37961001341957412 -0.23627522391058031 0 -0.38647956636953029 -0.25951476423961012 0 -0.37178102418123588 -0.25200234154118711 0 -0.37961001341957412 -0.23627522391058031 0 -0.396298729788024 -0.24282391814839641 0 -0.37961001341957412 -0.23627522391058031 0 -0.39044402892341268 -0.2208903379886602 0 -0.37274046046961878 -0.21303568358155009 0 -0.37961001341957412 -0.23627522391058031 0 -0.37274046046961878 -0.21303568358155009 0 -0.37961001341957412 -0.23627522391058031 0 -0.39044402892341268 -0.2208903379886602 0 -0.39044402892341268 -0.2208903379886602 0 -0.4048721994360247 -0.2268055616421126 0 -0.40460305380474448 -0.20859419142907731 0 -0.396298729788024 -0.24282391814839641 0 -0.39044402892341268 -0.2208903379886602 0 -0.4048721994360247 -0.2268055616421126 0 -0.39044402892341268 -0.2208903379886602 0 -0.40460305380474448 -0.20859419142907731 0 -0.38984769956714249 -0.20145194500729649 0 -0.37274046046961878 -0.21303568358155009 0 -0.38984769956714249 -0.20145194500729649 0 -0.37274046046961878 -0.21303568358155009 0 -0.39044402892341268 -0.2208903379886602 0 -0.38984769956714249 -0.20145194500729649 0 -0.3665146855449592 -0.19197402957071411 0 -0.37274046046961878 -0.21303568358155009 0 -0.38984769956714249 -0.20145194500729649 0 -0.38984769956714249 -0.20145194500729649 0 -0.39705165069948639 -0.18394592697638851 0 -0.38458352906212789 -0.18198812699637609 0 -0.3665146855449592 -0.19197402957071411 0 -0.38984769956714249 -0.20145194500729649 0 -0.38458352906212789 -0.18198812699637609 0 -0.38984769956714249 -0.20145194500729649 0 -0.40695493866466609 -0.1898682064330427 0 -0.38984769956714249 -0.20145194500729649 0 -0.40695493866466609 -0.1898682064330427 0 -0.39705165069948639 -0.18394592697638851 0 -0.40460305380474448 -0.20859419142907731 0 -0.38984769956714249 -0.20145194500729649 0 -0.40695493866466609 -0.1898682064330427 0 -0.40460305380474448 -0.20859419142907731 0 -0.40695493866466609 -0.1898682064330427 0 -0.4192728138679907 -0.20399164374556461 0 -0.40695493866466609 -0.1898682064330427 0 -0.4192728138679907 -0.20399164374556461 0 -0.42237945177905573 -0.19085013981650659 0 -0.40460305380474448 -0.20859419142907731 0 -0.41622400894974448 -0.21806057519930969 0 -0.4192728138679907 -0.20399164374556461 0 -0.4048721994360247 -0.2268055616421126 0 -0.40460305380474448 -0.20859419142907731 0 -0.41622400894974448 -0.21806057519930969 0 -0.4192728138679907 -0.20399164374556461 0 -0.44297460665217409 -0.20391447284927561 0 -0.4192728138679907 -0.20399164374556461 0 -0.43089274945281819 -0.21759818926402419 0 -0.44297460665217409 -0.20391447284927561 0 -0.41622400894974448 -0.21806057519930969 0 -0.4192728138679907 -0.20399164374556461 0 -0.43089274945281819 -0.21759818926402419 0 -0.4192728138679907 -0.20399164374556461 0 -0.43211514102294718 -0.1949040243705894 0 -0.44297460665217409 -0.20391447284927561 0 -0.43211514102294718 -0.1949040243705894 0 -0.42915529120386708 -0.1870337807610587 0 -0.43806439425127569 -0.18409649099834999 0 -0.43211514102294718 -0.1949040243705894 0 -0.42237945177905573 -0.19085013981650659 0 -0.42915529120386708 -0.1870337807610587 0 -0.4192728138679907 -0.20399164374556461 0 -0.43211514102294718 -0.1949040243705894 0 -0.42237945177905573 -0.19085013981650659 0 -0.42406217776218968 -0.1782844678587889 0 -0.44096632831736882 -0.1690201894558436 0 -0.43806439425127569 -0.18409649099834999 0 -0.42406217776218968 -0.1782844678587889 0 -0.42861128310318392 -0.16779597761938231 0 -0.41561686115172253 -0.17247032015587069 0 -0.42237945177905573 -0.19085013981650659 0 -0.42406217776218968 -0.1782844678587889 0 -0.42915529120386708 -0.1870337807610587 0 -0.42406217776218968 -0.1782844678587889 0 -0.42915529120386708 -0.1870337807610587 0 -0.43806439425127569 -0.18409649099834999 0 -0.41919288928433951 -0.1628609648727572 0 -0.41557319271870102 -0.15787336073134131 0 -0.43573340598938243 -0.1537197053234767 0 -0.42861128310318392 -0.16779597761938231 0 -0.41919288928433951 -0.1628609648727572 0 -0.43573340598938243 -0.1537197053234767 0 -0.42406217776218968 -0.1782844678587889 0 -0.42861128310318392 -0.16779597761938231 0 -0.44096632831736882 -0.1690201894558436 0 -0.41919288928433951 -0.1628609648727572 0 -0.43573340598938243 -0.1537197053234767 0 -0.42861128310318392 -0.16779597761938231 0 -0.43573340598938243 -0.1537197053234767 0 -0.44096632831736882 -0.1690201894558436 0 -0.42861128310318392 -0.16779597761938231 0 -0.41919288928433951 -0.1628609648727572 0 -0.41561686115172253 -0.17247032015587069 0 -0.41919288928433951 -0.1628609648727572 0 -0.41557319271870102 -0.15787336073134131 0 -0.40265237257929642 -0.1720022244220375 0 -0.41919288928433951 -0.1628609648727572 0 -0.40265237257929642 -0.1720022244220375 0 -0.41919288928433951 -0.1628609648727572 0 -0.41561686115172253 -0.17247032015587069 0 -0.40265237257929642 -0.1720022244220375 0 -0.42406217776218968 -0.1782844678587889 0 -0.40784906066494209 -0.179162775741077 0 -0.41561686115172253 -0.17247032015587069 0 -0.40784906066494209 -0.179162775741077 0 -0.41561686115172253 -0.17247032015587069 0 -0.40265237257929642 -0.1720022244220375 0 -0.40695493866466609 -0.1898682064330427 0 -0.42237945177905573 -0.19085013981650659 0 -0.42406217776218968 -0.1782844678587889 0 -0.40695493866466609 -0.1898682064330427 0 -0.42406217776218968 -0.1782844678587889 0 -0.40784906066494209 -0.179162775741077 0 -0.40695493866466609 -0.1898682064330427 0 -0.42406217776218968 -0.1782844678587889 0 -0.40695493866466609 -0.1898682064330427 0 -0.40784906066494209 -0.179162775741077 0 -0.39705165069948639 -0.18394592697638851 0 -0.40265237257929642 -0.1720022244220375 0 -0.39705165069948639 -0.18394592697638851 0 -0.38458352906212789 -0.18198812699637609 0 -0.40265237257929642 -0.1720022244220375 0 -0.38458352906212789 -0.18198812699637609 0 -0.40265237257929642 -0.1720022244220375 0 -0.38458352906212789 -0.18198812699637609 0 -0.38903967517844751 -0.1706621866955233 0 -0.40784906066494209 -0.179162775741077 0 -0.40265237257929642 -0.1720022244220375 0 -0.39705165069948639 -0.18394592697638851 0 -0.40784906066494209 -0.179162775741077 0 -0.40265237257929642 -0.1720022244220375 0 -0.38458352906212789 -0.18198812699637609 0 -0.37762126240838778 -0.165692684785893 0 -0.38903967517844751 -0.1706621866955233 0 -0.37213725559605781 -0.17725329869639081 0 -0.38458352906212789 -0.18198812699637609 0 -0.37762126240838778 -0.165692684785893 0 -0.3665146855449592 -0.19197402957071411 0 -0.38458352906212789 -0.18198812699637609 0 -0.37762126240838778 -0.165692684785893 0 -0.38903967517844751 -0.1706621866955233 0 -0.39541297944801912 -0.16202701613920431 0 -0.37762126240838778 -0.165692684785893 0 -0.38341238100765002 -0.1598971288406715 0 -0.39541297944801912 -0.16202701613920431 0 -0.37762126240838778 -0.165692684785893 0 -0.39541297944801912 -0.16202701613920431 0 -0.37369660808158328 -0.15127492405271831 0 -0.37335196315153618 -0.15861222745989301 0 -0.38341238100765002 -0.1598971288406715 0 -0.37335196315153618 -0.15861222745989301 0 -0.37762126240838778 -0.165692684785893 0 -0.38341238100765002 -0.1598971288406715 0 -0.38341238100765002 -0.1598971288406715 0 -0.39541297944801912 -0.16202701613920431 0 -0.39094451006716813 -0.15586988225087781 0 -0.38341238100765002 -0.1598971288406715 0 -0.39094451006716813 -0.15586988225087781 0 -0.39541297944801912 -0.16202701613920431 0 -0.40380089582189521 -0.15507438858205899 0 -0.39094451006716813 -0.15586988225087781 0 -0.41557319271870102 -0.15787336073134131 0 -0.39541297944801912 -0.16202701613920431 0 -0.40380089582189521 -0.15507438858205899 0 -0.41557319271870102 -0.15787336073134131 0 -0.39541297944801912 -0.16202701613920431 0 -0.39541297944801912 -0.16202701613920431 0 -0.39094451006716813 -0.15586988225087781 0 -0.41557319271870102 -0.15787336073134131 0 -0.40265237257929642 -0.1720022244220375 0 -0.39541297944801912 -0.16202701613920431 0 -0.40265237257929642 -0.1720022244220375 0 -0.38903967517844751 -0.1706621866955233 0 -0.39541297944801912 -0.16202701613920431 0 -0.40265237257929642 -0.1720022244220375 0 -0.39541297944801912 -0.16202701613920431 0 -0.39094451006716813 -0.15586988225087781 0 -0.41078387386502507 -0.1452622559652488 0 -0.39094451006716813 -0.15586988225087781 0 -0.39684204281671293 -0.13796322287046359 0 -0.41078387386502507 -0.1452622559652488 0 -0.40380089582189521 -0.15507438858205899 0 -0.39094451006716813 -0.15586988225087781 0 -0.41078387386502507 -0.1452622559652488 0 -0.39094451006716813 -0.15586988225087781 0 -0.37756441123487061 -0.13743335445403099 0 -0.37369660808158328 -0.15127492405271831 0 -0.39094451006716813 -0.15586988225087781 0 -0.37756441123487061 -0.13743335445403099 0 -0.39094451006716813 -0.15586988225087781 0 -0.37756441123487061 -0.13743335445403099 0 -0.39684204281671293 -0.13796322287046359 0 -0.37369660808158328 -0.15127492405271831 0 -0.38341238100765002 -0.1598971288406715 0 -0.39094451006716813 -0.15586988225087781 0 -0.37756441123487061 -0.13743335445403099 0 -0.39684204281671293 -0.13796322287046359 0 -0.39198765699595373 -0.12453929538024559 0 -0.39684204281671293 -0.13796322287046359 0 -0.39198765699595373 -0.12453929538024559 0 -0.41355629031781671 -0.12315800534729621 0 -0.41078387386502507 -0.1452622559652488 0 -0.43062323766288058 -0.13465462967961689 0 -0.41355629031781671 -0.12315800534729621 0 -0.39684204281671293 -0.13796322287046359 0 -0.41078387386502507 -0.1452622559652488 0 -0.41355629031781671 -0.12315800534729621 0 -0.41078387386502507 -0.1452622559652488 0 -0.43062323766288058 -0.13465462967961689 0 -0.41078387386502507 -0.1452622559652488 0 -0.42394001454949171 -0.14748092095527249 0 -0.43062323766288058 -0.13465462967961689 0 -0.41557319271870102 -0.15787336073134131 0 -0.40380089582189521 -0.15507438858205899 0 -0.41078387386502507 -0.1452622559652488 0 -0.41557319271870102 -0.15787336073134131 0 -0.41078387386502507 -0.1452622559652488 0 -0.42394001454949171 -0.14748092095527249 0 -0.42394001454949171 -0.14748092095527249 0 -0.43573340598938243 -0.1537197053234767 0 -0.43062323766288058 -0.13465462967961689 0 -0.43573340598938243 -0.1537197053234767 0 -0.43062323766288058 -0.13465462967961689 0 -0.44296245875269541 -0.1415646451702286 0 -0.41557319271870102 -0.15787336073134131 0 -0.42394001454949171 -0.14748092095527249 0 -0.43573340598938243 -0.1537197053234767 0 -0.41557319271870102 -0.15787336073134131 0 -0.43573340598938243 -0.1537197053234767 0 -0.43062323766288058 -0.13465462967961689 0 -0.41355629031781671 -0.12315800534729621 0 -0.43613547651758511 -0.1211076089031467 0 -0.43062323766288058 -0.13465462967961689 0 -0.44839824726235822 -0.13464514217279641 0 -0.45046260146073602 -0.124047003393985 0 -0.43062323766288058 -0.13465462967961689 0 -0.44839824726235822 -0.13464514217279641 0 -0.44296245875269541 -0.1415646451702286 0 -0.43062323766288058 -0.13465462967961689 0 -0.43613547651758511 -0.1211076089031467 0 -0.45046260146073602 -0.124047003393985 0 -0.43062323766288058 -0.13465462967961689 0 -0.45046260146073602 -0.124047003393985 0 -0.44839824726235822 -0.13464514217279641 0 -0.44296245875269541 -0.1415646451702286 0 -0.45710051871082752 -0.14191098575996311 0 -0.43573340598938243 -0.1537197053234767 0 -0.4591130953380963 -0.1489027338066771 0 -0.43573340598938243 -0.1537197053234767 0 -0.45710051871082752 -0.14191098575996311 0 -0.4591130953380963 -0.1489027338066771 0 -0.43573340598938243 -0.1537197053234767 0 -0.44296245875269541 -0.1415646451702286 0 -0.45710051871082752 -0.14191098575996311 0 -0.43573340598938243 -0.1537197053234767 0 -0.4591130953380963 -0.1489027338066771 0 -0.4472296548746692 -0.1591022862765378 0 -0.43573340598938243 -0.1537197053234767 0 -0.45710051871082752 -0.14191098575996311 0 -0.4591130953380963 -0.1489027338066771 0 -0.46295828739932049 -0.1590386777821772 0 -0.45598066534128118 -0.15735181576144869 0 -0.4591130953380963 -0.1489027338066771 0 -0.45598066534128118 -0.15735181576144869 0 -0.4472296548746692 -0.1591022862765378 0 -0.4591130953380963 -0.1489027338066771 0 -0.47109149554744989 -0.15500894151713759 0 -0.46295828739932049 -0.1590386777821772 0 -0.45710051871082752 -0.14191098575996311 0 -0.4591130953380963 -0.1489027338066771 0 -0.4686018415303953 -0.1391774197265245 0 -0.4686018415303953 -0.1391774197265245 0 -0.46084241972465129 -0.13104844686018849 0 -0.47123471444965409 -0.11771781103171131 0 -0.45710051871082752 -0.14191098575996311 0 -0.4686018415303953 -0.1391774197265245 0 -0.46084241972465129 -0.13104844686018849 0 -0.44839824726235822 -0.13464514217279641 0 -0.45710051871082752 -0.14191098575996311 0 -0.46084241972465129 -0.13104844686018849 0 -0.44839824726235822 -0.13464514217279641 0 -0.46084241972465129 -0.13104844686018849 0 -0.45046260146073602 -0.124047003393985 0 -0.48249278468681012 -0.14408576228987729 0 -0.47123471444965409 -0.11771781103171131 0 -0.4686018415303953 -0.1391774197265245 0 -0.48249278468681012 -0.14408576228987729 0 -0.47123471444965409 -0.11771781103171131 0 -0.48770648981904652 -0.12513251426390001 0 -0.48249278468681012 -0.14408576228987729 0 -0.47123471444965409 -0.11771781103171131 0 -0.49999999999999328 -0.14047871019246849 0 -0.48770648981904652 -0.12513251426390001 0 -0.5 -0.1108487628475817 0 -0.49999999999999328 -0.14047871019246849 0 -0.48770648981904652 -0.12513251426390001 0 -0.48249278468681012 -0.14408576228987729 0 -0.48249278468681012 -0.14408576228987729 0 -0.48964183062104122 -0.16082981262578741 0 -0.49303365382696279 -0.1527539393385848 0 -0.48249278468681012 -0.14408576228987729 0 -0.48964183062104122 -0.16082981262578741 0 -0.49999999999999328 -0.14047871019246849 0 -0.48249278468681012 -0.14408576228987729 0 -0.49999999999999328 -0.14047871019246849 0 -0.49303365382696279 -0.1527539393385848 0 -0.48249278468681012 -0.14408576228987729 0 -0.49999999999999328 -0.14047871019246849 0 -0.49303365382696279 -0.1527539393385848 0 -0.5 -0.16562147224620591 0 -0.48249278468681012 -0.14408576228987729 0 -0.47921495937748437 -0.15968398231975939 0 -0.48964183062104122 -0.16082981262578741 0 -0.4591130953380963 -0.1489027338066771 0 -0.48249278468681012 -0.14408576228987729 0 -0.4591130953380963 -0.1489027338066771 0 -0.4686018415303953 -0.1391774197265245 0 -0.48249278468681012 -0.14408576228987729 0 -0.4591130953380963 -0.1489027338066771 0 -0.48249278468681012 -0.14408576228987729 0 -0.47109149554744989 -0.15500894151713759 0 -0.48249278468681012 -0.14408576228987729 0 -0.47109149554744989 -0.15500894151713759 0 -0.47921495937748437 -0.15968398231975939 0 -0.47109149554744989 -0.15500894151713759 0 -0.47081064968637121 -0.16501220327804081 0 -0.47921495937748437 -0.15968398231975939 0 -0.47081064968637121 -0.16501220327804081 0 -0.48092946391091462 -0.1723154561750703 0 -0.47020702489286043 -0.17409631813200949 0 -0.47921495937748437 -0.15968398231975939 0 -0.48964183062104122 -0.16082981262578741 0 -0.48092946391091462 -0.1723154561750703 0 -0.47081064968637121 -0.16501220327804081 0 -0.47921495937748437 -0.15968398231975939 0 -0.48092946391091462 -0.1723154561750703 0 -0.48964183062104122 -0.16082981262578741 0 -0.49679087655527138 -0.17757386296169789 0 -0.48964183062104122 -0.16082981262578741 0 -0.5 -0.16562147224620591 0 -0.49679087655527138 -0.17757386296169789 0 -0.48964183062104122 -0.16082981262578741 0 -0.49679087655527138 -0.17757386296169789 0 -0.48092946391091462 -0.1723154561750703 0 -0.49303365382696279 -0.1527539393385848 0 -0.48964183062104122 -0.16082981262578741 0 -0.5 -0.16562147224620591 0 -0.49679087655527138 -0.17757386296169789 0 -0.48675287054345318 -0.18455427739051539 0 -0.48092946391091462 -0.1723154561750703 0 -0.5 -0.16562147224620591 0 -0.49679087655527138 -0.17757386296169789 0 -0.50000000000000133 -0.19076423429994341 0 -0.49679087655527138 -0.17757386296169789 0 -0.48675287054345318 -0.18455427739051539 0 -0.50000000000000133 -0.19076423429994341 0 -0.48675287054345318 -0.18455427739051539 0 -0.48092946391091462 -0.1723154561750703 0 -0.47284465681280219 -0.18366242784150011 0 -0.48092946391091462 -0.1723154561750703 0 -0.47020702489286043 -0.17409631813200949 0 -0.47284465681280219 -0.18366242784150011 0 -0.47020702489286043 -0.17409631813200949 0 -0.47284465681280219 -0.18366242784150011 0 -0.46415545794819779 -0.17832247563027989 0 -0.47284465681280219 -0.18366242784150011 0 -0.46054579194836109 -0.1854408688451275 0 -0.46709395081656768 -0.19283461914361771 0 -0.47284465681280219 -0.18366242784150011 0 -0.46054579194836109 -0.1854408688451275 0 -0.46415545794819779 -0.17832247563027989 0 -0.46054579194836109 -0.1854408688451275 0 -0.45522236446792008 -0.17792179817479789 0 -0.46415545794819779 -0.17832247563027989 0 -0.46054579194836109 -0.1854408688451275 0 -0.45522236446792008 -0.17792179817479789 0 -0.44922639906036782 -0.18543742290266979 0 -0.45522236446792008 -0.17792179817479789 0 -0.46415545794819779 -0.17832247563027989 0 -0.46195745161904561 -0.17049096515796441 0 -0.45522236446792008 -0.17792179817479789 0 -0.46195745161904561 -0.17049096515796441 0 -0.45031141961874133 -0.16972752012048531 0 -0.47020702489286043 -0.17409631813200949 0 -0.46415545794819779 -0.17832247563027989 0 -0.46195745161904561 -0.17049096515796441 0 -0.47081064968637121 -0.16501220327804081 0 -0.46195745161904561 -0.17049096515796441 0 -0.46295828739932049 -0.1590386777821772 0 -0.47081064968637121 -0.16501220327804081 0 -0.47020702489286043 -0.17409631813200949 0 -0.46195745161904561 -0.17049096515796441 0 -0.47109149554744989 -0.15500894151713759 0 -0.47081064968637121 -0.16501220327804081 0 -0.46295828739932049 -0.1590386777821772 0 -0.46295828739932049 -0.1590386777821772 0 -0.45599667876858407 -0.16305555567922461 0 -0.45598066534128118 -0.15735181576144869 0 -0.46195745161904561 -0.17049096515796441 0 -0.46295828739932049 -0.1590386777821772 0 -0.45599667876858407 -0.16305555567922461 0 -0.46195745161904561 -0.17049096515796441 0 -0.45599667876858407 -0.16305555567922461 0 -0.45031141961874133 -0.16972752012048531 0 -0.45031141961874133 -0.16972752012048531 0 -0.4472296548746692 -0.1591022862765378 0 -0.44096632831736882 -0.1690201894558436 0 -0.45599667876858407 -0.16305555567922461 0 -0.45598066534128118 -0.15735181576144869 0 -0.4472296548746692 -0.1591022862765378 0 -0.45599667876858407 -0.16305555567922461 0 -0.45031141961874133 -0.16972752012048531 0 -0.4472296548746692 -0.1591022862765378 0 -0.43573340598938243 -0.1537197053234767 0 -0.4472296548746692 -0.1591022862765378 0 -0.44096632831736882 -0.1690201894558436 0 -0.44096632831736882 -0.1690201894558436 0 -0.43806439425127569 -0.18409649099834999 0 -0.4467581811431347 -0.1772406843304293 0 -0.43806439425127569 -0.18409649099834999 0 -0.44922639906036782 -0.18543742290266979 0 -0.44348012422764888 -0.19251535954521129 0 -0.43806439425127569 -0.18409649099834999 0 -0.44922639906036782 -0.18543742290266979 0 -0.4467581811431347 -0.1772406843304293 0 -0.45522236446792008 -0.17792179817479789 0 -0.44922639906036782 -0.18543742290266979 0 -0.4467581811431347 -0.1772406843304293 0 -0.45522236446792008 -0.17792179817479789 0 -0.45031141961874133 -0.16972752012048531 0 -0.4467581811431347 -0.1772406843304293 0 -0.45031141961874133 -0.16972752012048531 0 -0.44096632831736882 -0.1690201894558436 0 -0.4467581811431347 -0.1772406843304293 0 -0.44348012422764888 -0.19251535954521129 0 -0.44297460665217409 -0.20391447284927561 0 -0.45502008015147988 -0.1942243866051718 0 -0.44922639906036782 -0.18543742290266979 0 -0.44348012422764888 -0.19251535954521129 0 -0.45502008015147988 -0.1942243866051718 0 -0.43211514102294718 -0.1949040243705894 0 -0.43806439425127569 -0.18409649099834999 0 -0.44348012422764888 -0.19251535954521129 0 -0.43211514102294718 -0.1949040243705894 0 -0.44348012422764888 -0.19251535954521129 0 -0.44297460665217409 -0.20391447284927561 0 -0.43089274945281819 -0.21759818926402419 0 -0.44297460665217409 -0.20391447284927561 0 -0.44495767819089488 -0.21759670378700829 0 -0.44495767819089488 -0.21759670378700829 0 -0.45521931258404369 -0.20833199247243081 0 -0.4557362055934826 -0.2187286833730043 0 -0.44297460665217409 -0.20391447284927561 0 -0.44495767819089488 -0.21759670378700829 0 -0.45521931258404369 -0.20833199247243081 0 -0.44297460665217409 -0.20391447284927561 0 -0.46667639943635769 -0.20383730195298741 0 -0.44297460665217409 -0.20391447284927561 0 -0.45521931258404369 -0.20833199247243081 0 -0.46667639943635769 -0.20383730195298741 0 -0.45521931258404369 -0.20833199247243081 0 -0.4557362055934826 -0.2187286833730043 0 -0.46383053144661501 -0.2134326643229344 0 -0.46383053144661501 -0.2134326643229344 0 -0.47430916017877878 -0.21258551862022129 0 -0.46770803077065859 -0.22554342215766421 0 -0.46383053144661501 -0.2134326643229344 0 -0.46667639943635769 -0.20383730195298741 0 -0.47430916017877878 -0.21258551862022129 0 -0.45521931258404369 -0.20833199247243081 0 -0.46667639943635769 -0.20383730195298741 0 -0.45521931258404369 -0.20833199247243081 0 -0.46383053144661501 -0.2134326643229344 0 -0.46667639943635769 -0.20383730195298741 0 -0.46667639943635769 -0.20383730195298741 0 -0.45502008015147988 -0.1942243866051718 0 -0.46709395081656768 -0.19283461914361771 0 -0.44297460665217409 -0.20391447284927561 0 -0.46667639943635769 -0.20383730195298741 0 -0.45502008015147988 -0.1942243866051718 0 -0.46054579194836109 -0.1854408688451275 0 -0.45502008015147988 -0.1942243866051718 0 -0.46709395081656768 -0.19283461914361771 0 -0.46054579194836109 -0.1854408688451275 0 -0.44922639906036782 -0.18543742290266979 0 -0.45502008015147988 -0.1942243866051718 0 -0.46667639943635769 -0.20383730195298741 0 -0.46709395081656768 -0.19283461914361771 0 -0.48333819971817982 -0.19730076812646599 0 -0.47284465681280219 -0.18366242784150011 0 -0.46709395081656768 -0.19283461914361771 0 -0.48333819971817982 -0.19730076812646599 0 -0.46667639943635769 -0.20383730195298741 0 -0.48333819971817982 -0.19730076812646599 0 -0.46667639943635769 -0.20383730195298741 0 -0.48333819971817982 -0.19730076812646599 0 -0.48333819971817749 -0.20378305263635291 0 -0.48675287054345318 -0.18455427739051539 0 -0.47284465681280219 -0.18366242784150011 0 -0.48333819971817982 -0.19730076812646599 0 -0.48333819971817982 -0.19730076812646599 0 -0.50000000000000133 -0.19076423429994341 0 -0.49999999999999728 -0.20372880331971921 0 -0.48675287054345318 -0.18455427739051539 0 -0.48333819971817982 -0.19730076812646599 0 -0.50000000000000133 -0.19076423429994341 0 -0.48333819971817982 -0.19730076812646599 0 -0.50000000000000133 -0.19076423429994341 0 -0.48333819971817982 -0.19730076812646599 0 -0.49999999999999728 -0.20372880331971921 0 -0.48333819971817749 -0.20378305263635291 0 -0.49999999999999728 -0.20372880331971921 0 -0.48333819971817749 -0.20378305263635291 0 -0.48366820787474829 -0.22016703678890931 0 -0.49999999999999728 -0.20372880331971921 0 -0.48333819971817749 -0.20378305263635291 0 -0.49999999999999728 -0.20372880331971921 0 -0.48366820787474829 -0.22016703678890931 0 -0.49999999999999989 -0.2231455170768562 0 -0.46667639943635769 -0.20383730195298741 0 -0.48333819971817749 -0.20378305263635291 0 -0.46667639943635769 -0.20383730195298741 0 -0.48333819971817749 -0.20378305263635291 0 -0.47430916017877878 -0.21258551862022129 0 -0.48333819971817749 -0.20378305263635291 0 -0.47430916017877878 -0.21258551862022129 0 -0.48366820787474829 -0.22016703678890931 0 -0.47430916017877878 -0.21258551862022129 0 -0.48366820787474829 -0.22016703678890931 0 -0.46770803077065859 -0.22554342215766421 0 -0.48366820787474829 -0.22016703678890931 0 -0.48071804381493932 -0.23628660173697311 0 -0.46770803077065859 -0.22554342215766421 0 -0.49999999999999989 -0.2231455170768562 0 -0.48071804381493932 -0.23628660173697311 0 -0.48366820787474829 -0.22016703678890931 0 -0.49999999999999989 -0.2231455170768562 0 -0.48071804381493932 -0.23628660173697311 0 -0.49999999999999989 -0.2231455170768562 0 -0.5 -0.24415278925146211 0 -0.48071804381493932 -0.23628660173697311 0 -0.48079217620769121 -0.25711215722273878 0 -0.5 -0.24415278925146211 0 -0.48071804381493932 -0.23628660173697311 0 -0.48079217620769121 -0.25711215722273878 0 -0.48071804381493932 -0.23628660173697311 0 -0.46143608762987892 -0.24942768639709001 0 -0.48071804381493932 -0.23628660173697311 0 -0.46143608762987892 -0.24942768639709001 0 -0.48071804381493932 -0.23628660173697311 0 -0.46143608762987892 -0.24942768639709001 0 -0.46770803077065859 -0.22554342215766421 0 -0.46143608762987892 -0.24942768639709001 0 -0.45301970053945401 -0.23116198918916209 0 -0.44616390901701281 -0.2456615612993083 0 -0.46143608762987892 -0.24942768639709001 0 -0.46770803077065859 -0.22554342215766421 0 -0.45301970053945401 -0.23116198918916209 0 -0.4557362055934826 -0.2187286833730043 0 -0.46383053144661501 -0.2134326643229344 0 -0.46770803077065859 -0.22554342215766421 0 -0.4557362055934826 -0.2187286833730043 0 -0.46770803077065859 -0.22554342215766421 0 -0.45301970053945401 -0.23116198918916209 0 -0.44495767819089488 -0.21759670378700829 0 -0.45301970053945401 -0.23116198918916209 0 -0.43880379729023328 -0.2320343504766437 0 -0.44495767819089488 -0.21759670378700829 0 -0.4557362055934826 -0.2187286833730043 0 -0.45301970053945401 -0.23116198918916209 0 -0.43089274945281819 -0.21759818926402419 0 -0.44495767819089488 -0.21759670378700829 0 -0.43880379729023328 -0.2320343504766437 0 -0.43318725347332682 -0.24571171026092681 0 -0.43880379729023328 -0.2320343504766437 0 -0.44616390901701281 -0.2456615612993083 0 -0.45301970053945401 -0.23116198918916209 0 -0.43880379729023328 -0.2320343504766437 0 -0.44616390901701281 -0.2456615612993083 0 -0.43065248397394179 -0.042108893433627198 0 -0.41981212642558918 -0.02891488840399355 0 -0.40610236236638292 -0.044579848964572837 0 -0.41981212642558918 -0.02891488840399355 0 -0.40533517155722792 -0.022962642370783871 0 -0.40610236236638292 -0.044579848964572837 0 -0.42342938817815678 -0.061214740901461652 0 -0.43065248397394179 -0.042108893433627198 0 -0.40610236236638292 -0.044579848964572837 0 -0.42342938817815678 -0.061214740901461652 0 -0.40610236236638292 -0.044579848964572837 0 -0.39798487039536928 -0.070653271015139518 0 -0.42342938817815678 -0.061214740901461652 0 -0.43065248397394179 -0.042108893433627198 0 -0.4494318876679495 -0.049138538648818203 0 -0.43065248397394179 -0.042108893433627198 0 -0.41981212642558918 -0.02891488840399355 0 -0.4433032316617897 -0.025865240928640079 0 -0.43359751801483348 -0.0083017781854483105 0 -0.41981212642558918 -0.02891488840399355 0 -0.4433032316617897 -0.025865240928640079 0 -0.43359751801483348 -0.0083017781854483105 0 -0.41421667067950008 -0.0066786793681908076 0 -0.4239568570355049 0.013866794011340699 0 -0.43359751801483348 -0.0083017781854483105 0 -0.41421667067950008 -0.0066786793681908076 0 -0.41981212642558918 -0.02891488840399355 0 -0.41421667067950008 -0.0066786793681908076 0 -0.41981212642558918 -0.02891488840399355 0 -0.40533517155722792 -0.022962642370783871 0 -0.40533517155722792 -0.022962642370783871 0 -0.39716688986792859 -0.0048735465713010519 0 -0.38937780844673858 -0.029766248545861108 0 -0.41421667067950008 -0.0066786793681908076 0 -0.39716688986792859 -0.0048735465713010519 0 -0.4070451623337189 0.010371155833794259 0 -0.41421667067950008 -0.0066786793681908076 0 -0.40533517155722792 -0.022962642370783871 0 -0.39716688986792859 -0.0048735465713010519 0 -0.37340042744594659 -0.0086351566667626813 0 -0.39716688986792859 -0.0048735465713010519 0 -0.38937780844673858 -0.029766248545861108 0 -0.37162630021381737 -0.032188622448302721 0 -0.37340042744594659 -0.0086351566667626813 0 -0.38937780844673858 -0.029766248545861108 0 -0.37162630021381737 -0.032188622448302721 0 -0.38937780844673858 -0.029766248545861108 0 -0.37773838874545929 -0.057181087558389937 0 -0.38937780844673858 -0.029766248545861108 0 -0.40610236236638292 -0.044579848964572837 0 -0.37773838874545929 -0.057181087558389937 0 -0.40533517155722792 -0.022962642370783871 0 -0.38937780844673858 -0.029766248545861108 0 -0.40610236236638292 -0.044579848964572837 0 -0.40610236236638292 -0.044579848964572837 0 -0.37773838874545929 -0.057181087558389937 0 -0.39798487039536928 -0.070653271015139518 0 -0.37773838874545929 -0.057181087558389937 0 -0.39798487039536928 -0.070653271015139518 0 -0.37773838874545929 -0.057181087558389937 0 -0.37859861411716361 -0.076392292479374721 0 -0.39798487039536928 -0.070653271015139518 0 -0.37859861411716361 -0.076392292479374721 0 -0.3811224307344967 -0.093691449518732164 0 -0.39945857916950589 -0.092514805609906201 0 -0.36597337251583828 -0.094988406679560558 0 -0.37859861411716361 -0.076392292479374721 0 -0.3811224307344967 -0.093691449518732164 0 -0.39945857916950589 -0.092514805609906201 0 -0.39798487039536928 -0.070653271015139518 0 -0.41823135204527928 -0.0841254544718891 0 -0.37859861411716361 -0.076392292479374721 0 -0.39945857916950589 -0.092514805609906201 0 -0.39798487039536928 -0.070653271015139518 0 -0.37756441123487061 -0.13743335445403099 0 -0.38199416445260043 -0.1128063426245649 0 -0.39198765699595373 -0.12453929538024559 0 -0.36597337251583828 -0.094988406679560558 0 -0.3811224307344967 -0.093691449518732164 0 -0.38199416445260043 -0.1128063426245649 0 -0.3811224307344967 -0.093691449518732164 0 -0.39945857916950589 -0.092514805609906201 0 -0.38199416445260043 -0.1128063426245649 0 -0.39945857916950589 -0.092514805609906201 0 -0.38199416445260043 -0.1128063426245649 0 -0.39998548731139838 -0.1116872736945707 0 -0.39945857916950589 -0.092514805609906201 0 -0.39998548731139838 -0.1116872736945707 0 -0.41355727401838488 -0.1018645985562224 0 -0.39998548731139838 -0.1116872736945707 0 -0.39198765699595373 -0.12453929538024559 0 -0.41355629031781671 -0.12315800534729621 0 -0.38199416445260043 -0.1128063426245649 0 -0.39998548731139838 -0.1116872736945707 0 -0.39198765699595373 -0.12453929538024559 0 -0.41355629031781671 -0.12315800534729621 0 -0.41355727401838488 -0.1018645985562224 0 -0.42923939153826668 -0.10820991294350139 0 -0.39998548731139838 -0.1116872736945707 0 -0.41355629031781671 -0.12315800534729621 0 -0.41355727401838488 -0.1018645985562224 0 -0.41355727401838488 -0.1018645985562224 0 -0.42923939153826668 -0.10820991294350139 0 -0.43588665836542628 -0.092783661234516354 0 -0.41355629031781671 -0.12315800534729621 0 -0.42923939153826668 -0.10820991294350139 0 -0.43613547651758511 -0.1211076089031467 0 -0.39798487039536928 -0.070653271015139518 0 -0.41823135204527928 -0.0841254544718891 0 -0.42342938817815678 -0.061214740901461652 0 -0.39798487039536928 -0.070653271015139518 0 -0.41823135204527928 -0.0841254544718891 0 -0.39945857916950589 -0.092514805609906201 0 -0.41355727401838488 -0.1018645985562224 0 -0.41823135204527928 -0.0841254544718891 0 -0.41823135204527928 -0.0841254544718891 0 -0.43588665836542628 -0.092783661234516354 0 -0.44219542971155401 -0.074394531381764648 0 -0.41355727401838488 -0.1018645985562224 0 -0.41823135204527928 -0.0841254544718891 0 -0.43588665836542628 -0.092783661234516354 0 -0.42342938817815678 -0.061214740901461652 0 -0.41823135204527928 -0.0841254544718891 0 -0.44219542971155401 -0.074394531381764648 0 -0.43588665836542628 -0.092783661234516354 0 -0.44219542971155401 -0.074394531381764648 0 -0.4599766442124974 -0.091349859773545788 0 -0.44219542971155401 -0.074394531381764648 0 -0.4599766442124974 -0.091349859773545788 0 -0.47219921043979718 -0.069037509670647576 0 -0.44219542971155401 -0.074394531381764648 0 -0.47219921043979718 -0.069037509670647576 0 -0.4494318876679495 -0.049138538648818203 0 -0.43613547651758511 -0.1211076089031467 0 -0.45046260146073602 -0.124047003393985 0 -0.44756696936439438 -0.1068089303577552 0 -0.42923939153826668 -0.10820991294350139 0 -0.43613547651758511 -0.1211076089031467 0 -0.44756696936439438 -0.1068089303577552 0 -0.43588665836542628 -0.092783661234516354 0 -0.4599766442124974 -0.091349859773545788 0 -0.44756696936439438 -0.1068089303577552 0 -0.42923939153826668 -0.10820991294350139 0 -0.43588665836542628 -0.092783661234516354 0 -0.44756696936439438 -0.1068089303577552 0 -0.4599766442124974 -0.091349859773545788 0 -0.44756696936439438 -0.1068089303577552 0 -0.47123471444965409 -0.11771781103171131 0 -0.4599766442124974 -0.091349859773545788 0 -0.47123471444965409 -0.11771781103171131 0 -0.46084241972465129 -0.13104844686018849 0 -0.45046260146073602 -0.124047003393985 0 -0.47123471444965409 -0.11771781103171131 0 -0.45046260146073602 -0.124047003393985 0 -0.44756696936439438 -0.1068089303577552 0 -0.47123471444965409 -0.11771781103171131 0 -0.48770648981904652 -0.12513251426390001 0 -0.47123471444965409 -0.11771781103171131 0 -0.48185284315349919 -0.099217545515013619 0 -0.4599766442124974 -0.091349859773545788 0 -0.47123471444965409 -0.11771781103171131 0 -0.48185284315349919 -0.099217545515013619 0 -0.48185284315349919 -0.099217545515013619 0 -0.5 -0.1108487628475817 0 -0.5 -0.081218815502695274 0 -0.48770648981904652 -0.12513251426390001 0 -0.48185284315349919 -0.099217545515013619 0 -0.5 -0.1108487628475817 0 -0.4599766442124974 -0.091349859773545788 0 -0.48185284315349919 -0.099217545515013619 0 -0.47219921043979718 -0.069037509670647576 0 -0.48185284315349919 -0.099217545515013619 0 -0.47219921043979718 -0.069037509670647576 0 -0.5 -0.081218815502695274 0 -0.47219921043979718 -0.069037509670647576 0 -0.5 -0.081218815502695274 0 -0.5 -0.051588868157808943 0 -0.5 -0.051588868157808943 0 -0.47481145407221498 -0.038023897209855037 0 -0.5 -0.0219589208129225 0 -0.47219921043979718 -0.069037509670647576 0 -0.5 -0.051588868157808943 0 -0.47481145407221498 -0.038023897209855037 0 -0.47219921043979718 -0.069037509670647576 0 -0.47481145407221498 -0.038023897209855037 0 -0.4494318876679495 -0.049138538648818203 0 -0.47481145407221498 -0.038023897209855037 0 -0.45698672037095073 -0.032122845465659057 0 -0.4494318876679495 -0.049138538648818203 0 -0.43065248397394179 -0.042108893433627198 0 -0.4494318876679495 -0.049138538648818203 0 -0.4433032316617897 -0.025865240928640079 0 -0.45698672037095073 -0.032122845465659057 0 -0.4494318876679495 -0.049138538648818203 0 -0.4433032316617897 -0.025865240928640079 0 -0.42342938817815678 -0.061214740901461652 0 -0.44219542971155401 -0.074394531381764648 0 -0.4494318876679495 -0.049138538648818203 0 -0.44909875454628101 -0.0052323302519661592 0 -0.4433032316617897 -0.025865240928640079 0 -0.46040030808184851 -0.0154637050753229 0 -0.43359751801483348 -0.0083017781854483105 0 -0.44909875454628101 -0.0052323302519661592 0 -0.44405579589072952 0.009154285440812605 0 -0.43359751801483348 -0.0083017781854483105 0 -0.44909875454628101 -0.0052323302519661592 0 -0.4433032316617897 -0.025865240928640079 0 -0.45698672037095073 -0.032122845465659057 0 -0.4433032316617897 -0.025865240928640079 0 -0.46040030808184851 -0.0154637050753229 0 -0.47481145407221498 -0.038023897209855037 0 -0.45698672037095073 -0.032122845465659057 0 -0.46040030808184851 -0.0154637050753229 0 -0.46040030808184851 -0.0154637050753229 0 -0.46421217752937322 0.0046938640066073716 0 -0.46040030808184851 -0.0154637050753229 0 -0.48119687056718752 -0.0088756827993414257 0 -0.46421217752937322 0.0046938640066073716 0 -0.44909875454628101 -0.0052323302519661592 0 -0.46040030808184851 -0.0154637050753229 0 -0.46421217752937322 0.0046938640066073716 0 -0.47481145407221498 -0.038023897209855037 0 -0.46040030808184851 -0.0154637050753229 0 -0.48119687056718752 -0.0088756827993414257 0 -0.47481145407221498 -0.038023897209855037 0 -0.48119687056718752 -0.0088756827993414257 0 -0.5 -0.0219589208129225 0 -0.48119687056718752 -0.0088756827993414257 0 -0.5 -0.0219589208129225 0 -0.5 0.0076710265319639426 0 -0.48119687056718752 -0.0088756827993414257 0 -0.5 0.0076710265319639426 0 -0.47938890783327809 0.01214051092873627 0 -0.5 0.0076710265319639426 0 -0.5 0.037300973876850392 0 -0.48351144409293217 0.032361913815913822 0 -0.5 0.0076710265319639426 0 -0.47938890783327809 0.01214051092873627 0 -0.48351144409293217 0.032361913815913822 0 -0.47938890783327809 0.01214051092873627 0 -0.48351144409293217 0.032361913815913822 0 -0.46802404697689798 0.024851433088537621 0 -0.48119687056718752 -0.0088756827993414257 0 -0.47938890783327809 0.01214051092873627 0 -0.46421217752937322 0.0046938640066073716 0 -0.47938890783327809 0.01214051092873627 0 -0.46421217752937322 0.0046938640066073716 0 -0.46802404697689798 0.024851433088537621 0 -0.49062540494174139 0.057230340059685317 0 -0.5 0.037300973876850392 0 -0.5 0.066930921221736828 0 -0.49062540494174139 0.057230340059685317 0 -0.5 0.037300973876850392 0 -0.48351144409293217 0.032361913815913822 0 -0.47183591642442269 0.045009002170467903 0 -0.48351144409293217 0.032361913815913822 0 -0.46802404697689798 0.024851433088537621 0 -0.49062540494174139 0.057230340059685317 0 -0.47183591642442269 0.045009002170467903 0 -0.48351144409293217 0.032361913815913822 0 -0.47183591642442269 0.045009002170467903 0 -0.46802404697689798 0.024851433088537621 0 -0.47183591642442269 0.045009002170467903 0 -0.46212409150516159 0.059307217474972918 0 -0.47604894415734622 0.067287938723669297 0 -0.49062540494174139 0.057230340059685317 0 -0.47183591642442269 0.045009002170467903 0 -0.49062540494174139 0.057230340059685317 0 -0.47183591642442269 0.045009002170467903 0 -0.47604894415734622 0.067287938723669297 0 -0.47183591642442269 0.045009002170467903 0 -0.47604894415734622 0.067287938723669297 0 -0.47183591642442269 0.045009002170467903 0 -0.46212409150516159 0.059307217474972918 0 -0.45542540202209858 0.045600763768646482 0 -0.46212409150516159 0.059307217474972918 0 -0.45542540202209858 0.045600763768646482 0 -0.44711338906334641 0.061612952115624682 0 -0.47183591642442269 0.045009002170467903 0 -0.45542540202209858 0.045600763768646482 0 -0.44789638672996379 0.029437898090904281 0 -0.47183591642442269 0.045009002170467903 0 -0.46802404697689798 0.024851433088537621 0 -0.44789638672996379 0.029437898090904281 0 -0.47183591642442269 0.045009002170467903 0 -0.44789638672996379 0.029437898090904281 0 -0.45542540202209858 0.045600763768646482 0 -0.44275842679949351 0.037127132732135318 0 -0.44789638672996379 0.029437898090904281 0 -0.44275842679949351 0.037127132732135318 0 -0.44789638672996379 0.029437898090904281 0 -0.43426622445039492 0.033825652740810841 0 -0.45542540202209858 0.045600763768646482 0 -0.44275842679949351 0.037127132732135318 0 -0.442538532810274 0.051067760652652637 0 -0.45542540202209858 0.045600763768646482 0 -0.44711338906334641 0.061612952115624682 0 -0.442538532810274 0.051067760652652637 0 -0.44711338906334641 0.061612952115624682 0 -0.442538532810274 0.051067760652652637 0 -0.42485691335615777 0.059930193994204108 0 -0.46421217752937322 0.0046938640066073716 0 -0.45575006703157489 0.01744544305424053 0 -0.44405579589072952 0.009154285440812605 0 -0.46421217752937322 0.0046938640066073716 0 -0.46802404697689798 0.024851433088537621 0 -0.46421217752937322 0.0046938640066073716 0 -0.46802404697689798 0.024851433088537621 0 -0.45575006703157489 0.01744544305424053 0 -0.46802404697689798 0.024851433088537621 0 -0.45575006703157489 0.01744544305424053 0 -0.44789638672996379 0.029437898090904281 0 -0.44789638672996379 0.029437898090904281 0 -0.44405579589072952 0.009154285440812605 0 -0.4239568570355049 0.013866794011340699 0 -0.45575006703157489 0.01744544305424053 0 -0.44789638672996379 0.029437898090904281 0 -0.44405579589072952 0.009154285440812605 0 -0.44909875454628101 -0.0052323302519661592 0 -0.46421217752937322 0.0046938640066073716 0 -0.44405579589072952 0.009154285440812605 0 -0.43359751801483348 -0.0083017781854483105 0 -0.44405579589072952 0.009154285440812605 0 -0.4239568570355049 0.013866794011340699 0 -0.41421667067950008 -0.0066786793681908076 0 -0.4239568570355049 0.013866794011340699 0 -0.4070451623337189 0.010371155833794259 0 -0.4239568570355049 0.013866794011340699 0 -0.4070451623337189 0.010371155833794259 0 -0.41028118147302839 0.027334442192420792 0 -0.4239568570355049 0.013866794011340699 0 -0.41028118147302839 0.027334442192420792 0 -0.43426622445039492 0.033825652740810841 0 -0.41028118147302839 0.027334442192420792 0 -0.43426622445039492 0.033825652740810841 0 -0.44789638672996379 0.029437898090904281 0 -0.4239568570355049 0.013866794011340699 0 -0.44789638672996379 0.029437898090904281 0 -0.4239568570355049 0.013866794011340699 0 -0.43426622445039492 0.033825652740810841 0 -0.43426622445039492 0.033825652740810841 0 -0.42485691335615777 0.059930193994204108 0 -0.41462690798087409 0.044126950989673147 0 -0.44275842679949351 0.037127132732135318 0 -0.43426622445039492 0.033825652740810841 0 -0.42485691335615777 0.059930193994204108 0 -0.44275842679949351 0.037127132732135318 0 -0.442538532810274 0.051067760652652637 0 -0.42485691335615777 0.059930193994204108 0 -0.44275842679949351 0.037127132732135318 0 -0.42485691335615777 0.059930193994204108 0 -0.42485691335615777 0.059930193994204108 0 -0.41462690798087409 0.044126950989673147 0 -0.40579298690067872 0.063392393942226372 0 -0.41028118147302839 0.027334442192420792 0 -0.41462690798087409 0.044126950989673147 0 -0.39540068103901499 0.034759928019815541 0 -0.41028118147302839 0.027334442192420792 0 -0.43426622445039492 0.033825652740810841 0 -0.41462690798087409 0.044126950989673147 0 -0.41462690798087409 0.044126950989673147 0 -0.39540068103901499 0.034759928019815541 0 -0.39253496849119601 0.051803211162148123 0 -0.41462690798087409 0.044126950989673147 0 -0.39253496849119601 0.051803211162148123 0 -0.40579298690067872 0.063392393942226372 0 -0.39253496849119601 0.051803211162148123 0 -0.37587512883543822 0.056696915439192717 0 -0.38047951950022157 0.039336017552778192 0 -0.39253496849119601 0.051803211162148123 0 -0.37587512883543822 0.056696915439192717 0 -0.38599627482098242 0.077671203351856746 0 -0.39540068103901499 0.034759928019815541 0 -0.39253496849119601 0.051803211162148123 0 -0.38047951950022157 0.039336017552778192 0 -0.39540068103901499 0.034759928019815541 0 -0.38047951950022157 0.039336017552778192 0 -0.38629613849566191 0.020843231644030721 0 -0.37340042744594659 -0.0086351566667626813 0 -0.39716688986792859 -0.0048735465713010519 0 -0.38629613849566191 0.020843231644030721 0 -0.39716688986792859 -0.0048735465713010519 0 -0.4070451623337189 0.010371155833794259 0 -0.38629613849566191 0.020843231644030721 0 -0.4070451623337189 0.010371155833794259 0 -0.41028118147302839 0.027334442192420792 0 -0.38629613849566191 0.020843231644030721 0 -0.41028118147302839 0.027334442192420792 0 -0.39540068103901499 0.034759928019815541 0 -0.38629613849566191 0.020843231644030721 0 -0.41028118147302839 0.027334442192420792 0 -0.38629613849566191 0.020843231644030721 0 -0.38905388646948641 0.10553631651834169 0 -0.40695539991282198 0.082733255256272911 0 -0.38905388646948641 0.10553631651834169 0 -0.40695539991282198 0.082733255256272911 0 -0.40716071306298418 0.10612284550238681 0 -0.39258367857836812 0.12016766987726769 0 -0.41943775893377783 0.12167345638582799 0 -0.40463226631639893 0.1316272218144042 0 -0.39258367857836812 0.12016766987726769 0 -0.38905388646948641 0.10553631651834169 0 -0.40716071306298418 0.10612284550238681 0 -0.39258367857836812 0.12016766987726769 0 -0.41943775893377783 0.12167345638582799 0 -0.39258367857836812 0.12016766987726769 0 -0.37831158880207061 0.12974210519518689 0 -0.36572959822295809 0.1186618833687072 0 -0.39258367857836812 0.12016766987726769 0 -0.37553063137647791 0.1060873795507903 0 -0.36572959822295809 0.1186618833687072 0 -0.39258367857836812 0.12016766987726769 0 -0.37553063137647791 0.1060873795507903 0 -0.38905388646948641 0.10553631651834169 0 -0.39258367857836812 0.12016766987726769 0 -0.36572959822295809 0.1186618833687072 0 -0.37553063137647791 0.1060873795507903 0 -0.38905388646948641 0.10553631651834169 0 -0.38497957002299649 0.092521741774303778 0 -0.37553063137647791 0.1060873795507903 0 -0.38497957002299649 0.092521741774303778 0 -0.37318665789775679 0.0923859509367944 0 -0.38497957002299649 0.092521741774303778 0 -0.38599627482098242 0.077671203351856746 0 -0.37318665789775679 0.0923859509367944 0 -0.37587512883543822 0.056696915439192717 0 -0.38599627482098242 0.077671203351856746 0 -0.36647177046049001 0.068642590322174429 0 -0.39253496849119601 0.051803211162148123 0 -0.38599627482098242 0.077671203351856746 0 -0.40579298690067872 0.063392393942226372 0 -0.38599627482098242 0.077671203351856746 0 -0.40579298690067872 0.063392393942226372 0 -0.40695539991282198 0.082733255256272911 0 -0.38497957002299649 0.092521741774303778 0 -0.38599627482098242 0.077671203351856746 0 -0.40695539991282198 0.082733255256272911 0 -0.38905388646948641 0.10553631651834169 0 -0.38497957002299649 0.092521741774303778 0 -0.40695539991282198 0.082733255256272911 0 -0.42485691335615777 0.059930193994204108 0 -0.40695539991282198 0.082733255256272911 0 -0.43252520834577629 0.079693246845972454 0 -0.42485691335615777 0.059930193994204108 0 -0.40579298690067872 0.063392393942226372 0 -0.40695539991282198 0.082733255256272911 0 -0.42485691335615777 0.059930193994204108 0 -0.40695539991282198 0.082733255256272911 0 -0.44711338906334641 0.061612952115624682 0 -0.42485691335615777 0.059930193994204108 0 -0.43252520834577629 0.079693246845972454 0 -0.43252520834577629 0.079693246845972454 0 -0.42656186979328009 0.1011084463046866 0 -0.4480927518073885 0.093092828190222757 0 -0.40695539991282198 0.082733255256272911 0 -0.43252520834577629 0.079693246845972454 0 -0.42656186979328009 0.1011084463046866 0 -0.40695539991282198 0.082733255256272911 0 -0.42656186979328009 0.1011084463046866 0 -0.40716071306298418 0.10612284550238681 0 -0.39258367857836812 0.12016766987726769 0 -0.40716071306298418 0.10612284550238681 0 -0.41943775893377783 0.12167345638582799 0 -0.42656186979328009 0.1011084463046866 0 -0.40716071306298418 0.10612284550238681 0 -0.41943775893377783 0.12167345638582799 0 -0.41943775893377783 0.12167345638582799 0 -0.44629183928918781 0.1231792428943884 0 -0.42656186979328009 0.1011084463046866 0 -0.41943775893377783 0.12167345638582799 0 -0.44629183928918781 0.1231792428943884 0 -0.42656186979328009 0.1011084463046866 0 -0.44629183928918781 0.1231792428943884 0 -0.4480927518073885 0.093092828190222757 0 -0.44629183928918781 0.1231792428943884 0 -0.46546258268466101 0.1048480955162741 0 -0.4480927518073885 0.093092828190222757 0 -0.44629183928918781 0.1231792428943884 0 -0.46546258268466101 0.1048480955162741 0 -0.47314591964459762 0.1246850294029489 0 -0.44629183928918781 0.1231792428943884 0 -0.47314591964459762 0.1246850294029489 0 -0.44711338906334641 0.061612952115624682 0 -0.43252520834577629 0.079693246845972454 0 -0.46019680585859429 0.077025430596456251 0 -0.43252520834577629 0.079693246845972454 0 -0.4480927518073885 0.093092828190222757 0 -0.46019680585859429 0.077025430596456251 0 -0.46546258268466101 0.1048480955162741 0 -0.46019680585859429 0.077025430596456251 0 -0.48026197189026959 0.089566875276870683 0 -0.46546258268466101 0.1048480955162741 0 -0.4480927518073885 0.093092828190222757 0 -0.46019680585859429 0.077025430596456251 0 -0.46212409150516159 0.059307217474972918 0 -0.46019680585859429 0.077025430596456251 0 -0.47604894415734622 0.067287938723669297 0 -0.46212409150516159 0.059307217474972918 0 -0.44711338906334641 0.061612952115624682 0 -0.46019680585859429 0.077025430596456251 0 -0.46019680585859429 0.077025430596456251 0 -0.47604894415734622 0.067287938723669297 0 -0.48026197189026959 0.089566875276870683 0 -0.47604894415734622 0.067287938723669297 0 -0.48026197189026959 0.089566875276870683 0 -0.48816496446643542 0.076534573016252827 0 -0.47604894415734622 0.067287938723669297 0 -0.48026197189026959 0.089566875276870683 0 -0.48816496446643542 0.076534573016252827 0 -0.5 0.066930921221736828 0 -0.5 0.09656086856662327 0 -0.48026197189026959 0.089566875276870683 0 -0.48816496446643542 0.076534573016252827 0 -0.5 0.09656086856662327 0 -0.49062540494174139 0.057230340059685317 0 -0.48816496446643542 0.076534573016252827 0 -0.5 0.066930921221736828 0 -0.49062540494174139 0.057230340059685317 0 -0.47604894415734622 0.067287938723669297 0 -0.48816496446643542 0.076534573016252827 0 -0.46546258268466101 0.1048480955162741 0 -0.47314591964459762 0.1246850294029489 0 -0.48377409484390571 0.1083703369348453 0 -0.46546258268466101 0.1048480955162741 0 -0.48026197189026959 0.089566875276870683 0 -0.48377409484390571 0.1083703369348453 0 -0.48026197189026959 0.089566875276870683 0 -0.48377409484390571 0.1083703369348453 0 -0.5 0.09656086856662327 0 -0.48377409484390571 0.1083703369348453 0 -0.5 0.09656086856662327 0 -0.50000000000000744 0.12619081591150971 0 -0.47314591964459762 0.1246850294029489 0 -0.48377409484390571 0.1083703369348453 0 -0.50000000000000744 0.12619081591150971 0 -0.47314591964459762 0.1246850294029489 0 -0.50000000000000744 0.12619081591150971 0 -0.48366372582309353 0.14270027785818981 0 -0.47314591964459762 0.1246850294029489 0 -0.50000000000000744 0.12619081591150971 0 -0.47314591964459762 0.1246850294029489 0 -0.48366372582309353 0.14270027785818981 0 -0.46462923932403349 0.15123618714950671 0 -0.48366372582309353 0.14270027785818981 0 -0.47890678190882902 0.16840788953100899 0 -0.46462923932403349 0.15123618714950671 0 -0.48366372582309353 0.14270027785818981 0 -0.5 0.15567331026119449 0 -0.47890678190882902 0.16840788953100899 0 -0.50000000000000744 0.12619081591150971 0 -0.48366372582309353 0.14270027785818981 0 -0.5 0.15567331026119449 0 -0.5 0.15567331026119449 0 -0.5 0.18515580461087941 0 -0.47890678190882902 0.16840788953100899 0 -0.5 0.18515580461087941 0 -0.47890678190882902 0.16840788953100899 0 -0.47216429839014029 0.19516400315530971 0 -0.47890678190882902 0.16840788953100899 0 -0.45201283949363869 0.17350969581103101 0 -0.46462923932403349 0.15123618714950671 0 -0.45201283949363869 0.17350969581103101 0 -0.46462923932403349 0.15123618714950671 0 -0.47890678190882902 0.16840788953100899 0 -0.45201283949363869 0.17350969581103101 0 -0.47216429839014029 0.19516400315530971 0 -0.45201283949363869 0.17350969581103101 0 -0.43939643966324399 0.19578320447255529 0 -0.45201283949363869 0.17350969581103101 0 -0.43939643966324399 0.19578320447255529 0 -0.42995350879221422 0.1816436706380333 0 -0.45201283949363869 0.17350969581103101 0 -0.44197863021577422 0.15045123840218119 0 -0.42544096173113333 0.1633606946479102 0 -0.45201283949363869 0.17350969581103101 0 -0.44197863021577422 0.15045123840218119 0 -0.46462923932403349 0.15123618714950671 0 -0.44629183928918781 0.1231792428943884 0 -0.44197863021577422 0.15045123840218119 0 -0.46462923932403349 0.15123618714950671 0 -0.44629183928918781 0.1231792428943884 0 -0.47314591964459762 0.1246850294029489 0 -0.46462923932403349 0.15123618714950671 0 -0.47618135221264712 0.2348341278153033 0 -0.45256550702383669 0.24590072200260571 0 -0.47931994340355549 0.25476779846576558 0 -0.47618135221264712 0.2348341278153033 0 -0.5 0.24412079331024919 0 -0.47931994340355549 0.25476779846576558 0 -0.47618135221264712 0.2348341278153033 0 -0.5 0.24412079331024919 0 -0.5 0.2146382989605643 0 -0.47618135221264712 0.2348341278153033 0 -0.47692853557801168 0.21574941381672419 0 -0.45936849170925931 0.21836122533571931 0 -0.47618135221264712 0.2348341278153033 0 -0.47692853557801168 0.21574941381672419 0 -0.5 0.2146382989605643 0 -0.47692853557801168 0.21574941381672419 0 -0.5 0.2146382989605643 0 -0.47216429839014029 0.19516400315530971 0 -0.47692853557801168 0.21574941381672419 0 -0.47216429839014029 0.19516400315530971 0 -0.45936849170925931 0.21836122533571931 0 -0.5 0.18515580461087941 0 -0.5 0.2146382989605643 0 -0.47216429839014029 0.19516400315530971 0 -0.45201283949363869 0.17350969581103101 0 -0.47216429839014029 0.19516400315530971 0 -0.43939643966324399 0.19578320447255529 0 -0.47216429839014029 0.19516400315530971 0 -0.43939643966324399 0.19578320447255529 0 -0.45936849170925931 0.21836122533571931 0 -0.43939643966324399 0.19578320447255529 0 -0.45936849170925931 0.21836122533571931 0 -0.44223909435108177 0.2232946786864789 0 -0.47618135221264712 0.2348341278153033 0 -0.45936849170925931 0.21836122533571931 0 -0.45256550702383669 0.24590072200260571 0 -0.45936849170925931 0.21836122533571931 0 -0.44223909435108177 0.2232946786864789 0 -0.45256550702383669 0.24590072200260571 0 -0.45256550702383669 0.24590072200260571 0 -0.43571117196018327 0.23782549347917339 0 -0.43081698974706778 0.25236943080920782 0 -0.44223909435108177 0.2232946786864789 0 -0.45256550702383669 0.24590072200260571 0 -0.43571117196018327 0.23782549347917339 0 -0.41416364000245431 0.24033022179560401 0 -0.43571117196018327 0.23782549347917339 0 -0.43081698974706778 0.25236943080920782 0 -0.44223909435108177 0.2232946786864789 0 -0.43571117196018327 0.23782549347917339 0 -0.42678003983284918 0.21805671313407959 0 -0.41416364000245431 0.24033022179560401 0 -0.43571117196018327 0.23782549347917339 0 -0.42678003983284918 0.21805671313407959 0 -0.41416364000245431 0.24033022179560401 0 -0.42678003983284918 0.21805671313407959 0 -0.4073727720156412 0.2269536819949679 0 -0.41475927677383312 0.21389660527352999 0 -0.42678003983284918 0.21805671313407959 0 -0.41416364000245431 0.24033022179560401 0 -0.4073727720156412 0.2269536819949679 0 -0.42678003983284918 0.21805671313407959 0 -0.41475927677383312 0.21389660527352999 0 -0.42418070705007888 0.20612032611299161 0 -0.41864773020544471 0.19575583378554171 0 -0.41475927677383312 0.21389660527352999 0 -0.41864773020544471 0.19575583378554171 0 -0.40112910135873459 0.205078349264843 0 -0.43939643966324399 0.19578320447255529 0 -0.42678003983284918 0.21805671313407959 0 -0.42418070705007888 0.20612032611299161 0 -0.43939643966324399 0.19578320447255529 0 -0.42678003983284918 0.21805671313407959 0 -0.41475927677383312 0.21389660527352999 0 -0.42678003983284918 0.21805671313407959 0 -0.42418070705007888 0.20612032611299161 0 -0.43939643966324399 0.19578320447255529 0 -0.44223909435108177 0.2232946786864789 0 -0.42678003983284918 0.21805671313407959 0 -0.43939643966324399 0.19578320447255529 0 -0.42418070705007888 0.20612032611299161 0 -0.41864773020544471 0.19575583378554171 0 -0.43939643966324399 0.19578320447255529 0 -0.41864773020544471 0.19575583378554171 0 -0.42995350879221422 0.1816436706380333 0 -0.41864773020544471 0.19575583378554171 0 -0.4052732818426581 0.19075992662184971 0 -0.41426957286761013 0.1798089244731286 0 -0.41864773020544471 0.19575583378554171 0 -0.4052732818426581 0.19075992662184971 0 -0.40112910135873459 0.205078349264843 0 -0.4052732818426581 0.19075992662184971 0 -0.3928520461448522 0.19111290341204459 0 -0.40112910135873459 0.205078349264843 0 -0.37638159473314581 0.1877942518972055 0 -0.38311406732835401 0.20227254784152129 0 -0.37364614944486629 0.20772421376395431 0 -0.3928520461448522 0.19111290341204459 0 -0.37638159473314581 0.1877942518972055 0 -0.38311406732835401 0.20227254784152129 0 -0.37638159473314581 0.1877942518972055 0 -0.38311406732835401 0.20227254784152129 0 -0.38984731367735259 0.2167504839868519 0 -0.36827956570553461 0.21921827873114699 0 -0.37364614944486629 0.20772421376395431 0 -0.3928520461448522 0.19111290341204459 0 -0.38311406732835401 0.20227254784152129 0 -0.38984731367735259 0.2167504839868519 0 -0.38984731367735259 0.2167504839868519 0 -0.36827956570553461 0.21921827873114699 0 -0.38311406732835401 0.20227254784152129 0 -0.38984731367735259 0.2167504839868519 0 -0.37364614944486629 0.20772421376395431 0 -0.38311406732835401 0.20227254784152129 0 -0.38984731367735259 0.2167504839868519 0 -0.3928520461448522 0.19111290341204459 0 -0.38984731367735259 0.2167504839868519 0 -0.40112910135873459 0.205078349264843 0 -0.41475927677383312 0.21389660527352999 0 -0.38984731367735259 0.2167504839868519 0 -0.40112910135873459 0.205078349264843 0 -0.41475927677383312 0.21389660527352999 0 -0.38984731367735259 0.2167504839868519 0 -0.39284733386566129 0.22320410180467709 0 -0.3928520461448522 0.19111290341204459 0 -0.38984731367735259 0.2167504839868519 0 -0.41475927677383312 0.21389660527352999 0 -0.38984731367735259 0.2167504839868519 0 -0.4073727720156412 0.2269536819949679 0 -0.41475927677383312 0.21389660527352999 0 -0.39284733386566129 0.22320410180467709 0 -0.4073727720156412 0.2269536819949679 0 -0.39284733386566129 0.22320410180467709 0 -0.38682683924242489 0.2425374678850479 0 -0.38984731367735259 0.2167504839868519 0 -0.39284733386566129 0.22320410180467709 0 -0.38984731367735259 0.2167504839868519 0 -0.37556975853097668 0.2320134337587651 0 -0.38682683924242489 0.2425374678850479 0 -0.38984731367735259 0.2167504839868519 0 -0.39284733386566129 0.22320410180467709 0 -0.38682683924242489 0.2425374678850479 0 -0.38984731367735259 0.2167504839868519 0 -0.37556975853097668 0.2320134337587651 0 -0.36827956570553461 0.21921827873114699 0 -0.38984731367735259 0.2167504839868519 0 -0.38682683924242489 0.2425374678850479 0 -0.37556975853097668 0.2320134337587651 0 -0.38682683924242489 0.2425374678850479 0 -0.37058522853191178 0.24728581927182011 0 -0.41416364000245431 0.24033022179560401 0 -0.38682683924242489 0.2425374678850479 0 -0.4010905135807642 0.25727912484552279 0 -0.41416364000245431 0.24033022179560401 0 -0.4073727720156412 0.2269536819949679 0 -0.38682683924242489 0.2425374678850479 0 -0.42151827124087748 0.1409703715080699 0 -0.4079857740718692 0.15598741377761571 0 -0.42544096173113333 0.1633606946479102 0 -0.42151827124087748 0.1409703715080699 0 -0.4079857740718692 0.15598741377761571 0 -0.40357905221912699 0.14282676896914201 0 -0.41943775893377783 0.12167345638582799 0 -0.42151827124087748 0.1409703715080699 0 -0.40463226631639893 0.1316272218144042 0 -0.42151827124087748 0.1409703715080699 0 -0.40357905221912699 0.14282676896914201 0 -0.40463226631639893 0.1316272218144042 0 -0.44629183928918781 0.1231792428943884 0 -0.44197863021577422 0.15045123840218119 0 -0.42151827124087748 0.1409703715080699 0 -0.41943775893377783 0.12167345638582799 0 -0.44629183928918781 0.1231792428943884 0 -0.42151827124087748 0.1409703715080699 0 -0.44197863021577422 0.15045123840218119 0 -0.42151827124087748 0.1409703715080699 0 -0.42544096173113333 0.1633606946479102 0 -0.42544096173113333 0.1633606946479102 0 -0.42995350879221422 0.1816436706380333 0 -0.41426957286761013 0.1798089244731286 0 -0.45201283949363869 0.17350969581103101 0 -0.42544096173113333 0.1633606946479102 0 -0.42995350879221422 0.1816436706380333 0 -0.41864773020544471 0.19575583378554171 0 -0.42995350879221422 0.1816436706380333 0 -0.41426957286761013 0.1798089244731286 0 -0.41426957286761013 0.1798089244731286 0 -0.40775199370944021 0.1691428503578864 0 -0.40320056072166022 0.17925996516366641 0 -0.4052732818426581 0.19075992662184971 0 -0.41426957286761013 0.1798089244731286 0 -0.40320056072166022 0.17925996516366641 0 -0.42544096173113333 0.1633606946479102 0 -0.41426957286761013 0.1798089244731286 0 -0.40775199370944021 0.1691428503578864 0 -0.4079857740718692 0.15598741377761571 0 -0.42544096173113333 0.1633606946479102 0 -0.40775199370944021 0.1691428503578864 0 -0.4079857740718692 0.15598741377761571 0 -0.40775199370944021 0.1691428503578864 0 -0.39585590904374018 0.1654752209534224 0 -0.4079857740718692 0.15598741377761571 0 -0.39585590904374018 0.1654752209534224 0 -0.39297290175325372 0.1533898224990162 0 -0.40775199370944021 0.1691428503578864 0 -0.39585590904374018 0.1654752209534224 0 -0.40320056072166022 0.17925996516366641 0 -0.39585590904374018 0.1654752209534224 0 -0.38907787035722019 0.1732905194269839 0 -0.38725051722307802 0.16485882359431969 0 -0.39585590904374018 0.1654752209534224 0 -0.38725051722307802 0.16485882359431969 0 -0.39297290175325372 0.1533898224990162 0 -0.3928520461448522 0.19111290341204459 0 -0.39585590904374018 0.1654752209534224 0 -0.40320056072166022 0.17925996516366641 0 -0.3928520461448522 0.19111290341204459 0 -0.39585590904374018 0.1654752209534224 0 -0.3928520461448522 0.19111290341204459 0 -0.39585590904374018 0.1654752209534224 0 -0.38907787035722019 0.1732905194269839 0 -0.4052732818426581 0.19075992662184971 0 -0.3928520461448522 0.19111290341204459 0 -0.40320056072166022 0.17925996516366641 0 -0.3928520461448522 0.19111290341204459 0 -0.37638159473314581 0.1877942518972055 0 -0.38907787035722019 0.1732905194269839 0 -0.37638159473314581 0.1877942518972055 0 -0.38907787035722019 0.1732905194269839 0 -0.37694077403260551 0.17025180461102571 0 -0.37638159473314581 0.1877942518972055 0 -0.38907787035722019 0.1732905194269839 0 -0.38725051722307802 0.16485882359431969 0 -0.38073282864654079 0.15920617379880561 0 -0.39297290175325372 0.1533898224990162 0 -0.38907787035722019 0.1732905194269839 0 -0.38725051722307802 0.16485882359431969 0 -0.37694077403260551 0.17025180461102571 0 -0.38725051722307802 0.16485882359431969 0 -0.37694077403260551 0.17025180461102571 0 -0.38073282864654079 0.15920617379880561 0 -0.37694077403260551 0.17025180461102571 0 -0.38073282864654079 0.15920617379880561 0 -0.37388297938513959 0.16166137445959761 0 -0.38073282864654079 0.15920617379880561 0 -0.37309519352824883 0.1543789906705586 0 -0.37388297938513959 0.16166137445959761 0 -0.38073282864654079 0.15920617379880561 0 -0.3827009513708603 0.14940603567354169 0 -0.37309519352824883 0.1543789906705586 0 -0.3827009513708603 0.14940603567354169 0 -0.37597267907071241 0.14130439464309319 0 -0.37309519352824883 0.1543789906705586 0 -0.3827009513708603 0.14940603567354169 0 -0.39297290175325372 0.1533898224990162 0 -0.3898924975429357 0.13801104227695321 0 -0.3827009513708603 0.14940603567354169 0 -0.37597267907071241 0.14130439464309319 0 -0.3898924975429357 0.13801104227695321 0 -0.38073282864654079 0.15920617379880561 0 -0.3827009513708603 0.14940603567354169 0 -0.39297290175325372 0.1533898224990162 0 -0.39297290175325372 0.1533898224990162 0 -0.40357905221912699 0.14282676896914201 0 -0.3898924975429357 0.13801104227695321 0 -0.4079857740718692 0.15598741377761571 0 -0.39297290175325372 0.1533898224990162 0 -0.40357905221912699 0.14282676896914201 0 -0.39258367857836812 0.12016766987726769 0 -0.40463226631639893 0.1316272218144042 0 -0.3898924975429357 0.13801104227695321 0 -0.40357905221912699 0.14282676896914201 0 -0.40463226631639893 0.1316272218144042 0 -0.3898924975429357 0.13801104227695321 0 -0.39258367857836812 0.12016766987726769 0 -0.3898924975429357 0.13801104227695321 0 -0.37831158880207061 0.12974210519518689 0 -0.37597267907071241 0.14130439464309319 0 -0.3898924975429357 0.13801104227695321 0 -0.37831158880207061 0.12974210519518689 0 -0.37831158880207061 0.12974210519518689 0 -0.36654474769969903 0.13381467065450409 0 -0.36572959822295809 0.1186618833687072 0 -0.37597267907071241 0.14130439464309319 0 -0.37831158880207061 0.12974210519518689 0 -0.36654474769969903 0.13381467065450409 0 -0.36113435190863868 0.14013034282404949 0 -0.36654474769969903 0.13381467065450409 0 -0.35522828750341978 0.13108554172076489 0 -0.36113435190863868 0.14013034282404949 0 -0.36654474769969903 0.13381467065450409 0 -0.3646408792934962 0.1476711891471307 0 -0.36654474769969903 0.13381467065450409 0 -0.35522828750341978 0.13108554172076489 0 -0.36572959822295809 0.1186618833687072 0 -0.35522828750341978 0.13108554172076489 0 -0.34594086138849522 0.13892745099838499 0 -0.33887551786754821 0.1171560968601469 0 -0.36113435190863868 0.14013034282404949 0 -0.35522828750341978 0.13108554172076489 0 -0.35314464793318012 0.1378228056187964 0 -0.35522828750341978 0.13108554172076489 0 -0.35314464793318012 0.1378228056187964 0 -0.34594086138849522 0.13892745099838499 0 -0.34594086138849522 0.13892745099838499 0 -0.35300620490944218 0.16069880513662321 0 -0.35314464793318012 0.1378228056187964 0 -0.34594086138849522 0.13892745099838499 0 -0.35300620490944218 0.16069880513662321 0 -0.35314464793318012 0.1378228056187964 0 -0.36476312133316352 0.16280852875800081 0 -0.35300620490944218 0.16069880513662321 0 -0.34594086138849522 0.13892745099838499 0 -0.35300620490944218 0.16069880513662321 0 -0.34145293060062598 0.15106895395519221 0 -0.35314464793318012 0.1378228056187964 0 -0.36476312133316352 0.16280852875800081 0 -0.35314464793318012 0.1378228056187964 0 -0.3646408792934962 0.1476711891471307 0 -0.36476312133316352 0.16280852875800081 0 -0.36113435190863868 0.14013034282404949 0 -0.35314464793318012 0.1378228056187964 0 -0.3646408792934962 0.1476711891471307 0 -0.37597267907071241 0.14130439464309319 0 -0.36654474769969903 0.13381467065450409 0 -0.3646408792934962 0.1476711891471307 0 -0.37597267907071241 0.14130439464309319 0 -0.3646408792934962 0.1476711891471307 0 -0.37309519352824883 0.1543789906705586 0 -0.3646408792934962 0.1476711891471307 0 -0.37309519352824883 0.1543789906705586 0 -0.36476312133316352 0.16280852875800081 0 -0.37309519352824883 0.1543789906705586 0 -0.37388297938513959 0.16166137445959761 0 -0.36476312133316352 0.16280852875800081 0 -0.37694077403260551 0.17025180461102571 0 -0.37388297938513959 0.16166137445959761 0 -0.36476312133316352 0.16280852875800081 0 -0.36476312133316352 0.16280852875800081 0 -0.36167318106141272 0.17246177726294529 0 -0.35300620490944218 0.16069880513662321 0 -0.37638159473314581 0.1877942518972055 0 -0.36476312133316352 0.16280852875800081 0 -0.36167318106141272 0.17246177726294529 0 -0.37638159473314581 0.1877942518972055 0 -0.36476312133316352 0.16280852875800081 0 -0.37638159473314581 0.1877942518972055 0 -0.37694077403260551 0.17025180461102571 0 -0.36476312133316352 0.16280852875800081 0 -0.37638159473314581 0.1877942518972055 0 -0.36167318106141272 0.17246177726294529 0 -0.36410245495969729 0.18230208040402371 0 -0.36167318106141272 0.17246177726294529 0 -0.36410245495969729 0.18230208040402371 0 -0.36007154843038841 0.18247015927486171 0 -0.36410245495969729 0.18230208040402371 0 -0.36007154843038841 0.18247015927486171 0 -0.36481349750401759 0.19708213847748279 0 -0.36410245495969729 0.18230208040402371 0 -0.36007154843038841 0.18247015927486171 0 -0.36167318106141272 0.17246177726294529 0 -0.36007154843038841 0.18247015927486171 0 -0.35300620490944218 0.16069880513662321 0 -0.36007154843038841 0.18247015927486171 0 -0.33105419594876068 0.18368011137979609 0 -0.36007154843038841 0.18247015927486171 0 -0.33105419594876068 0.18368011137979609 0 -0.34803505226578257 0.19445172987711551 0 -0.36007154843038841 0.18247015927486171 0 -0.3457002259177363 0.17414049755167549 0 -0.33105419594876068 0.18368011137979609 0 -0.36007154843038841 0.18247015927486171 0 -0.3457002259177363 0.17414049755167549 0 -0.35300620490944218 0.16069880513662321 0 -0.35300620490944218 0.16069880513662321 0 -0.33682437075250748 0.16500551061172469 0 -0.34145293060062598 0.15106895395519221 0 -0.3457002259177363 0.17414049755167549 0 -0.35300620490944218 0.16069880513662321 0 -0.33682437075250748 0.16500551061172469 0 -0.36007154843038841 0.18247015927486171 0 -0.35300620490944218 0.16069880513662321 0 -0.33682437075250748 0.16500551061172469 0 -0.31904019492244318 0.16800554150785221 0 -0.32989028691855682 0.1518836505068423 0 -0.3457002259177363 0.17414049755167549 0 -0.33682437075250748 0.16500551061172469 0 -0.33105419594876068 0.18368011137979609 0 -0.33682437075250748 0.16500551061172469 0 -0.33105419594876068 0.18368011137979609 0 -0.31904019492244318 0.16800554150785221 0 -0.33105419594876068 0.18368011137979609 0 -0.30203684346713311 0.18489006348472731 0 -0.33105419594876068 0.18368011137979609 0 -0.31904019492244318 0.16800554150785221 0 -0.30203684346713311 0.18489006348472731 0 -0.31904019492244318 0.16800554150785221 0 -0.32989028691855682 0.1518836505068423 0 -0.31105534142231839 0.1494002271791694 0 -0.3250211591446423 0.13476626854848001 0 -0.32989028691855682 0.1518836505068423 0 -0.31105534142231839 0.1494002271791694 0 -0.3250211591446423 0.13476626854848001 0 -0.30759206131132388 0.13210965609950381 0 -0.31105534142231839 0.1494002271791694 0 -0.3250211591446423 0.13476626854848001 0 -0.30759206131132388 0.13210965609950381 0 -0.31522126791729488 0.1158297341631635 0 -0.3250211591446423 0.13476626854848001 0 -0.33659054733248378 0.13318196801056079 0 -0.33652465092924982 0.14187805563523129 0 -0.34594086138849522 0.13892745099838499 0 -0.33659054733248378 0.13318196801056079 0 -0.33887551786754821 0.1171560968601469 0 -0.3250211591446423 0.13476626854848001 0 -0.33659054733248378 0.13318196801056079 0 -0.33887551786754821 0.1171560968601469 0 -0.34594086138849522 0.13892745099838499 0 -0.33887551786754821 0.1171560968601469 0 -0.34594086138849522 0.13892745099838499 0 -0.33659054733248378 0.13318196801056079 0 -0.33652465092924982 0.14187805563523129 0 -0.34594086138849522 0.13892745099838499 0 -0.33652465092924982 0.14187805563523129 0 -0.34145293060062598 0.15106895395519221 0 -0.3250211591446423 0.13476626854848001 0 -0.33652465092924982 0.14187805563523129 0 -0.32989028691855682 0.1518836505068423 0 -0.33652465092924982 0.14187805563523129 0 -0.34145293060062598 0.15106895395519221 0 -0.32989028691855682 0.1518836505068423 0 -0.33682437075250748 0.16500551061172469 0 -0.34145293060062598 0.15106895395519221 0 -0.32989028691855682 0.1518836505068423 0 -0.34524025642206257 0.2414680591121684 0 -0.36125593460795619 0.23596521435622991 0 -0.34909714111780338 0.2318100692590393 0 -0.34524025642206257 0.2414680591121684 0 -0.35624222780627512 0.2477984128881994 0 -0.36125593460795619 0.23596521435622991 0 -0.34524025642206257 0.2414680591121684 0 -0.35624222780627512 0.2477984128881994 0 -0.34359716320110628 0.25433917826151559 0 -0.34524025642206257 0.2414680591121684 0 -0.34909714111780338 0.2318100692590393 0 -0.33874812645693558 0.23078526532241089 0 -0.35624222780627512 0.2477984128881994 0 -0.37058522853191178 0.24728581927182011 0 -0.36125593460795619 0.23596521435622991 0 -0.37556975853097668 0.2320134337587651 0 -0.37058522853191178 0.24728581927182011 0 -0.36125593460795619 0.23596521435622991 0 -0.36125593460795619 0.23596521435622991 0 -0.36827956570553461 0.21921827873114699 0 -0.34909714111780338 0.2318100692590393 0 -0.37556975853097668 0.2320134337587651 0 -0.36125593460795619 0.23596521435622991 0 -0.36827956570553461 0.21921827873114699 0 -0.36827956570553461 0.21921827873114699 0 -0.34671199796545521 0.2216876476267314 0 -0.36827956570553461 0.21921827873114699 0 -0.34909714111780338 0.2318100692590393 0 -0.34671199796545521 0.2216876476267314 0 -0.34909714111780338 0.2318100692590393 0 -0.34671199796545521 0.2216876476267314 0 -0.33874812645693558 0.23078526532241089 0 -0.36827956570553461 0.21921827873114699 0 -0.34671199796545521 0.2216876476267314 0 -0.36154679634930081 0.20474094976196869 0 -0.34671199796545521 0.2216876476267314 0 -0.34868365195895812 0.20639574974334221 0 -0.36154679634930081 0.20474094976196869 0 -0.34671199796545521 0.2216876476267314 0 -0.36154679634930081 0.20474094976196869 0 -0.34671199796545521 0.2216876476267314 0 -0.34868365195895812 0.20639574974334221 0 -0.3395283135042978 0.2140480252815411 0 -0.36827956570553461 0.21921827873114699 0 -0.37364614944486629 0.20772421376395431 0 -0.36154679634930081 0.20474094976196869 0 -0.37638159473314581 0.1877942518972055 0 -0.37364614944486629 0.20772421376395431 0 -0.36154679634930081 0.20474094976196869 0 -0.37638159473314581 0.1877942518972055 0 -0.36154679634930081 0.20474094976196869 0 -0.37638159473314581 0.1877942518972055 0 -0.36154679634930081 0.20474094976196869 0 -0.36481349750401759 0.19708213847748279 0 -0.36154679634930081 0.20474094976196869 0 -0.36481349750401759 0.19708213847748279 0 -0.35698710166174452 0.1953309067314549 0 -0.37638159473314581 0.1877942518972055 0 -0.36410245495969729 0.18230208040402371 0 -0.36481349750401759 0.19708213847748279 0 -0.36007154843038841 0.18247015927486171 0 -0.36481349750401759 0.19708213847748279 0 -0.35698710166174452 0.1953309067314549 0 -0.36007154843038841 0.18247015927486171 0 -0.36481349750401759 0.19708213847748279 0 -0.36007154843038841 0.18247015927486171 0 -0.35698710166174452 0.1953309067314549 0 -0.34803505226578257 0.19445172987711551 0 -0.34868365195895812 0.20639574974334221 0 -0.36154679634930081 0.20474094976196869 0 -0.35698710166174452 0.1953309067314549 0 -0.34868365195895812 0.20639574974334221 0 -0.35698710166174452 0.1953309067314549 0 -0.34803505226578257 0.19445172987711551 0 -0.34868365195895812 0.20639574974334221 0 -0.34803505226578257 0.19445172987711551 0 -0.3386985324365121 0.2059695403939531 0 -0.33105419594876068 0.18368011137979609 0 -0.34803505226578257 0.19445172987711551 0 -0.32650330094666008 0.1988555442763498 0 -0.34803505226578257 0.19445172987711551 0 -0.32650330094666008 0.1988555442763498 0 -0.3386985324365121 0.2059695403939531 0 -0.33105419594876068 0.18368011137979609 0 -0.32650330094666008 0.1988555442763498 0 -0.30203684346713311 0.18489006348472731 0 -0.32650330094666008 0.1988555442763498 0 -0.31059296060101199 0.21098951780570371 0 -0.30203684346713311 0.18489006348472731 0 -0.32860222096076053 0.21315230271680319 0 -0.31893376737450863 0.2247640705336085 0 -0.31059296060101199 0.21098951780570371 0 -0.32650330094666008 0.1988555442763498 0 -0.32860222096076053 0.21315230271680319 0 -0.31059296060101199 0.21098951780570371 0 -0.32860222096076053 0.21315230271680319 0 -0.3395283135042978 0.2140480252815411 0 -0.33494516419980241 0.22303488592687459 0 -0.32860222096076053 0.21315230271680319 0 -0.3386985324365121 0.2059695403939531 0 -0.3395283135042978 0.2140480252815411 0 -0.32650330094666008 0.1988555442763498 0 -0.32860222096076053 0.21315230271680319 0 -0.3386985324365121 0.2059695403939531 0 -0.34868365195895812 0.20639574974334221 0 -0.3386985324365121 0.2059695403939531 0 -0.3395283135042978 0.2140480252815411 0 -0.34671199796545521 0.2216876476267314 0 -0.3395283135042978 0.2140480252815411 0 -0.33494516419980241 0.22303488592687459 0 -0.34671199796545521 0.2216876476267314 0 -0.33874812645693558 0.23078526532241089 0 -0.33494516419980241 0.22303488592687459 0 -0.34671199796545521 0.2216876476267314 0 -0.33494516419980241 0.22303488592687459 0 -0.34671199796545521 0.2216876476267314 0 -0.33874812645693558 0.23078526532241089 0 -0.33874812645693558 0.23078526532241089 0 -0.33494516419980241 0.22303488592687459 0 -0.32750284810368469 0.23149489739533599 0 -0.33874812645693558 0.23078526532241089 0 -0.32750284810368469 0.23149489739533599 0 -0.33330018928647309 0.23751598938149221 0 -0.31893376737450863 0.2247640705336085 0 -0.32100479180562302 0.23902298594052521 0 -0.30042434355958919 0.23339645318337429 0 -0.33494516419980241 0.22303488592687459 0 -0.31893376737450863 0.2247640705336085 0 -0.32750284810368469 0.23149489739533599 0 -0.32860222096076053 0.21315230271680319 0 -0.33494516419980241 0.22303488592687459 0 -0.31893376737450863 0.2247640705336085 0 -0.31893376737450863 0.2247640705336085 0 -0.32750284810368469 0.23149489739533599 0 -0.32100479180562302 0.23902298594052521 0 -0.32750284810368469 0.23149489739533599 0 -0.32100479180562302 0.23902298594052521 0 -0.33330018928647309 0.23751598938149221 0 -0.32100479180562302 0.23902298594052521 0 -0.31049708235076268 0.24962494877272631 0 -0.32323649148849959 0.25141355428377421 0 -0.32100479180562302 0.23902298594052521 0 -0.33305541512357562 0.24707808111801391 0 -0.32323649148849959 0.25141355428377421 0 -0.32100479180562302 0.23902298594052521 0 -0.33305541512357562 0.24707808111801391 0 -0.33330018928647309 0.23751598938149221 0 -0.34524025642206257 0.2414680591121684 0 -0.33874812645693558 0.23078526532241089 0 -0.33330018928647309 0.23751598938149221 0 -0.34524025642206257 0.2414680591121684 0 -0.33305541512357562 0.24707808111801391 0 -0.33330018928647309 0.23751598938149221 0 -0.34524025642206257 0.2414680591121684 0 -0.33305541512357562 0.24707808111801391 0 -0.34359716320110628 0.25433917826151559 0 -0.30042434355958919 0.23339645318337429 0 -0.27653739062487692 0.23349760704131109 0 -0.29021596028443702 0.25585333126742787 0 -0.31049708235076268 0.24962494877272631 0 -0.30042434355958919 0.23339645318337429 0 -0.29021596028443702 0.25585333126742787 0 -0.32100479180562302 0.23902298594052521 0 -0.31049708235076268 0.24962494877272631 0 -0.30042434355958919 0.23339645318337429 0 -0.31893376737450863 0.2247640705336085 0 -0.30042434355958919 0.23339645318337429 0 -0.31059296060101199 0.21098951780570371 0 -0.30042434355958919 0.23339645318337429 0 -0.28785194631861072 0.21006628104535621 0 -0.27653739062487692 0.23349760704131109 0 -0.30042434355958919 0.23339645318337429 0 -0.27653739062487692 0.23349760704131109 0 -0.30042434355958919 0.23339645318337429 0 -0.28785194631861072 0.21006628104535621 0 -0.31059296060101199 0.21098951780570371 0 -0.28785194631861072 0.21006628104535621 0 -0.31059296060101199 0.21098951780570371 0 -0.30203684346713311 0.18489006348472731 0 -0.28785194631861072 0.21006628104535621 0 -0.30203684346713311 0.18489006348472731 0 -0.27301949098550538 0.18610001558965841 0 -0.28785194631861072 0.21006628104535621 0 -0.26450064867354722 0.21152402916736249 0 -0.27301949098550538 0.18610001558965841 0 -0.25817414407619821 0.1960961783838632 0 -0.27301949098550538 0.18610001558965841 0 -0.24400213850387781 0.18730996769458949 0 -0.25817414407619821 0.1960961783838632 0 -0.26450064867354722 0.21152402916736249 0 -0.24407024978909991 0.20123590940552491 0 -0.25817414407619821 0.1960961783838632 0 -0.26450064867354722 0.21152402916736249 0 -0.27301949098550538 0.18610001558965841 0 -0.28785194631861072 0.21006628104535621 0 -0.26450064867354722 0.21152402916736249 0 -0.27653739062487692 0.23349760704131109 0 -0.27653739062487692 0.23349760704131109 0 -0.25265043769016471 0.23359876089924761 0 -0.26450064867354722 0.21152402916736249 0 -0.27653739062487692 0.23349760704131109 0 -0.25265043769016471 0.23359876089924761 0 -0.26450064867354722 0.21152402916736249 0 -0.25265043769016471 0.23359876089924761 0 -0.2401401149238922 0.21737942640557739 0 -0.27653739062487692 0.23349760704131109 0 -0.25265043769016471 0.23359876089924761 0 -0.2662039089638491 0.25117051250352018 0 -0.25265043769016471 0.23359876089924761 0 -0.2662039089638491 0.25117051250352018 0 -0.25265043769016471 0.23359876089924761 0 -0.2662039089638491 0.25117051250352018 0 -0.24303949471739039 0.24984414833669519 0 -0.27653739062487692 0.23349760704131109 0 -0.29021596028443702 0.25585333126742787 0 -0.2662039089638491 0.25117051250352018 0 -0.29059072293827382 0.13984143783237349 0 -0.2897031925774628 0.1637025711544485 0 -0.26899744381946961 0.14920742360696429 0 -0.29059072293827382 0.13984143783237349 0 -0.30759206131132388 0.13210965609950381 0 -0.29156701796704171 0.1145033714661803 0 -0.29059072293827382 0.13984143783237349 0 -0.27380741723016322 0.12965864487420231 0 -0.29156701796704171 0.1145033714661803 0 -0.29059072293827382 0.13984143783237349 0 -0.30759206131132388 0.13210965609950381 0 -0.31105534142231839 0.1494002271791694 0 -0.29059072293827382 0.13984143783237349 0 -0.31105534142231839 0.1494002271791694 0 -0.2897031925774628 0.1637025711544485 0 -0.31904019492244318 0.16800554150785221 0 -0.31105534142231839 0.1494002271791694 0 -0.2897031925774628 0.1637025711544485 0 -0.31904019492244318 0.16800554150785221 0 -0.30203684346713311 0.18489006348472731 0 -0.2897031925774628 0.1637025711544485 0 -0.30203684346713311 0.18489006348472731 0 -0.27301949098550538 0.18610001558965841 0 -0.30203684346713311 0.18489006348472731 0 -0.2897031925774628 0.1637025711544485 0 -0.27301949098550538 0.18610001558965841 0 -0.2897031925774628 0.1637025711544485 0 -0.2699069688503683 0.16684924926418879 0 -0.26899744381946961 0.14920742360696429 0 -0.2897031925774628 0.1637025711544485 0 -0.2699069688503683 0.16684924926418879 0 -0.27301949098550538 0.18610001558965841 0 -0.2699069688503683 0.16684924926418879 0 -0.27301949098550538 0.18610001558965841 0 -0.25807141725645449 0.17581784983931059 0 -0.27301949098550538 0.18610001558965841 0 -0.24400213850387781 0.18730996769458949 0 -0.27301949098550538 0.18610001558965841 0 -0.25807141725645449 0.17581784983931059 0 -0.24400213850387781 0.18730996769458949 0 -0.25807141725645449 0.17581784983931059 0 -0.25583202194005211 0.16272312140101861 0 -0.2456408271660202 0.17775926288232599 0 -0.2699069688503683 0.16684924926418879 0 -0.25583202194005211 0.16272312140101861 0 -0.26899744381946961 0.14920742360696429 0 -0.2699069688503683 0.16684924926418879 0 -0.25807141725645449 0.17581784983931059 0 -0.25583202194005211 0.16272312140101861 0 -0.25583202194005211 0.16272312140101861 0 -0.26899744381946961 0.14920742360696429 0 -0.2485809116905601 0.14536290446679931 0 -0.26899744381946961 0.14920742360696429 0 -0.25978480037403251 0.13590792576158059 0 -0.2485809116905601 0.14536290446679931 0 -0.29059072293827382 0.13984143783237349 0 -0.26899744381946961 0.14920742360696429 0 -0.27380741723016322 0.12965864487420231 0 -0.26899744381946961 0.14920742360696429 0 -0.27380741723016322 0.12965864487420231 0 -0.25978480037403251 0.13590792576158059 0 -0.27380741723016322 0.12965864487420231 0 -0.25978480037403251 0.13590792576158059 0 -0.25758604856539569 0.1224615844922433 0 -0.25978480037403251 0.13590792576158059 0 -0.24733998135737481 0.13168932854804891 0 -0.2485809116905601 0.14536290446679931 0 -0.25978480037403251 0.13590792576158059 0 -0.25758604856539569 0.1224615844922433 0 -0.24733998135737481 0.13168932854804891 0 -0.26791276801678848 0.11317700876919699 0 -0.24425851806653551 0.11185064607221309 0 -0.25758604856539569 0.1224615844922433 0 -0.26791276801678848 0.11317700876919699 0 -0.24425851806653551 0.11185064607221309 0 -0.25137304204088817 0.097543164279175837 0 -0.26791276801678848 0.11317700876919699 0 -0.24425851806653551 0.11185064607221309 0 -0.25137304204088817 0.097543164279175837 0 -0.26791276801678848 0.11317700876919699 0 -0.26538397423940779 0.089861089978037101 0 -0.27943136333017971 0.1003463263482724 0 -0.26791276801678848 0.11317700876919699 0 -0.29156701796704171 0.1145033714661803 0 -0.27943136333017971 0.1003463263482724 0 -0.26791276801678848 0.11317700876919699 0 -0.26538397423940779 0.089861089978037101 0 -0.27380741723016322 0.12965864487420231 0 -0.25758604856539569 0.1224615844922433 0 -0.26791276801678848 0.11317700876919699 0 -0.27380741723016322 0.12965864487420231 0 -0.26791276801678848 0.11317700876919699 0 -0.29156701796704171 0.1145033714661803 0 -0.26791276801678848 0.11317700876919699 0 -0.29156701796704171 0.1145033714661803 0 -0.27943136333017971 0.1003463263482724 0 -0.29156701796704171 0.1145033714661803 0 -0.29549536370289919 0.1006536071505752 0 -0.27943136333017971 0.1003463263482724 0 -0.29549536370289919 0.1006536071505752 0 -0.28814247690339723 0.086280770866345044 0 -0.29549536370289919 0.1006536071505752 0 -0.30816835259489178 0.093943482641756004 0 -0.31522126791729488 0.1158297341631635 0 -0.29156701796704171 0.1145033714661803 0 -0.31522126791729488 0.1158297341631635 0 -0.30759206131132388 0.13210965609950381 0 -0.29156701796704171 0.1145033714661803 0 -0.31522126791729488 0.1158297341631635 0 -0.29156701796704171 0.1145033714661803 0 -0.29549536370289919 0.1006536071505752 0 -0.31522126791729488 0.1158297341631635 0 -0.30816835259489178 0.093943482641756004 0 -0.30764874778413581 0.074022160636158976 0 -0.28814247690339723 0.086280770866345044 0 -0.29549536370289919 0.1006536071505752 0 -0.30816835259489178 0.093943482641756004 0 -0.28814247690339723 0.086280770866345044 0 -0.30816835259489178 0.093943482641756004 0 -0.30764874778413581 0.074022160636158976 0 -0.31555659164389671 0.084102703155889927 0 -0.28814247690339723 0.086280770866345044 0 -0.27314662045571497 0.074735034616392318 0 -0.28425953221531219 0.060594570692545313 0 -0.30764874778413581 0.074022160636158976 0 -0.28814247690339723 0.086280770866345044 0 -0.28425953221531219 0.060594570692545313 0 -0.30764874778413581 0.074022160636158976 0 -0.28425953221531219 0.060594570692545313 0 -0.27314662045571497 0.074735034616392318 0 -0.26790498015411329 0.061968957874265831 0 -0.28425953221531219 0.060594570692545313 0 -0.27314662045571497 0.074735034616392318 0 -0.25829350138135798 0.067505954959573178 0 -0.26790498015411329 0.061968957874265831 0 -0.27943136333017971 0.1003463263482724 0 -0.28814247690339723 0.086280770866345044 0 -0.26538397423940779 0.089861089978037101 0 -0.28814247690339723 0.086280770866345044 0 -0.27314662045571497 0.074735034616392318 0 -0.26538397423940779 0.089861089978037101 0 -0.27314662045571497 0.074735034616392318 0 -0.26538397423940779 0.089861089978037101 0 -0.25613481907564162 0.080080736698210961 0 -0.26538397423940779 0.089861089978037101 0 -0.25613481907564162 0.080080736698210961 0 -0.25298296723642882 0.088056357002873786 0 -0.25613481907564162 0.080080736698210961 0 -0.25298296723642882 0.088056357002873786 0 -0.2426331850115406 0.084166491084906203 0 -0.25137304204088817 0.097543164279175837 0 -0.26538397423940779 0.089861089978037101 0 -0.25298296723642882 0.088056357002873786 0 -0.27314662045571497 0.074735034616392318 0 -0.25613481907564162 0.080080736698210961 0 -0.25829350138135798 0.067505954959573178 0 -0.25613481907564162 0.080080736698210961 0 -0.25829350138135798 0.067505954959573178 0 -0.2497559911996434 0.069906219864794658 0 -0.25829350138135798 0.067505954959573178 0 -0.25071059857313649 0.061295580483683387 0 -0.2497559911996434 0.069906219864794658 0 -0.25071059857313649 0.061295580483683387 0 -0.25908592607392311 0.057273630053397667 0 -0.25887886309051278 0.047012756075035758 0 -0.25829350138135798 0.067505954959573178 0 -0.25071059857313649 0.061295580483683387 0 -0.25908592607392311 0.057273630053397667 0 -0.25071059857313649 0.061295580483683387 0 -0.25887886309051278 0.047012756075035758 0 -0.24100785195654059 0.056482336097599589 0 -0.25829350138135798 0.067505954959573178 0 -0.25908592607392311 0.057273630053397667 0 -0.26790498015411329 0.061968957874265831 0 -0.25908592607392311 0.057273630053397667 0 -0.2608703166464888 0.047166980748931678 0 -0.26790498015411329 0.061968957874265831 0 -0.25908592607392311 0.057273630053397667 0 -0.2608703166464888 0.047166980748931678 0 -0.25887886309051278 0.047012756075035758 0 -0.2554149369735037 0.040566206170022941 0 -0.25151414622540391 0.035068817058845007 0 -0.24855461709313459 0.044689649184719057 0 -0.25887886309051278 0.047012756075035758 0 -0.2554149369735037 0.040566206170022941 0 -0.24855461709313459 0.044689649184719057 0 -0.2608703166464888 0.047166980748931678 0 -0.25887886309051278 0.047012756075035758 0 -0.27674987422448433 0.037543176052470623 0 -0.2554149369735037 0.040566206170022941 0 -0.25151414622540391 0.035068817058845007 0 -0.26271212148496381 0.035493602361491967 0 -0.25887886309051278 0.047012756075035758 0 -0.2554149369735037 0.040566206170022941 0 -0.26271212148496381 0.035493602361491967 0 -0.25887886309051278 0.047012756075035758 0 -0.27674987422448433 0.037543176052470623 0 -0.25887886309051278 0.047012756075035758 0 -0.26271212148496381 0.035493602361491967 0 -0.27674987422448433 0.037543176052470623 0 -0.26271212148496381 0.035493602361491967 0 -0.27674987422448433 0.037543176052470623 0 -0.27404237100966322 0.02450545063919022 0 -0.2608703166464888 0.047166980748931678 0 -0.27674987422448433 0.037543176052470623 0 -0.28425953221531219 0.060594570692545313 0 -0.2608703166464888 0.047166980748931678 0 -0.28425953221531219 0.060594570692545313 0 -0.2608703166464888 0.047166980748931678 0 -0.26790498015411329 0.061968957874265831 0 -0.28425953221531219 0.060594570692545313 0 -0.26703572610129378 -0.0044633328632372486 0 -0.25178156673050811 0.0072016021390982014 0 -0.26810280277333121 0.01106487595963818 0 -0.25178156673050811 0.0072016021390982014 0 -0.25859304402958039 0.0230086871245485 0 -0.26810280277333121 0.01106487595963818 0 -0.25178156673050811 0.0072016021390982014 0 -0.25859304402958039 0.0230086871245485 0 -0.2438502831793008 0.02485429682087445 0 -0.25151414622540391 0.035068817058845007 0 -0.25859304402958039 0.0230086871245485 0 -0.2438502831793008 0.02485429682087445 0 -0.25151414622540391 0.035068817058845007 0 -0.26271212148496381 0.035493602361491967 0 -0.25859304402958039 0.0230086871245485 0 -0.26271212148496381 0.035493602361491967 0 -0.25859304402958039 0.0230086871245485 0 -0.27404237100966322 0.02450545063919022 0 -0.27404237100966322 0.02450545063919022 0 -0.26810280277333121 0.01106487595963818 0 -0.28347549818716389 0.011848766307086631 0 -0.25859304402958039 0.0230086871245485 0 -0.27404237100966322 0.02450545063919022 0 -0.26810280277333121 0.01106487595963818 0 -0.26810280277333121 0.01106487595963818 0 -0.27737550464354538 0.0033681709572339481 0 -0.28347549818716389 0.011848766307086631 0 -0.26703572610129378 -0.0044633328632372486 0 -0.26810280277333121 0.01106487595963818 0 -0.27737550464354538 0.0033681709572339481 0 -0.29088799151239259 -0.0049776255745517719 0 -0.27737550464354538 0.0033681709572339481 0 -0.28347549818716389 0.011848766307086631 0 -0.29088799151239259 -0.0049776255745517719 0 -0.28347549818716389 0.011848766307086631 0 -0.30171932893748871 0.011391286077331879 0 -0.27674987422448433 0.037543176052470623 0 -0.27404237100966322 0.02450545063919022 0 -0.29462088535845588 0.02807359602990547 0 -0.28347549818716389 0.011848766307086631 0 -0.29462088535845588 0.02807359602990547 0 -0.30171932893748871 0.011391286077331879 0 -0.27404237100966322 0.02450545063919022 0 -0.28347549818716389 0.011848766307086631 0 -0.29462088535845588 0.02807359602990547 0 -0.29462088535845588 0.02807359602990547 0 -0.30171932893748871 0.011391286077331879 0 -0.31945123985388407 0.031656958074767337 0 -0.29088799151239259 -0.0049776255745517719 0 -0.30171932893748871 0.011391286077331879 0 -0.31903874586302211 0.0026409754743748912 0 -0.27674987422448433 0.037543176052470623 0 -0.28425953221531219 0.060594570692545313 0 -0.30208864066364371 0.048363940114954783 0 -0.27674987422448433 0.037543176052470623 0 -0.29462088535845588 0.02807359602990547 0 -0.30208864066364371 0.048363940114954783 0 -0.27674987422448433 0.037543176052470623 0 -0.29462088535845588 0.02807359602990547 0 -0.29462088535845588 0.02807359602990547 0 -0.30208864066364371 0.048363940114954783 0 -0.31945123985388407 0.031656958074767337 0 -0.30764874778413581 0.074022160636158976 0 -0.28425953221531219 0.060594570692545313 0 -0.30208864066364371 0.048363940114954783 0 -0.30764874778413581 0.074022160636158976 0 -0.30208864066364371 0.048363940114954783 0 -0.31986373384474198 0.060672940675159909 0 -0.31986373384474198 0.060672940675159909 0 -0.33486664690143758 0.050877303786498553 0 -0.32950566557871441 0.06833463283852953 0 -0.31986373384474198 0.060672940675159909 0 -0.31945123985388407 0.031656958074767337 0 -0.33486664690143758 0.050877303786498553 0 -0.30208864066364371 0.048363940114954783 0 -0.31986373384474198 0.060672940675159909 0 -0.31945123985388407 0.031656958074767337 0 -0.31986373384474198 0.060672940675159909 0 -0.31945123985388407 0.031656958074767337 0 -0.31945123985388407 0.031656958074767337 0 -0.34224595860739898 0.034549791392152508 0 -0.33486664690143758 0.050877303786498553 0 -0.33486664690143758 0.050877303786498553 0 -0.32950566557871441 0.06833463283852953 0 -0.34259985219739192 0.065667529090799287 0 -0.30171932893748871 0.011391286077331879 0 -0.31945123985388407 0.031656958074767337 0 -0.31903874586302211 0.0026409754743748912 0 -0.31945123985388407 0.031656958074767337 0 -0.31903874586302211 0.0026409754743748912 0 -0.33832605254092868 0.0078608105472494257 0 -0.31945123985388407 0.031656958074767337 0 -0.31903874586302211 0.0026409754743748912 0 -0.31945123985388407 0.031656958074767337 0 -0.34224595860739898 0.034549791392152508 0 -0.33832605254092868 0.0078608105472494257 0 -0.34224595860739898 0.034549791392152508 0 -0.33832605254092868 0.0078608105472494257 0 -0.31903874586302211 0.0026409754743748912 0 -0.33832605254092868 0.0078608105472494257 0 -0.33832605254092868 0.0078608105472494257 0 -0.36231109551829499 0.01435202109564061 0 -0.34891131864993152 -0.0074799462333180432 0 -0.33832605254092868 0.0078608105472494257 0 -0.36231109551829499 0.01435202109564061 0 -0.33832605254092868 0.0078608105472494257 0 -0.3581972715085685 0.030330783869027891 0 -0.36231109551829499 0.01435202109564061 0 -0.34224595860739898 0.034549791392152508 0 -0.33832605254092868 0.0078608105472494257 0 -0.3581972715085685 0.030330783869027891 0 -0.38047951950022157 0.039336017552778192 0 -0.38629613849566191 0.020843231644030721 0 -0.3581972715085685 0.030330783869027891 0 -0.38629613849566191 0.020843231644030721 0 -0.3581972715085685 0.030330783869027891 0 -0.36231109551829499 0.01435202109564061 0 -0.38629613849566191 0.020843231644030721 0 -0.36231109551829499 0.01435202109564061 0 -0.37340042744594659 -0.0086351566667626813 0 -0.38629613849566191 0.020843231644030721 0 -0.36231109551829499 0.01435202109564061 0 -0.33486664690143758 0.050877303786498553 0 -0.35526322883936778 0.053069358558698002 0 -0.34259985219739192 0.065667529090799287 0 -0.34224595860739898 0.034549791392152508 0 -0.3581972715085685 0.030330783869027891 0 -0.35526322883936778 0.053069358558698002 0 -0.34224595860739898 0.034549791392152508 0 -0.33486664690143758 0.050877303786498553 0 -0.35526322883936778 0.053069358558698002 0 -0.38047951950022157 0.039336017552778192 0 -0.3581972715085685 0.030330783869027891 0 -0.36653950821373588 0.044620046804338558 0 -0.3581972715085685 0.030330783869027891 0 -0.35526322883936778 0.053069358558698002 0 -0.36653950821373588 0.044620046804338558 0 -0.37587512883543822 0.056696915439192717 0 -0.35526322883936778 0.053069358558698002 0 -0.36653950821373588 0.044620046804338558 0 -0.37587512883543822 0.056696915439192717 0 -0.38047951950022157 0.039336017552778192 0 -0.36653950821373588 0.044620046804338558 0 -0.37587512883543822 0.056696915439192717 0 -0.35526322883936778 0.053069358558698002 0 -0.36647177046049001 0.068642590322174429 0 -0.38599627482098242 0.077671203351856746 0 -0.36647177046049001 0.068642590322174429 0 -0.36322588738013167 0.082517594484709106 0 -0.36647177046049001 0.068642590322174429 0 -0.35367756387778732 0.072666306286649662 0 -0.36322588738013167 0.082517594484709106 0 -0.35526322883936778 0.053069358558698002 0 -0.35367756387778732 0.072666306286649662 0 -0.34259985219739192 0.065667529090799287 0 -0.35526322883936778 0.053069358558698002 0 -0.36647177046049001 0.068642590322174429 0 -0.35367756387778732 0.072666306286649662 0 -0.35367756387778732 0.072666306286649662 0 -0.34259985219739192 0.065667529090799287 0 -0.34107738860007608 0.078374174704692143 0 -0.35063141360419398 0.087227274836845628 0 -0.36322588738013167 0.082517594484709106 0 -0.35931155893601902 0.099672807263574914 0 -0.35063141360419398 0.087227274836845628 0 -0.34798395080303152 0.096908553369495734 0 -0.34201071798068161 0.089375849973554883 0 -0.35063141360419398 0.087227274836845628 0 -0.34107738860007608 0.078374174704692143 0 -0.34201071798068161 0.089375849973554883 0 -0.35367756387778732 0.072666306286649662 0 -0.35063141360419398 0.087227274836845628 0 -0.34107738860007608 0.078374174704692143 0 -0.35367756387778732 0.072666306286649662 0 -0.35063141360419398 0.087227274836845628 0 -0.36322588738013167 0.082517594484709106 0 -0.36322588738013167 0.082517594484709106 0 -0.37318665789775679 0.0923859509367944 0 -0.35931155893601902 0.099672807263574914 0 -0.38599627482098242 0.077671203351856746 0 -0.36322588738013167 0.082517594484709106 0 -0.37318665789775679 0.0923859509367944 0 -0.37553063137647791 0.1060873795507903 0 -0.36572959822295809 0.1186618833687072 0 -0.35931155893601902 0.099672807263574914 0 -0.37553063137647791 0.1060873795507903 0 -0.37318665789775679 0.0923859509367944 0 -0.35931155893601902 0.099672807263574914 0 -0.36572959822295809 0.1186618833687072 0 -0.34968868047376378 0.1070788535616371 0 -0.33887551786754821 0.1171560968601469 0 -0.35522828750341978 0.13108554172076489 0 -0.36572959822295809 0.1186618833687072 0 -0.33887551786754821 0.1171560968601469 0 -0.36572959822295809 0.1186618833687072 0 -0.33887551786754821 0.1171560968601469 0 -0.36572959822295809 0.1186618833687072 0 -0.35931155893601902 0.099672807263574914 0 -0.34968868047376378 0.1070788535616371 0 -0.35931155893601902 0.099672807263574914 0 -0.34968868047376378 0.1070788535616371 0 -0.34798395080303152 0.096908553369495734 0 -0.35063141360419398 0.087227274836845628 0 -0.35931155893601902 0.099672807263574914 0 -0.34798395080303152 0.096908553369495734 0 -0.34968868047376378 0.1070788535616371 0 -0.34798395080303152 0.096908553369495734 0 -0.34001198950173689 0.099381035477471596 0 -0.34968868047376378 0.1070788535616371 0 -0.34001198950173689 0.099381035477471596 0 -0.33887551786754821 0.1171560968601469 0 -0.34001198950173689 0.099381035477471596 0 -0.33887551786754821 0.1171560968601469 0 -0.32956295253198892 0.088460088342677753 0 -0.33887551786754821 0.1171560968601469 0 -0.3261094712061231 0.1043121203397348 0 -0.32956295253198892 0.088460088342677753 0 -0.34798395080303152 0.096908553369495734 0 -0.34001198950173689 0.099381035477471596 0 -0.34201071798068161 0.089375849973554883 0 -0.33887551786754821 0.1171560968601469 0 -0.32956295253198892 0.088460088342677753 0 -0.3250211591446423 0.13476626854848001 0 -0.33887551786754821 0.1171560968601469 0 -0.31522126791729488 0.1158297341631635 0 -0.33887551786754821 0.1171560968601469 0 -0.31522126791729488 0.1158297341631635 0 -0.33887551786754821 0.1171560968601469 0 -0.31522126791729488 0.1158297341631635 0 -0.3261094712061231 0.1043121203397348 0 -0.3261094712061231 0.1043121203397348 0 -0.31981284141631461 0.095814579117378965 0 -0.32956295253198892 0.088460088342677753 0 -0.30816835259489178 0.093943482641756004 0 -0.31522126791729488 0.1158297341631635 0 -0.31981284141631461 0.095814579117378965 0 -0.31522126791729488 0.1158297341631635 0 -0.3261094712061231 0.1043121203397348 0 -0.31981284141631461 0.095814579117378965 0 -0.30764874778413581 0.074022160636158976 0 -0.33103796335295937 0.087449750579772653 0 -0.32914127149753941 0.078489404078919314 0 -0.30764874778413581 0.074022160636158976 0 -0.31555659164389671 0.084102703155889927 0 -0.33103796335295937 0.087449750579772653 0 -0.30764874778413581 0.074022160636158976 0 -0.33103796335295937 0.087449750579772653 0 -0.31981284141631461 0.095814579117378965 0 -0.32399258723628988 0.088956780298929825 0 -0.31555659164389671 0.084102703155889927 0 -0.30816835259489178 0.093943482641756004 0 -0.31981284141631461 0.095814579117378965 0 -0.31555659164389671 0.084102703155889927 0 -0.31981284141631461 0.095814579117378965 0 -0.32399258723628988 0.088956780298929825 0 -0.32956295253198892 0.088460088342677753 0 -0.32399258723628988 0.088956780298929825 0 -0.31555659164389671 0.084102703155889927 0 -0.33103796335295937 0.087449750579772653 0 -0.30764874778413581 0.074022160636158976 0 -0.31986373384474198 0.060672940675159909 0 -0.32950566557871441 0.06833463283852953 0 -0.30764874778413581 0.074022160636158976 0 -0.32950566557871441 0.06833463283852953 0 -0.32914127149753941 0.078489404078919314 0 -0.32950566557871441 0.06833463283852953 0 -0.34107738860007608 0.078374174704692143 0 -0.32914127149753941 0.078489404078919314 0 -0.32950566557871441 0.06833463283852953 0 -0.34259985219739192 0.065667529090799287 0 -0.34107738860007608 0.078374174704692143 0 -0.34107738860007608 0.078374174704692143 0 -0.33643659217181121 0.084266301635443214 0 -0.34201071798068161 0.089375849973554883 0 -0.34001198950173689 0.099381035477471596 0 -0.34201071798068161 0.089375849973554883 0 -0.33581204310783558 0.089786605201784012 0 -0.33643659217181121 0.084266301635443214 0 -0.34201071798068161 0.089375849973554883 0 -0.33581204310783558 0.089786605201784012 0 -0.33643659217181121 0.084266301635443214 0 -0.33581204310783558 0.089786605201784012 0 -0.33103796335295937 0.087449750579772653 0 -0.34001198950173689 0.099381035477471596 0 -0.33581204310783558 0.089786605201784012 0 -0.32956295253198892 0.088460088342677753 0 -0.33581204310783558 0.089786605201784012 0 -0.33103796335295937 0.087449750579772653 0 -0.32956295253198892 0.088460088342677753 0 -0.32399258723628988 0.088956780298929825 0 -0.33103796335295937 0.087449750579772653 0 -0.32956295253198892 0.088460088342677753 0 -0.34107738860007608 0.078374174704692143 0 -0.33643659217181121 0.084266301635443214 0 -0.32914127149753941 0.078489404078919314 0 -0.33643659217181121 0.084266301635443214 0 -0.33103796335295937 0.087449750579772653 0 -0.32914127149753941 0.078489404078919314 0 -0.38888276093560242 0.48206004010115672 0 -0.39594738669609569 0.46489866988573503 0 -0.41335101682961167 0.477952746208684 0 -0.40464410098945008 0.5 0 -0.38888276093560242 0.48206004010115672 0 -0.41335101682961167 0.477952746208684 0 -0.37571599354807089 0.5 0 -0.38888276093560242 0.48206004010115672 0 -0.36762535886263259 0.47122836312582639 0 -0.40464410098945008 0.5 0 -0.37571599354807089 0.5 0 -0.38888276093560242 0.48206004010115672 0 -0.38888276093560242 0.48206004010115672 0 -0.39594738669609569 0.46489866988573503 0 -0.36762535886263259 0.47122836312582639 0 -0.3890395512661845 0.44101680070226701 0 -0.39594738669609569 0.46489866988573503 0 -0.36762535886263259 0.47122836312582639 0 -0.3890395512661845 0.44101680070226701 0 -0.39594738669609569 0.46489866988573503 0 -0.41668954290340438 0.45258170532921621 0 -0.3890395512661845 0.44101680070226701 0 -0.41668954290340438 0.45258170532921621 0 -0.4064586454327575 0.42717874037478398 0 -0.39594738669609569 0.46489866988573503 0 -0.41668954290340438 0.45258170532921621 0 -0.41335101682961167 0.477952746208684 0 -0.41668954290340438 0.45258170532921621 0 -0.4277213138605877 0.43358529248576327 0 -0.4064586454327575 0.42717874037478398 0 -0.41668954290340438 0.45258170532921621 0 -0.44592984461478741 0.45009399470472561 0 -0.4277213138605877 0.43358529248576327 0 -0.41668954290340438 0.45258170532921621 0 -0.43585807479735561 0.46880005849250722 0 -0.41335101682961167 0.477952746208684 0 -0.41668954290340438 0.45258170532921621 0 -0.43585807479735561 0.46880005849250722 0 -0.44592984461478741 0.45009399470472561 0 -0.43585807479735561 0.46880005849250722 0 -0.41335101682961167 0.477952746208684 0 -0.43357220843082939 0.5 0 -0.40464410098945008 0.5 0 -0.41335101682961167 0.477952746208684 0 -0.43357220843082939 0.5 0 -0.43357220843082939 0.5 0 -0.45724697970381728 0.47776581533287821 0 -0.46250031587220858 0.5 0 -0.43585807479735561 0.46880005849250722 0 -0.43357220843082939 0.5 0 -0.45724697970381728 0.47776581533287821 0 -0.45724697970381728 0.47776581533287821 0 -0.46250031587220858 0.5 0 -0.48003613312355731 0.47614995793776071 0 -0.48003613312355731 0.47614995793776071 0 -0.5 0.5 0 -0.5 0.4542275143785881 0 -0.46250031587220858 0.5 0 -0.48003613312355731 0.47614995793776071 0 -0.49142842331358788 0.49999999999999761 0 -0.48003613312355731 0.47614995793776071 0 -0.49142842331358788 0.49999999999999761 0 -0.48003613312355731 0.47614995793776071 0 -0.49142842331358788 0.49999999999999761 0 -0.5 0.5 0 -0.5 0.4542275143785881 0 -0.46864384293352579 0.45229991587552443 0 -0.47862577637174741 0.42473281661082268 0 -0.48003613312355731 0.47614995793776071 0 -0.5 0.4542275143785881 0 -0.46864384293352579 0.45229991587552443 0 -0.48003613312355731 0.47614995793776071 0 -0.46864384293352579 0.45229991587552443 0 -0.46864384293352579 0.45229991587552443 0 -0.45725155274349549 0.42844987381328747 0 -0.46864384293352579 0.45229991587552443 0 -0.44592984461478741 0.45009399470472561 0 -0.45725155274349549 0.42844987381328747 0 -0.45724697970381728 0.47776581533287821 0 -0.48003613312355731 0.47614995793776071 0 -0.46864384293352579 0.45229991587552443 0 -0.45724697970381728 0.47776581533287821 0 -0.46864384293352579 0.45229991587552443 0 -0.44592984461478741 0.45009399470472561 0 -0.43585807479735561 0.46880005849250722 0 -0.45724697970381728 0.47776581533287821 0 -0.44592984461478741 0.45009399470472561 0 -0.45725155274349549 0.42844987381328747 0 -0.43662882571057798 0.41772641761830759 0 -0.4277213138605877 0.43358529248576327 0 -0.44592984461478741 0.45009399470472561 0 -0.45725155274349549 0.42844987381328747 0 -0.4277213138605877 0.43358529248576327 0 -0.45725155274349549 0.42844987381328747 0 -0.4277213138605877 0.43358529248576327 0 -0.44834706443862088 0.40980810669961731 0 -0.45725155274349549 0.42844987381328747 0 -0.43662882571057798 0.41772641761830759 0 -0.44834706443862088 0.40980810669961731 0 -0.45725155274349549 0.42844987381328747 0 -0.44834706443862088 0.40980810669961731 0 -0.43387707094652761 0.40505299677728129 0 -0.43662882571057798 0.41772641761830759 0 -0.44834706443862088 0.40980810669961731 0 -0.45725155274349549 0.42844987381328747 0 -0.46884956744000478 0.41393658560348873 0 -0.44834706443862088 0.40980810669961731 0 -0.46884956744000478 0.41393658560348873 0 -0.47312685334017662 0.39771229982253309 0 -0.45725155274349549 0.42844987381328747 0 -0.47862577637174741 0.42473281661082268 0 -0.46884956744000478 0.41393658560348873 0 -0.46864384293352579 0.45229991587552443 0 -0.45725155274349549 0.42844987381328747 0 -0.47862577637174741 0.42473281661082268 0 -0.45725155274349549 0.42844987381328747 0 -0.47862577637174741 0.42473281661082268 0 -0.5 0.4542275143785881 0 -0.47862577637174741 0.42473281661082268 0 -0.49999999999999939 0.42101575940835828 0 -0.47862577637174741 0.42473281661082268 0 -0.46884956744000478 0.41393658560348873 0 -0.48588487351458509 0.4092736773647665 0 -0.46884956744000478 0.41393658560348873 0 -0.48588487351458509 0.4092736773647665 0 -0.47312685334017662 0.39771229982253309 0 -0.47862577637174741 0.42473281661082268 0 -0.48588487351458509 0.4092736773647665 0 -0.49999999999999939 0.42101575940835828 0 -0.48588487351458509 0.4092736773647665 0 -0.49999999999999939 0.42101575940835828 0 -0.5 0.39153326505867347 0 -0.47862577637174741 0.42473281661082268 0 -0.49999999999999939 0.42101575940835828 0 -0.5 0.39153326505867347 0 -0.47312685334017662 0.39771229982253309 0 -0.48125476436445008 0.37782877019806971 0 -0.5 0.39153326505867347 0 -0.48125476436445008 0.37782877019806971 0 -0.5 0.36205077070898861 0 -0.48588487351458509 0.4092736773647665 0 -0.5 0.39153326505867347 0 -0.47312685334017662 0.39771229982253309 0 -0.47312685334017662 0.39771229982253309 0 -0.48125476436445008 0.37782877019806971 0 -0.45806582196801171 0.38527407770204641 0 -0.48125476436445008 0.37782877019806971 0 -0.45806582196801171 0.38527407770204641 0 -0.46513231114024378 0.36706394957809779 0 -0.44834706443862088 0.40980810669961731 0 -0.47312685334017662 0.39771229982253309 0 -0.45806582196801171 0.38527407770204641 0 -0.44834706443862088 0.40980810669961731 0 -0.45806582196801171 0.38527407770204641 0 -0.43944257613374749 0.39116633958594649 0 -0.44834706443862088 0.40980810669961731 0 -0.43944257613374749 0.39116633958594649 0 -0.43387707094652761 0.40505299677728129 0 -0.44834706443862088 0.40980810669961731 0 -0.43944257613374749 0.39116633958594649 0 -0.45806582196801171 0.38527407770204641 0 -0.43944257613374749 0.39116633958594649 0 -0.4456238721581498 0.37083132715742928 0 -0.43944257613374749 0.39116633958594649 0 -0.42211291373154691 0.38671736655096872 0 -0.42556365117223588 0.37377727671966948 0 -0.43944257613374749 0.39116633958594649 0 -0.42556365117223588 0.37377727671966948 0 -0.4456238721581498 0.37083132715742928 0 -0.42211291373154691 0.38671736655096872 0 -0.41229110465665708 0.38273903261024222 0 -0.42556365117223588 0.37377727671966948 0 -0.41229110465665708 0.38273903261024222 0 -0.40760579427965499 0.37170283100220208 0 -0.42556365117223588 0.37377727671966948 0 -0.42211291373154691 0.38671736655096872 0 -0.41229110465665708 0.38273903261024222 0 -0.41325336567618498 0.39259018407677959 0 -0.41229110465665708 0.38273903261024222 0 -0.41325336567618498 0.39259018407677959 0 -0.40475692391523799 0.39060453518299609 0 -0.41229110465665708 0.38273903261024222 0 -0.40132886167556753 0.38208644729781688 0 -0.40760579427965499 0.37170283100220208 0 -0.41326284230603511 0.40078619490192507 0 -0.40410800503050159 0.40904293797350139 0 -0.40567905294802659 0.39751649417354629 0 -0.41326284230603511 0.40078619490192507 0 -0.41325336567618498 0.39259018407677959 0 -0.40567905294802659 0.39751649417354629 0 -0.41325336567618498 0.39259018407677959 0 -0.40475692391523799 0.39060453518299609 0 -0.40567905294802659 0.39751649417354629 0 -0.42211291373154691 0.38671736655096872 0 -0.41325336567618498 0.39259018407677959 0 -0.42374185155620109 0.39774966552437452 0 -0.41326284230603511 0.40078619490192507 0 -0.41325336567618498 0.39259018407677959 0 -0.42374185155620109 0.39774966552437452 0 -0.41326284230603511 0.40078619490192507 0 -0.42374185155620109 0.39774966552437452 0 -0.41977964419283931 0.41155536804853032 0 -0.43944257613374749 0.39116633958594649 0 -0.42374185155620109 0.39774966552437452 0 -0.43387707094652761 0.40505299677728129 0 -0.42374185155620109 0.39774966552437452 0 -0.43387707094652761 0.40505299677728129 0 -0.41977964419283931 0.41155536804853032 0 -0.43944257613374749 0.39116633958594649 0 -0.42211291373154691 0.38671736655096872 0 -0.42374185155620109 0.39774966552437452 0 -0.43387707094652761 0.40505299677728129 0 -0.43662882571057798 0.41772641761830759 0 -0.41977964419283931 0.41155536804853032 0 -0.43662882571057798 0.41772641761830759 0 -0.4277213138605877 0.43358529248576327 0 -0.41977964419283931 0.41155536804853032 0 -0.4277213138605877 0.43358529248576327 0 -0.4064586454327575 0.42717874037478398 0 -0.41977964419283931 0.41155536804853032 0 -0.41326284230603511 0.40078619490192507 0 -0.41977964419283931 0.41155536804853032 0 -0.40410800503050159 0.40904293797350139 0 -0.4064586454327575 0.42717874037478398 0 -0.41977964419283931 0.41155536804853032 0 -0.40410800503050159 0.40904293797350139 0 -0.4064586454327575 0.42717874037478398 0 -0.40410800503050159 0.40904293797350139 0 -0.37999082803500239 0.41877635637190008 0 -0.40410800503050159 0.40904293797350139 0 -0.37999082803500239 0.41877635637190008 0 -0.39895846829889908 0.39720036908371342 0 -0.3890395512661845 0.44101680070226701 0 -0.4064586454327575 0.42717874037478398 0 -0.37999082803500239 0.41877635637190008 0 -0.3890395512661845 0.44101680070226701 0 -0.37999082803500239 0.41877635637190008 0 -0.3610231877711052 0.44035234366008641 0 -0.37999082803500239 0.41877635637190008 0 -0.39895846829889908 0.39720036908371342 0 -0.37999082803500239 0.41877635637190008 0 -0.38087627368831478 0.39305423237423892 0 -0.39895846829889908 0.39720036908371342 0 -0.37999082803500239 0.41877635637190008 0 -0.38087627368831478 0.39305423237423892 0 -0.3706053751955084 0.40418353415299502 0 -0.38087627368831478 0.39305423237423892 0 -0.39066099271881882 0.37729303048343171 0 -0.39895846829889908 0.39720036908371342 0 -0.38087627368831478 0.39305423237423892 0 -0.39066099271881882 0.37729303048343171 0 -0.37110993713934648 0.3751338265971379 0 -0.39066099271881882 0.37729303048343171 0 -0.39895846829889908 0.39720036908371342 0 -0.39066099271881882 0.37729303048343171 0 -0.40132886167556753 0.38208644729781688 0 -0.40760579427965499 0.37170283100220208 0 -0.39066099271881882 0.37729303048343171 0 -0.40132886167556753 0.38208644729781688 0 -0.39895846829889908 0.39720036908371342 0 -0.41229110465665708 0.38273903261024222 0 -0.40132886167556753 0.38208644729781688 0 -0.40475692391523799 0.39060453518299609 0 -0.40132886167556753 0.38208644729781688 0 -0.40475692391523799 0.39060453518299609 0 -0.39895846829889908 0.39720036908371342 0 -0.40475692391523799 0.39060453518299609 0 -0.39895846829889908 0.39720036908371342 0 -0.40475692391523799 0.39060453518299609 0 -0.39895846829889908 0.39720036908371342 0 -0.40567905294802659 0.39751649417354629 0 -0.40410800503050159 0.40904293797350139 0 -0.39895846829889908 0.39720036908371342 0 -0.40567905294802659 0.39751649417354629 0 -0.39936275074946942 0.35809382027239212 0 -0.39101806428623731 0.34180458398235658 0 -0.40735088732793429 0.34120459588833629 0 -0.39936275074946942 0.35809382027239212 0 -0.38236351713873967 0.35738569188314939 0 -0.39101806428623731 0.34180458398235658 0 -0.39066099271881882 0.37729303048343171 0 -0.39936275074946942 0.35809382027239212 0 -0.38236351713873967 0.35738569188314939 0 -0.39066099271881882 0.37729303048343171 0 -0.39936275074946942 0.35809382027239212 0 -0.40760579427965499 0.37170283100220208 0 -0.39066099271881882 0.37729303048343171 0 -0.38236351713873967 0.35738569188314939 0 -0.39066099271881882 0.37729303048343171 0 -0.38236351713873967 0.35738569188314939 0 -0.37110993713934648 0.3751338265971379 0 -0.38236351713873967 0.35738569188314939 0 -0.39101806428623731 0.34180458398235658 0 -0.37406604155865808 0.33747835328286818 0 -0.38236351713873967 0.35738569188314939 0 -0.37406604155865808 0.33747835328286818 0 -0.3850752334468367 0.32706910711690518 0 -0.36773093821624198 0.32227914647735478 0 -0.37406604155865808 0.33747835328286818 0 -0.3850752334468367 0.32706910711690518 0 -0.39101806428623731 0.34180458398235658 0 -0.37406604155865808 0.33747835328286818 0 -0.3850752334468367 0.32706910711690518 0 -0.37406604155865808 0.33747835328286818 0 -0.3850752334468367 0.32706910711690518 0 -0.39608442533501609 0.31665986095094301 0 -0.37992376495981639 0.30879663903322568 0 -0.3850752334468367 0.32706910711690518 0 -0.37992376495981639 0.30879663903322568 0 -0.36773093821624198 0.32227914647735478 0 -0.3850752334468367 0.32706910711690518 0 -0.39608442533501609 0.31665986095094301 0 -0.39608442533501609 0.31665986095094301 0 -0.39847699102152428 0.33035867547484521 0 -0.41285634471159732 0.32505522943568482 0 -0.3850752334468367 0.32706910711690518 0 -0.39608442533501609 0.31665986095094301 0 -0.39847699102152428 0.33035867547484521 0 -0.39847699102152428 0.33035867547484521 0 -0.40735088732793429 0.34120459588833629 0 -0.41285634471159732 0.32505522943568482 0 -0.39101806428623731 0.34180458398235658 0 -0.39847699102152428 0.33035867547484521 0 -0.40735088732793429 0.34120459588833629 0 -0.3850752334468367 0.32706910711690518 0 -0.39101806428623731 0.34180458398235658 0 -0.39847699102152428 0.33035867547484521 0 -0.40735088732793429 0.34120459588833629 0 -0.41285634471159732 0.32505522943568482 0 -0.42550698990592839 0.34052135606161837 0 -0.41285634471159732 0.32505522943568482 0 -0.42548263752035648 0.31585742666819028 0 -0.41195569214568578 0.30808437452961218 0 -0.39608442533501609 0.31665986095094301 0 -0.41285634471159732 0.32505522943568482 0 -0.41195569214568578 0.30808437452961218 0 -0.43310384521791578 0.32769633471456089 0 -0.42548263752035648 0.31585742666819028 0 -0.44484692530699432 0.31325476962908327 0 -0.41285634471159732 0.32505522943568482 0 -0.43310384521791578 0.32769633471456089 0 -0.42548263752035648 0.31585742666819028 0 -0.41285634471159732 0.32505522943568482 0 -0.43310384521791578 0.32769633471456089 0 -0.42550698990592839 0.34052135606161837 0 -0.43310384521791578 0.32769633471456089 0 -0.42550698990592839 0.34052135606161837 0 -0.4470893173452799 0.33751305542956361 0 -0.42550698990592839 0.34052135606161837 0 -0.43590639709383511 0.35580835075324801 0 -0.4470893173452799 0.33751305542956361 0 -0.42550698990592839 0.34052135606161837 0 -0.43590639709383511 0.35580835075324801 0 -0.41872725206147632 0.35823517232256658 0 -0.39936275074946942 0.35809382027239212 0 -0.40735088732793429 0.34120459588833629 0 -0.41872725206147632 0.35823517232256658 0 -0.40735088732793429 0.34120459588833629 0 -0.42550698990592839 0.34052135606161837 0 -0.41872725206147632 0.35823517232256658 0 -0.41872725206147632 0.35823517232256658 0 -0.40760579427965499 0.37170283100220208 0 -0.42556365117223588 0.37377727671966948 0 -0.39936275074946942 0.35809382027239212 0 -0.41872725206147632 0.35823517232256658 0 -0.40760579427965499 0.37170283100220208 0 -0.43590639709383511 0.35580835075324801 0 -0.41872725206147632 0.35823517232256658 0 -0.42556365117223588 0.37377727671966948 0 -0.43590639709383511 0.35580835075324801 0 -0.42556365117223588 0.37377727671966948 0 -0.4456238721581498 0.37083132715742928 0 -0.43590639709383511 0.35580835075324801 0 -0.4456238721581498 0.37083132715742928 0 -0.45292729991994002 0.35397191682864049 0 -0.43590639709383511 0.35580835075324801 0 -0.45292729991994002 0.35397191682864049 0 -0.4470893173452799 0.33751305542956361 0 -0.45292729991994002 0.35397191682864049 0 -0.46513231114024378 0.36706394957809779 0 -0.47355472579695562 0.34070750020096641 0 -0.45292729991994002 0.35397191682864049 0 -0.47355472579695562 0.34070750020096641 0 -0.4470893173452799 0.33751305542956361 0 -0.45806582196801171 0.38527407770204641 0 -0.4456238721581498 0.37083132715742928 0 -0.46513231114024378 0.36706394957809779 0 -0.4456238721581498 0.37083132715742928 0 -0.45292729991994002 0.35397191682864049 0 -0.46513231114024378 0.36706394957809779 0 -0.48125476436445008 0.37782877019806971 0 -0.46513231114024378 0.36706394957809779 0 -0.48159470015867217 0.3578006881970725 0 -0.46513231114024378 0.36706394957809779 0 -0.48159470015867217 0.3578006881970725 0 -0.47355472579695562 0.34070750020096641 0 -0.48159470015867217 0.3578006881970725 0 -0.5 0.36205077070898861 0 -0.5 0.33256827635930369 0 -0.48125476436445008 0.37782877019806971 0 -0.48159470015867217 0.3578006881970725 0 -0.5 0.36205077070898861 0 -0.5 0.33256827635930369 0 -0.48156019287727198 0.32035421356555988 0 -0.5 0.30308578200961889 0 -0.48159470015867217 0.3578006881970725 0 -0.5 0.33256827635930369 0 -0.47355472579695562 0.34070750020096641 0 -0.5 0.33256827635930369 0 -0.47355472579695562 0.34070750020096641 0 -0.48156019287727198 0.32035421356555988 0 -0.47355472579695562 0.34070750020096641 0 -0.48156019287727198 0.32035421356555988 0 -0.46212158978473789 0.32506453505668798 0 -0.48156019287727198 0.32035421356555988 0 -0.46212158978473789 0.32506453505668798 0 -0.46534420107742458 0.30916888392033082 0 -0.46212158978473789 0.32506453505668798 0 -0.44484692530699432 0.31325476962908327 0 -0.46534420107742458 0.30916888392033082 0 -0.47355472579695562 0.34070750020096641 0 -0.46212158978473789 0.32506453505668798 0 -0.4470893173452799 0.33751305542956361 0 -0.46212158978473789 0.32506453505668798 0 -0.4470893173452799 0.33751305542956361 0 -0.44484692530699432 0.31325476962908327 0 -0.43310384521791578 0.32769633471456089 0 -0.4470893173452799 0.33751305542956361 0 -0.44484692530699432 0.31325476962908327 0 -0.44484692530699432 0.31325476962908327 0 -0.43801981201353379 0.28628663927689979 0 -0.45615044573025659 0.29166584508998289 0 -0.43801981201353379 0.28628663927689979 0 -0.45615044573025659 0.29166584508998289 0 -0.44224108975901483 0.26744615578784581 0 -0.45615044573025659 0.29166584508998289 0 -0.4809236186956633 0.2937464535065612 0 -0.46785285778129382 0.2753800615407358 0 -0.45615044573025659 0.29166584508998289 0 -0.46534420107742458 0.30916888392033082 0 -0.4809236186956633 0.2937464535065612 0 -0.44484692530699432 0.31325476962908327 0 -0.45615044573025659 0.29166584508998289 0 -0.46534420107742458 0.30916888392033082 0 -0.48156019287727198 0.32035421356555988 0 -0.46534420107742458 0.30916888392033082 0 -0.4809236186956633 0.2937464535065612 0 -0.4809236186956633 0.2937464535065612 0 -0.5 0.30308578200961889 0 -0.5 0.27360328765993402 0 -0.48156019287727198 0.32035421356555988 0 -0.4809236186956633 0.2937464535065612 0 -0.5 0.30308578200961889 0 -0.4809236186956633 0.2937464535065612 0 -0.5 0.27360328765993402 0 -0.46785285778129382 0.2753800615407358 0 -0.5 0.27360328765993402 0 -0.47931994340355549 0.25476779846576558 0 -0.46785285778129382 0.2753800615407358 0 -0.5 0.24412079331024919 0 -0.5 0.27360328765993402 0 -0.47931994340355549 0.25476779846576558 0 -0.45256550702383669 0.24590072200260571 0 -0.46785285778129382 0.2753800615407358 0 -0.44224108975901483 0.26744615578784581 0 -0.45256550702383669 0.24590072200260571 0 -0.47931994340355549 0.25476779846576558 0 -0.46785285778129382 0.2753800615407358 0 -0.45615044573025659 0.29166584508998289 0 -0.46785285778129382 0.2753800615407358 0 -0.44224108975901483 0.26744615578784581 0 -0.45256550702383669 0.24590072200260571 0 -0.44224108975901483 0.26744615578784581 0 -0.43081698974706778 0.25236943080920782 0 -0.44224108975901483 0.26744615578784581 0 -0.43081698974706778 0.25236943080920782 0 -0.41921995303427623 0.26687559714902842 0 -0.41416364000245431 0.24033022179560401 0 -0.43081698974706778 0.25236943080920782 0 -0.41921995303427623 0.26687559714902842 0 -0.41416364000245431 0.24033022179560401 0 -0.41921995303427623 0.26687559714902842 0 -0.4010905135807642 0.25727912484552279 0 -0.41921995303427623 0.26687559714902842 0 -0.41521055056723949 0.28966390236843292 0 -0.40014524944968488 0.27898498781205028 0 -0.41921995303427623 0.26687559714902842 0 -0.4010905135807642 0.25727912484552279 0 -0.40014524944968488 0.27898498781205028 0 -0.43801981201353379 0.28628663927689979 0 -0.41921995303427623 0.26687559714902842 0 -0.41521055056723949 0.28966390236843292 0 -0.43801981201353379 0.28628663927689979 0 -0.44224108975901483 0.26744615578784581 0 -0.41921995303427623 0.26687559714902842 0 -0.43801981201353379 0.28628663927689979 0 -0.42678410776712028 0.30089066391082159 0 -0.41521055056723949 0.28966390236843292 0 -0.42548263752035648 0.31585742666819028 0 -0.44484692530699432 0.31325476962908327 0 -0.42678410776712028 0.30089066391082159 0 -0.44484692530699432 0.31325476962908327 0 -0.43801981201353379 0.28628663927689979 0 -0.42678410776712028 0.30089066391082159 0 -0.42678410776712028 0.30089066391082159 0 -0.41195569214568578 0.30808437452961218 0 -0.41521055056723949 0.28966390236843292 0 -0.41195569214568578 0.30808437452961218 0 -0.41521055056723949 0.28966390236843292 0 -0.39747290711774969 0.29964562336741768 0 -0.42548263752035648 0.31585742666819028 0 -0.42678410776712028 0.30089066391082159 0 -0.41195569214568578 0.30808437452961218 0 -0.41521055056723949 0.28966390236843292 0 -0.39747290711774969 0.29964562336741768 0 -0.40014524944968488 0.27898498781205028 0 -0.39747290711774969 0.29964562336741768 0 -0.38589658923786552 0.28957658190834767 0 -0.40014524944968488 0.27898498781205028 0 -0.39608442533501609 0.31665986095094301 0 -0.41195569214568578 0.30808437452961218 0 -0.39747290711774969 0.29964562336741768 0 -0.39608442533501609 0.31665986095094301 0 -0.39747290711774969 0.29964562336741768 0 -0.37992376495981639 0.30879663903322568 0 -0.39747290711774969 0.29964562336741768 0 -0.37992376495981639 0.30879663903322568 0 -0.38589658923786552 0.28957658190834767 0 -0.38589658923786552 0.28957658190834767 0 -0.38380549523888557 0.26832434989942933 0 -0.36899522135527613 0.29046117378891351 0 -0.37992376495981639 0.30879663903322568 0 -0.38589658923786552 0.28957658190834767 0 -0.36899522135527613 0.29046117378891351 0 -0.38589658923786552 0.28957658190834767 0 -0.38380549523888557 0.26832434989942933 0 -0.40014524944968488 0.27898498781205028 0 -0.38682683924242489 0.2425374678850479 0 -0.37058522853191178 0.24728581927182011 0 -0.38380549523888557 0.26832434989942933 0 -0.38682683924242489 0.2425374678850479 0 -0.38380549523888557 0.26832434989942933 0 -0.4010905135807642 0.25727912484552279 0 -0.38682683924242489 0.2425374678850479 0 -0.38380549523888557 0.26832434989942933 0 -0.38380549523888557 0.26832434989942933 0 -0.4010905135807642 0.25727912484552279 0 -0.40014524944968488 0.27898498781205028 0 -0.35766949770690309 0.2764601483680269 0 -0.34615205566418661 0.26700934057878778 0 -0.36053255626833891 0.25993379343926309 0 -0.35766949770690309 0.2764601483680269 0 -0.34615205566418661 0.26700934057878778 0 -0.34351586795072608 0.27817441497643708 0 -0.35624222780627512 0.2477984128881994 0 -0.36053255626833891 0.25993379343926309 0 -0.34359716320110628 0.25433917826151559 0 -0.34615205566418661 0.26700934057878778 0 -0.36053255626833891 0.25993379343926309 0 -0.34359716320110628 0.25433917826151559 0 -0.37058522853191178 0.24728581927182011 0 -0.38380549523888557 0.26832434989942933 0 -0.36053255626833891 0.25993379343926309 0 -0.35624222780627512 0.2477984128881994 0 -0.37058522853191178 0.24728581927182011 0 -0.36053255626833891 0.25993379343926309 0 -0.38380549523888557 0.26832434989942933 0 -0.35766949770690309 0.2764601483680269 0 -0.36899522135527613 0.29046117378891351 0 -0.38380549523888557 0.26832434989942933 0 -0.35766949770690309 0.2764601483680269 0 -0.36053255626833891 0.25993379343926309 0 -0.36899522135527613 0.29046117378891351 0 -0.36139583487382321 0.30707993967184249 0 -0.35045745250780108 0.29160747947721988 0 -0.37992376495981639 0.30879663903322568 0 -0.36899522135527613 0.29046117378891351 0 -0.36139583487382321 0.30707993967184249 0 -0.36139583487382321 0.30707993967184249 0 -0.34682243593628759 0.30658981102139138 0 -0.34906193089918081 0.32072073701523551 0 -0.36139583487382321 0.30707993967184249 0 -0.34682243593628759 0.30658981102139138 0 -0.35045745250780108 0.29160747947721988 0 -0.35766949770690309 0.2764601483680269 0 -0.36899522135527613 0.29046117378891351 0 -0.35045745250780108 0.29160747947721988 0 -0.35766949770690309 0.2764601483680269 0 -0.35045745250780108 0.29160747947721988 0 -0.34351586795072608 0.27817441497643708 0 -0.34682243593628759 0.30658981102139138 0 -0.35045745250780108 0.29160747947721988 0 -0.33160017011529241 0.28940345727503619 0 -0.35045745250780108 0.29160747947721988 0 -0.33160017011529241 0.28940345727503619 0 -0.34351586795072608 0.27817441497643708 0 -0.34682243593628759 0.30658981102139138 0 -0.33160017011529241 0.28940345727503619 0 -0.33150017647113889 0.31241526536695768 0 -0.33160017011529241 0.28940345727503619 0 -0.33150017647113889 0.31241526536695768 0 -0.33160017011529241 0.28940345727503619 0 -0.33150017647113889 0.31241526536695768 0 -0.31350574193730291 0.3053221705743745 0 -0.33160017011529241 0.28940345727503619 0 -0.31350574193730291 0.3053221705743745 0 -0.31386432589263558 0.28446056801481789 0 -0.31386432589263558 0.28446056801481789 0 -0.33170016375944739 0.26639164918311481 0 -0.31989232379881222 0.26247098235967142 0 -0.31386432589263558 0.28446056801481789 0 -0.33170016375944739 0.26639164918311481 0 -0.31386432589263558 0.28446056801481789 0 -0.31989232379881222 0.26247098235967142 0 -0.30830009503894013 0.263753674595614 0 -0.33160017011529241 0.28940345727503619 0 -0.31386432589263558 0.28446056801481789 0 -0.33170016375944739 0.26639164918311481 0 -0.33160017011529241 0.28940345727503619 0 -0.33170016375944739 0.26639164918311481 0 -0.34351586795072608 0.27817441497643708 0 -0.33160017011529241 0.28940345727503619 0 -0.33170016375944739 0.26639164918311481 0 -0.34615205566418661 0.26700934057878778 0 -0.33170016375944739 0.26639164918311481 0 -0.34351586795072608 0.27817441497643708 0 -0.33305541512357562 0.24707808111801391 0 -0.34359716320110628 0.25433917826151559 0 -0.33173284436372441 0.25887077322793411 0 -0.33170016375944739 0.26639164918311481 0 -0.34359716320110628 0.25433917826151559 0 -0.34615205566418661 0.26700934057878778 0 -0.33170016375944739 0.26639164918311481 0 -0.34359716320110628 0.25433917826151559 0 -0.33170016375944739 0.26639164918311481 0 -0.34359716320110628 0.25433917826151559 0 -0.33173284436372441 0.25887077322793411 0 -0.33170016375944739 0.26639164918311481 0 -0.33173284436372441 0.25887077322793411 0 -0.33305541512357562 0.24707808111801391 0 -0.33173284436372441 0.25887077322793411 0 -0.32323649148849959 0.25141355428377421 0 -0.33173284436372441 0.25887077322793411 0 -0.32323649148849959 0.25141355428377421 0 -0.31989232379881222 0.26247098235967142 0 -0.33170016375944739 0.26639164918311481 0 -0.33173284436372441 0.25887077322793411 0 -0.31989232379881222 0.26247098235967142 0 -0.31049708235076268 0.24962494877272631 0 -0.31989232379881222 0.26247098235967142 0 -0.30830009503894013 0.263753674595614 0 -0.31049708235076268 0.24962494877272631 0 -0.32323649148849959 0.25141355428377421 0 -0.31989232379881222 0.26247098235967142 0 -0.30830009503894013 0.263753674595614 0 -0.29852793505735159 0.27296192156368732 0 -0.29021596028443702 0.25585333126742787 0 -0.31049708235076268 0.24962494877272631 0 -0.30830009503894013 0.263753674595614 0 -0.29021596028443702 0.25585333126742787 0 -0.31386432589263558 0.28446056801481789 0 -0.30830009503894013 0.263753674595614 0 -0.29852793505735159 0.27296192156368732 0 -0.31386432589263558 0.28446056801481789 0 -0.29852793505735159 0.27296192156368732 0 -0.29516901617906938 0.28505562426447811 0 -0.29852793505735159 0.27296192156368732 0 -0.28509027789167612 0.27568640967609831 0 -0.29021596028443702 0.25585333126742787 0 -0.28509027789167612 0.27568640967609831 0 -0.29021596028443702 0.25585333126742787 0 -0.27376332975964079 0.26609275738274968 0 -0.29852793505735159 0.27296192156368732 0 -0.28509027789167612 0.27568640967609831 0 -0.29516901617906938 0.28505562426447811 0 -0.29021596028443702 0.25585333126742787 0 -0.2662039089638491 0.25117051250352018 0 -0.27376332975964079 0.26609275738274968 0 -0.2662039089638491 0.25117051250352018 0 -0.27376332975964079 0.26609275738274968 0 -0.25697633528549402 0.26614875413497768 0 -0.28509027789167612 0.27568640967609831 0 -0.27376332975964079 0.26609275738274968 0 -0.26629090718494741 0.27962406310534871 0 -0.27376332975964079 0.26609275738274968 0 -0.26629090718494741 0.27962406310534871 0 -0.25697633528549402 0.26614875413497768 0 -0.26629090718494741 0.27962406310534871 0 -0.25697633528549402 0.26614875413497768 0 -0.24911825008756289 0.28432668158082558 0 -0.2662039089638491 0.25117051250352018 0 -0.25697633528549402 0.26614875413497768 0 -0.24303949471739039 0.24984414833669519 0 -0.25328465722481269 0.30114317791031597 0 -0.26701319482386238 0.31352600028955502 0 -0.25573490108783858 0.31740351125108363 0 -0.26629090718494741 0.27962406310534871 0 -0.26583557577740391 0.29149954060461492 0 -0.24911825008756289 0.28432668158082558 0 -0.25328465722481269 0.30114317791031597 0 -0.26583557577740391 0.29149954060461492 0 -0.24911825008756289 0.28432668158082558 0 -0.28509027789167612 0.27568640967609831 0 -0.26629090718494741 0.27962406310534871 0 -0.28049450927304947 0.28932269573681801 0 -0.26629090718494741 0.27962406310534871 0 -0.26583557577740391 0.29149954060461492 0 -0.28049450927304947 0.28932269573681801 0 -0.26583557577740391 0.29149954060461492 0 -0.28049450927304947 0.28932269573681801 0 -0.2803283027824624 0.30317703940302498 0 -0.2803283027824624 0.30317703940302498 0 -0.2781926501590104 0.32059840567822268 0 -0.26701319482386238 0.31352600028955502 0 -0.25328465722481269 0.30114317791031597 0 -0.26583557577740391 0.29149954060461492 0 -0.2803283027824624 0.30317703940302498 0 -0.25328465722481269 0.30114317791031597 0 -0.2803283027824624 0.30317703940302498 0 -0.26701319482386238 0.31352600028955502 0 -0.25328465722481269 0.30114317791031597 0 -0.2803283027824624 0.30317703940302498 0 -0.2803283027824624 0.30317703940302498 0 -0.29602848802582299 0.30252948684652031 0 -0.2781926501590104 0.32059840567822268 0 -0.29602848802582299 0.30252948684652031 0 -0.2781926501590104 0.32059840567822268 0 -0.28049450927304947 0.28932269573681801 0 -0.2803283027824624 0.30317703940302498 0 -0.29602848802582299 0.30252948684652031 0 -0.28049450927304947 0.28932269573681801 0 -0.29602848802582299 0.30252948684652031 0 -0.29516901617906938 0.28505562426447811 0 -0.28509027789167612 0.27568640967609831 0 -0.28049450927304947 0.28932269573681801 0 -0.29516901617906938 0.28505562426447811 0 -0.31386432589263558 0.28446056801481789 0 -0.29602848802582299 0.30252948684652031 0 -0.29516901617906938 0.28505562426447811 0 -0.31386432589263558 0.28446056801481789 0 -0.29602848802582299 0.30252948684652031 0 -0.31350574193730291 0.3053221705743745 0 -0.31386432589263558 0.28446056801481789 0 -0.29602848802582299 0.30252948684652031 0 -0.31350574193730291 0.3053221705743745 0 -0.29602848802582299 0.30252948684652031 0 -0.2982158171597617 0.31717101502346212 0 -0.2982158171597617 0.31717101502346212 0 -0.31122106024321128 0.32637198851583921 0 -0.29213114543346108 0.33103302350235347 0 -0.31350574193730291 0.3053221705743745 0 -0.2982158171597617 0.31717101502346212 0 -0.31122106024321128 0.32637198851583921 0 -0.31122106024321128 0.32637198851583921 0 -0.29213114543346108 0.33103302350235347 0 -0.29908109871422511 0.34670358887473152 0 -0.31122106024321128 0.32637198851583921 0 -0.29908109871422511 0.34670358887473152 0 -0.31733702839357819 0.35074467586125979 0 -0.29213114543346108 0.33103302350235347 0 -0.27534068717514248 0.3447388770158985 0 -0.29908109871422511 0.34670358887473152 0 -0.29213114543346108 0.33103302350235347 0 -0.2781926501590104 0.32059840567822268 0 -0.27534068717514248 0.3447388770158985 0 -0.29602848802582299 0.30252948684652031 0 -0.2982158171597617 0.31717101502346212 0 -0.2781926501590104 0.32059840567822268 0 -0.2982158171597617 0.31717101502346212 0 -0.29213114543346108 0.33103302350235347 0 -0.2781926501590104 0.32059840567822268 0 -0.2781926501590104 0.32059840567822268 0 -0.26701319482386238 0.31352600028955502 0 -0.26521355002860092 0.3313037522260377 0 -0.2781926501590104 0.32059840567822268 0 -0.26521355002860092 0.3313037522260377 0 -0.27534068717514248 0.3447388770158985 0 -0.26521355002860092 0.3313037522260377 0 -0.27534068717514248 0.3447388770158985 0 -0.24994707057673851 0.34130683404741857 0 -0.26521355002860092 0.3313037522260377 0 -0.25573490108783858 0.31740351125108363 0 -0.24994707057673851 0.34130683404741857 0 -0.26701319482386238 0.31352600028955502 0 -0.26521355002860092 0.3313037522260377 0 -0.25573490108783858 0.31740351125108363 0 -0.26393459693237048 0.36620506332460812 0 -0.24994707057673851 0.34130683404741857 0 -0.26393459693237048 0.36620506332460812 0 -0.23723830861623779 0.36107091577640049 0 -0.24994707057673851 0.34130683404741857 0 -0.26393459693237048 0.36620506332460812 0 -0.27534068717514248 0.3447388770158985 0 -0.24994707057673851 0.34130683404741857 0 -0.26393459693237048 0.36620506332460812 0 -0.27534068717514248 0.3447388770158985 0 -0.28700054697871991 0.36696841888590248 0 -0.26393459693237048 0.36620506332460812 0 -0.28700054697871991 0.36696841888590248 0 -0.27792212328800248 0.39110329260179771 0 -0.27534068717514248 0.3447388770158985 0 -0.28700054697871991 0.36696841888590248 0 -0.29908109871422511 0.34670358887473152 0 -0.29908109871422511 0.34670358887473152 0 -0.30741775359864021 0.36745464752568052 0 -0.31733702839357819 0.35074467586125979 0 -0.28700054697871991 0.36696841888590248 0 -0.30741775359864021 0.36745464752568052 0 -0.29955799968889052 0.39048043909523172 0 -0.28700054697871991 0.36696841888590248 0 -0.29908109871422511 0.34670358887473152 0 -0.30741775359864021 0.36745464752568052 0 -0.30741775359864021 0.36745464752568052 0 -0.3225022626839249 0.36765495689145411 0 -0.31733702839357819 0.35074467586125979 0 -0.30741775359864021 0.36745464752568052 0 -0.3225022626839249 0.36765495689145411 0 -0.31906059703501283 0.38948627705514421 0 -0.33739574520956112 0.3721503024643853 0 -0.33130018918283199 0.35843888155080061 0 -0.35573089338410918 0.35481432787362632 0 -0.3225022626839249 0.36765495689145411 0 -0.33739574520956112 0.3721503024643853 0 -0.33130018918283199 0.35843888155080061 0 -0.34208430904739739 0.34697962069235178 0 -0.33130018918283199 0.35843888155080061 0 -0.35573089338410918 0.35481432787362632 0 -0.33130018918283199 0.35843888155080061 0 -0.33140018282698552 0.33542707345887918 0 -0.34208430904739739 0.34697962069235178 0 -0.33130018918283199 0.35843888155080061 0 -0.33140018282698552 0.33542707345887918 0 -0.3225022626839249 0.36765495689145411 0 -0.33130018918283199 0.35843888155080061 0 -0.31733702839357819 0.35074467586125979 0 -0.33130018918283199 0.35843888155080061 0 -0.31733702839357819 0.35074467586125979 0 -0.33140018282698552 0.33542707345887918 0 -0.31122106024321128 0.32637198851583921 0 -0.31733702839357819 0.35074467586125979 0 -0.33140018282698552 0.33542707345887918 0 -0.33150017647113889 0.31241526536695768 0 -0.31350574193730291 0.3053221705743745 0 -0.31122106024321128 0.32637198851583921 0 -0.33150017647113889 0.31241526536695768 0 -0.31122106024321128 0.32637198851583921 0 -0.33140018282698552 0.33542707345887918 0 -0.34682243593628759 0.30658981102139138 0 -0.33150017647113889 0.31241526536695768 0 -0.34906193089918081 0.32072073701523551 0 -0.33150017647113889 0.31241526536695768 0 -0.33140018282698552 0.33542707345887918 0 -0.34906193089918081 0.32072073701523551 0 -0.33150017647113889 0.31241526536695768 0 -0.33140018282698552 0.33542707345887918 0 -0.34208430904739739 0.34697962069235178 0 -0.33140018282698552 0.33542707345887918 0 -0.35334571598876208 0.33628320980005261 0 -0.33140018282698552 0.33542707345887918 0 -0.35334571598876208 0.33628320980005261 0 -0.34906193089918081 0.32072073701523551 0 -0.35334571598876208 0.33628320980005261 0 -0.34906193089918081 0.32072073701523551 0 -0.36773093821624198 0.32227914647735478 0 -0.36139583487382321 0.30707993967184249 0 -0.34906193089918081 0.32072073701523551 0 -0.36773093821624198 0.32227914647735478 0 -0.37992376495981639 0.30879663903322568 0 -0.36139583487382321 0.30707993967184249 0 -0.36773093821624198 0.32227914647735478 0 -0.36139583487382321 0.30707993967184249 0 -0.36773093821624198 0.32227914647735478 0 -0.35334571598876208 0.33628320980005261 0 -0.36773093821624198 0.32227914647735478 0 -0.37406604155865808 0.33747835328286818 0 -0.35334571598876208 0.33628320980005261 0 -0.37406604155865808 0.33747835328286818 0 -0.35573089338410918 0.35481432787362632 0 -0.36773093821624198 0.32227914647735478 0 -0.37406604155865808 0.33747835328286818 0 -0.38236351713873967 0.35738569188314939 0 -0.37406604155865808 0.33747835328286818 0 -0.35573089338410918 0.35481432787362632 0 -0.37406604155865808 0.33747835328286818 0 -0.35573089338410918 0.35481432787362632 0 -0.35573089338410918 0.35481432787362632 0 -0.35378326681787592 0.37715598343310042 0 -0.37110993713934648 0.3751338265971379 0 -0.38236351713873967 0.35738569188314939 0 -0.35573089338410918 0.35481432787362632 0 -0.37110993713934648 0.3751338265971379 0 -0.33739574520956112 0.3721503024643853 0 -0.35573089338410918 0.35481432787362632 0 -0.33739574520956112 0.3721503024643853 0 -0.35573089338410918 0.35481432787362632 0 -0.35378326681787592 0.37715598343310042 0 -0.34208430904739739 0.34697962069235178 0 -0.35334571598876208 0.33628320980005261 0 -0.35573089338410918 0.35481432787362632 0 -0.36234814062531351 0.39212444920145462 0 -0.35920625843340309 0.4127790986643865 0 -0.34233161773104898 0.39155701102889828 0 -0.35920625843340309 0.4127790986643865 0 -0.33733750235453452 0.41153432473813739 0 -0.34233161773104898 0.39155701102889828 0 -0.33739574520956112 0.3721503024643853 0 -0.35378326681787592 0.37715598343310042 0 -0.34233161773104898 0.39155701102889828 0 -0.35378326681787592 0.37715598343310042 0 -0.36234814062531351 0.39212444920145462 0 -0.34233161773104898 0.39155701102889828 0 -0.35378326681787592 0.37715598343310042 0 -0.37110993713934648 0.3751338265971379 0 -0.36234814062531351 0.39212444920145462 0 -0.38087627368831478 0.39305423237423892 0 -0.37110993713934648 0.3751338265971379 0 -0.36234814062531351 0.39212444920145462 0 -0.36234814062531351 0.39212444920145462 0 -0.3706053751955084 0.40418353415299502 0 -0.35920625843340309 0.4127790986643865 0 -0.38087627368831478 0.39305423237423892 0 -0.36234814062531351 0.39212444920145462 0 -0.3706053751955084 0.40418353415299502 0 -0.37999082803500239 0.41877635637190008 0 -0.3706053751955084 0.40418353415299502 0 -0.35920625843340309 0.4127790986643865 0 -0.37999082803500239 0.41877635637190008 0 -0.35920625843340309 0.4127790986643865 0 -0.3610231877711052 0.44035234366008641 0 -0.37999082803500239 0.41877635637190008 0 -0.3610231877711052 0.44035234366008641 0 -0.35920625843340309 0.4127790986643865 0 -0.34114723723339652 0.43462470258663688 0 -0.3610231877711052 0.44035234366008641 0 -0.35920625843340309 0.4127790986643865 0 -0.33733750235453452 0.41153432473813739 0 -0.34114723723339652 0.43462470258663688 0 -0.33733750235453452 0.41153432473813739 0 -0.34114723723339652 0.43462470258663688 0 -0.32215986699385663 0.43258900656555882 0 -0.33733750235453452 0.41153432473813739 0 -0.32215986699385663 0.43258900656555882 0 -0.31403732758933278 0.41186847662387871 0 -0.33733750235453452 0.41153432473813739 0 -0.31403732758933278 0.41186847662387871 0 -0.31906059703501283 0.38948627705514421 0 -0.33733750235453452 0.41153432473813739 0 -0.34233161773104898 0.39155701102889828 0 -0.31906059703501283 0.38948627705514421 0 -0.33739574520956112 0.3721503024643853 0 -0.31906059703501283 0.38948627705514421 0 -0.33739574520956112 0.3721503024643853 0 -0.34233161773104898 0.39155701102889828 0 -0.31906059703501283 0.38948627705514421 0 -0.3225022626839249 0.36765495689145411 0 -0.33739574520956112 0.3721503024643853 0 -0.31906059703501283 0.38948627705514421 0 -0.30741775359864021 0.36745464752568052 0 -0.31906059703501283 0.38948627705514421 0 -0.29955799968889052 0.39048043909523172 0 -0.31403732758933278 0.41186847662387871 0 -0.31906059703501283 0.38948627705514421 0 -0.29955799968889052 0.39048043909523172 0 -0.31403732758933278 0.41186847662387871 0 -0.29955799968889052 0.39048043909523172 0 -0.29190964964363458 0.4160015218789872 0 -0.27792212328800248 0.39110329260179771 0 -0.29190964964363458 0.4160015218789872 0 -0.29955799968889052 0.39048043909523172 0 -0.27792212328800248 0.39110329260179771 0 -0.29190964964363458 0.4160015218789872 0 -0.28700054697871991 0.36696841888590248 0 -0.29955799968889052 0.39048043909523172 0 -0.27792212328800248 0.39110329260179771 0 -0.27792212328800248 0.39110329260179771 0 -0.25072035613092652 0.40755942811750129 0 -0.24021219244090039 0.38342251974816771 0 -0.26393459693237048 0.36620506332460812 0 -0.27792212328800248 0.39110329260179771 0 -0.26393459693237048 0.36620506332460812 0 -0.27792212328800248 0.39110329260179771 0 -0.24021219244090039 0.38342251974816771 0 -0.27792212328800248 0.39110329260179771 0 -0.25072035613092652 0.40755942811750129 0 -0.26740385838460462 0.41482193911631893 0 -0.27038376012243998 0.4320408814089815 0 -0.25426626154540849 0.44198874850545872 0 -0.24868446501256841 0.42903185584590381 0 -0.26740385838460462 0.41482193911631893 0 -0.27038376012243998 0.4320408814089815 0 -0.24868446501256841 0.42903185584590381 0 -0.25072035613092652 0.40755942811750129 0 -0.26740385838460462 0.41482193911631893 0 -0.24868446501256841 0.42903185584590381 0 -0.26740385838460462 0.41482193911631893 0 -0.27038376012243998 0.4320408814089815 0 -0.29190964964363458 0.4160015218789872 0 -0.27792212328800248 0.39110329260179771 0 -0.26740385838460462 0.41482193911631893 0 -0.29190964964363458 0.4160015218789872 0 -0.27038376012243998 0.4320408814089815 0 -0.29190964964363458 0.4160015218789872 0 -0.30127597302669312 0.4345336487820427 0 -0.31403732758933278 0.41186847662387871 0 -0.29190964964363458 0.4160015218789872 0 -0.30127597302669312 0.4345336487820427 0 -0.32215986699385663 0.43258900656555882 0 -0.31403732758933278 0.41186847662387871 0 -0.30127597302669312 0.4345336487820427 0 -0.30127597302669312 0.4345336487820427 0 -0.30526565227169461 0.46238966128130171 0 -0.28892031878199981 0.45130175954806789 0 -0.30127597302669312 0.4345336487820427 0 -0.30526565227169461 0.46238966128130171 0 -0.32272848910039392 0.45162089348131801 0 -0.30526565227169461 0.46238966128130171 0 -0.28892031878199981 0.45130175954806789 0 -0.29342925222459471 0.47018547988044762 0 -0.28892031878199981 0.45130175954806789 0 -0.27957475079199351 0.46616145006150989 0 -0.29342925222459471 0.47018547988044762 0 -0.27038376012243998 0.4320408814089815 0 -0.30127597302669312 0.4345336487820427 0 -0.28892031878199981 0.45130175954806789 0 -0.27038376012243998 0.4320408814089815 0 -0.28892031878199981 0.45130175954806789 0 -0.267459008481923 0.45443994178315111 0 -0.28892031878199981 0.45130175954806789 0 -0.27957475079199351 0.46616145006150989 0 -0.267459008481923 0.45443994178315111 0 -0.27957475079199351 0.46616145006150989 0 -0.267459008481923 0.45443994178315111 0 -0.26829500029640491 0.47016512971719032 0 -0.267459008481923 0.45443994178315111 0 -0.25857001360639759 0.4642819045079184 0 -0.25251048366001749 0.45476954863588209 0 -0.267459008481923 0.45443994178315111 0 -0.25857001360639759 0.4642819045079184 0 -0.26829500029640491 0.47016512971719032 0 -0.25857001360639759 0.4642819045079184 0 -0.25251048366001749 0.45476954863588209 0 -0.24909993019281171 0.46916886935480201 0 -0.27038376012243998 0.4320408814089815 0 -0.267459008481923 0.45443994178315111 0 -0.25426626154540849 0.44198874850545872 0 -0.267459008481923 0.45443994178315111 0 -0.25251048366001749 0.45476954863588209 0 -0.25426626154540849 0.44198874850545872 0 -0.25381740074658959 0.49452908177612742 0 -0.27655934515200492 0.48905816355225179 0 -0.2583426414464704 0.48558126517139499 0 -0.25381740074658959 0.49452908177612742 0 -0.27655934515200492 0.48905816355225179 0 -0.2600035637825534 0.5 0 -0.25381740074658959 0.49452908177612742 0 -0.27655934515200492 0.48905816355225179 0 -0.2583426414464704 0.48558126517139499 0 -0.25381740074658959 0.49452908177612742 0 -0.24808094644844911 0.48132728212074077 0 -0.2583426414464704 0.48558126517139499 0 -0.25931188344970552 0.47688418868112042 0 -0.24808094644844911 0.48132728212074077 0 -0.2583426414464704 0.48558126517139499 0 -0.25931188344970552 0.47688418868112042 0 -0.27655934515200492 0.48905816355225179 0 -0.25857001360639759 0.4642819045079184 0 -0.25931188344970552 0.47688418868112042 0 -0.24909993019281171 0.46916886935480201 0 -0.25931188344970552 0.47688418868112042 0 -0.24909993019281171 0.46916886935480201 0 -0.24808094644844911 0.48132728212074077 0 -0.25857001360639759 0.4642819045079184 0 -0.25931188344970552 0.47688418868112042 0 -0.26829500029640491 0.47016512971719032 0 -0.25931188344970552 0.47688418868112042 0 -0.26829500029640491 0.47016512971719032 0 -0.27655934515200492 0.48905816355225179 0 -0.27957475079199351 0.46616145006150989 0 -0.26829500029640491 0.47016512971719032 0 -0.27655934515200492 0.48905816355225179 0 -0.2600035637825534 0.5 0 -0.27655934515200492 0.48905816355225179 0 -0.28893167122393282 0.5 0 -0.27655934515200492 0.48905816355225179 0 -0.28893167122393282 0.5 0 -0.29930128955742008 0.48358724532837633 0 -0.27655934515200492 0.48905816355225179 0 -0.29930128955742008 0.48358724532837633 0 -0.27957475079199351 0.46616145006150989 0 -0.27655934515200492 0.48905816355225179 0 -0.29342925222459471 0.47018547988044762 0 -0.27655934515200492 0.48905816355225179 0 -0.29342925222459471 0.47018547988044762 0 -0.29930128955742008 0.48358724532837633 0 -0.29930128955742008 0.48358724532837633 0 -0.32204323396283518 0.47811632710450069 0 -0.30526565227169461 0.46238966128130171 0 -0.29930128955742008 0.48358724532837633 0 -0.32204323396283518 0.47811632710450069 0 -0.30526565227169461 0.46238966128130171 0 -0.29342925222459471 0.47018547988044762 0 -0.29930128955742008 0.48358724532837633 0 -0.28893167122393282 0.5 0 -0.29930128955742008 0.48358724532837633 0 -0.31785977866531218 0.5 0 -0.29930128955742008 0.48358724532837633 0 -0.31785977866531218 0.5 0 -0.32204323396283518 0.47811632710450069 0 -0.31785977866531218 0.5 0 -0.34122198557276812 0.48136189459935308 0 -0.32204323396283518 0.47811632710450069 0 -0.31785977866531218 0.5 0 -0.34122198557276812 0.48136189459935308 0 -0.34678788610669159 0.5 0 -0.34122198557276812 0.48136189459935308 0 -0.32204323396283518 0.47811632710450069 0 -0.34205554750720801 0.46192833094827268 0 -0.30526565227169461 0.46238966128130171 0 -0.32204323396283518 0.47811632710450069 0 -0.32272848910039392 0.45162089348131801 0 -0.32215986699385663 0.43258900656555882 0 -0.30127597302669312 0.4345336487820427 0 -0.32272848910039392 0.45162089348131801 0 -0.34114723723339652 0.43462470258663688 0 -0.32272848910039392 0.45162089348131801 0 -0.34205554750720801 0.46192833094827268 0 -0.34114723723339652 0.43462470258663688 0 -0.32215986699385663 0.43258900656555882 0 -0.32272848910039392 0.45162089348131801 0 -0.32204323396283518 0.47811632710450069 0 -0.32272848910039392 0.45162089348131801 0 -0.34205554750720801 0.46192833094827268 0 -0.34205554750720801 0.46192833094827268 0 -0.3610231877711052 0.44035234366008641 0 -0.36762535886263259 0.47122836312582639 0 -0.34114723723339652 0.43462470258663688 0 -0.34205554750720801 0.46192833094827268 0 -0.3610231877711052 0.44035234366008641 0 -0.34205554750720801 0.46192833094827268 0 -0.3610231877711052 0.44035234366008641 0 -0.3890395512661845 0.44101680070226701 0 -0.3610231877711052 0.44035234366008641 0 -0.36762535886263259 0.47122836312582639 0 -0.37571599354807089 0.5 0 -0.36762535886263259 0.47122836312582639 0 -0.34678788610669159 0.5 0 -0.34122198557276812 0.48136189459935308 0 -0.36762535886263259 0.47122836312582639 0 -0.34678788610669159 0.5 0 -0.34122198557276812 0.48136189459935308 0 -0.34205554750720801 0.46192833094827268 0 -0.36762535886263259 0.47122836312582639 0 -0.1502474708030902 0.46946389458178123 0 -0.14800601857775289 0.48706997233172578 0 -0.16130423760032089 0.4803916056627151 0 -0.1502474708030902 0.46946389458178123 0 -0.1331787206310471 0.48473194729089147 0 -0.1502474708030902 0.46946389458178123 0 -0.14800601857775289 0.48706997233172578 0 -0.1331787206310471 0.48473194729089147 0 -0.14800601857775289 0.48706997233172578 0 -0.16130423760032089 0.4803916056627151 0 -0.1579263275029148 0.49999999999999828 0 -0.14800601857775289 0.48706997233172578 0 -0.1370181489809591 0.5 0 -0.1579263275029148 0.49999999999999828 0 -0.1331787206310471 0.48473194729089147 0 -0.1370181489809591 0.5 0 -0.11610997045900349 0.50000000000000122 0 -0.14800601857775289 0.48706997233172578 0 -0.1331787206310471 0.48473194729089147 0 -0.1370181489809591 0.5 0 -0.1331787206310471 0.48473194729089147 0 -0.13184841508867981 0.46409260043338663 0 -0.1165672723769119 0.47774221280102352 0 -0.1502474708030902 0.46946389458178123 0 -0.1331787206310471 0.48473194729089147 0 -0.13184841508867981 0.46409260043338663 0 -0.1286932592052478 0.44555397951398712 0 -0.14622644002882559 0.44953210811827748 0 -0.1376756003096313 0.43126533894905228 0 -0.13184841508867981 0.46409260043338663 0 -0.1286932592052478 0.44555397951398712 0 -0.14622644002882559 0.44953210811827748 0 -0.1502474708030902 0.46946389458178123 0 -0.14622644002882559 0.44953210811827748 0 -0.1673162209751331 0.45419584187267081 0 -0.1502474708030902 0.46946389458178123 0 -0.13184841508867981 0.46409260043338663 0 -0.14622644002882559 0.44953210811827748 0 -0.1502474708030902 0.46946389458178123 0 -0.1673162209751331 0.45419584187267081 0 -0.16130423760032089 0.4803916056627151 0 -0.1502474708030902 0.46946389458178123 0 -0.1673162209751331 0.45419584187267081 0 -0.1673162209751331 0.45419584187267081 0 -0.18325957021071851 0.4390447120160566 0 -0.1581721111692756 0.42965695448907099 0 -0.14622644002882559 0.44953210811827748 0 -0.1673162209751331 0.45419584187267081 0 -0.1581721111692756 0.42965695448907099 0 -0.1673162209751331 0.45419584187267081 0 -0.18325957021071851 0.4390447120160566 0 -0.1980309684643102 0.46079187932877991 0 -0.1673162209751331 0.45419584187267081 0 -0.17797864798361199 0.48039593966438882 0 -0.1980309684643102 0.46079187932877991 0 -0.1673162209751331 0.45419584187267081 0 -0.17797864798361199 0.48039593966438882 0 -0.16130423760032089 0.4803916056627151 0 -0.17797864798361199 0.48039593966438882 0 -0.16130423760032089 0.4803916056627151 0 -0.1579263275029148 0.49999999999999828 0 -0.17797864798361199 0.48039593966438882 0 -0.1579263275029148 0.49999999999999828 0 -0.17797864798361199 0.48039593966438882 0 -0.1823093704490012 0.5 0 -0.19675941266305161 0.48398350292210468 0 -0.17797864798361199 0.48039593966438882 0 -0.1579263275029148 0.49999999999999828 0 -0.1823093704490012 0.5 0 -0.1823093704490012 0.5 0 -0.19675941266305161 0.48398350292210468 0 -0.20669241339508759 0.5 0 -0.17797864798361199 0.48039593966438882 0 -0.19675941266305161 0.48398350292210468 0 -0.1980309684643102 0.46079187932877991 0 -0.17797864798361199 0.48039593966438882 0 -0.1980309684643102 0.46079187932877991 0 -0.19675941266305161 0.48398350292210468 0 -0.21878566302324681 0.4787296956173549 0 -0.1980309684643102 0.46079187932877991 0 -0.19675941266305161 0.48398350292210468 0 -0.20669241339508759 0.5 0 -0.21878566302324681 0.4787296956173549 0 -0.23107545634117399 0.50000000000000155 0 -0.21878566302324681 0.4787296956173549 0 -0.23717775784508829 0.4864701538551004 0 -0.20669241339508759 0.5 0 -0.23107545634117399 0.50000000000000155 0 -0.21878566302324681 0.4787296956173549 0 -0.21878566302324681 0.4787296956173549 0 -0.23526141670218531 0.474780979413083 0 -0.23717775784508829 0.4864701538551004 0 -0.21878566302324681 0.4787296956173549 0 -0.23526141670218531 0.474780979413083 0 -0.2297885551540842 0.46263088762980648 0 -0.23526141670218531 0.474780979413083 0 -0.24808094644844911 0.48132728212074077 0 -0.23717775784508829 0.4864701538551004 0 -0.23526141670218531 0.474780979413083 0 -0.24909993019281171 0.46916886935480201 0 -0.24808094644844911 0.48132728212074077 0 -0.25381740074658959 0.49452908177612742 0 -0.24808094644844911 0.48132728212074077 0 -0.23717775784508829 0.4864701538551004 0 -0.25381740074658959 0.49452908177612742 0 -0.23107545634117399 0.50000000000000155 0 -0.2600035637825534 0.5 0 -0.25381740074658959 0.49452908177612742 0 -0.23107545634117399 0.50000000000000155 0 -0.25381740074658959 0.49452908177612742 0 -0.23107545634117399 0.50000000000000155 0 -0.23717775784508829 0.4864701538551004 0 -0.23581581288211709 0.44310854795296672 0 -0.24226152737965251 0.44994609287363219 0 -0.23178121986198219 0.44945491589226061 0 -0.23581581288211709 0.44310854795296672 0 -0.2426219075228507 0.44000889973319168 0 -0.24226152737965251 0.44994609287363219 0 -0.23581581288211709 0.44310854795296672 0 -0.2426219075228507 0.44000889973319168 0 -0.2362302230024825 0.43483896540959249 0 -0.25426626154540849 0.44198874850545872 0 -0.2426219075228507 0.44000889973319168 0 -0.24226152737965251 0.44994609287363219 0 -0.25251048366001749 0.45476954863588209 0 -0.25426626154540849 0.44198874850545872 0 -0.24226152737965251 0.44994609287363219 0 -0.25251048366001749 0.45476954863588209 0 -0.24226152737965251 0.44994609287363219 0 -0.24091203510526721 0.46051319544617653 0 -0.25251048366001749 0.45476954863588209 0 -0.24909993019281171 0.46916886935480201 0 -0.24091203510526721 0.46051319544617653 0 -0.23526141670218531 0.474780979413083 0 -0.24909993019281171 0.46916886935480201 0 -0.24091203510526721 0.46051319544617653 0 -0.23526141670218531 0.474780979413083 0 -0.24091203510526721 0.46051319544617653 0 -0.2297885551540842 0.46263088762980648 0 -0.24226152737965251 0.44994609287363219 0 -0.24091203510526721 0.46051319544617653 0 -0.23178121986198219 0.44945491589226061 0 -0.21878566302324681 0.4787296956173549 0 -0.2297885551540842 0.46263088762980648 0 -0.21637580317925989 0.45949873577342443 0 -0.2297885551540842 0.46263088762980648 0 -0.22400721678508401 0.45319308957216592 0 -0.23178121986198219 0.44945491589226061 0 -0.24091203510526721 0.46051319544617653 0 -0.2297885551540842 0.46263088762980648 0 -0.23178121986198219 0.44945491589226061 0 -0.2297885551540842 0.46263088762980648 0 -0.22400721678508401 0.45319308957216592 0 -0.21637580317925989 0.45949873577342443 0 -0.23178121986198219 0.44945491589226061 0 -0.21808328894500939 0.44118781899317211 0 -0.22400721678508401 0.45319308957216592 0 -0.21808328894500939 0.44118781899317211 0 -0.21637580317925989 0.45949873577342443 0 -0.22400721678508401 0.45319308957216592 0 -0.23178121986198219 0.44945491589226061 0 -0.21808328894500939 0.44118781899317211 0 -0.23581581288211709 0.44310854795296672 0 -0.22807294708590439 0.44126741011688531 0 -0.2362302230024825 0.43483896540959249 0 -0.23581581288211709 0.44310854795296672 0 -0.23178121986198219 0.44945491589226061 0 -0.22807294708590439 0.44126741011688531 0 -0.22807294708590439 0.44126741011688531 0 -0.22534465734548259 0.43408877505065069 0 -0.23178121986198219 0.44945491589226061 0 -0.22807294708590439 0.44126741011688531 0 -0.21808328894500939 0.44118781899317211 0 -0.22807294708590439 0.44126741011688531 0 -0.21808328894500939 0.44118781899317211 0 -0.22534465734548259 0.43408877505065069 0 -0.21808328894500939 0.44118781899317211 0 -0.22534465734548259 0.43408877505065069 0 -0.21808328894500939 0.44118781899317211 0 -0.1980309684643102 0.46079187932877991 0 -0.1999637088163794 0.44307379463032698 0 -0.21808328894500939 0.44118781899317211 0 -0.1980309684643102 0.46079187932877991 0 -0.21808328894500939 0.44118781899317211 0 -0.1999637088163794 0.44307379463032698 0 -0.1974135035813884 0.42871300659120049 0 -0.21808328894500939 0.44118781899317211 0 -0.21637580317925989 0.45949873577342443 0 -0.1980309684643102 0.46079187932877991 0 -0.21878566302324681 0.4787296956173549 0 -0.21637580317925989 0.45949873577342443 0 -0.1980309684643102 0.46079187932877991 0 -0.18325957021071851 0.4390447120160566 0 -0.1980309684643102 0.46079187932877991 0 -0.1999637088163794 0.44307379463032698 0 -0.18325957021071851 0.4390447120160566 0 -0.1999637088163794 0.44307379463032698 0 -0.1974135035813884 0.42871300659120049 0 -0.1974135035813884 0.42871300659120049 0 -0.2160444958484225 0.40961832953480171 0 -0.1854636705072055 0.39980760349393818 0 -0.1974135035813884 0.42871300659120049 0 -0.2160444958484225 0.40961832953480171 0 -0.21207598800994271 0.42777993281507443 0 -0.21808328894500939 0.44118781899317211 0 -0.1974135035813884 0.42871300659120049 0 -0.21207598800994271 0.42777993281507443 0 -0.2160444958484225 0.40961832953480171 0 -0.21207598800994271 0.42777993281507443 0 -0.22534465734548259 0.43408877505065069 0 -0.21808328894500939 0.44118781899317211 0 -0.1974135035813884 0.42871300659120049 0 -0.21808328894500939 0.44118781899317211 0 -0.21207598800994271 0.42777993281507443 0 -0.22534465734548259 0.43408877505065069 0 -0.22807294708590439 0.44126741011688531 0 -0.22534465734548259 0.43408877505065069 0 -0.2362302230024825 0.43483896540959249 0 -0.22534465734548259 0.43408877505065069 0 -0.23877162754904491 0.42096195841870848 0 -0.2362302230024825 0.43483896540959249 0 -0.22534465734548259 0.43408877505065069 0 -0.23877162754904491 0.42096195841870848 0 -0.2160444958484225 0.40961832953480171 0 -0.22534465734548259 0.43408877505065069 0 -0.2160444958484225 0.40961832953480171 0 -0.23877162754904491 0.42096195841870848 0 -0.23049860126413141 0.40134202396762642 0 -0.2160444958484225 0.40961832953480171 0 -0.22534465734548259 0.43408877505065069 0 -0.23877162754904491 0.42096195841870848 0 -0.25072035613092652 0.40755942811750129 0 -0.23877162754904491 0.42096195841870848 0 -0.23049860126413141 0.40134202396762642 0 -0.25072035613092652 0.40755942811750129 0 -0.23877162754904491 0.42096195841870848 0 -0.24868446501256841 0.42903185584590381 0 -0.25426626154540849 0.44198874850545872 0 -0.2426219075228507 0.44000889973319168 0 -0.24868446501256841 0.42903185584590381 0 -0.2426219075228507 0.44000889973319168 0 -0.24868446501256841 0.42903185584590381 0 -0.2362302230024825 0.43483896540959249 0 -0.23877162754904491 0.42096195841870848 0 -0.24868446501256841 0.42903185584590381 0 -0.2362302230024825 0.43483896540959249 0 -0.24021219244090039 0.38342251974816771 0 -0.23049860126413141 0.40134202396762642 0 -0.2067443343513623 0.38514788401895272 0 -0.24021219244090039 0.38342251974816771 0 -0.2067443343513623 0.38514788401895272 0 -0.22026908310854351 0.36663266116250942 0 -0.25072035613092652 0.40755942811750129 0 -0.24021219244090039 0.38342251974816771 0 -0.23049860126413141 0.40134202396762642 0 -0.2160444958484225 0.40961832953480171 0 -0.23049860126413141 0.40134202396762642 0 -0.2067443343513623 0.38514788401895272 0 -0.2160444958484225 0.40961832953480171 0 -0.2067443343513623 0.38514788401895272 0 -0.2160444958484225 0.40961832953480171 0 -0.2067443343513623 0.38514788401895272 0 -0.1854636705072055 0.39980760349393818 0 -0.2067443343513623 0.38514788401895272 0 -0.17887587939970531 0.37544285211968709 0 -0.1854636705072055 0.39980760349393818 0 -0.17887587939970531 0.37544285211968709 0 -0.16044321496117189 0.38467515107082262 0 -0.1854636705072055 0.39980760349393818 0 -0.16044321496117189 0.38467515107082262 0 -0.1854636705072055 0.39980760349393818 0 -0.1560739328541465 0.40376338178725668 0 -0.1974135035813884 0.42871300659120049 0 -0.1854636705072055 0.39980760349393818 0 -0.17674371821776749 0.41623819418922858 0 -0.1854636705072055 0.39980760349393818 0 -0.17674371821776749 0.41623819418922858 0 -0.1560739328541465 0.40376338178725668 0 -0.1974135035813884 0.42871300659120049 0 -0.17674371821776749 0.41623819418922858 0 -0.18325957021071851 0.4390447120160566 0 -0.1974135035813884 0.42871300659120049 0 -0.17674371821776749 0.41623819418922858 0 -0.18325957021071851 0.4390447120160566 0 -0.17674371821776749 0.41623819418922858 0 -0.1581721111692756 0.42965695448907099 0 -0.17674371821776749 0.41623819418922858 0 -0.1560739328541465 0.40376338178725668 0 -0.17674371821776749 0.41623819418922858 0 -0.1581721111692756 0.42965695448907099 0 -0.1560739328541465 0.40376338178725668 0 -0.1581721111692756 0.42965695448907099 0 -0.1427471596512058 0.4134444162999904 0 -0.1560739328541465 0.40376338178725668 0 -0.1581721111692756 0.42965695448907099 0 -0.1427471596512058 0.4134444162999904 0 -0.1376756003096313 0.43126533894905228 0 -0.14622644002882559 0.44953210811827748 0 -0.1581721111692756 0.42965695448907099 0 -0.1376756003096313 0.43126533894905228 0 -0.1376756003096313 0.43126533894905228 0 -0.12640418116453159 0.41586574466889442 0 -0.1214344415200954 0.43084155987563377 0 -0.1286932592052478 0.44555397951398712 0 -0.1376756003096313 0.43126533894905228 0 -0.1214344415200954 0.43084155987563377 0 -0.1427471596512058 0.4134444162999904 0 -0.12640418116453159 0.41586574466889442 0 -0.12939091285613241 0.39986398731543471 0 -0.1427471596512058 0.4134444162999904 0 -0.1376756003096313 0.43126533894905228 0 -0.12640418116453159 0.41586574466889442 0 -0.12939091285613241 0.39986398731543471 0 -0.14258408906373871 0.37832351778412943 0 -0.1455726021040252 0.39541878003311931 0 -0.1427471596512058 0.4134444162999904 0 -0.12939091285613241 0.39986398731543471 0 -0.1455726021040252 0.39541878003311931 0 -0.12939091285613241 0.39986398731543471 0 -0.14258408906373871 0.37832351778412943 0 -0.12939091285613241 0.39986398731543471 0 -0.14258408906373871 0.37832351778412943 0 -0.12303977390413399 0.3824531730465271 0 -0.16044321496117189 0.38467515107082262 0 -0.14258408906373871 0.37832351778412943 0 -0.1455726021040252 0.39541878003311931 0 -0.1427471596512058 0.4134444162999904 0 -0.1455726021040252 0.39541878003311931 0 -0.1560739328541465 0.40376338178725668 0 -0.16044321496117189 0.38467515107082262 0 -0.1455726021040252 0.39541878003311931 0 -0.1560739328541465 0.40376338178725668 0 -0.15577726527134489 0.35678304825282398 0 -0.1384280027833539 0.34756033983214762 0 -0.15142304256196451 0.33986856331807458 0 -0.15577726527134489 0.35678304825282398 0 -0.13440970245067951 0.36376554103401593 0 -0.1384280027833539 0.34756033983214762 0 -0.14258408906373871 0.37832351778412943 0 -0.15577726527134489 0.35678304825282398 0 -0.16044321496117189 0.38467515107082262 0 -0.14258408906373871 0.37832351778412943 0 -0.15577726527134489 0.35678304825282398 0 -0.14258408906373871 0.37832351778412943 0 -0.15577726527134489 0.35678304825282398 0 -0.13440970245067951 0.36376554103401593 0 -0.14258408906373871 0.37832351778412943 0 -0.13440970245067951 0.36376554103401593 0 -0.12303977390413399 0.3824531730465271 0 -0.13440970245067951 0.36376554103401593 0 -0.1190015241015152 0.35733566362329128 0 -0.12303977390413399 0.3824531730465271 0 -0.1384280027833539 0.34756033983214762 0 -0.121879202119602 0.33696824579548801 0 -0.1190015241015152 0.35733566362329128 0 -0.13440970245067951 0.36376554103401593 0 -0.1384280027833539 0.34756033983214762 0 -0.1190015241015152 0.35733566362329128 0 -0.1384280027833539 0.34756033983214762 0 -0.13647381323513821 0.32997105387727071 0 -0.121879202119602 0.33696824579548801 0 -0.13647381323513821 0.32997105387727071 0 -0.12966706444356979 0.32369367761794421 0 -0.121879202119602 0.33696824579548801 0 -0.12966706444356979 0.32369367761794421 0 -0.1247568801376895 0.31660082796768502 0 -0.121879202119602 0.33696824579548801 0 -0.12953814754378939 0.31351000753086061 0 -0.12544553015035451 0.31172675155713919 0 -0.12953814754378939 0.31351000753086061 0 -0.12544553015035451 0.31172675155713919 0 -0.1247568801376895 0.31660082796768502 0 -0.12953814754378939 0.31351000753086061 0 -0.1296979660665607 0.31740553346238248 0 -0.1247568801376895 0.31660082796768502 0 -0.12544553015035451 0.31172675155713919 0 -0.1247568801376895 0.31660082796768502 0 -0.12953814754378939 0.31351000753086061 0 -0.1247568801376895 0.31660082796768502 0 -0.1296979660665607 0.31740553346238248 0 -0.12966706444356979 0.32369367761794421 0 -0.1247568801376895 0.31660082796768502 0 -0.1296979660665607 0.31740553346238248 0 -0.12966706444356979 0.32369367761794421 0 -0.1361716873337025 0.31873409285149751 0 -0.12953814754378939 0.31351000753086061 0 -0.1296979660665607 0.31740553346238248 0 -0.1361716873337025 0.31873409285149751 0 -0.13647381323513821 0.32997105387727071 0 -0.12966706444356979 0.32369367761794421 0 -0.1361716873337025 0.31873409285149751 0 -0.12953814754378939 0.31351000753086061 0 -0.1361716873337025 0.31873409285149751 0 -0.14091560075863169 0.31162690419438588 0 -0.14956550182364339 0.32460331266401782 0 -0.1615396092225945 0.31266450669229989 0 -0.14091560075863169 0.31162690419438588 0 -0.1361716873337025 0.31873409285149751 0 -0.14956550182364339 0.32460331266401782 0 -0.14091560075863169 0.31162690419438588 0 -0.13647381323513821 0.32997105387727071 0 -0.1361716873337025 0.31873409285149751 0 -0.14956550182364339 0.32460331266401782 0 -0.1384280027833539 0.34756033983214762 0 -0.13647381323513821 0.32997105387727071 0 -0.15142304256196451 0.33986856331807458 0 -0.13647381323513821 0.32997105387727071 0 -0.14956550182364339 0.32460331266401782 0 -0.15142304256196451 0.33986856331807458 0 -0.14956550182364339 0.32460331266401782 0 -0.15142304256196451 0.33986856331807458 0 -0.1689704414789511 0.33524257872151891 0 -0.1689704414789511 0.33524257872151891 0 -0.1615396092225945 0.31266450669229989 0 -0.18216361768655739 0.31370210919021368 0 -0.1615396092225945 0.31266450669229989 0 -0.18216361768655739 0.31370210919021368 0 -0.14956550182364339 0.32460331266401782 0 -0.1689704414789511 0.33524257872151891 0 -0.1615396092225945 0.31266450669229989 0 -0.1689704414789511 0.33524257872151891 0 -0.18216361768655739 0.31370210919021368 0 -0.1689704414789511 0.33524257872151891 0 -0.18216361768655739 0.31370210919021368 0 -0.1928655413753026 0.33671412050913041 0 -0.1689704414789511 0.33524257872151891 0 -0.1787866600759212 0.3529720076212528 0 -0.1928655413753026 0.33671412050913041 0 -0.15577726527134489 0.35678304825282398 0 -0.1689704414789511 0.33524257872151891 0 -0.15577726527134489 0.35678304825282398 0 -0.1689704414789511 0.33524257872151891 0 -0.1787866600759212 0.3529720076212528 0 -0.15577726527134489 0.35678304825282398 0 -0.15142304256196451 0.33986856331807458 0 -0.1689704414789511 0.33524257872151891 0 -0.17887587939970531 0.37544285211968709 0 -0.15577726527134489 0.35678304825282398 0 -0.1787866600759212 0.3529720076212528 0 -0.17887587939970531 0.37544285211968709 0 -0.16044321496117189 0.38467515107082262 0 -0.15577726527134489 0.35678304825282398 0 -0.17887587939970531 0.37544285211968709 0 -0.1787866600759212 0.3529720076212528 0 -0.19744417285430221 0.36067743850310369 0 -0.2067443343513623 0.38514788401895272 0 -0.17887587939970531 0.37544285211968709 0 -0.19744417285430221 0.36067743850310369 0 -0.2067443343513623 0.38514788401895272 0 -0.19744417285430221 0.36067743850310369 0 -0.1787866600759212 0.3529720076212528 0 -0.19744417285430221 0.36067743850310369 0 -0.1928655413753026 0.33671412050913041 0 -0.19744417285430221 0.36067743850310369 0 -0.21970640727991481 0.34284454776592221 0 -0.1928655413753026 0.33671412050913041 0 -0.19744417285430221 0.36067743850310369 0 -0.22026908310854351 0.36663266116250942 0 -0.21970640727991481 0.34284454776592221 0 -0.2067443343513623 0.38514788401895272 0 -0.19744417285430221 0.36067743850310369 0 -0.22026908310854351 0.36663266116250942 0 -0.24021219244090039 0.38342251974816771 0 -0.22026908310854351 0.36663266116250942 0 -0.23723830861623779 0.36107091577640049 0 -0.22026908310854351 0.36663266116250942 0 -0.23723830861623779 0.36107091577640049 0 -0.21970640727991481 0.34284454776592221 0 -0.23723830861623779 0.36107091577640049 0 -0.24994707057673851 0.34130683404741857 0 -0.21970640727991481 0.34284454776592221 0 -0.26393459693237048 0.36620506332460812 0 -0.24021219244090039 0.38342251974816771 0 -0.23723830861623779 0.36107091577640049 0 -0.25573490108783858 0.31740351125108363 0 -0.23595954422110771 0.31640860477022842 0 -0.24994707057673851 0.34130683404741857 0 -0.25573490108783858 0.31740351125108363 0 -0.23595954422110771 0.31640860477022842 0 -0.23595954422110771 0.31640860477022842 0 -0.24994707057673851 0.34130683404741857 0 -0.21970640727991481 0.34284454776592221 0 -0.23595954422110771 0.31640860477022842 0 -0.24994707057673851 0.34130683404741857 0 -0.23595954422110771 0.31640860477022842 0 -0.20906158095383259 0.31505535698021991 0 -0.23595954422110771 0.31640860477022842 0 -0.21970640727991481 0.34284454776592221 0 -0.20906158095383259 0.31505535698021991 0 -0.21970640727991481 0.34284454776592221 0 -0.20906158095383259 0.31505535698021991 0 -0.1928655413753026 0.33671412050913041 0 -0.18216361768655739 0.31370210919021368 0 -0.20906158095383259 0.31505535698021991 0 -0.18216361768655739 0.31370210919021368 0 -0.20906158095383259 0.31505535698021991 0 -0.1928655413753026 0.33671412050913041 0 -0.1926488093439139 0.29658296002771301 0 -0.20944491050553851 0.29784613822266082 0 -0.18216361768655739 0.31370210919021368 0 -0.20906158095383259 0.31505535698021991 0 -0.1983297296224604 0.30579664110520172 0 -0.18216361768655739 0.31370210919021368 0 -0.1983297296224604 0.30579664110520172 0 -0.1926488093439139 0.29658296002771301 0 -0.1983297296224604 0.30579664110520172 0 -0.1926488093439139 0.29658296002771301 0 -0.20944491050553851 0.29784613822266082 0 -0.1926488093439139 0.29658296002771301 0 -0.20574553808059159 0.27519996006826791 0 -0.19457610264189629 0.27658392192284098 0 -0.1926488093439139 0.29658296002771301 0 -0.2058797067224116 0.28748467006381478 0 -0.20944491050553851 0.29784613822266082 0 -0.1926488093439139 0.29658296002771301 0 -0.20574553808059159 0.27519996006826791 0 -0.1926488093439139 0.29658296002771301 0 -0.19457610264189629 0.27658392192284098 0 -0.18640720077311629 0.28439993957604442 0 -0.1926488093439139 0.29658296002771301 0 -0.2058797067224116 0.28748467006381478 0 -0.20574553808059159 0.27519996006826791 0 -0.20944491050553851 0.29784613822266082 0 -0.22624101166716309 0.29910931641760918 0 -0.21567956895960319 0.28030962193661813 0 -0.2058797067224116 0.28748467006381478 0 -0.20944491050553851 0.29784613822266082 0 -0.21567956895960319 0.28030962193661813 0 -0.20906158095383259 0.31505535698021991 0 -0.1983297296224604 0.30579664110520172 0 -0.20944491050553851 0.29784613822266082 0 -0.20944491050553851 0.29784613822266082 0 -0.22624101166716309 0.29910931641760918 0 -0.20906158095383259 0.31505535698021991 0 -0.20944491050553851 0.29784613822266082 0 -0.22624101166716309 0.29910931641760918 0 -0.23595954422110771 0.31640860477022842 0 -0.22624101166716309 0.29910931641760918 0 -0.23595954422110771 0.31640860477022842 0 -0.20906158095383259 0.31505535698021991 0 -0.22624101166716309 0.29910931641760918 0 -0.22624101166716309 0.29910931641760918 0 -0.23180857206995081 0.28184926327271292 0 -0.21567956895960319 0.28030962193661813 0 -0.22624101166716309 0.29910931641760918 0 -0.21567956895960319 0.28030962193661813 0 -0.25328465722481269 0.30114317791031597 0 -0.22624101166716309 0.29910931641760918 0 -0.24911825008756289 0.28432668158082558 0 -0.22624101166716309 0.29910931641760918 0 -0.23180857206995081 0.28184926327271292 0 -0.24911825008756289 0.28432668158082558 0 -0.25328465722481269 0.30114317791031597 0 -0.22624101166716309 0.29910931641760918 0 -0.25328465722481269 0.30114317791031597 0 -0.23595954422110771 0.31640860477022842 0 -0.22624101166716309 0.29910931641760918 0 -0.25328465722481269 0.30114317791031597 0 -0.25573490108783858 0.31740351125108363 0 -0.23595954422110771 0.31640860477022842 0 -0.25697633528549402 0.26614875413497768 0 -0.24073914226658449 0.26890201815228632 0 -0.24303949471739039 0.24984414833669519 0 -0.24073914226658449 0.26890201815228632 0 -0.2315205504853419 0.25756002596177169 0 -0.24303949471739039 0.24984414833669519 0 -0.23180857206995081 0.28184926327271292 0 -0.24911825008756289 0.28432668158082558 0 -0.24073914226658449 0.26890201815228632 0 -0.25697633528549402 0.26614875413497768 0 -0.24911825008756289 0.28432668158082558 0 -0.24073914226658449 0.26890201815228632 0 -0.24073914226658449 0.26890201815228632 0 -0.22567111354397179 0.27278449820409212 0 -0.2315205504853419 0.25756002596177169 0 -0.23180857206995081 0.28184926327271292 0 -0.22567111354397179 0.27278449820409212 0 -0.21567956895960319 0.28030962193661813 0 -0.23180857206995081 0.28184926327271292 0 -0.24073914226658449 0.26890201815228632 0 -0.22567111354397179 0.27278449820409212 0 -0.22567111354397179 0.27278449820409212 0 -0.22004939932311621 0.2636581376972017 0 -0.21422210434979569 0.2709316416019632 0 -0.22567111354397179 0.27278449820409212 0 -0.22004939932311621 0.2636581376972017 0 -0.2315205504853419 0.25756002596177169 0 -0.2315205504853419 0.25756002596177169 0 -0.22466911609962989 0.24550686494050919 0 -0.24303949471739039 0.24984414833669519 0 -0.22004939932311621 0.2636581376972017 0 -0.2315205504853419 0.25756002596177169 0 -0.21603747309136789 0.25637882484563329 0 -0.2315205504853419 0.25756002596177169 0 -0.21603747309136789 0.25637882484563329 0 -0.22466911609962989 0.24550686494050919 0 -0.21603747309136789 0.25637882484563329 0 -0.2059059013371862 0.2625436875708192 0 -0.19804239821156511 0.25262540805786471 0 -0.21603747309136789 0.25637882484563329 0 -0.19804239821156511 0.25262540805786471 0 -0.22466911609962989 0.24550686494050919 0 -0.22004939932311621 0.2636581376972017 0 -0.21603747309136789 0.25637882484563329 0 -0.2059059013371862 0.2625436875708192 0 -0.21567956895960319 0.28030962193661813 0 -0.21422210434979569 0.2709316416019632 0 -0.20574553808059159 0.27519996006826791 0 -0.22567111354397179 0.27278449820409212 0 -0.21567956895960319 0.28030962193661813 0 -0.21422210434979569 0.2709316416019632 0 -0.22004939932311621 0.2636581376972017 0 -0.2059059013371862 0.2625436875708192 0 -0.21422210434979569 0.2709316416019632 0 -0.2059059013371862 0.2625436875708192 0 -0.21422210434979569 0.2709316416019632 0 -0.20574553808059159 0.27519996006826791 0 -0.2058797067224116 0.28748467006381478 0 -0.21567956895960319 0.28030962193661813 0 -0.20574553808059159 0.27519996006826791 0 -0.2059059013371862 0.2625436875708192 0 -0.20574553808059159 0.27519996006826791 0 -0.19457610264189629 0.27658392192284098 0 -0.2059059013371862 0.2625436875708192 0 -0.19457610264189629 0.27658392192284098 0 -0.19123791521892261 0.26535913180190512 0 -0.19457610264189629 0.27658392192284098 0 -0.19123791521892261 0.26535913180190512 0 -0.18405919836634069 0.27276926068334278 0 -0.19457610264189629 0.27658392192284098 0 -0.18405919836634069 0.27276926068334278 0 -0.18640720077311629 0.28439993957604442 0 -0.2059059013371862 0.2625436875708192 0 -0.19804239821156511 0.25262540805786471 0 -0.19123791521892261 0.26535913180190512 0 -0.19804239821156511 0.25262540805786471 0 -0.19123791521892261 0.26535913180190512 0 -0.17141568032350021 0.25974395117522031 0 -0.19804239821156511 0.25262540805786471 0 -0.17141568032350021 0.25974395117522031 0 -0.18214963374940371 0.24653648307999401 0 -0.19804239821156511 0.25262540805786471 0 -0.17141568032350021 0.25974395117522031 0 -0.17141568032350021 0.25974395117522031 0 -0.15134475005059461 0.26510983153470508 0 -0.17141568032350021 0.25974395117522031 0 -0.15134475005059461 0.26510983153470508 0 -0.15858505275986559 0.2479117929603237 0 -0.17141568032350021 0.25974395117522031 0 -0.16652318927377399 0.27719855193950083 0 -0.17665909287426801 0.27775935894070308 0 -0.17141568032350021 0.25974395117522031 0 -0.16652318927377399 0.27719855193950083 0 -0.15134475005059461 0.26510983153470508 0 -0.16652318927377399 0.27719855193950083 0 -0.15134475005059461 0.26510983153470508 0 -0.1510027202060405 0.27853737026786202 0 -0.16652318927377399 0.27719855193950083 0 -0.17665909287426801 0.27775935894070308 0 -0.17049254253551541 0.28703529480996942 0 -0.19123791521892261 0.26535913180190512 0 -0.17141568032350021 0.25974395117522031 0 -0.18405919836634069 0.27276926068334278 0 -0.17141568032350021 0.25974395117522031 0 -0.17665909287426801 0.27775935894070308 0 -0.18405919836634069 0.27276926068334278 0 -0.17141568032350021 0.25974395117522031 0 -0.17665909287426801 0.27775935894070308 0 -0.17665909287426801 0.27775935894070308 0 -0.18405919836634069 0.27276926068334278 0 -0.18640720077311629 0.28439993957604442 0 -0.17665909287426801 0.27775935894070308 0 -0.18190250542503869 0.29577476670618519 0 -0.17542226491502991 0.29204093159740507 0 -0.17665909287426801 0.27775935894070308 0 -0.18640720077311629 0.28439993957604442 0 -0.18190250542503869 0.29577476670618519 0 -0.17665909287426801 0.27775935894070308 0 -0.18190250542503869 0.29577476670618519 0 -0.1926488093439139 0.29658296002771301 0 -0.18190250542503869 0.29577476670618519 0 -0.1926488093439139 0.29658296002771301 0 -0.18640720077311629 0.28439993957604442 0 -0.18190250542503869 0.29577476670618519 0 -0.18190250542503869 0.29577476670618519 0 -0.18043606659220729 0.29566448078089458 0 -0.17542226491502991 0.29204093159740507 0 -0.17422526548805889 0.29841215902394042 0 -0.16710190342756631 0.29650443815360011 0 -0.18043606659220729 0.29566448078089458 0 -0.17683458781600031 0.2956355696295474 0 -0.17542226491502991 0.29204093159740507 0 -0.18190250542503869 0.29577476670618519 0 -0.18043606659220729 0.29566448078089458 0 -0.17542226491502991 0.29204093159740507 0 -0.17683458781600031 0.2956355696295474 0 -0.17542226491502991 0.29204093159740507 0 -0.17422526548805889 0.29841215902394042 0 -0.17665909287426801 0.27775935894070308 0 -0.17542226491502991 0.29204093159740507 0 -0.17049254253551541 0.28703529480996942 0 -0.18216361768655739 0.31370210919021368 0 -0.1926488093439139 0.29658296002771301 0 -0.1839414304592778 0.30278014069486459 0 -0.18216361768655739 0.31370210919021368 0 -0.1926488093439139 0.29658296002771301 0 -0.18216361768655739 0.31370210919021368 0 -0.1839414304592778 0.30278014069486459 0 -0.17820053147579401 0.3037714266363461 0 -0.1926488093439139 0.29658296002771301 0 -0.18190250542503869 0.29577476670618519 0 -0.1839414304592778 0.30278014069486459 0 -0.1839414304592778 0.30278014069486459 0 -0.18000082105759929 0.29943308539586933 0 -0.17820053147579401 0.3037714266363461 0 -0.18190250542503869 0.29577476670618519 0 -0.1839414304592778 0.30278014069486459 0 -0.18000082105759929 0.29943308539586933 0 -0.18190250542503869 0.29577476670618519 0 -0.1839414304592778 0.30278014069486459 0 -0.18190250542503869 0.29577476670618519 0 -0.18043606659220729 0.29566448078089458 0 -0.18000082105759929 0.29943308539586933 0 -0.17683458781600031 0.2956355696295474 0 -0.18000082105759929 0.29943308539586933 0 -0.17422526548805889 0.29841215902394042 0 -0.18000082105759929 0.29943308539586933 0 -0.17422526548805889 0.29841215902394042 0 -0.17820053147579401 0.3037714266363461 0 -0.18043606659220729 0.29566448078089458 0 -0.17683458781600031 0.2956355696295474 0 -0.18000082105759929 0.29943308539586933 0 -0.17422526548805889 0.29841215902394042 0 -0.17820053147579401 0.3037714266363461 0 -0.1706715226874764 0.30452963887684292 0 -0.18216361768655739 0.31370210919021368 0 -0.17820053147579401 0.3037714266363461 0 -0.1706715226874764 0.30452963887684292 0 -0.1615396092225945 0.31266450669229989 0 -0.18216361768655739 0.31370210919021368 0 -0.1706715226874764 0.30452963887684292 0 -0.16233209509432239 0.30349280872328938 0 -0.16710190342756631 0.29650443815360011 0 -0.15001534503965219 0.30027265117041479 0 -0.1615396092225945 0.31266450669229989 0 -0.1706715226874764 0.30452963887684292 0 -0.16233209509432239 0.30349280872328938 0 -0.1706715226874764 0.30452963887684292 0 -0.16233209509432239 0.30349280872328938 0 -0.16710190342756631 0.29650443815360011 0 -0.17422526548805889 0.29841215902394042 0 -0.1706715226874764 0.30452963887684292 0 -0.16710190342756631 0.29650443815360011 0 -0.1615396092225945 0.31266450669229989 0 -0.16233209509432239 0.30349280872328938 0 -0.15001534503965219 0.30027265117041479 0 -0.16652318927377399 0.27719855193950083 0 -0.1464027393349025 0.29150147522495451 0 -0.17049254253551541 0.28703529480996942 0 -0.15001534503965219 0.30027265117041479 0 -0.17049254253551541 0.28703529480996942 0 -0.16710190342756631 0.29650443815360011 0 -0.15001534503965219 0.30027265117041479 0 -0.16652318927377399 0.27719855193950083 0 -0.17049254253551541 0.28703529480996942 0 -0.1464027393349025 0.29150147522495451 0 -0.17542226491502991 0.29204093159740507 0 -0.17049254253551541 0.28703529480996942 0 -0.16710190342756631 0.29650443815360011 0 -0.16652318927377399 0.27719855193950083 0 -0.1464027393349025 0.29150147522495451 0 -0.1510027202060405 0.27853737026786202 0 -0.17049254253551541 0.28703529480996942 0 -0.1464027393349025 0.29150147522495451 0 -0.15001534503965219 0.30027265117041479 0 -0.1464027393349025 0.29150147522495451 0 -0.13974020216489111 0.28033962237228771 0 -0.1510027202060405 0.27853737026786202 0 -0.1615396092225945 0.31266450669229989 0 -0.14091560075863169 0.31162690419438588 0 -0.1615396092225945 0.31266450669229989 0 -0.15001534503965219 0.30027265117041479 0 -0.14091560075863169 0.31162690419438588 0 -0.1464027393349025 0.29150147522495451 0 -0.15001534503965219 0.30027265117041479 0 -0.13553681029294579 0.30456305679875528 0 -0.12953814754378939 0.31351000753086061 0 -0.15001534503965219 0.30027265117041479 0 -0.13553681029294579 0.30456305679875528 0 -0.12953814754378939 0.31351000753086061 0 -0.15001534503965219 0.30027265117041479 0 -0.14091560075863169 0.31162690419438588 0 -0.1464027393349025 0.29150147522495451 0 -0.12628228939603059 0.30580439851040758 0 -0.1464027393349025 0.29150147522495451 0 -0.13553681029294579 0.30456305679875528 0 -0.12628228939603059 0.30580439851040758 0 -0.12628228939603059 0.30580439851040758 0 -0.12877805458685809 0.28814005520229669 0 -0.12953814754378939 0.31351000753086061 0 -0.15001534503965219 0.30027265117041479 0 -0.12953814754378939 0.31351000753086061 0 -0.13553681029294579 0.30456305679875528 0 -0.12544553015035451 0.31172675155713919 0 -0.13553681029294579 0.30456305679875528 0 -0.12628228939603059 0.30580439851040758 0 -0.12544553015035451 0.31172675155713919 0 -0.12628228939603059 0.30580439851040758 0 -0.12544553015035451 0.31172675155713919 0 -0.12628228939603059 0.30580439851040758 0 -0.12877805458685809 0.28814005520229669 0 -0.1202508070760224 0.29060389356397909 0 -0.1464027393349025 0.29150147522495451 0 -0.12877805458685809 0.28814005520229669 0 -0.13974020216489111 0.28033962237228771 0 -0.1464027393349025 0.29150147522495451 0 -0.12628228939603059 0.30580439851040758 0 -0.12877805458685809 0.28814005520229669 0 -0.12877805458685809 0.28814005520229669 0 -0.13974020216489111 0.28033962237228771 0 -0.13127381977768801 0.27047571189418618 0 -0.12877805458685809 0.28814005520229669 0 -0.13127381977768801 0.27047571189418618 0 -0.12877805458685809 0.28814005520229669 0 -0.13127381977768801 0.27047571189418618 0 -0.1225355322092677 0.27281185700562122 0 -0.13127381977768801 0.27047571189418618 0 -0.1225355322092677 0.27281185700562122 0 -0.13127381977768801 0.27047571189418618 0 -0.13458730396339999 0.2470237772259998 0 -0.13127381977768801 0.27047571189418618 0 -0.15134475005059461 0.26510983153470508 0 -0.13458730396339999 0.2470237772259998 0 -0.13127381977768801 0.27047571189418618 0 -0.1251341999189905 0.25257502841664309 0 -0.1225355322092677 0.27281185700562122 0 -0.13127381977768801 0.27047571189418618 0 -0.1251341999189905 0.25257502841664309 0 -0.13458730396339999 0.2470237772259998 0 -0.15134475005059461 0.26510983153470508 0 -0.15858505275986559 0.2479117929603237 0 -0.14758233758043759 0.24434775047640719 0 -0.15134475005059461 0.26510983153470508 0 -0.13458730396339999 0.2470237772259998 0 -0.14758233758043759 0.24434775047640719 0 -0.13127381977768801 0.27047571189418618 0 -0.15134475005059461 0.26510983153470508 0 -0.13974020216489111 0.28033962237228771 0 -0.13127381977768801 0.27047571189418618 0 -0.15134475005059461 0.26510983153470508 0 -0.13974020216489111 0.28033962237228771 0 -0.15134475005059461 0.26510983153470508 0 -0.1510027202060405 0.27853737026786202 0 -0.099253298482845559 0.279036266087755 0 -0.10679342821287389 0.26293258828256288 0 -0.091815319368469123 0.26461090910663482 0 -0.096082049810435402 0.25232672978576598 0 -0.10679342821287389 0.26293258828256288 0 -0.1118400588642967 0.2486880749531889 0 -0.096082049810435402 0.25232672978576598 0 -0.10679342821287389 0.26293258828256288 0 -0.091815319368469123 0.26461090910663482 0 -0.1251341999189905 0.25257502841664309 0 -0.1225355322092677 0.27281185700562122 0 -0.1251341999189905 0.25257502841664309 0 -0.11657580480135719 0.25925188716450398 0 -0.1225355322092677 0.27281185700562122 0 -0.10679342821287389 0.26293258828256288 0 -0.11657580480135719 0.25925188716450398 0 -0.1225355322092677 0.27281185700562122 0 -0.10679342821287389 0.26293258828256288 0 -0.11657580480135719 0.25925188716450398 0 -0.1118400588642967 0.2486880749531889 0 -0.1251341999189905 0.25257502841664309 0 -0.11657580480135719 0.25925188716450398 0 -0.1118400588642967 0.2486880749531889 0 -0.099253298482845559 0.279036266087755 0 -0.1225355322092677 0.27281185700562122 0 -0.099253298482845559 0.279036266087755 0 -0.1225355322092677 0.27281185700562122 0 -0.1202508070760224 0.29060389356397909 0 -0.099253298482845559 0.279036266087755 0 -0.10679342821287389 0.26293258828256288 0 -0.1225355322092677 0.27281185700562122 0 -0.1225355322092677 0.27281185700562122 0 -0.1202508070760224 0.29060389356397909 0 -0.12877805458685809 0.28814005520229669 0 -0.1225355322092677 0.27281185700562122 0 -0.1202508070760224 0.29060389356397909 0 -0.1202508070760224 0.29060389356397909 0 -0.1179660819427772 0.30839593012233701 0 -0.1202508070760224 0.29060389356397909 0 -0.1179660819427772 0.30839593012233701 0 -0.096457093356155502 0.29909576309363362 0 -0.12628228939603059 0.30580439851040758 0 -0.1202508070760224 0.29060389356397909 0 -0.1179660819427772 0.30839593012233701 0 -0.12628228939603059 0.30580439851040758 0 -0.1207991177548008 0.30970219322095027 0 -0.1179660819427772 0.30839593012233701 0 -0.1207991177548008 0.30970219322095027 0 -0.1179660819427772 0.30839593012233701 0 -0.12544553015035451 0.31172675155713919 0 -0.1207991177548008 0.30970219322095027 0 -0.12628228939603059 0.30580439851040758 0 -0.12544553015035451 0.31172675155713919 0 -0.1207991177548008 0.30970219322095027 0 -0.1207991177548008 0.30970219322095027 0 -0.12297602161453371 0.3130534542175738 0 -0.1209025584152883 0.314184044124522 0 -0.12544553015035451 0.31172675155713919 0 -0.1207991177548008 0.30970219322095027 0 -0.12297602161453371 0.3130534542175738 0 -0.12628228939603059 0.30580439851040758 0 -0.1207991177548008 0.30970219322095027 0 -0.1179660819427772 0.30839593012233701 0 -0.10302180249891001 0.31096529194640382 0 -0.096457093356155502 0.29909576309363362 0 -0.1179660819427772 0.30839593012233701 0 -0.096457093356155502 0.29909576309363362 0 -0.10302180249891001 0.31096529194640382 0 -0.096457093356155502 0.29909576309363362 0 -0.093241428418213812 0.31357243068897911 0 -0.099253298482845559 0.279036266087755 0 -0.1202508070760224 0.29060389356397909 0 -0.096457093356155502 0.29909576309363362 0 -0.096457093356155502 0.29909576309363362 0 -0.074974411968139476 0.28973522038125221 0 -0.099253298482845559 0.279036266087755 0 -0.096457093356155502 0.29909576309363362 0 -0.074974411968139476 0.28973522038125221 0 -0.096457093356155502 0.29909576309363362 0 -0.078793360705780649 0.31192836909382121 0 -0.093241428418213812 0.31357243068897911 0 -0.096457093356155502 0.29909576309363362 0 -0.078793360705780649 0.31192836909382121 0 -0.074974411968139476 0.28973522038125221 0 -0.078793360705780649 0.31192836909382121 0 -0.063482322646031639 0.30519047948282491 0 -0.062850879744787091 0.31800607082696092 0 -0.078793360705780649 0.31192836909382121 0 -0.063482322646031639 0.30519047948282491 0 -0.074974411968139476 0.28973522038125221 0 -0.063482322646031639 0.30519047948282491 0 -0.074974411968139476 0.28973522038125221 0 -0.053434368420526797 0.29531672000751868 0 -0.074974411968139476 0.28973522038125221 0 -0.053491730580123451 0.28037467766887081 0 -0.076915404419930999 0.27222111628364187 0 -0.062135164675343323 0.26153227938018642 0 -0.053491730580123451 0.28037467766887081 0 -0.074974411968139476 0.28973522038125221 0 -0.076915404419930999 0.27222111628364187 0 -0.053491730580123451 0.28037467766887081 0 -0.099253298482845559 0.279036266087755 0 -0.074974411968139476 0.28973522038125221 0 -0.076915404419930999 0.27222111628364187 0 -0.099253298482845559 0.279036266087755 0 -0.076915404419930999 0.27222111628364187 0 -0.091815319368469123 0.26461090910663482 0 -0.076915404419930999 0.27222111628364187 0 -0.08003241591625973 0.25653784509344818 0 -0.091815319368469123 0.26461090910663482 0 -0.096082049810435402 0.25232672978576598 0 -0.08003241591625973 0.25653784509344818 0 -0.091815319368469123 0.26461090910663482 0 -0.076915404419930999 0.27222111628364187 0 -0.08003241591625973 0.25653784509344818 0 -0.062135164675343323 0.26153227938018642 0 -0.08003241591625973 0.25653784509344818 0 -0.062135164675343323 0.26153227938018642 0 -0.06773463546810729 0.24358588243079821 0 -0.062135164675343323 0.26153227938018642 0 -0.046444379671008583 0.26520368396215971 0 -0.050627159445501203 0.24714384181444229 0 -0.062135164675343323 0.26153227938018642 0 -0.06773463546810729 0.24358588243079821 0 -0.050627159445501203 0.24714384181444229 0 -0.062135164675343323 0.26153227938018642 0 -0.053491730580123451 0.28037467766887081 0 -0.046444379671008583 0.26520368396215971 0 -0.053491730580123451 0.28037467766887081 0 -0.038185238667379162 0.27586140394578562 0 -0.042272637912277103 0.2870818429860007 0 -0.053491730580123451 0.28037467766887081 0 -0.038185238667379162 0.27586140394578562 0 -0.046444379671008583 0.26520368396215971 0 -0.032588387858022663 0.26763034532644842 0 -0.038185238667379162 0.27586140394578562 0 -0.046444379671008583 0.26520368396215971 0 -0.038185238667379162 0.27586140394578562 0 -0.028739306697548539 0.28268270565509351 0 -0.032588387858022663 0.26763034532644842 0 -0.038185238667379162 0.27586140394578562 0 -0.028739306697548539 0.28268270565509351 0 -0.046444379671008583 0.26520368396215971 0 -0.035880571052675572 0.25578968982509698 0 -0.050627159445501203 0.24714384181444229 0 -0.032588387858022663 0.26763034532644842 0 -0.046444379671008583 0.26520368396215971 0 -0.035880571052675572 0.25578968982509698 0 -0.032588387858022663 0.26763034532644842 0 -0.035880571052675572 0.25578968982509698 0 -0.01881572732856393 0.26099539288860391 0 -0.035880571052675572 0.25578968982509698 0 -0.01881572732856393 0.26099539288860391 0 -0.024618130266652209 0.2484029175551328 0 -0.01881572732856393 0.26099539288860391 0 -0.005385523692544171 0.24929328381291499 0 -0.024618130266652209 0.2484029175551328 0 -0.01881572732856393 0.26099539288860391 0 -0.028739306697548539 0.28268270565509351 0 -0.032588387858022663 0.26763034532644842 0 -0.01881572732856393 0.26099539288860391 0 -0.028739306697548539 0.28268270565509351 0 -0.01881572732856393 0.26099539288860391 0 -0.01201967352980648 0.27697909777797058 0 -0.028739306697548539 0.28268270565509351 0 -0.01201967352980648 0.27697909777797058 0 -0.00042423155656892751 0.26484914111438379 0 0.0024927389620208028 0.28158994341642107 0 -0.01881572732856393 0.26099539288860391 0 -0.01201967352980648 0.27697909777797058 0 -0.00042423155656892751 0.26484914111438379 0 -0.01881572732856393 0.26099539288860391 0 -0.00042423155656892751 0.26484914111438379 0 -0.005385523692544171 0.24929328381291499 0 -0.0030600318000170621 0.30122678180467383 0 -0.016040899491571128 0.30534648758665478 0 -0.018539486912683489 0.31877402480063771 0 -0.0030600318000170621 0.30122678180467383 0 -0.018539486912683489 0.31877402480063771 0 -0.0020642756458347971 0.3152294905834277 0 -0.0030600318000170621 0.30122678180467383 0 -0.018539486912683489 0.31877402480063771 0 -0.0030600318000170621 0.30122678180467383 0 -0.01300696200265538 0.29404368836188222 0 -0.016040899491571128 0.30534648758665478 0 -0.0030600318000170621 0.30122678180467383 0 -0.01300696200265538 0.29404368836188222 0 -0.01201967352980648 0.27697909777797058 0 -0.01300696200265538 0.29404368836188222 0 0.0024927389620208028 0.28158994341642107 0 -0.0030600318000170621 0.30122678180467383 0 -0.00076577755752341875 0.29127202886697129 0 -0.01300696200265538 0.29404368836188222 0 -0.01300696200265538 0.29404368836188222 0 0.0024927389620208028 0.28158994341642107 0 -0.00076577755752341875 0.29127202886697129 0 -0.01300696200265538 0.29404368836188222 0 0.0024927389620208028 0.28158994341642107 0 -0.01300696200265538 0.29404368836188222 0 -0.028739306697548539 0.28268270565509351 0 -0.01201967352980648 0.27697909777797058 0 -0.01300696200265538 0.29404368836188222 0 -0.028739306697548539 0.28268270565509351 0 -0.028739306697548539 0.28268270565509351 0 -0.026696427255832121 0.29509339426754028 0 -0.037423289598375389 0.30166096402603038 0 -0.01300696200265538 0.29404368836188222 0 -0.028739306697548539 0.28268270565509351 0 -0.026696427255832121 0.29509339426754028 0 -0.01300696200265538 0.29404368836188222 0 -0.029557117250929368 0.30734145537942448 0 -0.01300696200265538 0.29404368836188222 0 -0.016040899491571128 0.30534648758665478 0 -0.029557117250929368 0.30734145537942448 0 -0.01300696200265538 0.29404368836188222 0 -0.026696427255832121 0.29509339426754028 0 -0.029557117250929368 0.30734145537942448 0 -0.026696427255832121 0.29509339426754028 0 -0.029557117250929368 0.30734145537942448 0 -0.037423289598375389 0.30166096402603038 0 -0.016040899491571128 0.30534648758665478 0 -0.029557117250929368 0.30734145537942448 0 -0.018539486912683489 0.31877402480063771 0 -0.037423289598375389 0.30166096402603038 0 -0.046107272499203461 0.32063922239696668 0 -0.037423289598375389 0.30166096402603038 0 -0.05265962658178467 0.3081626913480604 0 -0.046107272499203461 0.32063922239696668 0 -0.029557117250929368 0.30734145537942448 0 -0.037423289598375389 0.30166096402603038 0 -0.046107272499203461 0.32063922239696668 0 -0.028739306697548539 0.28268270565509351 0 -0.037423289598375389 0.30166096402603038 0 -0.037423289598375389 0.30166096402603038 0 -0.042272637912277103 0.2870818429860007 0 -0.053434368420526797 0.29531672000751868 0 -0.028739306697548539 0.28268270565509351 0 -0.037423289598375389 0.30166096402603038 0 -0.042272637912277103 0.2870818429860007 0 -0.038185238667379162 0.27586140394578562 0 -0.028739306697548539 0.28268270565509351 0 -0.042272637912277103 0.2870818429860007 0 -0.074974411968139476 0.28973522038125221 0 -0.053491730580123451 0.28037467766887081 0 -0.053434368420526797 0.29531672000751868 0 -0.053491730580123451 0.28037467766887081 0 -0.042272637912277103 0.2870818429860007 0 -0.053434368420526797 0.29531672000751868 0 -0.037423289598375389 0.30166096402603038 0 -0.053434368420526797 0.29531672000751868 0 -0.05265962658178467 0.3081626913480604 0 -0.063482322646031639 0.30519047948282491 0 -0.053434368420526797 0.29531672000751868 0 -0.05265962658178467 0.3081626913480604 0 -0.063482322646031639 0.30519047948282491 0 -0.05265962658178467 0.3081626913480604 0 -0.062850879744787091 0.31800607082696092 0 -0.046107272499203461 0.32063922239696668 0 -0.065340397850436605 0.3360927100593562 0 -0.062850879744787091 0.31800607082696092 0 -0.05265962658178467 0.3081626913480604 0 -0.046107272499203461 0.32063922239696668 0 -0.062850879744787091 0.31800607082696092 0 -0.050830526717796781 0.33096157562310768 0 -0.046107272499203461 0.32063922239696668 0 -0.050830526717796781 0.33096157562310768 0 -0.046107272499203461 0.32063922239696668 0 -0.065340397850436605 0.3360927100593562 0 -0.046107272499203461 0.32063922239696668 0 -0.065340397850436605 0.3360927100593562 0 -0.050830526717796781 0.33096157562310768 0 -0.054103822686700803 0.34191731092832878 0 -0.065340397850436605 0.3360927100593562 0 -0.050830526717796781 0.33096157562310768 0 -0.054103822686700803 0.34191731092832878 0 -0.034018942025349837 0.33632126779660171 0 -0.050830526717796781 0.33096157562310768 0 -0.034018942025349837 0.33632126779660171 0 -0.046107272499203461 0.32063922239696668 0 -0.034018942025349837 0.33632126779660171 0 -0.046107272499203461 0.32063922239696668 0 -0.032239165282838107 0.32095132022720102 0 -0.029557117250929368 0.30734145537942448 0 -0.046107272499203461 0.32063922239696668 0 -0.032239165282838107 0.32095132022720102 0 -0.029557117250929368 0.30734145537942448 0 -0.046107272499203461 0.32063922239696668 0 -0.029557117250929368 0.30734145537942448 0 -0.032239165282838107 0.32095132022720102 0 -0.018539486912683489 0.31877402480063771 0 -0.034018942025349837 0.33632126779660171 0 -0.032239165282838107 0.32095132022720102 0 -0.018539486912683489 0.31877402480063771 0 -0.034018942025349837 0.33632126779660171 0 -0.018539486912683489 0.31877402480063771 0 -0.034018942025349837 0.33632126779660171 0 -0.018539486912683489 0.31877402480063771 0 -0.016819870433189901 0.33589229003732718 0 -0.034018942025349837 0.33632126779660171 0 -0.016819870433189901 0.33589229003732718 0 -0.024712019411612132 0.35218206962802873 0 -0.016819870433189901 0.33589229003732718 0 -0.00047151567167168668 0.32750498055838168 0 -0.0063835723511108926 0.34789911355088188 0 -0.018539486912683489 0.31877402480063771 0 -0.0020642756458347971 0.3152294905834277 0 -0.00047151567167168668 0.32750498055838168 0 -0.018539486912683489 0.31877402480063771 0 -0.016819870433189901 0.33589229003732718 0 -0.00047151567167168668 0.32750498055838168 0 -0.01330020335727922 0.36183090823188002 0 -0.0090975729182999378 0.37888365566417509 0 0.0044005467850372262 0.36089330999227048 0 -0.01330020335727922 0.36183090823188002 0 -0.0063835723511108926 0.34789911355088188 0 0.0044005467850372262 0.36089330999227048 0 -0.01330020335727922 0.36183090823188002 0 -0.0063835723511108926 0.34789911355088188 0 -0.024712019411612132 0.35218206962802873 0 -0.016819870433189901 0.33589229003732718 0 -0.0063835723511108926 0.34789911355088188 0 -0.024712019411612132 0.35218206962802873 0 -0.01330020335727922 0.36183090823188002 0 -0.024712019411612132 0.35218206962802873 0 -0.030708398890410361 0.36929639232404382 0 -0.01330020335727922 0.36183090823188002 0 -0.030708398890410361 0.36929639232404382 0 -0.0090975729182999378 0.37888365566417509 0 -0.030708398890410361 0.36929639232404382 0 -0.049498397138016237 0.35386851079256582 0 -0.056158394459263947 0.37712679775503671 0 -0.034018942025349837 0.33632126779660171 0 -0.024712019411612132 0.35218206962802873 0 -0.049498397138016237 0.35386851079256582 0 -0.054103822686700803 0.34191731092832878 0 -0.034018942025349837 0.33632126779660171 0 -0.049498397138016237 0.35386851079256582 0 -0.034018942025349837 0.33632126779660171 0 -0.049498397138016237 0.35386851079256582 0 -0.024712019411612132 0.35218206962802873 0 -0.030708398890410361 0.36929639232404382 0 -0.049498397138016237 0.35386851079256582 0 -0.054103822686700803 0.34191731092832878 0 -0.049498397138016237 0.35386851079256582 0 -0.069346195676134773 0.35080250820374631 0 -0.049498397138016237 0.35386851079256582 0 -0.071101097234880908 0.36660187589043391 0 -0.056158394459263947 0.37712679775503671 0 -0.071101097234880908 0.36660187589043391 0 -0.087830436687386659 0.36782915220894929 0 -0.084573523201669096 0.3515461977217465 0 -0.087830436687386659 0.36782915220894929 0 -0.084573523201669096 0.3515461977217465 0 -0.1038066485529016 0.3669996853841368 0 -0.071101097234880908 0.36660187589043391 0 -0.087830436687386659 0.36782915220894929 0 -0.082286008426202317 0.38166337062350802 0 -0.084573523201669096 0.3515461977217465 0 -0.091415493944068532 0.34277935255911551 0 -0.1006797365090551 0.34869462675314922 0 -0.049498397138016237 0.35386851079256582 0 -0.071101097234880908 0.36660187589043391 0 -0.069346195676134773 0.35080250820374631 0 -0.071101097234880908 0.36660187589043391 0 -0.084573523201669096 0.3515461977217465 0 -0.069346195676134773 0.35080250820374631 0 -0.084573523201669096 0.3515461977217465 0 -0.065340397850436605 0.3360927100593562 0 -0.084573523201669096 0.3515461977217465 0 -0.069346195676134773 0.35080250820374631 0 -0.065340397850436605 0.3360927100593562 0 -0.054103822686700803 0.34191731092832878 0 -0.069346195676134773 0.35080250820374631 0 -0.065340397850436605 0.3360927100593562 0 -0.065340397850436605 0.3360927100593562 0 -0.074800688318383129 0.32569863558443068 0 -0.082620534421703695 0.33684201117828372 0 -0.084573523201669096 0.3515461977217465 0 -0.065340397850436605 0.3360927100593562 0 -0.082620534421703695 0.33684201117828372 0 -0.078793360705780649 0.31192836909382121 0 -0.062850879744787091 0.31800607082696092 0 -0.074800688318383129 0.32569863558443068 0 -0.065340397850436605 0.3360927100593562 0 -0.062850879744787091 0.31800607082696092 0 -0.074800688318383129 0.32569863558443068 0 -0.08622505944197037 0.32260062711141951 0 -0.082620534421703695 0.33684201117828372 0 -0.1017098260882526 0.32327210219961738 0 -0.078793360705780649 0.31192836909382121 0 -0.074800688318383129 0.32569863558443068 0 -0.08622505944197037 0.32260062711141951 0 -0.078793360705780649 0.31192836909382121 0 -0.08622505944197037 0.32260062711141951 0 -0.093241428418213812 0.31357243068897911 0 -0.08622505944197037 0.32260062711141951 0 -0.093241428418213812 0.31357243068897911 0 -0.1017098260882526 0.32327210219961738 0 -0.082620534421703695 0.33684201117828372 0 -0.1017098260882526 0.32327210219961738 0 -0.074800688318383129 0.32569863558443068 0 -0.08622505944197037 0.32260062711141951 0 -0.082620534421703695 0.33684201117828372 0 -0.084573523201669096 0.3515461977217465 0 -0.082620534421703695 0.33684201117828372 0 -0.091415493944068532 0.34277935255911551 0 -0.082620534421703695 0.33684201117828372 0 -0.091415493944068532 0.34277935255911551 0 -0.097788181643846256 0.33403457458328228 0 -0.082620534421703695 0.33684201117828372 0 -0.097788181643846256 0.33403457458328228 0 -0.1017098260882526 0.32327210219961738 0 -0.091415493944068532 0.34277935255911551 0 -0.097788181643846256 0.33403457458328228 0 -0.1006797365090551 0.34869462675314922 0 -0.097788181643846256 0.33403457458328228 0 -0.111272530890768 0.32531770127548387 0 -0.097788181643846256 0.33403457458328228 0 -0.111272530890768 0.32531770127548387 0 -0.10958995457702871 0.33750295704770011 0 -0.097788181643846256 0.33403457458328228 0 -0.10958995457702871 0.33750295704770011 0 -0.1006797365090551 0.34869462675314922 0 -0.1179660819427772 0.30839593012233701 0 -0.10302180249891001 0.31096529194640382 0 -0.1017098260882526 0.32327210219961738 0 -0.10302180249891001 0.31096529194640382 0 -0.093241428418213812 0.31357243068897911 0 -0.1017098260882526 0.32327210219961738 0 -0.097788181643846256 0.33403457458328228 0 -0.1017098260882526 0.32327210219961738 0 -0.111272530890768 0.32531770127548387 0 -0.1207991177548008 0.30970219322095027 0 -0.1017098260882526 0.32327210219961738 0 -0.1247568801376895 0.31660082796768502 0 -0.121879202119602 0.33696824579548801 0 -0.111272530890768 0.32531770127548387 0 -0.1247568801376895 0.31660082796768502 0 -0.121879202119602 0.33696824579548801 0 -0.1207991177548008 0.30970219322095027 0 -0.1179660819427772 0.30839593012233701 0 -0.1017098260882526 0.32327210219961738 0 -0.1207991177548008 0.30970219322095027 0 -0.1017098260882526 0.32327210219961738 0 -0.1157138756180885 0.31792405629120363 0 -0.1017098260882526 0.32327210219961738 0 -0.1157138756180885 0.31792405629120363 0 -0.111272530890768 0.32531770127548387 0 -0.111272530890768 0.32531770127548387 0 -0.1247568801376895 0.31660082796768502 0 -0.1207991177548008 0.30970219322095027 0 -0.1157138756180885 0.31792405629120363 0 -0.1209025584152883 0.314184044124522 0 -0.1157138756180885 0.31792405629120363 0 -0.111272530890768 0.32531770127548387 0 -0.1247568801376895 0.31660082796768502 0 -0.1157138756180885 0.31792405629120363 0 -0.1247568801376895 0.31660082796768502 0 -0.1209025584152883 0.314184044124522 0 -0.12544553015035451 0.31172675155713919 0 -0.1247568801376895 0.31660082796768502 0 -0.12297602161453371 0.3130534542175738 0 -0.1247568801376895 0.31660082796768502 0 -0.12297602161453371 0.3130534542175738 0 -0.1209025584152883 0.314184044124522 0 -0.10958995457702871 0.33750295704770011 0 -0.121879202119602 0.33696824579548801 0 -0.11136619776729979 0.3491758498167466 0 -0.111272530890768 0.32531770127548387 0 -0.10958995457702871 0.33750295704770011 0 -0.121879202119602 0.33696824579548801 0 -0.121879202119602 0.33696824579548801 0 -0.1190015241015152 0.35733566362329128 0 -0.1190015241015152 0.35733566362329128 0 -0.11136619776729979 0.3491758498167466 0 -0.1038066485529016 0.3669996853841368 0 -0.121879202119602 0.33696824579548801 0 -0.1190015241015152 0.35733566362329128 0 -0.11136619776729979 0.3491758498167466 0 -0.1038066485529016 0.3669996853841368 0 -0.12303977390413399 0.3824531730465271 0 -0.1190015241015152 0.35733566362329128 0 -0.1038066485529016 0.3669996853841368 0 -0.12303977390413399 0.3824531730465271 0 -0.087830436687386659 0.36782915220894929 0 -0.1038066485529016 0.3669996853841368 0 -0.1016076913813746 0.38348529268533099 0 -0.11136619776729979 0.3491758498167466 0 -0.1038066485529016 0.3669996853841368 0 -0.1006797365090551 0.34869462675314922 0 -0.084573523201669096 0.3515461977217465 0 -0.1038066485529016 0.3669996853841368 0 -0.084573523201669096 0.3515461977217465 0 -0.1038066485529016 0.3669996853841368 0 -0.1006797365090551 0.34869462675314922 0 -0.10958995457702871 0.33750295704770011 0 -0.11136619776729979 0.3491758498167466 0 -0.1006797365090551 0.34869462675314922 0 -0.1051843445726021 0.39654332630938871 0 -0.1016076913813746 0.38348529268533099 0 -0.11574619893910019 0.39356499588622579 0 -0.1051843445726021 0.39654332630938871 0 -0.1154220564126119 0.40547373699319789 0 -0.1005165204096032 0.40777380364890592 0 -0.1051843445726021 0.39654332630938871 0 -0.1005165204096032 0.40777380364890592 0 -0.091317320802972723 0.39534061379795687 0 -0.1051843445726021 0.39654332630938871 0 -0.1016076913813746 0.38348529268533099 0 -0.091317320802972723 0.39534061379795687 0 -0.1016076913813746 0.38348529268533099 0 -0.12303977390413399 0.3824531730465271 0 -0.11574619893910019 0.39356499588622579 0 -0.1038066485529016 0.3669996853841368 0 -0.1016076913813746 0.38348529268533099 0 -0.12303977390413399 0.3824531730465271 0 -0.12939091285613241 0.39986398731543471 0 -0.12303977390413399 0.3824531730465271 0 -0.11574619893910019 0.39356499588622579 0 -0.1051843445726021 0.39654332630938871 0 -0.11574619893910019 0.39356499588622579 0 -0.1154220564126119 0.40547373699319789 0 -0.12939091285613241 0.39986398731543471 0 -0.11574619893910019 0.39356499588622579 0 -0.1154220564126119 0.40547373699319789 0 -0.12640418116453159 0.41586574466889442 0 -0.12939091285613241 0.39986398731543471 0 -0.1154220564126119 0.40547373699319789 0 -0.12640418116453159 0.41586574466889442 0 -0.1154220564126119 0.40547373699319789 0 -0.1108330557549497 0.41848222182406342 0 -0.12640418116453159 0.41586574466889442 0 -0.1108330557549497 0.41848222182406342 0 -0.1214344415200954 0.43084155987563377 0 -0.1108330557549497 0.41848222182406342 0 -0.1214344415200954 0.43084155987563377 0 -0.10531868036973389 0.43201068638958051 0 -0.1214344415200954 0.43084155987563377 0 -0.10531868036973389 0.43201068638958051 0 -0.11381676810799719 0.44238657733466569 0 -0.1108330557549497 0.41848222182406342 0 -0.10531868036973389 0.43201068638958051 0 -0.09535588798130451 0.42122812513941699 0 -0.10531868036973389 0.43201068638958051 0 -0.09535588798130451 0.42122812513941699 0 -0.091697694780256023 0.4348771940664023 0 -0.10531868036973389 0.43201068638958051 0 -0.091697694780256023 0.4348771940664023 0 -0.10215308779946231 0.44411690861112929 0 -0.1154220564126119 0.40547373699319789 0 -0.1108330557549497 0.41848222182406342 0 -0.1005165204096032 0.40777380364890592 0 -0.1108330557549497 0.41848222182406342 0 -0.09535588798130451 0.42122812513941699 0 -0.1005165204096032 0.40777380364890592 0 -0.09535588798130451 0.42122812513941699 0 -0.1005165204096032 0.40777380364890592 0 -0.083980616518832776 0.40926412667705758 0 -0.09535588798130451 0.42122812513941699 0 -0.083980616518832776 0.40926412667705758 0 -0.082376337613931136 0.42426066231386589 0 -0.083980616518832776 0.40926412667705758 0 -0.082376337613931136 0.42426066231386589 0 -0.074311037841128802 0.4156972274082591 0 -0.09535588798130451 0.42122812513941699 0 -0.091697694780256023 0.4348771940664023 0 -0.082376337613931136 0.42426066231386589 0 -0.091697694780256023 0.4348771940664023 0 -0.082376337613931136 0.42426066231386589 0 -0.077633006055652654 0.4378530370304699 0 -0.082376337613931136 0.42426066231386589 0 -0.070174464630030797 0.42745851545680702 0 -0.077633006055652654 0.4378530370304699 0 -0.082376337613931136 0.42426066231386589 0 -0.070174464630030797 0.42745851545680702 0 -0.074311037841128802 0.4156972274082591 0 -0.070174464630030797 0.42745851545680702 0 -0.066557465176713765 0.41871509766219689 0 -0.059579059262106153 0.42210206283422841 0 -0.070174464630030797 0.42745851545680702 0 -0.06252468175680409 0.43294367670323403 0 -0.059579059262106153 0.42210206283422841 0 -0.070174464630030797 0.42745851545680702 0 -0.06252468175680409 0.43294367670323403 0 -0.077633006055652654 0.4378530370304699 0 -0.083980616518832776 0.40926412667705758 0 -0.074311037841128802 0.4156972274082591 0 -0.071511739273661487 0.40542994186507519 0 -0.070174464630030797 0.42745851545680702 0 -0.074311037841128802 0.4156972274082591 0 -0.066557465176713765 0.41871509766219689 0 -0.074311037841128802 0.4156972274082591 0 -0.066557465176713765 0.41871509766219689 0 -0.062165298973589307 0.4096025849494932 0 -0.066557465176713765 0.41871509766219689 0 -0.062165298973589307 0.4096025849494932 0 -0.059579059262106153 0.42210206283422841 0 -0.074311037841128802 0.4156972274082591 0 -0.071511739273661487 0.40542994186507519 0 -0.062165298973589307 0.4096025849494932 0 -0.071511739273661487 0.40542994186507519 0 -0.061424057605292869 0.39562040644127411 0 -0.062165298973589307 0.4096025849494932 0 -0.07601230346616053 0.39504955009714737 0 -0.071511739273661487 0.40542994186507519 0 -0.061424057605292869 0.39562040644127411 0 -0.07601230346616053 0.39504955009714737 0 -0.068572235995233349 0.38384361209484502 0 -0.061424057605292869 0.39562040644127411 0 -0.083980616518832776 0.40926412667705758 0 -0.07601230346616053 0.39504955009714737 0 -0.071511739273661487 0.40542994186507519 0 -0.083980616518832776 0.40926412667705758 0 -0.07601230346616053 0.39504955009714737 0 -0.091317320802972723 0.39534061379795687 0 -0.1005165204096032 0.40777380364890592 0 -0.083980616518832776 0.40926412667705758 0 -0.091317320802972723 0.39534061379795687 0 -0.07601230346616053 0.39504955009714737 0 -0.091317320802972723 0.39534061379795687 0 -0.082286008426202317 0.38166337062350802 0 -0.087830436687386659 0.36782915220894929 0 -0.1016076913813746 0.38348529268533099 0 -0.082286008426202317 0.38166337062350802 0 -0.1016076913813746 0.38348529268533099 0 -0.091317320802972723 0.39534061379795687 0 -0.082286008426202317 0.38166337062350802 0 -0.071101097234880908 0.36660187589043391 0 -0.082286008426202317 0.38166337062350802 0 -0.068572235995233349 0.38384361209484502 0 -0.071101097234880908 0.36660187589043391 0 -0.068572235995233349 0.38384361209484502 0 -0.056158394459263947 0.37712679775503671 0 -0.07601230346616053 0.39504955009714737 0 -0.082286008426202317 0.38166337062350802 0 -0.068572235995233349 0.38384361209484502 0 -0.056158394459263947 0.37712679775503671 0 -0.044202489361859193 0.39281761186107789 0 -0.056158394459263947 0.37712679775503671 0 -0.061424057605292869 0.39562040644127411 0 -0.044202489361859193 0.39281761186107789 0 -0.068572235995233349 0.38384361209484502 0 -0.056158394459263947 0.37712679775503671 0 -0.061424057605292869 0.39562040644127411 0 -0.061424057605292869 0.39562040644127411 0 -0.051803276149028271 0.40429270701226933 0 -0.044202489361859193 0.39281761186107789 0 -0.061424057605292869 0.39562040644127411 0 -0.051803276149028271 0.40429270701226933 0 -0.062165298973589307 0.4096025849494932 0 -0.044202489361859193 0.39281761186107789 0 -0.032190735624571809 0.38665255405400312 0 -0.032246584264454661 0.40850842596711923 0 -0.044202489361859193 0.39281761186107789 0 -0.032246584264454661 0.40850842596711923 0 -0.051803276149028271 0.40429270701226933 0 -0.044202489361859193 0.39281761186107789 0 -0.032246584264454661 0.40850842596711923 0 -0.056158394459263947 0.37712679775503671 0 -0.044202489361859193 0.39281761186107789 0 -0.032190735624571809 0.38665255405400312 0 -0.030708398890410361 0.36929639232404382 0 -0.056158394459263947 0.37712679775503671 0 -0.032190735624571809 0.38665255405400312 0 -0.030708398890410361 0.36929639232404382 0 -0.032190735624571809 0.38665255405400312 0 -0.0090975729182999378 0.37888365566417509 0 -0.032190735624571809 0.38665255405400312 0 -0.020672078591377721 0.39369604081564691 0 -0.0090975729182999378 0.37888365566417509 0 -0.032190735624571809 0.38665255405400312 0 -0.020672078591377721 0.39369604081564691 0 -0.032246584264454661 0.40850842596711923 0 -0.01992865728793566 0.4055801791606663 0 -0.020672078591377721 0.39369604081564691 0 -0.032246584264454661 0.40850842596711923 0 -0.020672078591377721 0.39369604081564691 0 -0.032246584264454661 0.40850842596711923 0 -0.020672078591377721 0.39369604081564691 0 -0.005061899617787349 0.39940138783802642 0 -0.0090975729182999378 0.37888365566417509 0 -0.01992865728793566 0.4055801791606663 0 -0.020672078591377721 0.39369604081564691 0 -0.005061899617787349 0.39940138783802642 0 -0.005061899617787349 0.39940138783802642 0 -0.0090975729182999378 0.37888365566417509 0 0.01161026744254821 0.37808791365417999 0 -0.020672078591377721 0.39369604081564691 0 -0.0090975729182999378 0.37888365566417509 0 -0.0080294760194612319 0.42717375298259058 0 -0.018526470608385519 0.42651457030644352 0 -0.0048063569523164699 0.44452071464576792 0 -0.018526470608385519 0.42651457030644352 0 -0.0048063569523164699 0.44452071464576792 0 -0.0080294760194612319 0.42717375298259058 0 -0.00088518118202030526 0.42885752876121253 0 -0.0048063569523164699 0.44452071464576792 0 -0.018526470608385519 0.42651457030644352 0 -0.016333286648457769 0.43801985202335719 0 -0.0048063569523164699 0.44452071464576792 0 -0.0080294760194612319 0.42717375298259058 0 -0.012073932734987681 0.41824985171024909 0 -0.018526470608385519 0.42651457030644352 0 -0.0080294760194612319 0.42717375298259058 0 -0.00088518118202030526 0.42885752876121253 0 -0.0038554386195961878 0.41772609948927958 0 -0.005061899617787349 0.39940138783802642 0 -0.012073932734987681 0.41824985171024909 0 -0.021734066678122901 0.42071486202187269 0 -0.005061899617787349 0.39940138783802642 0 -0.021734066678122901 0.42071486202187269 0 -0.005061899617787349 0.39940138783802642 0 -0.0038554386195961878 0.41772609948927958 0 -0.012073932734987681 0.41824985171024909 0 -0.005061899617787349 0.39940138783802642 0 -0.0038554386195961878 0.41772609948927958 0 0.0048620858419262756 0.40822632285850913 0 -0.01992865728793566 0.4055801791606663 0 -0.005061899617787349 0.39940138783802642 0 -0.021734066678122901 0.42071486202187269 0 -0.0080294760194612319 0.42717375298259058 0 -0.0038554386195961878 0.41772609948927958 0 -0.012073932734987681 0.41824985171024909 0 -0.018526470608385519 0.42651457030644352 0 -0.032715764769029793 0.42309614565046921 0 -0.032246584264454661 0.40850842596711923 0 -0.012073932734987681 0.41824985171024909 0 -0.021734066678122901 0.42071486202187269 0 -0.018526470608385519 0.42651457030644352 0 -0.018526470608385519 0.42651457030644352 0 -0.032246584264454661 0.40850842596711923 0 -0.021734066678122901 0.42071486202187269 0 -0.018526470608385519 0.42651457030644352 0 -0.032246584264454661 0.40850842596711923 0 -0.01992865728793566 0.4055801791606663 0 -0.021734066678122901 0.42071486202187269 0 -0.032246584264454661 0.40850842596711923 0 -0.02679311222928478 0.42967010620739732 0 -0.018526470608385519 0.42651457030644352 0 -0.032715764769029793 0.42309614565046921 0 -0.02679311222928478 0.42967010620739732 0 -0.018526470608385519 0.42651457030644352 0 -0.0223693704536654 0.43316568477349759 0 -0.018526470608385519 0.42651457030644352 0 -0.0223693704536654 0.43316568477349759 0 -0.016333286648457769 0.43801985202335719 0 -0.0223693704536654 0.43316568477349759 0 -0.027824612328533511 0.43845821055679252 0 -0.016333286648457769 0.43801985202335719 0 -0.02679311222928478 0.42967010620739732 0 -0.0223693704536654 0.43316568477349759 0 -0.027824612328533511 0.43845821055679252 0 -0.045947867408201483 0.42925513547448307 0 -0.044482287751016258 0.44435104571905049 0 -0.027824612328533511 0.43845821055679252 0 -0.045947867408201483 0.42925513547448307 0 -0.032246584264454661 0.40850842596711923 0 -0.049624883406812897 0.43074817144262778 0 -0.02679311222928478 0.42967010620739732 0 -0.045947867408201483 0.42925513547448307 0 -0.027824612328533511 0.43845821055679252 0 -0.045947867408201483 0.42925513547448307 0 -0.027824612328533511 0.43845821055679252 0 -0.02679311222928478 0.42967010620739732 0 -0.032715764769029793 0.42309614565046921 0 -0.045947867408201483 0.42925513547448307 0 -0.045947867408201483 0.42925513547448307 0 -0.049624883406812897 0.43074817144262778 0 -0.044482287751016258 0.44435104571905049 0 -0.032246584264454661 0.40850842596711923 0 -0.047205317945144633 0.41249088664826078 0 -0.049746315728298893 0.4202163776431575 0 -0.032246584264454661 0.40850842596711923 0 -0.049746315728298893 0.4202163776431575 0 -0.049624883406812897 0.43074817144262778 0 -0.032715764769029793 0.42309614565046921 0 -0.045947867408201483 0.42925513547448307 0 -0.032246584264454661 0.40850842596711923 0 -0.051803276149028271 0.40429270701226933 0 -0.032246584264454661 0.40850842596711923 0 -0.047205317945144633 0.41249088664826078 0 -0.032246584264454661 0.40850842596711923 0 -0.049624883406812897 0.43074817144262778 0 -0.051803276149028271 0.40429270701226933 0 -0.047205317945144633 0.41249088664826078 0 -0.054463218205719449 0.41396401026113128 0 -0.054463218205719449 0.41396401026113128 0 -0.049746315728298893 0.4202163776431575 0 -0.059579059262106153 0.42210206283422841 0 -0.047205317945144633 0.41249088664826078 0 -0.054463218205719449 0.41396401026113128 0 -0.049746315728298893 0.4202163776431575 0 -0.054463218205719449 0.41396401026113128 0 -0.062165298973589307 0.4096025849494932 0 -0.059579059262106153 0.42210206283422841 0 -0.051803276149028271 0.40429270701226933 0 -0.054463218205719449 0.41396401026113128 0 -0.062165298973589307 0.4096025849494932 0 -0.049746315728298893 0.4202163776431575 0 -0.049624883406812897 0.43074817144262778 0 -0.055282101525471077 0.42710864955587258 0 -0.049746315728298893 0.4202163776431575 0 -0.055282101525471077 0.42710864955587258 0 -0.059579059262106153 0.42210206283422841 0 -0.06252468175680409 0.43294367670323403 0 -0.055282101525471077 0.42710864955587258 0 -0.059579059262106153 0.42210206283422841 0 -0.06252468175680409 0.43294367670323403 0 -0.049624883406812897 0.43074817144262778 0 -0.055282101525471077 0.42710864955587258 0 -0.049624883406812897 0.43074817144262778 0 -0.067003182549170259 0.45298791691813711 0 -0.049624883406812897 0.43074817144262778 0 -0.044482287751016258 0.44435104571905049 0 -0.067003182549170259 0.45298791691813711 0 -0.06252468175680409 0.43294367670323403 0 -0.049624883406812897 0.43074817144262778 0 -0.067003182549170259 0.45298791691813711 0 -0.046617471334004873 0.4606266540767755 0 -0.044482287751016258 0.44435104571905049 0 -0.067003182549170259 0.45298791691813711 0 -0.046617471334004873 0.4606266540767755 0 -0.06017146157449875 0.47345065968319289 0 -0.067003182549170259 0.45298791691813711 0 -0.046617471334004873 0.4606266540767755 0 -0.030484066879025339 0.45462125503039119 0 -0.034904524835694568 0.47297971586691151 0 -0.046617471334004873 0.4606266540767755 0 -0.044482287751016258 0.44435104571905049 0 -0.030484066879025339 0.45462125503039119 0 -0.044482287751016258 0.44435104571905049 0 -0.027824612328533511 0.43845821055679252 0 -0.030484066879025339 0.45462125503039119 0 -0.027824612328533511 0.43845821055679252 0 -0.0097013572488656111 0.4476612856391019 0 -0.027824612328533511 0.43845821055679252 0 -0.02190805723701892 0.44877750302129871 0 -0.030484066879025339 0.45462125503039119 0 -0.027824612328533511 0.43845821055679252 0 -0.016333286648457769 0.43801985202335719 0 -0.0097013572488656111 0.4476612856391019 0 -0.027824612328533511 0.43845821055679252 0 -0.02190805723701892 0.44877750302129871 0 -0.0097013572488656111 0.4476612856391019 0 -0.02190805723701892 0.44877750302129871 0 -0.020478654886362361 0.45603583784554541 0 -0.01519349972103563 0.45118497558688941 0 -0.02190805723701892 0.44877750302129871 0 -0.030484066879025339 0.45462125503039119 0 -0.020478654886362361 0.45603583784554541 0 -0.030484066879025339 0.45462125503039119 0 -0.020521671983127002 0.46622174240144709 0 -0.020478654886362361 0.45603583784554541 0 -0.030484066879025339 0.45462125503039119 0 -0.020521671983127002 0.46622174240144709 0 -0.034904524835694568 0.47297971586691151 0 -0.020521671983127002 0.46622174240144709 0 -0.020478654886362361 0.45603583784554541 0 -0.01428597861160495 0.45937371318770043 0 -0.020478654886362361 0.45603583784554541 0 -0.01428597861160495 0.45937371318770043 0 -0.01519349972103563 0.45118497558688941 0 -0.0075855076876943277 0.4554852194246764 0 -0.0097013572488656111 0.4476612856391019 0 0.0082584686342945923 0.45678137059852808 0 -0.0055572594818514946 0.46257063223737699 0 -0.0075855076876943277 0.4554852194246764 0 0.0082584686342945923 0.45678137059852808 0 -0.01428597861160495 0.45937371318770043 0 -0.0055572594818514946 0.46257063223737699 0 -0.0075855076876943277 0.4554852194246764 0 -0.01428597861160495 0.45937371318770043 0 -0.0075855076876943277 0.4554852194246764 0 -0.01519349972103563 0.45118497558688941 0 -0.01428597861160495 0.45937371318770043 0 -0.01170544806765378 0.46608538930653931 0 -0.0055572594818514946 0.46257063223737699 0 -0.01170544806765378 0.46608538930653931 0 -0.0055572594818514946 0.46257063223737699 0 -0.0086394520105620119 0.47424627061482549 0 -0.020521671983127002 0.46622174240144709 0 -0.01428597861160495 0.45937371318770043 0 -0.01170544806765378 0.46608538930653931 0 -0.0055572594818514946 0.46257063223737699 0 -0.0086394520105620119 0.47424627061482549 0 0.0031535297926917269 0.46399381410558871 0 -6.6829357673443834e-05 0.45074082477813598 0 -0.0097013572488656111 0.4476612856391019 0 0.0082584686342945923 0.45678137059852808 0 -6.6829357673443834e-05 0.45074082477813598 0 -0.0048063569523164699 0.44452071464576792 0 -0.0097013572488656111 0.4476612856391019 0 -0.0097013572488656111 0.4476612856391019 0 0.0082584686342945923 0.45678137059852808 0 -0.0048063569523164699 0.44452071464576792 0 -0.0097013572488656111 0.4476612856391019 0 -6.6829357673443834e-05 0.45074082477813598 0 -0.0048063569523164699 0.44452071464576792 0 -0.016333286648457769 0.43801985202335719 0 -0.0048063569523164699 0.44452071464576792 0 -0.0097013572488656111 0.4476612856391019 0 -0.0075855076876943277 0.4554852194246764 0 -0.01519349972103563 0.45118497558688941 0 -0.0097013572488656111 0.4476612856391019 0 -0.02190805723701892 0.44877750302129871 0 -0.01519349972103563 0.45118497558688941 0 -0.0097013572488656111 0.4476612856391019 0 -0.01519349972103563 0.45118497558688941 0 -0.0097013572488656111 0.4476612856391019 0 -0.020243359561426661 0.48104414189558148 0 -0.02213639138349132 0.49715078655580058 0 8.8086825524967202e-05 0.48499118194078988 0 -0.02213639138349132 0.49715078655580058 0 8.8086825524967202e-05 0.48499118194078988 0 -0.0068600907981323234 0.5 0 -0.02213639138349132 0.49715078655580058 0 8.8086825524967202e-05 0.48499118194078988 0 -0.0086394520105620119 0.47424627061482549 0 -0.020243359561426661 0.48104414189558148 0 8.8086825524967202e-05 0.48499118194078988 0 -0.0086394520105620119 0.47424627061482549 0 0.0073060011384684506 0.47179360407978371 0 8.8086825524967202e-05 0.48499118194078988 0 -0.020521671983127002 0.46622174240144709 0 -0.01170544806765378 0.46608538930653931 0 -0.0086394520105620119 0.47424627061482549 0 -0.020521671983127002 0.46622174240144709 0 -0.0086394520105620119 0.47424627061482549 0 -0.020243359561426661 0.48104414189558148 0 -0.020521671983127002 0.46622174240144709 0 -0.020243359561426661 0.48104414189558148 0 -0.034904524835694568 0.47297971586691151 0 -0.020243359561426661 0.48104414189558148 0 -0.031569693915904473 0.48729368094319958 0 -0.034904524835694568 0.47297971586691151 0 -0.0068600907981323234 0.5 0 -0.02213639138349132 0.49715078655580058 0 -0.034172560713350057 0.5 0 -0.020243359561426661 0.48104414189558148 0 -0.02213639138349132 0.49715078655580058 0 -0.031569693915904473 0.48729368094319958 0 -0.02213639138349132 0.49715078655580058 0 -0.034172560713350057 0.5 0 -0.031569693915904473 0.48729368094319958 0 -0.034172560713350057 0.5 0 -0.031569693915904473 0.48729368094319958 0 -0.046391633085559707 0.485293760397704 0 -0.031569693915904473 0.48729368094319958 0 -0.046391633085559707 0.485293760397704 0 -0.034904524835694568 0.47297971586691151 0 -0.046391633085559707 0.485293760397704 0 -0.034904524835694568 0.47297971586691151 0 -0.047021272707439471 0.47308769750614588 0 -0.046617471334004873 0.4606266540767755 0 -0.034904524835694568 0.47297971586691151 0 -0.047021272707439471 0.47308769750614588 0 -0.046617471334004873 0.4606266540767755 0 -0.047021272707439471 0.47308769750614588 0 -0.06017146157449875 0.47345065968319289 0 -0.046391633085559707 0.485293760397704 0 -0.047021272707439471 0.47308769750614588 0 -0.06017146157449875 0.47345065968319289 0 -0.034172560713350057 0.5 0 -0.046391633085559707 0.485293760397704 0 -0.061485030628567687 0.5 0 -0.046391633085559707 0.485293760397704 0 -0.06017146157449875 0.47345065968319289 0 -0.061485030628567687 0.5 0 -0.061485030628567687 0.5 0 -0.088797500543785546 0.5 0 -0.083196025944985041 0.47712225225867422 0 -0.088797500543785546 0.5 0 -0.083196025944985041 0.47712225225867422 0 -0.10178061088915751 0.48644201149166799 0 -0.06017146157449875 0.47345065968319289 0 -0.061485030628567687 0.5 0 -0.083196025944985041 0.47712225225867422 0 -0.06017146157449875 0.47345065968319289 0 -0.083196025944985041 0.47712225225867422 0 -0.067003182549170259 0.45298791691813711 0 -0.06252468175680409 0.43294367670323403 0 -0.067003182549170259 0.45298791691813711 0 -0.077633006055652654 0.4378530370304699 0 -0.091697694780256023 0.4348771940664023 0 -0.077633006055652654 0.4378530370304699 0 -0.09202167500372363 0.45459025672437298 0 -0.067003182549170259 0.45298791691813711 0 -0.077633006055652654 0.4378530370304699 0 -0.09202167500372363 0.45459025672437298 0 -0.083196025944985041 0.47712225225867422 0 -0.067003182549170259 0.45298791691813711 0 -0.09202167500372363 0.45459025672437298 0 -0.083196025944985041 0.47712225225867422 0 -0.09202167500372363 0.45459025672437298 0 -0.1028860358966274 0.47138596656612941 0 -0.09202167500372363 0.45459025672437298 0 -0.11292675668471901 0.4568209381078091 0 -0.1028860358966274 0.47138596656612941 0 -0.091697694780256023 0.4348771940664023 0 -0.09202167500372363 0.45459025672437298 0 -0.10215308779946231 0.44411690861112929 0 -0.09202167500372363 0.45459025672437298 0 -0.10215308779946231 0.44411690861112929 0 -0.11292675668471901 0.4568209381078091 0 -0.10531868036973389 0.43201068638958051 0 -0.10215308779946231 0.44411690861112929 0 -0.11381676810799719 0.44238657733466569 0 -0.1286932592052478 0.44555397951398712 0 -0.11381676810799719 0.44238657733466569 0 -0.11292675668471901 0.4568209381078091 0 -0.10215308779946231 0.44411690861112929 0 -0.11381676810799719 0.44238657733466569 0 -0.11292675668471901 0.4568209381078091 0 -0.1286932592052478 0.44555397951398712 0 -0.1214344415200954 0.43084155987563377 0 -0.11381676810799719 0.44238657733466569 0 -0.13184841508867981 0.46409260043338663 0 -0.1286932592052478 0.44555397951398712 0 -0.11292675668471901 0.4568209381078091 0 -0.11292675668471901 0.4568209381078091 0 -0.1165672723769119 0.47774221280102352 0 -0.1028860358966274 0.47138596656612941 0 -0.13184841508867981 0.46409260043338663 0 -0.11292675668471901 0.4568209381078091 0 -0.1165672723769119 0.47774221280102352 0 -0.1331787206310471 0.48473194729089147 0 -0.1165672723769119 0.47774221280102352 0 -0.11610997045900349 0.50000000000000122 0 -0.1165672723769119 0.47774221280102352 0 -0.11610997045900349 0.50000000000000122 0 -0.10178061088915751 0.48644201149166799 0 -0.1331787206310471 0.48473194729089147 0 -0.11610997045900349 0.50000000000000122 0 -0.088797500543785546 0.5 0 -0.11610997045900349 0.50000000000000122 0 -0.10178061088915751 0.48644201149166799 0 -0.083196025944985041 0.47712225225867422 0 -0.10178061088915751 0.48644201149166799 0 -0.1028860358966274 0.47138596656612941 0 -0.1165672723769119 0.47774221280102352 0 -0.10178061088915751 0.48644201149166799 0 -0.1028860358966274 0.47138596656612941 0 -0.17129180783153611 0.081778856724131085 0 -0.15726536064877589 0.086514695553008045 0 -0.16963116374480011 0.095594723143629448 0 -0.15726536064877589 0.086514695553008045 0 -0.1556604544451875 0.097873782642492302 0 -0.15726536064877589 0.086514695553008045 0 -0.1585110561228239 0.077698003745692523 0 -0.17129180783153611 0.081778856724131085 0 -0.15726536064877589 0.086514695553008045 0 -0.1585110561228239 0.077698003745692523 0 -0.1585110561228239 0.077698003745692523 0 -0.1519802717566987 0.073315860823626983 0 -0.16074472894633221 0.061888678518532747 0 -0.1585110561228239 0.077698003745692523 0 -0.16074472894633221 0.061888678518532747 0 -0.1585110561228239 0.077698003745692523 0 -0.17971917466898921 0.057514019669366041 0 -0.1585110561228239 0.077698003745692523 0 -0.16074472894633221 0.061888678518532747 0 -0.17971917466898921 0.057514019669366041 0 -0.17129180783153611 0.081778856724131085 0 -0.1585110561228239 0.077698003745692523 0 -0.17971917466898921 0.057514019669366041 0 -0.17129180783153611 0.081778856724131085 0 -0.18273326405341991 0.076678403483655344 0 -0.17971917466898921 0.057514019669366041 0 -0.18273326405341991 0.076678403483655344 0 -0.17971917466898921 0.057514019669366041 0 -0.18925263765450651 0.068149244305936996 0 -0.18273326405341991 0.076678403483655344 0 -0.18625685408003351 0.092979457860111192 0 -0.19122309543555679 0.075260819586885089 0 -0.17129180783153611 0.081778856724131085 0 -0.18625685408003351 0.092979457860111192 0 -0.16963116374480011 0.095594723143629448 0 -0.17129180783153611 0.081778856724131085 0 -0.18273326405341991 0.076678403483655344 0 -0.18625685408003351 0.092979457860111192 0 -0.18625685408003351 0.092979457860111192 0 -0.17316316692378261 0.1078641226405672 0 -0.18625685408003351 0.092979457860111192 0 -0.17316316692378261 0.1078641226405672 0 -0.19041967960416881 0.10044398265293179 0 -0.18625685408003351 0.092979457860111192 0 -0.17316316692378261 0.1078641226405672 0 -0.16963116374480011 0.095594723143629448 0 -0.17316316692378261 0.1078641226405672 0 -0.19041967960416881 0.10044398265293179 0 -0.1968616173047002 0.1091929637844503 0 -0.17316316692378261 0.1078641226405672 0 -0.1968616173047002 0.1091929637844503 0 -0.17316316692378261 0.1078641226405672 0 -0.18453087020250189 0.1146743350100347 0 -0.1968616173047002 0.1091929637844503 0 -0.18453087020250189 0.1146743350100347 0 -0.17965253881283061 0.1206804648835826 0 -0.19179122760273851 0.12568963289235899 0 -0.17316316692378261 0.1078641226405672 0 -0.18453087020250189 0.1146743350100347 0 -0.17965253881283061 0.1206804648835826 0 -0.17316316692378261 0.1078641226405672 0 -0.17965253881283061 0.1206804648835826 0 -0.1666349148901001 0.1152853205021144 0 -0.16511048897005881 0.1170182600883123 0 -0.1666349148901001 0.1152853205021144 0 -0.1693260956250652 0.13393721356214791 0 -0.16511048897005881 0.1170182600883123 0 -0.1543976053705868 0.1068118829422284 0 -0.15062975546852381 0.13347969385966679 0 -0.17316316692378261 0.1078641226405672 0 -0.1666349148901001 0.1152853205021144 0 -0.16339983339855779 0.1101526997093458 0 -0.16511048897005881 0.1170182600883123 0 -0.1666349148901001 0.1152853205021144 0 -0.16339983339855779 0.1101526997093458 0 -0.16511048897005881 0.1170182600883123 0 -0.16339983339855779 0.1101526997093458 0 -0.16511048897005881 0.1170182600883123 0 -0.1666349148901001 0.1152853205021144 0 -0.17316316692378261 0.1078641226405672 0 -0.1666349148901001 0.1152853205021144 0 -0.1666349148901001 0.1152853205021144 0 -0.16339983339855779 0.1101526997093458 0 -0.16511048897005881 0.1170182600883123 0 -0.16339983339855779 0.1101526997093458 0 -0.1543976053705868 0.1068118829422284 0 -0.15726536064877589 0.086514695553008045 0 -0.1615467940078906 0.107212758773939 0 -0.1556604544451875 0.097873782642492302 0 -0.15726536064877589 0.086514695553008045 0 -0.1615467940078906 0.107212758773939 0 -0.15726536064877589 0.086514695553008045 0 -0.16963116374480011 0.095594723143629448 0 -0.1615467940078906 0.107212758773939 0 -0.17316316692378261 0.1078641226405672 0 -0.16963116374480011 0.095594723143629448 0 -0.1615467940078906 0.107212758773939 0 -0.17316316692378261 0.1078641226405672 0 -0.1615467940078906 0.107212758773939 0 -0.17316316692378261 0.1078641226405672 0 -0.16339983339855779 0.1101526997093458 0 -0.1615467940078906 0.107212758773939 0 -0.1615467940078906 0.107212758773939 0 -0.1556604544451875 0.097873782642492302 0 -0.1615467940078906 0.107212758773939 0 -0.1556604544451875 0.097873782642492302 0 -0.1543976053705868 0.1068118829422284 0 -0.16339983339855779 0.1101526997093458 0 -0.1615467940078906 0.107212758773939 0 -0.1543976053705868 0.1068118829422284 0 -0.16339983339855779 0.1101526997093458 0 -0.1615467940078906 0.107212758773939 0 -0.1615467940078906 0.107212758773939 0 -0.1543976053705868 0.1068118829422284 0 -0.1556604544451875 0.097873782642492302 0 -0.147252841796328 0.098543013498343879 0 -0.1487806133625228 0.086958565982839992 0 -0.1556604544451875 0.097873782642492302 0 -0.1543976053705868 0.1068118829422284 0 -0.147252841796328 0.098543013498343879 0 -0.1556604544451875 0.097873782642492302 0 -0.1543976053705868 0.1068118829422284 0 -0.1543976053705868 0.1068118829422284 0 -0.14417437542488881 0.10623863666001029 0 -0.1543976053705868 0.1068118829422284 0 -0.14417437542488881 0.10623863666001029 0 -0.147252841796328 0.098543013498343879 0 -0.147252841796328 0.098543013498343879 0 -0.13609636326464919 0.099030296977658736 0 -0.1487806133625228 0.086958565982839992 0 -0.14417437542488881 0.10623863666001029 0 -0.147252841796328 0.098543013498343879 0 -0.13609636326464919 0.099030296977658736 0 -0.1543976053705868 0.1068118829422284 0 -0.14261918336947649 0.11929924207365671 0 -0.15062975546852381 0.13347969385966679 0 -0.1543976053705868 0.1068118829422284 0 -0.15062975546852381 0.13347969385966679 0 -0.1543976053705868 0.1068118829422284 0 -0.14417437542488881 0.10623863666001029 0 -0.14261918336947649 0.11929924207365671 0 -0.13267727706791951 0.1107929543516378 0 -0.1311996888450476 0.1220864639654108 0 -0.1139765185518801 0.10906107742923089 0 -0.14261918336947649 0.11929924207365671 0 -0.13267727706791951 0.1107929543516378 0 -0.1311996888450476 0.1220864639654108 0 -0.14417437542488881 0.10623863666001029 0 -0.14261918336947649 0.11929924207365671 0 -0.13267727706791951 0.1107929543516378 0 -0.14417437542488881 0.10623863666001029 0 -0.13267727706791951 0.1107929543516378 0 -0.13609636326464919 0.099030296977658736 0 -0.13267727706791951 0.1107929543516378 0 -0.13609636326464919 0.099030296977658736 0 -0.1254341817703207 0.1004865737220574 0 -0.13609636326464919 0.099030296977658736 0 -0.1254341817703207 0.1004865737220574 0 -0.12724174932730201 0.092167755371454899 0 -0.13469637577909549 0.084859484494144891 0 -0.1487806133625228 0.086958565982839992 0 -0.1356374876160302 0.06610633067910586 0 -0.13609636326464919 0.099030296977658736 0 -0.12724174932730201 0.092167755371454899 0 -0.13469637577909549 0.084859484494144891 0 -0.12724174932730201 0.092167755371454899 0 -0.13469637577909549 0.084859484494144891 0 -0.1214201214337626 0.082695445630034461 0 -0.13469637577909549 0.084859484494144891 0 -0.1284661319915765 0.076009059052978806 0 -0.1214201214337626 0.082695445630034461 0 -0.13609636326464919 0.099030296977658736 0 -0.13469637577909549 0.084859484494144891 0 -0.1487806133625228 0.086958565982839992 0 -0.13609636326464919 0.099030296977658736 0 -0.1487806133625228 0.086958565982839992 0 -0.1585110561228239 0.077698003745692523 0 -0.1487806133625228 0.086958565982839992 0 -0.1519802717566987 0.073315860823626983 0 -0.1585110561228239 0.077698003745692523 0 -0.1487806133625228 0.086958565982839992 0 -0.15726536064877589 0.086514695553008045 0 -0.1585110561228239 0.077698003745692523 0 -0.1487806133625228 0.086958565982839992 0 -0.1556604544451875 0.097873782642492302 0 -0.1487806133625228 0.086958565982839992 0 -0.15726536064877589 0.086514695553008045 0 -0.1556604544451875 0.097873782642492302 0 -0.1487806133625228 0.086958565982839992 0 -0.1519802717566987 0.073315860823626983 0 -0.1356374876160302 0.06610633067910586 0 -0.1519802717566987 0.073315860823626983 0 -0.1356374876160302 0.06610633067910586 0 -0.1492579301897092 0.060566191317421803 0 -0.1487806133625228 0.086958565982839992 0 -0.1356374876160302 0.06610633067910586 0 -0.1487806133625228 0.086958565982839992 0 -0.1519802717566987 0.073315860823626983 0 -0.1356374876160302 0.06610633067910586 0 -0.1519802717566987 0.073315860823626983 0 -0.1492579301897092 0.060566191317421803 0 -0.16074472894633221 0.061888678518532747 0 -0.13469637577909549 0.084859484494144891 0 -0.1356374876160302 0.06610633067910586 0 -0.1284661319915765 0.076009059052978806 0 -0.1356374876160302 0.06610633067910586 0 -0.1221105431374179 0.070374975408630011 0 -0.11832052248059879 0.058467045898684747 0 -0.1356374876160302 0.06610633067910586 0 -0.1284661319915765 0.076009059052978806 0 -0.1221105431374179 0.070374975408630011 0 -0.1356374876160302 0.06610633067910586 0 -0.13277291672647651 0.044097690854057098 0 -0.1439169346984728 0.051733066111929162 0 -0.1356374876160302 0.06610633067910586 0 -0.11832052248059879 0.058467045898684747 0 -0.1356374876160302 0.06610633067910586 0 -0.13277291672647651 0.044097690854057098 0 -0.1194021457267522 0.040923478998895237 0 -0.1356374876160302 0.06610633067910586 0 -0.1194021457267522 0.040923478998895237 0 -0.13277291672647651 0.044097690854057098 0 -0.1488296557119263 0.039771214049111367 0 -0.1194021457267522 0.040923478998895237 0 -0.1488296557119263 0.039771214049111367 0 -0.1194021457267522 0.040923478998895237 0 -0.13277291672647651 0.044097690854057098 0 -0.1194021457267522 0.040923478998895237 0 -0.1488296557119263 0.039771214049111367 0 -0.1249415382210789 0.029125652879889559 0 -0.1194021457267522 0.040923478998895237 0 -0.1488296557119263 0.039771214049111367 0 -0.15400737245209151 0.051740417965952801 0 -0.16543481239059379 0.045323501268917141 0 -0.13277291672647651 0.044097690854057098 0 -0.1488296557119263 0.039771214049111367 0 -0.1439169346984728 0.051733066111929162 0 -0.1488296557119263 0.039771214049111367 0 -0.15400737245209151 0.051740417965952801 0 -0.1439169346984728 0.051733066111929162 0 -0.15400737245209151 0.051740417965952801 0 -0.1492579301897092 0.060566191317421803 0 -0.1439169346984728 0.051733066111929162 0 -0.15400737245209151 0.051740417965952801 0 -0.1492579301897092 0.060566191317421803 0 -0.16074472894633221 0.061888678518532747 0 -0.1356374876160302 0.06610633067910586 0 -0.1492579301897092 0.060566191317421803 0 -0.1439169346984728 0.051733066111929162 0 -0.14162860272554489 -0.0086780269109793026 0 -0.1326551359459831 0.0072180599274277628 0 -0.14742449342534139 0.0064160790279211583 0 -0.1326551359459831 0.0072180599274277628 0 -0.13424365695639009 0.022267221502853301 0 -0.14742449342534139 0.0064160790279211583 0 -0.1326551359459831 0.0072180599274277628 0 -0.13424365695639009 0.022267221502853301 0 -0.1183359994220656 0.01374088147725901 0 -0.1488296557119263 0.039771214049111367 0 -0.13424365695639009 0.022267221502853301 0 -0.1249415382210789 0.029125652879889559 0 -0.13424365695639009 0.022267221502853301 0 -0.1183359994220656 0.01374088147725901 0 -0.1249415382210789 0.029125652879889559 0 -0.1486574553331021 0.023963308507141661 0 -0.14742449342534139 0.0064160790279211583 0 -0.15708195334562439 0.01650484941070416 0 -0.1488296557119263 0.039771214049111367 0 -0.13424365695639009 0.022267221502853301 0 -0.1486574553331021 0.023963308507141661 0 -0.1488296557119263 0.039771214049111367 0 -0.1486574553331021 0.023963308507141661 0 -0.1606806278123071 0.02996581855531814 0 -0.13424365695639009 0.022267221502853301 0 -0.1486574553331021 0.023963308507141661 0 -0.14742449342534139 0.0064160790279211583 0 -0.1486574553331021 0.023963308507141661 0 -0.15708195334562439 0.01650484941070416 0 -0.1606806278123071 0.02996581855531814 0 -0.16491498881667049 -0.002936604489886772 0 -0.14742449342534139 0.0064160790279211583 0 -0.15708195334562439 0.01650484941070416 0 -0.16491498881667049 -0.002936604489886772 0 -0.15708195334562439 0.01650484941070416 0 -0.1725919076825437 0.015537511094516451 0 -0.15708195334562439 0.01650484941070416 0 -0.1606806278123071 0.02996581855531814 0 -0.1725919076825437 0.015537511094516451 0 -0.1606806278123071 0.02996581855531814 0 -0.17451588884256999 0.030812618532252551 0 -0.1725919076825437 0.015537511094516451 0 -0.17451588884256999 0.030812618532252551 0 -0.1725919076825437 0.015537511094516451 0 -0.1898436836465606 0.019988177347713489 0 -0.17451588884256999 0.030812618532252551 0 -0.18973508857080221 0.031390745229937657 0 -0.1898436836465606 0.019988177347713489 0 -0.1725919076825437 0.015537511094516451 0 -0.18820137490779609 0.0028048179312057582 0 -0.1898436836465606 0.019988177347713489 0 -0.16491498881667049 -0.002936604489886772 0 -0.1725919076825437 0.015537511094516451 0 -0.18820137490779609 0.0028048179312057582 0 -0.15400737245209151 0.051740417965952801 0 -0.16074472894633221 0.061888678518532747 0 -0.16543481239059379 0.045323501268917141 0 -0.16074472894633221 0.061888678518532747 0 -0.16543481239059379 0.045323501268917141 0 -0.17971917466898921 0.057514019669366041 0 -0.1488296557119263 0.039771214049111367 0 -0.1606806278123071 0.02996581855531814 0 -0.16543481239059379 0.045323501268917141 0 -0.1606806278123071 0.02996581855531814 0 -0.17451588884256999 0.030812618532252551 0 -0.16543481239059379 0.045323501268917141 0 -0.17451588884256999 0.030812618532252551 0 -0.16543481239059379 0.045323501268917141 0 -0.18026136046920679 0.042354901672671648 0 -0.18026136046920679 0.042354901672671648 0 -0.17971917466898921 0.057514019669366041 0 -0.20092729321515521 0.037330035593040059 0 -0.17451588884256999 0.030812618532252551 0 -0.18026136046920679 0.042354901672671648 0 -0.18973508857080221 0.031390745229937657 0 -0.16543481239059379 0.045323501268917141 0 -0.18026136046920679 0.042354901672671648 0 -0.17971917466898921 0.057514019669366041 0 -0.17971917466898921 0.057514019669366041 0 -0.20250632918639899 0.051910455928841213 0 -0.20092729321515521 0.037330035593040059 0 -0.17971917466898921 0.057514019669366041 0 -0.19559075978152449 0.062027867936018319 0 -0.20250632918639899 0.051910455928841213 0 -0.17971917466898921 0.057514019669366041 0 -0.20092729321515521 0.037330035593040059 0 -0.19559075978152449 0.062027867936018319 0 -0.20250632918639899 0.051910455928841213 0 -0.2028849489439164 0.064136558186094775 0 -0.18026136046920679 0.042354901672671648 0 -0.18973508857080221 0.031390745229937657 0 -0.20092729321515521 0.037330035593040059 0 -0.18973508857080221 0.031390745229937657 0 -0.20092729321515521 0.037330035593040059 0 -0.20312721668051839 0.026467993004010551 0 -0.20250632918639899 0.051910455928841213 0 -0.20092729321515521 0.037330035593040059 0 -0.212783820392939 0.050679195687963981 0 -0.20092729321515521 0.037330035593040059 0 -0.212783820392939 0.050679195687963981 0 -0.21926923802688611 0.040207031866740822 0 -0.20092729321515521 0.037330035593040059 0 -0.20312721668051839 0.026467993004010551 0 -0.21926923802688611 0.040207031866740822 0 -0.212783820392939 0.050679195687963981 0 -0.21093990847207389 0.059958896795191077 0 -0.22671254209329789 0.064057205794814553 0 -0.20250632918639899 0.051910455928841213 0 -0.21093990847207389 0.059958896795191077 0 -0.2028849489439164 0.064136558186094775 0 -0.20250632918639899 0.051910455928841213 0 -0.212783820392939 0.050679195687963981 0 -0.21093990847207389 0.059958896795191077 0 -0.18820137490779609 0.0028048179312057582 0 -0.20117165843810689 0.01471282494293494 0 -0.1898436836465606 0.019988177347713489 0 -0.18820137490779609 0.0028048179312057582 0 -0.21148776099892169 0.0085462403522983087 0 -0.20098663595279639 -0.0045317241816546592 0 -0.18820137490779609 0.0028048179312057582 0 -0.21148776099892169 0.0085462403522983087 0 -0.18820137490779609 0.0028048179312057582 0 -0.20117165843810689 0.01471282494293494 0 -0.21148776099892169 0.0085462403522983087 0 -0.20117165843810689 0.01471282494293494 0 -0.1898436836465606 0.019988177347713489 0 -0.20312721668051839 0.026467993004010551 0 -0.18973508857080221 0.031390745229937657 0 -0.1898436836465606 0.019988177347713489 0 -0.20312721668051839 0.026467993004010551 0 -0.20312721668051839 0.026467993004010551 0 -0.21182593396047469 0.016356857938666761 0 -0.21926923802688611 0.040207031866740822 0 -0.21182593396047469 0.016356857938666761 0 -0.21926923802688611 0.040207031866740822 0 -0.20117165843810689 0.01471282494293494 0 -0.20312721668051839 0.026467993004010551 0 -0.21182593396047469 0.016356857938666761 0 -0.20117165843810689 0.01471282494293494 0 -0.21182593396047469 0.016356857938666761 0 -0.21148776099892169 0.0085462403522983087 0 -0.21123443395533281 -0.0012914650625643271 0 -0.2216061714511057 -0.00064016918626373653 0 -0.21148776099892169 0.0085462403522983087 0 -0.20098663595279639 -0.0045317241816546592 0 -0.21123443395533281 -0.0012914650625643271 0 -0.21148776099892169 0.0085462403522983087 0 -0.2216061714511057 -0.00064016918626373653 0 -0.21148776099892169 0.0085462403522983087 0 -0.23477414709004751 0.014287662773390891 0 -0.21182593396047469 0.016356857938666761 0 -0.21148776099892169 0.0085462403522983087 0 -0.23477414709004751 0.014287662773390891 0 -0.21148776099892169 0.0085462403522983087 0 -0.23477414709004751 0.014287662773390891 0 -0.2216061714511057 -0.00064016918626373653 0 -0.23477414709004751 0.014287662773390891 0 -0.23541307807521419 0.00048972245313083597 0 -0.21182593396047469 0.016356857938666761 0 -0.2263041091735539 0.026015582164687311 0 -0.21926923802688611 0.040207031866740822 0 -0.21182593396047469 0.016356857938666761 0 -0.2263041091735539 0.026015582164687311 0 -0.23477414709004751 0.014287662773390891 0 -0.2263041091735539 0.026015582164687311 0 -0.2438502831793008 0.02485429682087445 0 -0.2399358152056415 0.038222428398895447 0 -0.2263041091735539 0.026015582164687311 0 -0.2438502831793008 0.02485429682087445 0 -0.23477414709004751 0.014287662773390891 0 -0.25178156673050811 0.0072016021390982014 0 -0.2438502831793008 0.02485429682087445 0 -0.23477414709004751 0.014287662773390891 0 -0.25178156673050811 0.0072016021390982014 0 -0.23477414709004751 0.014287662773390891 0 -0.23541307807521419 0.00048972245313083597 0 -0.212783820392939 0.050679195687963981 0 -0.21926923802688611 0.040207031866740822 0 -0.22671254209329789 0.064057205794814553 0 -0.23173136182059159 0.049742250539512603 0 -0.21926923802688611 0.040207031866740822 0 -0.22671254209329789 0.064057205794814553 0 -0.21926923802688611 0.040207031866740822 0 -0.22671254209329789 0.064057205794814553 0 -0.23173136182059159 0.049742250539512603 0 -0.24100785195654059 0.056482336097599589 0 -0.22671254209329789 0.064057205794814553 0 -0.24100785195654059 0.056482336097599589 0 -0.22671254209329789 0.064057205794814553 0 -0.23173136182059159 0.049742250539512603 0 -0.21926923802688611 0.040207031866740822 0 -0.2399358152056415 0.038222428398895447 0 -0.2263041091735539 0.026015582164687311 0 -0.21926923802688611 0.040207031866740822 0 -0.2399358152056415 0.038222428398895447 0 -0.2399358152056415 0.038222428398895447 0 -0.24855461709313459 0.044689649184719057 0 -0.24100785195654059 0.056482336097599589 0 -0.25151414622540391 0.035068817058845007 0 -0.2438502831793008 0.02485429682087445 0 -0.2399358152056415 0.038222428398895447 0 -0.25151414622540391 0.035068817058845007 0 -0.2399358152056415 0.038222428398895447 0 -0.24855461709313459 0.044689649184719057 0 -0.25887886309051278 0.047012756075035758 0 -0.24100785195654059 0.056482336097599589 0 -0.23173136182059159 0.049742250539512603 0 -0.2399358152056415 0.038222428398895447 0 -0.24100785195654059 0.056482336097599589 0 -0.25887886309051278 0.047012756075035758 0 -0.24855461709313459 0.044689649184719057 0 -0.24100785195654059 0.056482336097599589 0 -0.2399358152056415 0.038222428398895447 0 -0.24100785195654059 0.056482336097599589 0 -0.25071059857313649 0.061295580483683387 0 -0.24100785195654059 0.056482336097599589 0 -0.2497559911996434 0.069906219864794658 0 -0.24100785195654059 0.056482336097599589 0 -0.2497559911996434 0.069906219864794658 0 -0.2426331850115406 0.084166491084906203 0 -0.24100785195654059 0.056482336097599589 0 -0.2426331850115406 0.084166491084906203 0 -0.24100785195654059 0.056482336097599589 0 -0.2426331850115406 0.084166491084906203 0 -0.2324043220251516 0.08229506630996257 0 -0.25613481907564162 0.080080736698210961 0 -0.2497559911996434 0.069906219864794658 0 -0.2426331850115406 0.084166491084906203 0 -0.2426331850115406 0.084166491084906203 0 -0.2324043220251516 0.08229506630996257 0 -0.23809610195700581 0.10053292682511029 0 -0.2324043220251516 0.08229506630996257 0 -0.23809610195700581 0.10053292682511029 0 -0.25137304204088817 0.097543164279175837 0 -0.25298296723642882 0.088056357002873786 0 -0.2426331850115406 0.084166491084906203 0 -0.2324043220251516 0.08229506630996257 0 -0.22477566856485881 0.094682954350121681 0 -0.23809610195700581 0.10053292682511029 0 -0.2324043220251516 0.08229506630996257 0 -0.2225149202012979 0.083993017144753934 0 -0.22477566856485881 0.094682954350121681 0 -0.2324043220251516 0.08229506630996257 0 -0.2225149202012979 0.083993017144753934 0 -0.22512577062594841 0.07659536538680374 0 -0.2225149202012979 0.083993017144753934 0 -0.22512577062594841 0.07659536538680374 0 -0.21640356012839149 0.078188666071441829 0 -0.2225149202012979 0.083993017144753934 0 -0.2169414206494692 0.083416903819640925 0 -0.21712606035029941 0.089521926228594589 0 -0.2225149202012979 0.083993017144753934 0 -0.21712606035029941 0.089521926228594589 0 -0.22477566856485881 0.094682954350121681 0 -0.2324043220251516 0.08229506630996257 0 -0.22671254209329789 0.064057205794814553 0 -0.22512577062594841 0.07659536538680374 0 -0.24100785195654059 0.056482336097599589 0 -0.2324043220251516 0.08229506630996257 0 -0.22671254209329789 0.064057205794814553 0 -0.2324043220251516 0.08229506630996257 0 -0.22671254209329789 0.064057205794814553 0 -0.22671254209329789 0.064057205794814553 0 -0.22512577062594841 0.07659536538680374 0 -0.21640356012839149 0.078188666071441829 0 -0.21093990847207389 0.059958896795191077 0 -0.22671254209329789 0.064057205794814553 0 -0.2089111033994549 0.067602574592723827 0 -0.22671254209329789 0.064057205794814553 0 -0.2089111033994549 0.067602574592723827 0 -0.2013838182686703 0.077478515609281623 0 -0.22671254209329789 0.064057205794814553 0 -0.21640356012839149 0.078188666071441829 0 -0.2013838182686703 0.077478515609281623 0 -0.22671254209329789 0.064057205794814553 0 -0.2013838182686703 0.077478515609281623 0 -0.21093990847207389 0.059958896795191077 0 -0.2089111033994549 0.067602574592723827 0 -0.2028849489439164 0.064136558186094775 0 -0.2089111033994549 0.067602574592723827 0 -0.2028849489439164 0.064136558186094775 0 -0.20180159392795519 0.071683440670905277 0 -0.2089111033994549 0.067602574592723827 0 -0.20180159392795519 0.071683440670905277 0 -0.2013838182686703 0.077478515609281623 0 -0.2225149202012979 0.083993017144753934 0 -0.21640356012839149 0.078188666071441829 0 -0.2169414206494692 0.083416903819640925 0 -0.21640356012839149 0.078188666071441829 0 -0.2169414206494692 0.083416903819640925 0 -0.21380755405143059 0.081267008955788686 0 -0.21640356012839149 0.078188666071441829 0 -0.21380755405143059 0.081267008955788686 0 -0.20833889500862621 0.080512645789009338 0 -0.2169414206494692 0.083416903819640925 0 -0.21161859811541811 0.084297417736032124 0 -0.21712606035029941 0.089521926228594589 0 -0.2169414206494692 0.083416903819640925 0 -0.21161859811541811 0.084297417736032124 0 -0.21380755405143059 0.081267008955788686 0 -0.21161859811541811 0.084297417736032124 0 -0.21380755405143059 0.081267008955788686 0 -0.20833889500862621 0.080512645789009338 0 -0.21712606035029941 0.089521926228594589 0 -0.21052736591602891 0.089946614451603929 0 -0.21448683700282631 0.097568667363814171 0 -0.21161859811541811 0.084297417736032124 0 -0.21712606035029941 0.089521926228594589 0 -0.21052736591602891 0.089946614451603929 0 -0.21052736591602891 0.089946614451603929 0 -0.2057306057937805 0.089259692410117969 0 -0.2062546212854651 0.094917705846924938 0 -0.21161859811541811 0.084297417736032124 0 -0.21052736591602891 0.089946614451603929 0 -0.2071421787269985 0.084993043582115527 0 -0.21052736591602891 0.089946614451603929 0 -0.2057306057937805 0.089259692410117969 0 -0.2071421787269985 0.084993043582115527 0 -0.2057306057937805 0.089259692410117969 0 -0.20232415562273609 0.091858756249916823 0 -0.20269983803536121 0.086440042066098191 0 -0.2057306057937805 0.089259692410117969 0 -0.2071421787269985 0.084993043582115527 0 -0.20269983803536121 0.086440042066098191 0 -0.2057306057937805 0.089259692410117969 0 -0.20232415562273609 0.091858756249916823 0 -0.2062546212854651 0.094917705846924938 0 -0.21640356012839149 0.078188666071441829 0 -0.20833889500862621 0.080512645789009338 0 -0.2013838182686703 0.077478515609281623 0 -0.21161859811541811 0.084297417736032124 0 -0.20833889500862621 0.080512645789009338 0 -0.2071421787269985 0.084993043582115527 0 -0.20833889500862621 0.080512645789009338 0 -0.2071421787269985 0.084993043582115527 0 -0.20449391727719149 0.082239570829136174 0 -0.2071421787269985 0.084993043582115527 0 -0.20449391727719149 0.082239570829136174 0 -0.20269983803536121 0.086440042066098191 0 -0.20833889500862621 0.080512645789009338 0 -0.20449391727719149 0.082239570829136174 0 -0.20390138392101331 0.080613315969815191 0 -0.20449391727719149 0.082239570829136174 0 -0.20390138392101331 0.080613315969815191 0 -0.20138890512956539 0.082222531651833658 0 -0.20833889500862621 0.080512645789009338 0 -0.20390138392101331 0.080613315969815191 0 -0.2013838182686703 0.077478515609281623 0 -0.18625685408003351 0.092979457860111192 0 -0.19122309543555679 0.075260819586885089 0 -0.1993505412362849 0.078094793079655736 0 -0.20390138392101331 0.080613315969815191 0 -0.20138890512956539 0.082222531651833658 0 -0.2013838182686703 0.077478515609281623 0 -0.20138890512956539 0.082222531651833658 0 -0.2013838182686703 0.077478515609281623 0 -0.1993505412362849 0.078094793079655736 0 -0.20138890512956539 0.082222531651833658 0 -0.19720707947413171 0.089971464486040029 0 -0.1993505412362849 0.078094793079655736 0 -0.20449391727719149 0.082239570829136174 0 -0.20138890512956539 0.082222531651833658 0 -0.20269983803536121 0.086440042066098191 0 -0.20232415562273609 0.091858756249916823 0 -0.19720707947413171 0.089971464486040029 0 -0.199728633524942 0.098704876440402933 0 -0.20232415562273609 0.091858756249916823 0 -0.20269983803536121 0.086440042066098191 0 -0.19720707947413171 0.089971464486040029 0 -0.20138890512956539 0.082222531651833658 0 -0.20269983803536121 0.086440042066098191 0 -0.19720707947413171 0.089971464486040029 0 -0.18625685408003351 0.092979457860111192 0 -0.19720707947413171 0.089971464486040029 0 -0.1993505412362849 0.078094793079655736 0 -0.18625685408003351 0.092979457860111192 0 -0.1993505412362849 0.078094793079655736 0 -0.17971917466898921 0.057514019669366041 0 -0.19559075978152449 0.062027867936018319 0 -0.18925263765450651 0.068149244305936996 0 -0.18273326405341991 0.076678403483655344 0 -0.19122309543555679 0.075260819586885089 0 -0.18925263765450651 0.068149244305936996 0 -0.19122309543555679 0.075260819586885089 0 -0.18925263765450651 0.068149244305936996 0 -0.19699689433304199 0.069265110853760165 0 -0.19559075978152449 0.062027867936018319 0 -0.18925263765450651 0.068149244305936996 0 -0.19699689433304199 0.069265110853760165 0 -0.19559075978152449 0.062027867936018319 0 -0.19699689433304199 0.069265110853760165 0 -0.2028849489439164 0.064136558186094775 0 -0.19699689433304199 0.069265110853760165 0 -0.2028849489439164 0.064136558186094775 0 -0.20180159392795519 0.071683440670905277 0 -0.20180159392795519 0.071683440670905277 0 -0.20009312490145789 0.075326913392691597 0 -0.19783654617292121 0.074050904210923807 0 -0.19122309543555679 0.075260819586885089 0 -0.1993505412362849 0.078094793079655736 0 -0.19783654617292121 0.074050904210923807 0 -0.20180159392795519 0.071683440670905277 0 -0.2013838182686703 0.077478515609281623 0 -0.20009312490145789 0.075326913392691597 0 -0.2013838182686703 0.077478515609281623 0 -0.1993505412362849 0.078094793079655736 0 -0.20009312490145789 0.075326913392691597 0 -0.1993505412362849 0.078094793079655736 0 -0.20009312490145789 0.075326913392691597 0 -0.19783654617292121 0.074050904210923807 0 -0.19699689433304199 0.069265110853760165 0 -0.20180159392795519 0.071683440670905277 0 -0.19783654617292121 0.074050904210923807 0 -0.19122309543555679 0.075260819586885089 0 -0.19699689433304199 0.069265110853760165 0 -0.19783654617292121 0.074050904210923807 0 -0.20143994076044441 0.1114903524118783 0 -0.1968616173047002 0.1091929637844503 0 -0.19179122760273851 0.12568963289235899 0 -0.18453087020250189 0.1146743350100347 0 -0.1968616173047002 0.1091929637844503 0 -0.19179122760273851 0.12568963289235899 0 -0.20143994076044441 0.1114903524118783 0 -0.19179122760273851 0.12568963289235899 0 -0.20143994076044441 0.1114903524118783 0 -0.20307564083846449 0.12097848442179961 0 -0.19179122760273851 0.12568963289235899 0 -0.18625685408003351 0.092979457860111192 0 -0.19720707947413171 0.089971464486040029 0 -0.19041967960416881 0.10044398265293179 0 -0.19720707947413171 0.089971464486040029 0 -0.19041967960416881 0.10044398265293179 0 -0.199728633524942 0.098704876440402933 0 -0.20232415562273609 0.091858756249916823 0 -0.199728633524942 0.098704876440402933 0 -0.2062546212854651 0.094917705846924938 0 -0.19041967960416881 0.10044398265293179 0 -0.199728633524942 0.098704876440402933 0 -0.1968616173047002 0.1091929637844503 0 -0.199728633524942 0.098704876440402933 0 -0.1968616173047002 0.1091929637844503 0 -0.20756691787658951 0.1026192765113412 0 -0.1968616173047002 0.1091929637844503 0 -0.20756691787658951 0.1026192765113412 0 -0.22056006768561781 0.110521804928332 0 -0.199728633524942 0.098704876440402933 0 -0.20756691787658951 0.1026192765113412 0 -0.2062546212854651 0.094917705846924938 0 -0.21052736591602891 0.089946614451603929 0 -0.2062546212854651 0.094917705846924938 0 -0.21448683700282631 0.097568667363814171 0 -0.20756691787658951 0.1026192765113412 0 -0.2062546212854651 0.094917705846924938 0 -0.21448683700282631 0.097568667363814171 0 -0.20756691787658951 0.1026192765113412 0 -0.21448683700282631 0.097568667363814171 0 -0.22056006768561781 0.110521804928332 0 -0.1968616173047002 0.1091929637844503 0 -0.22056006768561781 0.110521804928332 0 -0.20143994076044441 0.1114903524118783 0 -0.1968616173047002 0.1091929637844503 0 -0.22056006768561781 0.110521804928332 0 -0.20143994076044441 0.1114903524118783 0 -0.21054982764217001 0.1189078012303398 0 -0.22056006768561781 0.110521804928332 0 -0.20143994076044441 0.1114903524118783 0 -0.20307564083846449 0.12097848442179961 0 -0.21054982764217001 0.1189078012303398 0 -0.20307564083846449 0.12097848442179961 0 -0.21054982764217001 0.1189078012303398 0 -0.2084940118025076 0.12861611527749639 0 -0.21054982764217001 0.1189078012303398 0 -0.2184701168491697 0.1241336786063346 0 -0.22056006768561781 0.110521804928332 0 -0.21054982764217001 0.1189078012303398 0 -0.2184701168491697 0.1241336786063346 0 -0.2084940118025076 0.12861611527749639 0 -0.22056006768561781 0.110521804928332 0 -0.24425851806653551 0.11185064607221309 0 -0.22056006768561781 0.110521804928332 0 -0.235476962564101 0.11964992461681111 0 -0.24425851806653551 0.11185064607221309 0 -0.2184701168491697 0.1241336786063346 0 -0.22056006768561781 0.110521804928332 0 -0.22924595259351099 0.12557764990536299 0 -0.22056006768561781 0.110521804928332 0 -0.235476962564101 0.11964992461681111 0 -0.22924595259351099 0.12557764990536299 0 -0.21448683700282631 0.097568667363814171 0 -0.22056006768561781 0.110521804928332 0 -0.22477566856485881 0.094682954350121681 0 -0.22056006768561781 0.110521804928332 0 -0.23809610195700581 0.10053292682511029 0 -0.24425851806653551 0.11185064607221309 0 -0.22056006768561781 0.110521804928332 0 -0.22477566856485881 0.094682954350121681 0 -0.23809610195700581 0.10053292682511029 0 -0.21712606035029941 0.089521926228594589 0 -0.21448683700282631 0.097568667363814171 0 -0.22477566856485881 0.094682954350121681 0 -0.2426331850115406 0.084166491084906203 0 -0.23809610195700581 0.10053292682511029 0 -0.24425851806653551 0.11185064607221309 0 -0.25137304204088817 0.097543164279175837 0 -0.2426331850115406 0.084166491084906203 0 -0.24425851806653551 0.11185064607221309 0 -0.2426331850115406 0.084166491084906203 0 -0.24425851806653551 0.11185064607221309 0 -0.235476962564101 0.11964992461681111 0 -0.24425851806653551 0.11185064607221309 0 -0.24483674294246621 0.1216994995323533 0 -0.235476962564101 0.11964992461681111 0 -0.2386936936668671 0.12696734221554851 0 -0.22924595259351099 0.12557764990536299 0 -0.235476962564101 0.11964992461681111 0 -0.24483674294246621 0.1216994995323533 0 -0.2386936936668671 0.12696734221554851 0 -0.24425851806653551 0.11185064607221309 0 -0.24483674294246621 0.1216994995323533 0 -0.25758604856539569 0.1224615844922433 0 -0.24425851806653551 0.11185064607221309 0 -0.24483674294246621 0.1216994995323533 0 -0.25758604856539569 0.1224615844922433 0 -0.24483674294246621 0.1216994995323533 0 -0.24733998135737481 0.13168932854804891 0 -0.24483674294246621 0.1216994995323533 0 -0.24733998135737481 0.13168932854804891 0 -0.2386936936668671 0.12696734221554851 0 -0.24733998135737481 0.13168932854804891 0 -0.23656882887688249 0.13622030847516631 0 -0.2485809116905601 0.14536290446679931 0 -0.24733998135737481 0.13168932854804891 0 -0.23656882887688249 0.13622030847516631 0 -0.2386936936668671 0.12696734221554851 0 -0.23656882887688249 0.13622030847516631 0 -0.2386936936668671 0.12696734221554851 0 -0.22924595259351099 0.12557764990536299 0 -0.23656882887688249 0.13622030847516631 0 -0.22211644840524741 0.13846042552233251 0 -0.2327935734557677 0.1464898259681818 0 -0.23656882887688249 0.13622030847516631 0 -0.22924595259351099 0.12557764990536299 0 -0.22211644840524741 0.13846042552233251 0 -0.2184701168491697 0.1241336786063346 0 -0.22924595259351099 0.12557764990536299 0 -0.22211644840524741 0.13846042552233251 0 -0.22211644840524741 0.13846042552233251 0 -0.22538261959826469 0.15535802987809971 0 -0.21182672724338769 0.15000439031730969 0 -0.22211644840524741 0.13846042552233251 0 -0.22538261959826469 0.15535802987809971 0 -0.2327935734557677 0.1464898259681818 0 -0.22538261959826469 0.15535802987809971 0 -0.2327935734557677 0.1464898259681818 0 -0.23931232084305321 0.15517027576285269 0 -0.23656882887688249 0.13622030847516631 0 -0.2327935734557677 0.1464898259681818 0 -0.2485809116905601 0.14536290446679931 0 -0.25583202194005211 0.16272312140101861 0 -0.23931232084305321 0.15517027576285269 0 -0.2485809116905601 0.14536290446679931 0 -0.2327935734557677 0.1464898259681818 0 -0.23931232084305321 0.15517027576285269 0 -0.2485809116905601 0.14536290446679931 0 -0.25583202194005211 0.16272312140101861 0 -0.23931232084305321 0.15517027576285269 0 -0.24437850964281049 0.1659319250808784 0 -0.25583202194005211 0.16272312140101861 0 -0.24437850964281049 0.1659319250808784 0 -0.2456408271660202 0.17775926288232599 0 -0.24437850964281049 0.1659319250808784 0 -0.23488951363733049 0.16446232164353061 0 -0.2456408271660202 0.17775926288232599 0 -0.23931232084305321 0.15517027576285269 0 -0.24437850964281049 0.1659319250808784 0 -0.23488951363733049 0.16446232164353061 0 -0.25807141725645449 0.17581784983931059 0 -0.24400213850387781 0.18730996769458949 0 -0.2456408271660202 0.17775926288232599 0 -0.24400213850387781 0.18730996769458949 0 -0.2456408271660202 0.17775926288232599 0 -0.23835501005378751 0.18391882184653 0 -0.2456408271660202 0.17775926288232599 0 -0.23835501005378751 0.18391882184653 0 -0.23006306325237291 0.180002398523675 0 -0.24400213850387781 0.18730996769458949 0 -0.23835501005378751 0.18391882184653 0 -0.23371401129287919 0.19060365828552969 0 -0.2456408271660202 0.17775926288232599 0 -0.23006306325237291 0.180002398523675 0 -0.21973329093650371 0.16809211461349641 0 -0.2456408271660202 0.17775926288232599 0 -0.21973329093650371 0.16809211461349641 0 -0.23835501005378751 0.18391882184653 0 -0.23006306325237291 0.180002398523675 0 -0.23371401129287919 0.19060365828552969 0 -0.23006306325237291 0.180002398523675 0 -0.22563080431378349 0.1872525330164467 0 -0.23371401129287919 0.19060365828552969 0 -0.23006306325237291 0.180002398523675 0 -0.22162768547469991 0.17955575894288359 0 -0.21973329093650371 0.16809211461349641 0 -0.23006306325237291 0.180002398523675 0 -0.22162768547469991 0.17955575894288359 0 -0.22563080431378349 0.1872525330164467 0 -0.22162768547469991 0.17955575894288359 0 -0.22563080431378349 0.1872525330164467 0 -0.21511946939134649 0.18494075741823771 0 -0.22538261959826469 0.15535802987809971 0 -0.21973329093650371 0.16809211461349641 0 -0.21182672724338769 0.15000439031730969 0 -0.23488951363733049 0.16446232164353061 0 -0.2456408271660202 0.17775926288232599 0 -0.21973329093650371 0.16809211461349641 0 -0.22538261959826469 0.15535802987809971 0 -0.23931232084305321 0.15517027576285269 0 -0.23488951363733049 0.16446232164353061 0 -0.22538261959826469 0.15535802987809971 0 -0.23488951363733049 0.16446232164353061 0 -0.21973329093650371 0.16809211461349641 0 -0.21973329093650371 0.16809211461349641 0 -0.19382575470698721 0.15842496634466671 0 -0.21973329093650371 0.16809211461349641 0 -0.19382575470698721 0.15842496634466671 0 -0.21182672724338769 0.15000439031730969 0 -0.21973329093650371 0.16809211461349641 0 -0.2053488122085082 0.1767068812464001 0 -0.19382575470698721 0.15842496634466671 0 -0.22162768547469991 0.17955575894288359 0 -0.21973329093650371 0.16809211461349641 0 -0.2053488122085082 0.1767068812464001 0 -0.2053488122085082 0.1767068812464001 0 -0.21687186971002911 0.19498879614813361 0 -0.2053488122085082 0.1767068812464001 0 -0.21687186971002911 0.19498879614813361 0 -0.2026695015015649 0.19044112587146211 0 -0.22162768547469991 0.17955575894288359 0 -0.21511946939134649 0.18494075741823771 0 -0.2053488122085082 0.1767068812464001 0 -0.21511946939134649 0.18494075741823771 0 -0.2053488122085082 0.1767068812464001 0 -0.21687186971002911 0.19498879614813361 0 -0.19112273128160839 0.17880215350720069 0 -0.2026695015015649 0.19044112587146211 0 -0.18355075381373889 0.1910265840302007 0 -0.2053488122085082 0.1767068812464001 0 -0.19112273128160839 0.17880215350720069 0 -0.2026695015015649 0.19044112587146211 0 -0.2053488122085082 0.1767068812464001 0 -0.19382575470698721 0.15842496634466671 0 -0.19112273128160839 0.17880215350720069 0 -0.19382575470698721 0.15842496634466671 0 -0.17870027545310779 0.17155963077168029 0 -0.2053488122085082 0.1767068812464001 0 -0.19112273128160839 0.17880215350720069 0 -0.19382575470698721 0.15842496634466671 0 -0.19382575470698721 0.15842496634466671 0 -0.19939115109419059 0.14103489655841761 0 -0.21182672724338769 0.15000439031730969 0 -0.19382575470698721 0.15842496634466671 0 -0.19939115109419059 0.14103489655841761 0 -0.18214251444503071 0.13988891337283829 0 -0.19382575470698721 0.15842496634466671 0 -0.18214251444503071 0.13988891337283829 0 -0.20307564083846449 0.12097848442179961 0 -0.19179122760273851 0.12568963289235899 0 -0.2084940118025076 0.12861611527749639 0 -0.19939115109419059 0.14103489655841761 0 -0.19179122760273851 0.12568963289235899 0 -0.18214251444503071 0.13988891337283829 0 -0.19939115109419059 0.14103489655841761 0 -0.19179122760273851 0.12568963289235899 0 -0.2084940118025076 0.12861611527749639 0 -0.19939115109419059 0.14103489655841761 0 -0.21045708463633331 0.139528956918889 0 -0.2084940118025076 0.12861611527749639 0 -0.2184701168491697 0.1241336786063346 0 -0.22211644840524741 0.13846042552233251 0 -0.2084940118025076 0.12861611527749639 0 -0.22211644840524741 0.13846042552233251 0 -0.21045708463633331 0.139528956918889 0 -0.2084940118025076 0.12861611527749639 0 -0.22211644840524741 0.13846042552233251 0 -0.21045708463633331 0.139528956918889 0 -0.21182672724338769 0.15000439031730969 0 -0.19939115109419059 0.14103489655841761 0 -0.21045708463633331 0.139528956918889 0 -0.21182672724338769 0.15000439031730969 0 -0.22466911609962989 0.24550686494050919 0 -0.24303949471739039 0.24984414833669519 0 -0.2230721081070548 0.23372401597706521 0 -0.22466911609962989 0.24550686494050919 0 -0.2230721081070548 0.23372401597706521 0 -0.20935512371908471 0.24158282127116221 0 -0.25265043769016471 0.23359876089924761 0 -0.24303949471739039 0.24984414833669519 0 -0.2230721081070548 0.23372401597706521 0 -0.25265043769016471 0.23359876089924761 0 -0.2401401149238922 0.21737942640557739 0 -0.25265043769016471 0.23359876089924761 0 -0.2230721081070548 0.23372401597706521 0 -0.2401401149238922 0.21737942640557739 0 -0.25265043769016471 0.23359876089924761 0 -0.2230721081070548 0.23372401597706521 0 -0.2230721081070548 0.23372401597706521 0 -0.2242340124914273 0.21789339176407771 0 -0.21564182248452879 0.2225787200574024 0 -0.2230721081070548 0.23372401597706521 0 -0.2242340124914273 0.21789339176407771 0 -0.2401401149238922 0.21737942640557739 0 -0.2401401149238922 0.21737942640557739 0 -0.2276297921576193 0.20116009191190759 0 -0.2242340124914273 0.21789339176407771 0 -0.2401401149238922 0.21737942640557739 0 -0.2276297921576193 0.20116009191190759 0 -0.2242340124914273 0.21789339176407771 0 -0.2276297921576193 0.20116009191190759 0 -0.21756261154050771 0.20578666055328881 0 -0.2401401149238922 0.21737942640557739 0 -0.24407024978909991 0.20123590940552491 0 -0.2276297921576193 0.20116009191190759 0 -0.26450064867354722 0.21152402916736249 0 -0.2401401149238922 0.21737942640557739 0 -0.24407024978909991 0.20123590940552491 0 -0.24407024978909991 0.20123590940552491 0 -0.23371401129287919 0.19060365828552969 0 -0.2276297921576193 0.20116009191190759 0 -0.25817414407619821 0.1960961783838632 0 -0.24400213850387781 0.18730996769458949 0 -0.24407024978909991 0.20123590940552491 0 -0.24400213850387781 0.18730996769458949 0 -0.24407024978909991 0.20123590940552491 0 -0.23371401129287919 0.19060365828552969 0 -0.22563080431378349 0.1872525330164467 0 -0.23371401129287919 0.19060365828552969 0 -0.2276297921576193 0.20116009191190759 0 -0.22563080431378349 0.1872525330164467 0 -0.21511946939134649 0.18494075741823771 0 -0.2276297921576193 0.20116009191190759 0 -0.21511946939134649 0.18494075741823771 0 -0.2276297921576193 0.20116009191190759 0 -0.21511946939134649 0.18494075741823771 0 -0.2276297921576193 0.20116009191190759 0 -0.21687186971002911 0.19498879614813361 0 -0.2276297921576193 0.20116009191190759 0 -0.21687186971002911 0.19498879614813361 0 -0.21756261154050771 0.20578666055328881 0 -0.21687186971002911 0.19498879614813361 0 -0.20905830773064141 0.20166008731788551 0 -0.21756261154050771 0.20578666055328881 0 -0.20905830773064141 0.20166008731788551 0 -0.2026695015015649 0.19044112587146211 0 -0.1981750407297854 0.2033088407331804 0 -0.21687186971002911 0.19498879614813361 0 -0.20905830773064141 0.20166008731788551 0 -0.2026695015015649 0.19044112587146211 0 -0.2026695015015649 0.19044112587146211 0 -0.1981750407297854 0.2033088407331804 0 -0.18355075381373889 0.1910265840302007 0 -0.1981750407297854 0.2033088407331804 0 -0.19607246642401541 0.217783603617907 0 -0.1800341217853669 0.2144271847153667 0 -0.1981750407297854 0.2033088407331804 0 -0.19607246642401541 0.217783603617907 0 -0.21001251517131991 0.21377501328336251 0 -0.20905830773064141 0.20166008731788551 0 -0.1981750407297854 0.2033088407331804 0 -0.21001251517131991 0.21377501328336251 0 -0.20905830773064141 0.20166008731788551 0 -0.21001251517131991 0.21377501328336251 0 -0.21756261154050771 0.20578666055328881 0 -0.2242340124914273 0.21789339176407771 0 -0.21001251517131991 0.21377501328336251 0 -0.21756261154050771 0.20578666055328881 0 -0.2242340124914273 0.21789339176407771 0 -0.21001251517131991 0.21377501328336251 0 -0.21564182248452879 0.2225787200574024 0 -0.2230721081070548 0.23372401597706521 0 -0.19349377852394481 0.23384927105488251 0 -0.2230721081070548 0.23372401597706521 0 -0.20612689176811641 0.22471096707428051 0 -0.19349377852394481 0.23384927105488251 0 -0.2230721081070548 0.23372401597706521 0 -0.21564182248452879 0.2225787200574024 0 -0.20612689176811641 0.22471096707428051 0 -0.19607246642401541 0.217783603617907 0 -0.21001251517131991 0.21377501328336251 0 -0.20612689176811641 0.22471096707428051 0 -0.21001251517131991 0.21377501328336251 0 -0.21564182248452879 0.2225787200574024 0 -0.20612689176811641 0.22471096707428051 0 -0.19607246642401541 0.217783603617907 0 -0.20612689176811641 0.22471096707428051 0 -0.19349377852394481 0.23384927105488251 0 -0.19607246642401541 0.217783603617907 0 -0.19349377852394481 0.23384927105488251 0 -0.1800341217853669 0.2144271847153667 0 -0.19804239821156511 0.25262540805786471 0 -0.19349377852394481 0.23384927105488251 0 -0.18214963374940371 0.24653648307999401 0 -0.19804239821156511 0.25262540805786471 0 -0.19349377852394481 0.23384927105488251 0 -0.20935512371908471 0.24158282127116221 0 -0.19804239821156511 0.25262540805786471 0 -0.22466911609962989 0.24550686494050919 0 -0.20935512371908471 0.24158282127116221 0 -0.2230721081070548 0.23372401597706521 0 -0.19349377852394481 0.23384927105488251 0 -0.20935512371908471 0.24158282127116221 0 -0.19804239821156511 0.25262540805786471 0 -0.22466911609962989 0.24550686494050919 0 -0.17141568032350021 0.25974395117522031 0 -0.1639154489408349 0.23397452613269909 0 -0.17141568032350021 0.25974395117522031 0 -0.15858505275986559 0.2479117929603237 0 -0.1639154489408349 0.23397452613269909 0 -0.15858505275986559 0.2479117929603237 0 -0.1639154489408349 0.23397452613269909 0 -0.1558968761499773 0.23400848230849 0 -0.17141568032350021 0.25974395117522031 0 -0.18214963374940371 0.24653648307999401 0 -0.1639154489408349 0.23397452613269909 0 -0.19349377852394481 0.23384927105488251 0 -0.18214963374940371 0.24653648307999401 0 -0.1639154489408349 0.23397452613269909 0 -0.19349377852394481 0.23384927105488251 0 -0.1639154489408349 0.23397452613269909 0 -0.19349377852394481 0.23384927105488251 0 -0.1639154489408349 0.23397452613269909 0 -0.1800341217853669 0.2144271847153667 0 -0.1639154489408349 0.23397452613269909 0 -0.15706236478274191 0.21042858074620921 0 -0.15087075643189679 0.22194130105386259 0 -0.1639154489408349 0.23397452613269909 0 -0.15706236478274191 0.21042858074620921 0 -0.1800341217853669 0.2144271847153667 0 -0.1639154489408349 0.23397452613269909 0 -0.15706236478274191 0.21042858074620921 0 -0.1639154489408349 0.23397452613269909 0 -0.15087075643189679 0.22194130105386259 0 -0.1558968761499773 0.23400848230849 0 -0.1639154489408349 0.23397452613269909 0 -0.1558968761499773 0.23400848230849 0 -0.15706236478274191 0.21042858074620921 0 -0.1800341217853669 0.2144271847153667 0 -0.1691139774526082 0.19900354434074871 0 -0.1800341217853669 0.2144271847153667 0 -0.18355075381373889 0.1910265840302007 0 -0.1691139774526082 0.19900354434074871 0 -0.1981750407297854 0.2033088407331804 0 -0.1800341217853669 0.2144271847153667 0 -0.18355075381373889 0.1910265840302007 0 -0.18355075381373889 0.1910265840302007 0 -0.1691139774526082 0.19900354434074871 0 -0.16896046928117431 0.18393843925433759 0 -0.15706236478274191 0.21042858074620921 0 -0.1691139774526082 0.19900354434074871 0 -0.15020928062464831 0.18688263535971961 0 -0.1691139774526082 0.19900354434074871 0 -0.16896046928117431 0.18393843925433759 0 -0.15020928062464831 0.18688263535971961 0 -0.15706236478274191 0.21042858074620921 0 -0.15020928062464831 0.18688263535971961 0 -0.15706236478274191 0.21042858074620921 0 -0.14121427233482661 0.2001199078896273 0 -0.15020928062464831 0.18688263535971961 0 -0.14121427233482661 0.2001199078896273 0 -0.15020928062464831 0.18688263535971961 0 -0.13007771146434929 0.2009053810322774 0 -0.13156713193320119 0.18307322869515061 0 -0.12141263297470629 0.1925800558127724 0 -0.14121427233482661 0.2001199078896273 0 -0.13007771146434929 0.2009053810322774 0 -0.13156713193320119 0.18307322869515061 0 -0.14121427233482661 0.2001199078896273 0 -0.1326888884617079 0.2126660697289906 0 -0.14121427233482661 0.2001199078896273 0 -0.1326888884617079 0.2126660697289906 0 -0.13790078814911361 0.22357184255781359 0 -0.14121427233482661 0.2001199078896273 0 -0.13007771146434929 0.2009053810322774 0 -0.1326888884617079 0.2126660697289906 0 -0.14121427233482661 0.2001199078896273 0 -0.13790078814911361 0.22357184255781359 0 -0.13007771146434929 0.2009053810322774 0 -0.1326888884617079 0.2126660697289906 0 -0.123505631617304 0.21608764303484571 0 -0.1326888884617079 0.2126660697289906 0 -0.1241635045885895 0.2252122315683541 0 -0.123505631617304 0.21608764303484571 0 -0.15706236478274191 0.21042858074620921 0 -0.14121427233482661 0.2001199078896273 0 -0.15087075643189679 0.22194130105386259 0 -0.14121427233482661 0.2001199078896273 0 -0.15087075643189679 0.22194130105386259 0 -0.13790078814911361 0.22357184255781359 0 -0.15087075643189679 0.22194130105386259 0 -0.1558968761499773 0.23400848230849 0 -0.14536761245496499 0.2341786307245147 0 -0.15087075643189679 0.22194130105386259 0 -0.14536761245496499 0.2341786307245147 0 -0.13790078814911361 0.22357184255781359 0 -0.13790078814911361 0.22357184255781359 0 -0.1277328676287133 0.2323381998276651 0 -0.13458730396339999 0.2470237772259998 0 -0.1326888884617079 0.2126660697289906 0 -0.13790078814911361 0.22357184255781359 0 -0.1241635045885895 0.2252122315683541 0 -0.1326888884617079 0.2126660697289906 0 -0.1241635045885895 0.2252122315683541 0 -0.13790078814911361 0.22357184255781359 0 -0.1277328676287133 0.2323381998276651 0 -0.1241635045885895 0.2252122315683541 0 -0.1251341999189905 0.25257502841664309 0 -0.1277328676287133 0.2323381998276651 0 -0.13458730396339999 0.2470237772259998 0 -0.1251341999189905 0.25257502841664309 0 -0.1277328676287133 0.2323381998276651 0 -0.13790078814911361 0.22357184255781359 0 -0.13458730396339999 0.2470237772259998 0 -0.14536761245496499 0.2341786307245147 0 -0.13790078814911361 0.22357184255781359 0 -0.13458730396339999 0.2470237772259998 0 -0.14536761245496499 0.2341786307245147 0 -0.13458730396339999 0.2470237772259998 0 -0.14758233758043759 0.24434775047640719 0 -0.15858505275986559 0.2479117929603237 0 -0.1558968761499773 0.23400848230849 0 -0.14758233758043759 0.24434775047640719 0 -0.1558968761499773 0.23400848230849 0 -0.14536761245496499 0.2341786307245147 0 -0.14758233758043759 0.24434775047640719 0 -0.1714883799834041 0.15008998954578229 0 -0.15983610703877069 0.14432050457228229 0 -0.1693260956250652 0.13393721356214791 0 -0.1714883799834041 0.15008998954578229 0 -0.1693260956250652 0.13393721356214791 0 -0.17445775965711921 0.15119798504631549 0 -0.1714883799834041 0.15008998954578229 0 -0.17445775965711921 0.15119798504631549 0 -0.16017751364633481 0.15637293928939791 0 -0.1714883799834041 0.15008998954578229 0 -0.15983610703877069 0.14432050457228229 0 -0.16017751364633481 0.15637293928939791 0 -0.16511048897005881 0.1170182600883123 0 -0.15062975546852381 0.13347969385966679 0 -0.15983610703877069 0.14432050457228229 0 -0.1693260956250652 0.13393721356214791 0 -0.15062975546852381 0.13347969385966679 0 -0.16511048897005881 0.1170182600883123 0 -0.1693260956250652 0.13393721356214791 0 -0.15062975546852381 0.13347969385966679 0 -0.16511048897005881 0.1170182600883123 0 -0.1693260956250652 0.13393721356214791 0 -0.1666349148901001 0.1152853205021144 0 -0.1693260956250652 0.13393721356214791 0 -0.18214251444503071 0.13988891337283829 0 -0.1666349148901001 0.1152853205021144 0 -0.18214251444503071 0.13988891337283829 0 -0.17965253881283061 0.1206804648835826 0 -0.1666349148901001 0.1152853205021144 0 -0.18214251444503071 0.13988891337283829 0 -0.17965253881283061 0.1206804648835826 0 -0.19179122760273851 0.12568963289235899 0 -0.18214251444503071 0.13988891337283829 0 -0.19179122760273851 0.12568963289235899 0 -0.18214251444503071 0.13988891337283829 0 -0.1693260956250652 0.13393721356214791 0 -0.17445775965711921 0.15119798504631549 0 -0.1693260956250652 0.13393721356214791 0 -0.18214251444503071 0.13988891337283829 0 -0.17445775965711921 0.15119798504631549 0 -0.19382575470698721 0.15842496634466671 0 -0.18214251444503071 0.13988891337283829 0 -0.17445775965711921 0.15119798504631549 0 -0.19382575470698721 0.15842496634466671 0 -0.17445775965711921 0.15119798504631549 0 -0.18214251444503071 0.13988891337283829 0 -0.17445775965711921 0.15119798504631549 0 -0.1714883799834041 0.15008998954578229 0 -0.17445775965711921 0.15119798504631549 0 -0.17445775965711921 0.15119798504631549 0 -0.17870027545310779 0.17155963077168029 0 -0.19382575470698721 0.15842496634466671 0 -0.17445775965711921 0.15119798504631549 0 -0.17870027545310779 0.17155963077168029 0 -0.18355075381373889 0.1910265840302007 0 -0.17870027545310779 0.17155963077168029 0 -0.19112273128160839 0.17880215350720069 0 -0.18355075381373889 0.1910265840302007 0 -0.17870027545310779 0.17155963077168029 0 -0.18355075381373889 0.1910265840302007 0 -0.17870027545310779 0.17155963077168029 0 -0.16896046928117431 0.18393843925433759 0 -0.17870027545310779 0.17155963077168029 0 -0.16896046928117431 0.18393843925433759 0 -0.16202953885856461 0.16948765643644029 0 -0.16896046928117431 0.18393843925433759 0 -0.16202953885856461 0.16948765643644029 0 -0.15020928062464831 0.18688263535971961 0 -0.17445775965711921 0.15119798504631549 0 -0.16202953885856461 0.16948765643644029 0 -0.17445775965711921 0.15119798504631549 0 -0.17870027545310779 0.17155963077168029 0 -0.16202953885856461 0.16948765643644029 0 -0.17445775965711921 0.15119798504631549 0 -0.16202953885856461 0.16948765643644029 0 -0.16017751364633481 0.15637293928939791 0 -0.16202953885856461 0.16948765643644029 0 -0.16017751364633481 0.15637293928939791 0 -0.1454129021082915 0.17040315488147759 0 -0.16017751364633481 0.15637293928939791 0 -0.1454129021082915 0.17040315488147759 0 -0.1480213287884086 0.15194142437057229 0 -0.1454129021082915 0.17040315488147759 0 -0.14012714132563189 0.1522422463265399 0 -0.1480213287884086 0.15194142437057229 0 -0.1454129021082915 0.17040315488147759 0 -0.1480213287884086 0.15194142437057229 0 -0.1454129021082915 0.17040315488147759 0 -0.14012714132563189 0.1522422463265399 0 -0.16202953885856461 0.16948765643644029 0 -0.15020928062464831 0.18688263535971961 0 -0.16202953885856461 0.16948765643644029 0 -0.1454129021082915 0.17040315488147759 0 -0.15020928062464831 0.18688263535971961 0 -0.14121427233482661 0.2001199078896273 0 -0.1454129021082915 0.17040315488147759 0 -0.15020928062464831 0.18688263535971961 0 -0.1454129021082915 0.17040315488147759 0 -0.15020928062464831 0.18688263535971961 0 -0.14121427233482661 0.2001199078896273 0 -0.1454129021082915 0.17040315488147759 0 -0.14121427233482661 0.2001199078896273 0 -0.1454129021082915 0.17040315488147759 0 -0.13156713193320119 0.18307322869515061 0 -0.13156713193320119 0.18307322869515061 0 -0.1342803009199097 0.16521343594381019 0 -0.11931963433210629 0.16907246859069949 0 -0.1454129021082915 0.17040315488147759 0 -0.13156713193320119 0.18307322869515061 0 -0.1342803009199097 0.16521343594381019 0 -0.1349746949003148 0.15127608122518291 0 -0.11931963433210629 0.16907246859069949 0 -0.1454129021082915 0.17040315488147759 0 -0.1342803009199097 0.16521343594381019 0 -0.14012714132563189 0.1522422463265399 0 -0.1342803009199097 0.16521343594381019 0 -0.1349746949003148 0.15127608122518291 0 -0.11931963433210629 0.16907246859069949 0 -0.12689050565036661 0.14523812226025121 0 -0.1349746949003148 0.15127608122518291 0 -0.1361204803089768 0.1338659109274101 0 -0.12689050565036661 0.14523812226025121 0 -0.1349746949003148 0.15127608122518291 0 -0.11931963433210629 0.16907246859069949 0 -0.1342803009199097 0.16521343594381019 0 -0.1349746949003148 0.15127608122518291 0 -0.14012714132563189 0.1522422463265399 0 -0.1480213287884086 0.15194142437057229 0 -0.15062975546852381 0.13347969385966679 0 -0.1349746949003148 0.15127608122518291 0 -0.15062975546852381 0.13347969385966679 0 -0.1349746949003148 0.15127608122518291 0 -0.14012714132563189 0.1522422463265399 0 -0.15062975546852381 0.13347969385966679 0 -0.15983610703877069 0.14432050457228229 0 -0.1480213287884086 0.15194142437057229 0 -0.15062975546852381 0.13347969385966679 0 -0.14012714132563189 0.1522422463265399 0 -0.1480213287884086 0.15194142437057229 0 -0.15062975546852381 0.13347969385966679 0 -0.15983610703877069 0.14432050457228229 0 -0.16017751364633481 0.15637293928939791 0 -0.1480213287884086 0.15194142437057229 0 -0.14261918336947649 0.11929924207365671 0 -0.15062975546852381 0.13347969385966679 0 -0.1361204803089768 0.1338659109274101 0 -0.1349746949003148 0.15127608122518291 0 -0.15062975546852381 0.13347969385966679 0 -0.1361204803089768 0.1338659109274101 0 -0.14261918336947649 0.11929924207365671 0 -0.1311996888450476 0.1220864639654108 0 -0.1361204803089768 0.1338659109274101 0 -0.12689050565036661 0.14523812226025121 0 -0.1361204803089768 0.1338659109274101 0 -0.1267590226545332 0.1321165547581335 0 -0.1311996888450476 0.1220864639654108 0 -0.1361204803089768 0.1338659109274101 0 -0.1267590226545332 0.1321165547581335 0 -0.1267590226545332 0.1321165547581335 0 -0.11664807644199431 0.1390667730099652 0 -0.1139765185518801 0.10906107742923089 0 -0.11664807644199431 0.1390667730099652 0 -0.1032521578259257 0.13135303515958641 0 -0.1139765185518801 0.10906107742923089 0 -0.12689050565036661 0.14523812226025121 0 -0.1267590226545332 0.1321165547581335 0 -0.11664807644199431 0.1390667730099652 0 -0.11664807644199431 0.1390667730099652 0 -0.1032521578259257 0.13135303515958641 0 -0.10160870449560459 0.148303289572042 0 -0.1032521578259257 0.13135303515958641 0 -0.10160870449560459 0.148303289572042 0 -0.089057602559983504 0.1372219549631512 0 -0.1032521578259257 0.13135303515958641 0 -0.089057602559983504 0.1372219549631512 0 -0.094969887080165696 0.12311208082354259 0 -0.10160870449560459 0.148303289572042 0 -0.094390601898172846 0.16266701773275011 0 -0.087117836048921884 0.1507245295451137 0 -0.11664807644199431 0.1390667730099652 0 -0.11931963433210629 0.16907246859069949 0 -0.11664807644199431 0.1390667730099652 0 -0.10160870449560459 0.148303289572042 0 -0.11931963433210629 0.16907246859069949 0 -0.12689050565036661 0.14523812226025121 0 -0.11664807644199431 0.1390667730099652 0 -0.11931963433210629 0.16907246859069949 0 -0.13156713193320119 0.18307322869515061 0 -0.11931963433210629 0.16907246859069949 0 -0.12141263297470629 0.1925800558127724 0 -0.11931963433210629 0.16907246859069949 0 -0.12141263297470629 0.1925800558127724 0 -0.11931963433210629 0.16907246859069949 0 -0.1033618804084534 0.1872129522427117 0 -0.12141263297470629 0.1925800558127724 0 -0.11931963433210629 0.16907246859069949 0 -0.1033618804084534 0.1872129522427117 0 -0.1033618804084534 0.1872129522427117 0 -0.094198921030666558 0.17614239012514549 0 -0.084026034551027182 0.18629273745074151 0 -0.11931963433210629 0.16907246859069949 0 -0.1033618804084534 0.1872129522427117 0 -0.094198921030666558 0.17614239012514549 0 -0.10160870449560459 0.148303289572042 0 -0.11931963433210629 0.16907246859069949 0 -0.094390601898172846 0.16266701773275011 0 -0.11931963433210629 0.16907246859069949 0 -0.094198921030666558 0.17614239012514549 0 -0.094390601898172846 0.16266701773275011 0 -0.094198921030666558 0.17614239012514549 0 -0.094390601898172846 0.16266701773275011 0 -0.067672328448357105 0.17211959628773549 0 -0.094390601898172846 0.16266701773275011 0 -0.067672328448357105 0.17211959628773549 0 -0.087117836048921884 0.1507245295451137 0 -0.094198921030666558 0.17614239012514549 0 -0.084026034551027182 0.18629273745074151 0 -0.067672328448357105 0.17211959628773549 0 -0.067672328448357105 0.17211959628773549 0 -0.061644960869024427 0.1959714358789339 0 -0.084026034551027182 0.18629273745074151 0 -0.067672328448357105 0.17211959628773549 0 -0.073054113704831572 0.19031740380262921 0 -0.067672328448357105 0.17211959628773549 0 -0.073054113704831572 0.19031740380262921 0 -0.061644960869024427 0.1959714358789339 0 -0.067672328448357105 0.17211959628773549 0 -0.073699696027689776 0.14826775669653719 0 -0.087117836048921884 0.1507245295451137 0 -0.067672328448357105 0.17211959628773549 0 -0.073699696027689776 0.14826775669653719 0 -0.05171812847957255 0.15416973076690171 0 -0.067672328448357105 0.17211959628773549 0 -0.073699696027689776 0.14826775669653719 0 -0.073699696027689776 0.14826775669653719 0 -0.06736378797752865 0.13397919201898301 0 -0.05171812847957255 0.15416973076690171 0 -0.073699696027689776 0.14826775669653719 0 -0.06736378797752865 0.13397919201898301 0 -0.079727063607020962 0.12441591710533841 0 -0.06736378797752865 0.13397919201898301 0 -0.062988790347779683 0.12095254029689891 0 -0.079727063607020962 0.12441591710533841 0 -0.073699696027689776 0.14826775669653719 0 -0.079727063607020962 0.12441591710533841 0 -0.073699696027689776 0.14826775669653719 0 -0.089057602559983504 0.1372219549631512 0 -0.079727063607020962 0.12441591710533841 0 -0.089057602559983504 0.1372219549631512 0 -0.079727063607020962 0.12441591710533841 0 -0.089057602559983504 0.1372219549631512 0 -0.079727063607020962 0.12441591710533841 0 -0.094969887080165696 0.12311208082354259 0 -0.10160870449560459 0.148303289572042 0 -0.089057602559983504 0.1372219549631512 0 -0.087117836048921884 0.1507245295451137 0 -0.073699696027689776 0.14826775669653719 0 -0.089057602559983504 0.1372219549631512 0 -0.087117836048921884 0.1507245295451137 0 -0.096082049810435402 0.25232672978576598 0 -0.1018022849884028 0.2379811186145924 0 -0.1118400588642967 0.2486880749531889 0 -0.096082049810435402 0.25232672978576598 0 -0.1018022849884028 0.2379811186145924 0 -0.084806112882514717 0.2396126211887713 0 -0.1018022849884028 0.2379811186145924 0 -0.1118400588642967 0.2486880749531889 0 -0.11376815381927501 0.23330090671902351 0 -0.1251341999189905 0.25257502841664309 0 -0.1277328676287133 0.2323381998276651 0 -0.1199525448872039 0.2396023937389983 0 -0.1251341999189905 0.25257502841664309 0 -0.1118400588642967 0.2486880749531889 0 -0.1199525448872039 0.2396023937389983 0 -0.1199525448872039 0.2396023937389983 0 -0.11376815381927501 0.23330090671902351 0 -0.1207402352641988 0.23078430582608561 0 -0.1118400588642967 0.2486880749531889 0 -0.1199525448872039 0.2396023937389983 0 -0.11376815381927501 0.23330090671902351 0 -0.11376815381927501 0.23330090671902351 0 -0.1207402352641988 0.23078430582608561 0 -0.1169896875161215 0.22281689137161631 0 -0.1277328676287133 0.2323381998276651 0 -0.1199525448872039 0.2396023937389983 0 -0.1207402352641988 0.23078430582608561 0 -0.1277328676287133 0.2323381998276651 0 -0.1207402352641988 0.23078430582608561 0 -0.1241635045885895 0.2252122315683541 0 -0.1207402352641988 0.23078430582608561 0 -0.1241635045885895 0.2252122315683541 0 -0.1169896875161215 0.22281689137161631 0 -0.1241635045885895 0.2252122315683541 0 -0.1169896875161215 0.22281689137161631 0 -0.123505631617304 0.21608764303484571 0 -0.11376815381927501 0.23330090671902351 0 -0.1169896875161215 0.22281689137161631 0 -0.1064793103113716 0.22252089381908161 0 -0.1018022849884028 0.2379811186145924 0 -0.11376815381927501 0.23330090671902351 0 -0.1064793103113716 0.22252089381908161 0 -0.1018022849884028 0.2379811186145924 0 -0.1064793103113716 0.22252089381908161 0 -0.091738918550733073 0.2237502316612853 0 -0.1064793103113716 0.22252089381908161 0 -0.1001594362128084 0.21044565676959681 0 -0.091738918550733073 0.2237502316612853 0 -0.1001594362128084 0.21044565676959681 0 -0.1130574250643946 0.2108968145858556 0 -0.10979785175405581 0.20092974670722091 0 -0.1064793103113716 0.22252089381908161 0 -0.1001594362128084 0.21044565676959681 0 -0.1130574250643946 0.2108968145858556 0 -0.1169896875161215 0.22281689137161631 0 -0.1064793103113716 0.22252089381908161 0 -0.1130574250643946 0.2108968145858556 0 -0.123505631617304 0.21608764303484571 0 -0.1130574250643946 0.2108968145858556 0 -0.12141263297470629 0.1925800558127724 0 -0.13007771146434929 0.2009053810322774 0 -0.123505631617304 0.21608764303484571 0 -0.12141263297470629 0.1925800558127724 0 -0.123505631617304 0.21608764303484571 0 -0.12141263297470629 0.1925800558127724 0 -0.1169896875161215 0.22281689137161631 0 -0.123505631617304 0.21608764303484571 0 -0.1130574250643946 0.2108968145858556 0 -0.1033618804084534 0.1872129522427117 0 -0.10979785175405581 0.20092974670722091 0 -0.12141263297470629 0.1925800558127724 0 -0.1130574250643946 0.2108968145858556 0 -0.10979785175405581 0.20092974670722091 0 -0.12141263297470629 0.1925800558127724 0 -0.1033618804084534 0.1872129522427117 0 -0.1001594362128084 0.21044565676959681 0 -0.10979785175405581 0.20092974670722091 0 -0.1033618804084534 0.1872129522427117 0 -0.08740412648480167 0.2053534358947248 0 -0.1033618804084534 0.1872129522427117 0 -0.1001594362128084 0.21044565676959681 0 -0.08740412648480167 0.2053534358947248 0 -0.078852638332198091 0.19562706654610759 0 -0.070926278588131969 0.20054468903633479 0 -0.08740412648480167 0.2053534358947248 0 -0.1033618804084534 0.1872129522427117 0 -0.084026034551027182 0.18629273745074151 0 -0.08740412648480167 0.2053534358947248 0 -0.084026034551027182 0.18629273745074151 0 -0.078852638332198091 0.19562706654610759 0 -0.08740412648480167 0.2053534358947248 0 -0.084026034551027182 0.18629273745074151 0 -0.078852638332198091 0.19562706654610759 0 -0.073054113704831572 0.19031740380262921 0 -0.073054113704831572 0.19031740380262921 0 -0.070926278588131969 0.20054468903633479 0 -0.061644960869024427 0.1959714358789339 0 -0.078852638332198091 0.19562706654610759 0 -0.073054113704831572 0.19031740380262921 0 -0.070926278588131969 0.20054468903633479 0 -0.070926278588131969 0.20054468903633479 0 -0.071411303333621431 0.2120142056640921 0 -0.08740412648480167 0.2053534358947248 0 -0.070926278588131969 0.20054468903633479 0 -0.071411303333621431 0.2120142056640921 0 -0.06168239818698 0.21825371640683339 0 -0.071411303333621431 0.2120142056640921 0 -0.08740412648480167 0.2053534358947248 0 -0.071446372561149968 0.22349391954673789 0 -0.071411303333621431 0.2120142056640921 0 -0.071446372561149968 0.22349391954673789 0 -0.06168239818698 0.21825371640683339 0 -0.1001594362128084 0.21044565676959681 0 -0.08740412648480167 0.2053534358947248 0 -0.091738918550733073 0.2237502316612853 0 -0.08740412648480167 0.2053534358947248 0 -0.091738918550733073 0.2237502316612853 0 -0.071446372561149968 0.22349391954673789 0 -0.08740412648480167 0.2053534358947248 0 -0.071446372561149968 0.22349391954673789 0 -0.091738918550733073 0.2237502316612853 0 -0.071446372561149968 0.22349391954673789 0 -0.084806112882514717 0.2396126211887713 0 -0.1018022849884028 0.2379811186145924 0 -0.091738918550733073 0.2237502316612853 0 -0.084806112882514717 0.2396126211887713 0 -0.071446372561149968 0.22349391954673789 0 -0.06773463546810729 0.24358588243079821 0 -0.057747994226484717 0.23109706606950969 0 -0.071446372561149968 0.22349391954673789 0 -0.057747994226484717 0.23109706606950969 0 -0.06168239818698 0.21825371640683339 0 -0.071446372561149968 0.22349391954673789 0 -0.06773463546810729 0.24358588243079821 0 -0.084806112882514717 0.2396126211887713 0 -0.08003241591625973 0.25653784509344818 0 -0.06773463546810729 0.24358588243079821 0 -0.084806112882514717 0.2396126211887713 0 -0.096082049810435402 0.25232672978576598 0 -0.08003241591625973 0.25653784509344818 0 -0.084806112882514717 0.2396126211887713 0 -0.035776387268403917 0.2428924690283267 0 -0.043287023438520228 0.23181759817796341 0 -0.027232441991073442 0.2330437522207216 0 -0.035880571052675572 0.25578968982509698 0 -0.035776387268403917 0.2428924690283267 0 -0.024618130266652209 0.2484029175551328 0 -0.035776387268403917 0.2428924690283267 0 -0.050627159445501203 0.24714384181444229 0 -0.043287023438520228 0.23181759817796341 0 -0.035880571052675572 0.25578968982509698 0 -0.035776387268403917 0.2428924690283267 0 -0.050627159445501203 0.24714384181444229 0 -0.06773463546810729 0.24358588243079821 0 -0.050627159445501203 0.24714384181444229 0 -0.057747994226484717 0.23109706606950969 0 -0.050627159445501203 0.24714384181444229 0 -0.057747994226484717 0.23109706606950969 0 -0.043287023438520228 0.23181759817796341 0 -0.057747994226484717 0.23109706606950969 0 -0.052949194035396913 0.2244906503207087 0 -0.043287023438520228 0.23181759817796341 0 -0.057747994226484717 0.23109706606950969 0 -0.052949194035396913 0.2244906503207087 0 -0.06168239818698 0.21825371640683339 0 -0.052949194035396913 0.2244906503207087 0 -0.043287023438520228 0.23181759817796341 0 -0.049079360289602712 0.21679422062852821 0 -0.052949194035396913 0.2244906503207087 0 -0.049079360289602712 0.21679422062852821 0 -0.06168239818698 0.21825371640683339 0 -0.044329418449826713 0.22032718252877559 0 -0.043287023438520228 0.23181759817796341 0 -0.049079360289602712 0.21679422062852821 0 -0.044329418449826713 0.22032718252877559 0 -0.043287023438520228 0.23181759817796341 0 -0.027232441991073442 0.2330437522207216 0 -0.044329418449826713 0.22032718252877559 0 -0.027232441991073442 0.2330437522207216 0 -0.044329418449826713 0.22032718252877559 0 -0.0412538149883084 0.209984778647793 0 -0.028680892976344231 0.2106082890279426 0 -0.0412538149883084 0.209984778647793 0 -0.031820509696463842 0.19508853574261459 0 -0.028680892976344231 0.2106082890279426 0 -0.0412538149883084 0.209984778647793 0 -0.047166997629971411 0.20907861551875179 0 -0.045974159088380373 0.20177842562987711 0 -0.044329418449826713 0.22032718252877559 0 -0.0412538149883084 0.209984778647793 0 -0.045391036659619577 0.21395697908081349 0 -0.0412538149883084 0.209984778647793 0 -0.045391036659619577 0.21395697908081349 0 -0.047166997629971411 0.20907861551875179 0 -0.044329418449826713 0.22032718252877559 0 -0.045391036659619577 0.21395697908081349 0 -0.049079360289602712 0.21679422062852821 0 -0.044329418449826713 0.22032718252877559 0 -0.049079360289602712 0.21679422062852821 0 -0.070926278588131969 0.20054468903633479 0 -0.049079360289602712 0.21679422062852821 0 -0.070926278588131969 0.20054468903633479 0 -0.049079360289602712 0.21679422062852821 0 -0.054495205541796418 0.2028332196816536 0 -0.070926278588131969 0.20054468903633479 0 -0.049079360289602712 0.21679422062852821 0 -0.06168239818698 0.21825371640683339 0 -0.045391036659619577 0.21395697908081349 0 -0.049079360289602712 0.21679422062852821 0 -0.047166997629971411 0.20907861551875179 0 -0.049079360289602712 0.21679422062852821 0 -0.047166997629971411 0.20907861551875179 0 -0.054495205541796418 0.2028332196816536 0 -0.047166997629971411 0.20907861551875179 0 -0.054495205541796418 0.2028332196816536 0 -0.045974159088380373 0.20177842562987711 0 -0.070926278588131969 0.20054468903633479 0 -0.054495205541796418 0.2028332196816536 0 -0.061644960869024427 0.1959714358789339 0 -0.054495205541796418 0.2028332196816536 0 -0.051211047027790203 0.19093019873059949 0 -0.045974159088380373 0.20177842562987711 0 -0.054495205541796418 0.2028332196816536 0 -0.061644960869024427 0.1959714358789339 0 -0.051211047027790203 0.19093019873059949 0 -0.051211047027790203 0.19093019873059949 0 -0.045974159088380373 0.20177842562987711 0 -0.031820509696463842 0.19508853574261459 0 -0.051211047027790203 0.19093019873059949 0 -0.031820509696463842 0.19508853574261459 0 -0.045659118522719047 0.1777899791627823 0 -0.0412538149883084 0.209984778647793 0 -0.045974159088380373 0.20177842562987711 0 -0.031820509696463842 0.19508853574261459 0 -0.031820509696463842 0.19508853574261459 0 -0.0045931836233857881 0.18982760473440399 0 -0.0094582990268084182 0.20659518038089991 0 -0.0045931836233857881 0.18982760473440399 0 -0.0094582990268084182 0.20659518038089991 0 0.0093493598243874071 0.20224793201591401 0 -0.0094582990268084182 0.20659518038089991 0 -0.017189021415386991 0.22157624269542089 0 0.0096859308998218027 0.22318218386266081 0 -0.044329418449826713 0.22032718252877559 0 -0.028680892976344231 0.2106082890279426 0 -0.017189021415386991 0.22157624269542089 0 -0.031820509696463842 0.19508853574261459 0 -0.0094582990268084182 0.20659518038089991 0 -0.028680892976344231 0.2106082890279426 0 -0.0094582990268084182 0.20659518038089991 0 -0.028680892976344231 0.2106082890279426 0 -0.017189021415386991 0.22157624269542089 0 -0.017189021415386991 0.22157624269542089 0 -0.027232441991073442 0.2330437522207216 0 -0.0043552915850206177 0.2324827301985872 0 -0.044329418449826713 0.22032718252877559 0 -0.017189021415386991 0.22157624269542089 0 -0.044329418449826713 0.22032718252877559 0 -0.017189021415386991 0.22157624269542089 0 -0.027232441991073442 0.2330437522207216 0 -0.017189021415386991 0.22157624269542089 0 -0.0043552915850206177 0.2324827301985872 0 0.0096859308998218027 0.22318218386266081 0 -0.017189021415386991 0.22157624269542089 0 0.0096859308998218027 0.22318218386266081 0 -0.0043552915850206177 0.2324827301985872 0 -0.005385523692544171 0.24929328381291499 0 0.0086896884719066935 0.23776578336380419 0 -0.027232441991073442 0.2330437522207216 0 -0.0043552915850206177 0.2324827301985872 0 -0.005385523692544171 0.24929328381291499 0 -0.027232441991073442 0.2330437522207216 0 -0.005385523692544171 0.24929328381291499 0 -0.027232441991073442 0.2330437522207216 0 -0.005385523692544171 0.24929328381291499 0 -0.024618130266652209 0.2484029175551328 0 -0.035776387268403917 0.2428924690283267 0 -0.027232441991073442 0.2330437522207216 0 -0.024618130266652209 0.2484029175551328 0 -0.033790783034244112 0.1423966190053513 0 -0.052209830390732313 0.13014978203540589 0 -0.05171812847957255 0.15416973076690171 0 -0.033790783034244112 0.1423966190053513 0 -0.05171812847957255 0.15416973076690171 0 -0.029656444319877649 0.16968874580134979 0 -0.033790783034244112 0.1423966190053513 0 -0.052209830390732313 0.13014978203540589 0 -0.042868049142686479 0.1126801048088933 0 -0.06736378797752865 0.13397919201898301 0 -0.052209830390732313 0.13014978203540589 0 -0.05171812847957255 0.15416973076690171 0 -0.06736378797752865 0.13397919201898301 0 -0.052209830390732313 0.13014978203540589 0 -0.062988790347779683 0.12095254029689891 0 -0.067672328448357105 0.17211959628773549 0 -0.05171812847957255 0.15416973076690171 0 -0.045659118522719047 0.1777899791627823 0 -0.067672328448357105 0.17211959628773549 0 -0.051211047027790203 0.19093019873059949 0 -0.045659118522719047 0.1777899791627823 0 -0.067672328448357105 0.17211959628773549 0 -0.061644960869024427 0.1959714358789339 0 -0.051211047027790203 0.19093019873059949 0 -0.031820509696463842 0.19508853574261459 0 -0.045659118522719047 0.1777899791627823 0 -0.029656444319877649 0.16968874580134979 0 -0.05171812847957255 0.15416973076690171 0 -0.045659118522719047 0.1777899791627823 0 -0.029656444319877649 0.16968874580134979 0 -0.033790783034244112 0.1423966190053513 0 -0.029656444319877649 0.16968874580134979 0 -0.010047945575113451 0.16042490400575399 0 -0.031820509696463842 0.19508853574261459 0 -0.0045931836233857881 0.18982760473440399 0 -0.029656444319877649 0.16968874580134979 0 -0.0045931836233857881 0.18982760473440399 0 -0.010047945575113451 0.16042490400575399 0 0.012174290038738369 0.1761176349092779 0 -0.0045931836233857881 0.18982760473440399 0 -0.029656444319877649 0.16968874580134979 0 -0.010047945575113451 0.16042490400575399 0 -0.0045931836233857881 0.18982760473440399 0 -0.010047945575113451 0.16042490400575399 0 -0.010047945575113451 0.16042490400575399 0 -0.01550270752684106 0.1310222032771044 0 0.0052302380533622173 0.13946062954234309 0 -0.010047945575113451 0.16042490400575399 0 -0.01550270752684106 0.1310222032771044 0 -0.033790783034244112 0.1423966190053513 0 -0.010047945575113451 0.16042490400575399 0 -0.01550270752684106 0.1310222032771044 0 -0.033790783034244112 0.1423966190053513 0 -0.01550270752684106 0.1310222032771044 0 -0.042868049142686479 0.1126801048088933 0 -0.01550270752684106 0.1310222032771044 0 0.001602643676593709 0.1197505604973356 0 0.0052302380533622173 0.13946062954234309 0 -0.01550270752684106 0.1310222032771044 0 -0.020957469478568691 0.1016195025484547 0 0.001602643676593709 0.1197505604973356 0 -0.020957469478568691 0.1016195025484547 0 -0.0022182310817397449 0.084616986109569928 0 0.002036173543087758 0.1010327718088819 0 -0.020957469478568691 0.1016195025484547 0 0.002036173543087758 0.1010327718088819 0 0.001602643676593709 0.1197505604973356 0 -0.01550270752684106 0.1310222032771044 0 -0.020957469478568691 0.1016195025484547 0 -0.042868049142686479 0.1126801048088933 0 -0.01550270752684106 0.1310222032771044 0 -0.020957469478568691 0.1016195025484547 0 -0.019203241518531571 0.075594078220419983 0 -0.01162873841671351 0.058545706757581847 0 5.2914774821825937e-05 0.068765955202620382 0 -0.0022182310817397449 0.084616986109569928 0 -0.019203241518531571 0.075594078220419983 0 5.2914774821825937e-05 0.068765955202620382 0 -0.020957469478568691 0.1016195025484547 0 -0.0022182310817397449 0.084616986109569928 0 -0.019203241518531571 0.075594078220419983 0 -0.020957469478568691 0.1016195025484547 0 -0.019203241518531571 0.075594078220419983 0 -0.034870019520775779 0.089042838433812124 0 -0.019203241518531571 0.075594078220419983 0 -0.038847389757051501 0.068309120533707662 0 -0.034870019520775779 0.089042838433812124 0 -0.019203241518531571 0.075594078220419983 0 -0.0238571303050484 0.063019458657144756 0 -0.01162873841671351 0.058545706757581847 0 -0.019203241518531571 0.075594078220419983 0 -0.0238571303050484 0.063019458657144756 0 -0.038847389757051501 0.068309120533707662 0 -0.038847389757051501 0.068309120533707662 0 -0.052473947707040683 0.087011386057585044 0 -0.038847389757051501 0.068309120533707662 0 -0.034870019520775779 0.089042838433812124 0 -0.052473947707040683 0.087011386057585044 0 -0.038847389757051501 0.068309120533707662 0 -0.064947030985960927 0.069548258603053942 0 -0.054975466702246317 0.056901522842294633 0 -0.038847389757051501 0.068309120533707662 0 -0.052473947707040683 0.087011386057585044 0 -0.064947030985960927 0.069548258603053942 0 -0.020957469478568691 0.1016195025484547 0 -0.034870019520775779 0.089042838433812124 0 -0.042868049142686479 0.1126801048088933 0 -0.034870019520775779 0.089042838433812124 0 -0.052473947707040683 0.087011386057585044 0 -0.042868049142686479 0.1126801048088933 0 -0.052473947707040683 0.087011386057585044 0 -0.042868049142686479 0.1126801048088933 0 -0.066100505657029851 0.1057136515814624 0 -0.052473947707040683 0.087011386057585044 0 -0.066100505657029851 0.1057136515814624 0 -0.052209830390732313 0.13014978203540589 0 -0.042868049142686479 0.1126801048088933 0 -0.062988790347779683 0.12095254029689891 0 -0.042868049142686479 0.1126801048088933 0 -0.062988790347779683 0.12095254029689891 0 -0.066100505657029851 0.1057136515814624 0 -0.062988790347779683 0.12095254029689891 0 -0.079727063607020962 0.12441591710533841 0 -0.066100505657029851 0.1057136515814624 0 -0.079727063607020962 0.12441591710533841 0 -0.066100505657029851 0.1057136515814624 0 -0.079727063607020962 0.12441591710533841 0 -0.0821763536627797 0.1147234480874284 0 -0.066100505657029851 0.1057136515814624 0 -0.079727063607020962 0.12441591710533841 0 -0.0821763536627797 0.1147234480874284 0 -0.094969887080165696 0.12311208082354259 0 -0.079727063607020962 0.12441591710533841 0 -0.0821763536627797 0.1147234480874284 0 -0.0821763536627797 0.1147234480874284 0 -0.093702287116941702 0.1108865508607266 0 -0.094969887080165696 0.12311208082354259 0 -0.082852780698522768 0.10106196425772609 0 -0.092429037806639011 0.091603318841177478 0 -0.09763266311632196 0.1007495169028802 0 -0.093702287116941702 0.1108865508607266 0 -0.082852780698522768 0.10106196425772609 0 -0.09763266311632196 0.1007495169028802 0 -0.0821763536627797 0.1147234480874284 0 -0.093702287116941702 0.1108865508607266 0 -0.082852780698522768 0.10106196425772609 0 -0.082852780698522768 0.10106196425772609 0 -0.069942294443659875 0.093055539566837153 0 -0.080294174366044718 0.087908843951679749 0 -0.052473947707040683 0.087011386057585044 0 -0.066100505657029851 0.1057136515814624 0 -0.069942294443659875 0.093055539566837153 0 -0.082852780698522768 0.10106196425772609 0 -0.066100505657029851 0.1057136515814624 0 -0.069942294443659875 0.093055539566837153 0 -0.0821763536627797 0.1147234480874284 0 -0.082852780698522768 0.10106196425772609 0 -0.066100505657029851 0.1057136515814624 0 -0.052473947707040683 0.087011386057585044 0 -0.069942294443659875 0.093055539566837153 0 -0.070298363465352356 0.081998056383747575 0 -0.052473947707040683 0.087011386057585044 0 -0.070298363465352356 0.081998056383747575 0 -0.064947030985960927 0.069548258603053942 0 -0.070298363465352356 0.081998056383747575 0 -0.082502765846706003 0.074266539917965113 0 -0.080294174366044718 0.087908843951679749 0 -0.069942294443659875 0.093055539566837153 0 -0.070298363465352356 0.081998056383747575 0 -0.080294174366044718 0.087908843951679749 0 -0.070298363465352356 0.081998056383747575 0 -0.064947030985960927 0.069548258603053942 0 -0.082502765846706003 0.074266539917965113 0 -0.064947030985960927 0.069548258603053942 0 -0.082502765846706003 0.074266539917965113 0 -0.078856806945453606 0.062025139682226983 0 -0.082502765846706003 0.074266539917965113 0 -0.090938961023404055 0.066329074292961754 0 -0.078856806945453606 0.062025139682226983 0 -0.082502765846706003 0.074266539917965113 0 -0.089268951078237666 0.083221717840759518 0 -0.094461360557493379 0.075413514235085383 0 -0.082502765846706003 0.074266539917965113 0 -0.090938961023404055 0.066329074292961754 0 -0.094461360557493379 0.075413514235085383 0 -0.082852780698522768 0.10106196425772609 0 -0.080294174366044718 0.087908843951679749 0 -0.092429037806639011 0.091603318841177478 0 -0.082502765846706003 0.074266539917965113 0 -0.080294174366044718 0.087908843951679749 0 -0.089268951078237666 0.083221717840759518 0 -0.080294174366044718 0.087908843951679749 0 -0.089268951078237666 0.083221717840759518 0 -0.092429037806639011 0.091603318841177478 0 -0.089268951078237666 0.083221717840759518 0 -0.092429037806639011 0.091603318841177478 0 -0.098171244829436483 0.084448210572433555 0 -0.092429037806639011 0.091603318841177478 0 -0.098171244829436483 0.084448210572433555 0 -0.1056254389548609 0.090615191486034363 0 -0.098171244829436483 0.084448210572433555 0 -0.094461360557493379 0.075413514235085383 0 -0.1049306235149487 0.077721367411888398 0 -0.089268951078237666 0.083221717840759518 0 -0.098171244829436483 0.084448210572433555 0 -0.094461360557493379 0.075413514235085383 0 -0.098171244829436483 0.084448210572433555 0 -0.1056254389548609 0.090615191486034363 0 -0.1049306235149487 0.077721367411888398 0 -0.1056254389548609 0.090615191486034363 0 -0.1049306235149487 0.077721367411888398 0 -0.11344875319855929 0.077804603283174262 0 -0.090938961023404055 0.066329074292961754 0 -0.1009556170522274 0.066494175374504111 0 -0.095159520176334042 0.059672229795145568 0 -0.090938961023404055 0.066329074292961754 0 -0.1009556170522274 0.066494175374504111 0 -0.094461360557493379 0.075413514235085383 0 -0.1009556170522274 0.066494175374504111 0 -0.094461360557493379 0.075413514235085383 0 -0.1049306235149487 0.077721367411888398 0 -0.1009556170522274 0.066494175374504111 0 -0.1049306235149487 0.077721367411888398 0 -0.10880277800498379 0.070741593026964519 0 -0.1049306235149487 0.077721367411888398 0 -0.10880277800498379 0.070741593026964519 0 -0.11344875319855929 0.077804603283174262 0 -0.1009556170522274 0.066494175374504111 0 -0.10880277800498379 0.070741593026964519 0 -0.10832557165744131 0.064379606762237154 0 -0.10832557165744131 0.064379606762237154 0 -0.1151731773664386 0.067265547515729801 0 -0.1132332476442834 0.061579711539904138 0 -0.10880277800498379 0.070741593026964519 0 -0.10832557165744131 0.064379606762237154 0 -0.1151731773664386 0.067265547515729801 0 -0.1151731773664386 0.067265547515729801 0 -0.11344875319855929 0.077804603283174262 0 -0.1221105431374179 0.070374975408630011 0 -0.10880277800498379 0.070741593026964519 0 -0.1151731773664386 0.067265547515729801 0 -0.11344875319855929 0.077804603283174262 0 -0.1284661319915765 0.076009059052978806 0 -0.1221105431374179 0.070374975408630011 0 -0.1214201214337626 0.082695445630034461 0 -0.11344875319855929 0.077804603283174262 0 -0.1221105431374179 0.070374975408630011 0 -0.1214201214337626 0.082695445630034461 0 -0.1151731773664386 0.067265547515729801 0 -0.1221105431374179 0.070374975408630011 0 -0.11832052248059879 0.058467045898684747 0 -0.1056254389548609 0.090615191486034363 0 -0.11344875319855929 0.077804603283174262 0 -0.11785779387278091 0.092138441153664374 0 -0.11344875319855929 0.077804603283174262 0 -0.1214201214337626 0.082695445630034461 0 -0.11785779387278091 0.092138441153664374 0 -0.12724174932730201 0.092167755371454899 0 -0.1214201214337626 0.082695445630034461 0 -0.11785779387278091 0.092138441153664374 0 -0.1254341817703207 0.1004865737220574 0 -0.11785779387278091 0.092138441153664374 0 -0.1139765185518801 0.10906107742923089 0 -0.1056254389548609 0.090615191486034363 0 -0.11785779387278091 0.092138441153664374 0 -0.1139765185518801 0.10906107742923089 0 -0.1254341817703207 0.1004865737220574 0 -0.12724174932730201 0.092167755371454899 0 -0.11785779387278091 0.092138441153664374 0 -0.13267727706791951 0.1107929543516378 0 -0.1254341817703207 0.1004865737220574 0 -0.1139765185518801 0.10906107742923089 0 -0.11664807644199431 0.1390667730099652 0 -0.1139765185518801 0.10906107742923089 0 -0.1311996888450476 0.1220864639654108 0 -0.1267590226545332 0.1321165547581335 0 -0.1139765185518801 0.10906107742923089 0 -0.093702287116941702 0.1108865508607266 0 -0.1139765185518801 0.10906107742923089 0 -0.094969887080165696 0.12311208082354259 0 -0.1032521578259257 0.13135303515958641 0 -0.1139765185518801 0.10906107742923089 0 -0.094969887080165696 0.12311208082354259 0 -0.093702287116941702 0.1108865508607266 0 -0.1139765185518801 0.10906107742923089 0 -0.09763266311632196 0.1007495169028802 0 -0.1056254389548609 0.090615191486034363 0 -0.1139765185518801 0.10906107742923089 0 -0.09763266311632196 0.1007495169028802 0 -0.092429037806639011 0.091603318841177478 0 -0.1056254389548609 0.090615191486034363 0 -0.09763266311632196 0.1007495169028802 0 -0.1113165028473606 0.027519855361380189 0 -0.099083504181015913 0.036099847446417449 0 -0.091225897016498289 0.020970932054254841 0 -0.1028769577034183 0.014130089137396089 0 -0.1113165028473606 0.027519855361380189 0 -0.091225897016498289 0.020970932054254841 0 -0.1028769577034183 0.014130089137396089 0 -0.1113165028473606 0.027519855361380189 0 -0.1028769577034183 0.014130089137396089 0 -0.091225897016498289 0.020970932054254841 0 -0.093604694052265153 0.0068576603825617234 0 -0.1053611418549569 -0.00094003954812623466 0 -0.1028769577034183 0.014130089137396089 0 -0.093604694052265153 0.0068576603825617234 0 -0.1053611418549569 -0.00094003954812623466 0 -0.1028769577034183 0.014130089137396089 0 -0.1183359994220656 0.01374088147725901 0 -0.1230400690862873 -0.00083517126394756997 0 -0.1053611418549569 -0.00094003954812623466 0 -0.1183359994220656 0.01374088147725901 0 -0.1230400690862873 -0.00083517126394756997 0 -0.1326551359459831 0.0072180599274277628 0 -0.1183359994220656 0.01374088147725901 0 -0.1028769577034183 0.014130089137396089 0 -0.1183359994220656 0.01374088147725901 0 -0.1113165028473606 0.027519855361380189 0 -0.1183359994220656 0.01374088147725901 0 -0.1113165028473606 0.027519855361380189 0 -0.1249415382210789 0.029125652879889559 0 -0.1113165028473606 0.027519855361380189 0 -0.1249415382210789 0.029125652879889559 0 -0.1194021457267522 0.040923478998895237 0 -0.1113165028473606 0.027519855361380189 0 -0.1194021457267522 0.040923478998895237 0 -0.099083504181015913 0.036099847446417449 0 -0.1113165028473606 0.027519855361380189 0 -0.1194021457267522 0.040923478998895237 0 -0.11832052248059879 0.058467045898684747 0 -0.1010035573451675 0.050827761118263808 0 -0.11832052248059879 0.058467045898684747 0 -0.1132332476442834 0.061579711539904138 0 -0.1010035573451675 0.050827761118263808 0 -0.1356374876160302 0.06610633067910586 0 -0.1194021457267522 0.040923478998895237 0 -0.11832052248059879 0.058467045898684747 0 -0.1194021457267522 0.040923478998895237 0 -0.11832052248059879 0.058467045898684747 0 -0.1010035573451675 0.050827761118263808 0 -0.1151731773664386 0.067265547515729801 0 -0.11832052248059879 0.058467045898684747 0 -0.1132332476442834 0.061579711539904138 0 -0.1009556170522274 0.066494175374504111 0 -0.1010035573451675 0.050827761118263808 0 -0.095159520176334042 0.059672229795145568 0 -0.1009556170522274 0.066494175374504111 0 -0.10832557165744131 0.064379606762237154 0 -0.1010035573451675 0.050827761118263808 0 -0.1132332476442834 0.061579711539904138 0 -0.1010035573451675 0.050827761118263808 0 -0.10832557165744131 0.064379606762237154 0 -0.1132332476442834 0.061579711539904138 0 -0.1010035573451675 0.050827761118263808 0 -0.1010035573451675 0.050827761118263808 0 -0.095159520176334042 0.059672229795145568 0 -0.087739945284537268 0.055037908394852703 0 -0.1194021457267522 0.040923478998895237 0 -0.1010035573451675 0.050827761118263808 0 -0.091002874299176209 0.042035482191887227 0 -0.1194021457267522 0.040923478998895237 0 -0.099083504181015913 0.036099847446417449 0 -0.1194021457267522 0.040923478998895237 0 -0.091002874299176209 0.042035482191887227 0 -0.1194021457267522 0.040923478998895237 0 -0.099083504181015913 0.036099847446417449 0 -0.091002874299176209 0.042035482191887227 0 -0.1010035573451675 0.050827761118263808 0 -0.091002874299176209 0.042035482191887227 0 -0.1010035573451675 0.050827761118263808 0 -0.081882477304102821 0.042392600880857778 0 -0.099083504181015913 0.036099847446417449 0 -0.091002874299176209 0.042035482191887227 0 -0.078764862635280333 0.03127621589393708 0 -0.099083504181015913 0.036099847446417449 0 -0.078764862635280333 0.03127621589393708 0 -0.1010035573451675 0.050827761118263808 0 -0.091002874299176209 0.042035482191887227 0 -0.081882477304102821 0.042392600880857778 0 -0.091002874299176209 0.042035482191887227 0 -0.081882477304102821 0.042392600880857778 0 -0.091002874299176209 0.042035482191887227 0 -0.081882477304102821 0.042392600880857778 0 -0.078764862635280333 0.03127621589393708 0 -0.091002874299176209 0.042035482191887227 0 -0.078764862635280333 0.03127621589393708 0 -0.1010035573451675 0.050827761118263808 0 -0.081882477304102821 0.042392600880857778 0 -0.087739945284537268 0.055037908394852703 0 -0.090938961023404055 0.066329074292961754 0 -0.095159520176334042 0.059672229795145568 0 -0.087739945284537268 0.055037908394852703 0 -0.081882477304102821 0.042392600880857778 0 -0.087739945284537268 0.055037908394852703 0 -0.077411867833545145 0.051340352362244407 0 -0.090938961023404055 0.066329074292961754 0 -0.087739945284537268 0.055037908394852703 0 -0.078856806945453606 0.062025139682226983 0 -0.087739945284537268 0.055037908394852703 0 -0.078856806945453606 0.062025139682226983 0 -0.077411867833545145 0.051340352362244407 0 -0.064947030985960927 0.069548258603053942 0 -0.078856806945453606 0.062025139682226983 0 -0.067461219829124883 0.054432052439630868 0 -0.078856806945453606 0.062025139682226983 0 -0.077411867833545145 0.051340352362244407 0 -0.067461219829124883 0.054432052439630868 0 -0.077411867833545145 0.051340352362244407 0 -0.067461219829124883 0.054432052439630868 0 -0.071118889804507535 0.042814060413652828 0 -0.067461219829124883 0.054432052439630868 0 -0.071118889804507535 0.042814060413652828 0 -0.058079352954571339 0.045317029615219613 0 -0.081882477304102821 0.042392600880857778 0 -0.056418653920759253 0.031159373990212871 0 -0.081882477304102821 0.042392600880857778 0 -0.078764862635280333 0.03127621589393708 0 -0.056418653920759253 0.031159373990212871 0 -0.081882477304102821 0.042392600880857778 0 -0.071118889804507535 0.042814060413652828 0 -0.056418653920759253 0.031159373990212871 0 -0.081882477304102821 0.042392600880857778 0 -0.071118889804507535 0.042814060413652828 0 -0.081882477304102821 0.042392600880857778 0 -0.077411867833545145 0.051340352362244407 0 -0.071118889804507535 0.042814060413652828 0 -0.078764862635280333 0.03127621589393708 0 -0.075475846147703474 0.017001832505847369 0 -0.062314341092975921 0.016813446379177449 0 -0.078764862635280333 0.03127621589393708 0 -0.054859846586348009 0.02560118149675291 0 -0.056418653920759253 0.031159373990212871 0 -0.078764862635280333 0.03127621589393708 0 -0.062314341092975921 0.016813446379177449 0 -0.078764862635280333 0.03127621589393708 0 -0.054859846586348009 0.02560118149675291 0 -0.078764862635280333 0.03127621589393708 0 -0.062314341092975921 0.016813446379177449 0 -0.054859846586348009 0.02560118149675291 0 -0.099083504181015913 0.036099847446417449 0 -0.078764862635280333 0.03127621589393708 0 -0.091225897016498289 0.020970932054254841 0 -0.078764862635280333 0.03127621589393708 0 -0.075475846147703474 0.017001832505847369 0 -0.091225897016498289 0.020970932054254841 0 -0.075475846147703474 0.017001832505847369 0 -0.091225897016498289 0.020970932054254841 0 -0.080629402512300122 0.0077332449891345774 0 -0.087930071174152094 -0.0076059247198506513 0 -0.093604694052265153 0.0068576603825617234 0 -0.080629402512300122 0.0077332449891345774 0 -0.091225897016498289 0.020970932054254841 0 -0.093604694052265153 0.0068576603825617234 0 -0.080629402512300122 0.0077332449891345774 0 -0.07369493063430016 -0.00541966735999788 0 -0.080629402512300122 0.0077332449891345774 0 -0.069409030015029849 0.0072984122755932164 0 -0.075475846147703474 0.017001832505847369 0 -0.080629402512300122 0.0077332449891345774 0 -0.069409030015029849 0.0072984122755932164 0 -0.069409030015029849 0.0072984122755932164 0 -0.059501720609952402 0.0078552543620873383 0 -0.062314341092975921 0.016813446379177449 0 -0.075475846147703474 0.017001832505847369 0 -0.069409030015029849 0.0072984122755932164 0 -0.062314341092975921 0.016813446379177449 0 -0.063366955347830864 -0.00068398306854730584 0 -0.069409030015029849 0.0072984122755932164 0 -0.059501720609952402 0.0078552543620873383 0 -0.063366955347830864 -0.00068398306854730584 0 -0.07369493063430016 -0.00541966735999788 0 -0.069409030015029849 0.0072984122755932164 0 -0.062314341092975921 0.016813446379177449 0 -0.045863819550670551 0.0023506768644189139 0 -0.059501720609952402 0.0078552543620873383 0 -0.062314341092975921 0.016813446379177449 0 -0.045863819550670551 0.0023506768644189139 0 -0.054094444701140637 -0.0064054285114794026 0 -0.059501720609952402 0.0078552543620873383 0 -0.062314341092975921 0.016813446379177449 0 -0.045863819550670551 0.0023506768644189139 0 -0.046390867415658267 0.015089996089547669 0 -0.063366955347830864 -0.00068398306854730584 0 -0.054094444701140637 -0.0064054285114794026 0 -0.059501720609952402 0.0078552543620873383 0 -0.054094444701140637 -0.0064054285114794026 0 -0.059501720609952402 0.0078552543620873383 0 -0.045863819550670551 0.0023506768644189139 0 -0.062314341092975921 0.016813446379177449 0 -0.054859846586348009 0.02560118149675291 0 -0.046390867415658267 0.015089996089547669 0 -0.054859846586348009 0.02560118149675291 0 -0.056418653920759253 0.031159373990212871 0 -0.030954830537416021 0.01992614709956711 0 -0.056418653920759253 0.031159373990212871 0 -0.030954830537416021 0.01992614709956711 0 -0.054859846586348009 0.02560118149675291 0 -0.030954830537416021 0.01992614709956711 0 -0.056418653920759253 0.031159373990212871 0 -0.036752143949520609 0.030850027974723922 0 -0.030954830537416021 0.01992614709956711 0 -0.054859846586348009 0.02560118149675291 0 -0.046390867415658267 0.015089996089547669 0 -0.030954830537416021 0.01992614709956711 0 -0.037734851132323027 0.010217860098515301 0 -0.031024857337470919 0.0096730473207405597 0 -0.030954830537416021 0.01992614709956711 0 -0.037734851132323027 0.010217860098515301 0 -0.046390867415658267 0.015089996089547669 0 -0.030954830537416021 0.01992614709956711 0 -0.037734851132323027 0.010217860098515301 0 -0.033108163316616937 0.0010776279703956699 0 -0.045863819550670551 0.0023506768644189139 0 -0.037734851132323027 0.010217860098515301 0 -0.033108163316616937 0.0010776279703956699 0 -0.031024857337470919 0.0096730473207405597 0 -0.037734851132323027 0.010217860098515301 0 -0.045863819550670551 0.0023506768644189139 0 -0.046390867415658267 0.015089996089547669 0 -0.064947030985960927 0.069548258603053942 0 -0.067461219829124883 0.054432052439630868 0 -0.054975466702246317 0.056901522842294633 0 -0.067461219829124883 0.054432052439630868 0 -0.054975466702246317 0.056901522842294633 0 -0.058079352954571339 0.045317029615219613 0 -0.054975466702246317 0.056901522842294633 0 -0.058079352954571339 0.045317029615219613 0 -0.044230170928025052 0.046732581338237267 0 -0.056418653920759253 0.031159373990212871 0 -0.058079352954571339 0.045317029615219613 0 -0.044230170928025052 0.046732581338237267 0 -0.071118889804507535 0.042814060413652828 0 -0.056418653920759253 0.031159373990212871 0 -0.058079352954571339 0.045317029615219613 0 -0.036752143949520609 0.030850027974723922 0 -0.044230170928025052 0.046732581338237267 0 -0.030065214588805511 0.040086501731716448 0 -0.056418653920759253 0.031159373990212871 0 -0.036752143949520609 0.030850027974723922 0 -0.044230170928025052 0.046732581338237267 0 -0.044230170928025052 0.046732581338237267 0 -0.025749151527896998 0.04962892911686953 0 -0.030065214588805511 0.040086501731716448 0 -0.038847389757051501 0.068309120533707662 0 -0.044230170928025052 0.046732581338237267 0 -0.025749151527896998 0.04962892911686953 0 -0.038847389757051501 0.068309120533707662 0 -0.054975466702246317 0.056901522842294633 0 -0.044230170928025052 0.046732581338237267 0 -0.0238571303050484 0.063019458657144756 0 -0.038847389757051501 0.068309120533707662 0 -0.025749151527896998 0.04962892911686953 0 -0.0238571303050484 0.063019458657144756 0 -0.025749151527896998 0.04962892911686953 0 -0.01162873841671351 0.058545706757581847 0 -0.036752143949520609 0.030850027974723922 0 -0.01352939194977937 0.033134468497035073 0 -0.036752143949520609 0.030850027974723922 0 -0.030065214588805511 0.040086501731716448 0 -0.01352939194977937 0.033134468497035073 0 -0.025749151527896998 0.04962892911686953 0 -0.030065214588805511 0.040086501731716448 0 -0.01352939194977937 0.033134468497035073 0 -0.025749151527896998 0.04962892911686953 0 -0.0073808714088060348 0.046274748502808952 0 -0.01352939194977937 0.033134468497035073 0 -0.01352939194977937 0.033134468497035073 0 0.009693360049961932 0.035418909019346217 0 -0.0073808714088060348 0.046274748502808952 0 -0.01352939194977937 0.033134468497035073 0 0.009693360049961932 0.035418909019346217 0 -0.01162873841671351 0.058545706757581847 0 0.0043095648003977829 0.054645729123212097 0 5.2914774821825937e-05 0.068765955202620382 0 -0.025749151527896998 0.04962892911686953 0 -0.0073808714088060348 0.046274748502808952 0 -0.01162873841671351 0.058545706757581847 0 -0.0073808714088060348 0.046274748502808952 0 -0.01162873841671351 0.058545706757581847 0 0.0043095648003977829 0.054645729123212097 0 -0.017841483646402839 0.0092569251384008004 0 -0.030954830537416021 0.01992614709956711 0 -0.014423461101851181 0.012633423580118699 0 -0.0239633457502983 -0.00035824565639873673 0 -0.0223015843635277 0.0074705541144841348 0 -0.01388896055781663 0.0045251533086503263 0 -0.017841483646402839 0.0092569251384008004 0 -0.0223015843635277 0.0074705541144841348 0 -0.01388896055781663 0.0045251533086503263 0 -0.033108163316616937 0.0010776279703956699 0 -0.0223015843635277 0.0074705541144841348 0 -0.031024857337470919 0.0096730473207405597 0 -0.017841483646402839 0.0092569251384008004 0 -0.0223015843635277 0.0074705541144841348 0 -0.030954830537416021 0.01992614709956711 0 -0.0223015843635277 0.0074705541144841348 0 -0.031024857337470919 0.0096730473207405597 0 -0.030954830537416021 0.01992614709956711 0 -0.030954830537416021 0.01992614709956711 0 -0.014423461101851181 0.012633423580118699 0 -0.030954830537416021 0.01992614709956711 0 -0.021425015966868279 0.02474542854128518 0 -0.01352579410864985 0.015788505817896831 0 -0.030954830537416021 0.01992614709956711 0 -0.01352579410864985 0.015788505817896831 0 -0.030954830537416021 0.01992614709956711 0 -0.01352579410864985 0.015788505817896831 0 -0.014423461101851181 0.012633423580118699 0 -0.036752143949520609 0.030850027974723922 0 -0.01352939194977937 0.033134468497035073 0 -0.021425015966868279 0.02474542854128518 0 -0.036752143949520609 0.030850027974723922 0 -0.030954830537416021 0.01992614709956711 0 -0.021425015966868279 0.02474542854128518 0 -0.01352939194977937 0.033134468497035073 0 -0.021425015966868279 0.02474542854128518 0 -0.01236291928897558 0.024027993317202949 0 -0.021425015966868279 0.02474542854128518 0 -0.01352579410864985 0.015788505817896831 0 -0.01236291928897558 0.024027993317202949 0 -0.01352579410864985 0.015788505817896831 0 -0.0080813401721722272 0.019221910827796201 0 -0.01236291928897558 0.024027993317202949 0 -0.0080813401721722272 0.019221910827796201 0 -0.01236291928897558 0.024027993317202949 0 -0.0031386675291401409 0.02446751004832734 0 -0.01352939194977937 0.033134468497035073 0 -0.0031386675291401409 0.02446751004832734 0 0.009693360049961932 0.035418909019346217 0 -0.01352579410864985 0.015788505817896831 0 -0.0080813401721722272 0.019221910827796201 0 -0.01025314071694255 0.01482406543389643 0 -0.01352939194977937 0.033134468497035073 0 -0.01236291928897558 0.024027993317202949 0 -0.0031386675291401409 0.02446751004832734 0 -0.0080813401721722272 0.019221910827796201 0 -0.001195857618128358 0.017568465318142219 0 -0.0049819674850969577 0.011652421509774 0 -0.0080813401721722272 0.019221910827796201 0 -0.0031386675291401409 0.02446751004832734 0 -0.001195857618128358 0.017568465318142219 0 -0.0239633457502983 -0.00035824565639873673 0 -0.001232130621416663 -0.0020777928871192441 0 -0.01388896055781663 0.0045251533086503263 0 -0.014423461101851181 0.012633423580118699 0 -0.01010229665808059 0.0072056729226169739 0 0.0021079083337136729 0.0053407000606703128 0 -0.0049819674850969577 0.011652421509774 0 -0.014423461101851181 0.012633423580118699 0 0.0021079083337136729 0.0053407000606703128 0 -0.001195857618128358 0.017568465318142219 0 -0.0049819674850969577 0.011652421509774 0 0.003317343323110164 0.01250078373403221 0 -0.014423461101851181 0.012633423580118699 0 0.0021079083337136729 0.0053407000606703128 0 -0.0080813401721722272 0.019221910827796201 0 -0.0049819674850969577 0.011652421509774 0 -0.01025314071694255 0.01482406543389643 0 -0.0049819674850969577 0.011652421509774 0 -0.01025314071694255 0.01482406543389643 0 -0.014423461101851181 0.012633423580118699 0 -0.017841483646402839 0.0092569251384008004 0 -0.014423461101851181 0.012633423580118699 0 -0.01010229665808059 0.0072056729226169739 0 -0.01352579410864985 0.015788505817896831 0 -0.01025314071694255 0.01482406543389643 0 -0.014423461101851181 0.012633423580118699 0 -0.017841483646402839 0.0092569251384008004 0 -0.01388896055781663 0.0045251533086503263 0 -0.01010229665808059 0.0072056729226169739 0 -0.01388896055781663 0.0045251533086503263 0 -0.01010229665808059 0.0072056729226169739 0 -0.0064654863180459666 0.0042721625252447291 0 -0.001232130621416663 -0.0020777928871192441 0 -0.01388896055781663 0.0045251533086503263 0 -0.0064654863180459666 0.0042721625252447291 0 -0.001232130621416663 -0.0020777928871192441 0 -0.0064654863180459666 0.0042721625252447291 0 0.0021079083337136729 0.0053407000606703128 0 -0.01010229665808059 0.0072056729226169739 0 -0.0064654863180459666 0.0042721625252447291 0 0.0021079083337136729 0.0053407000606703128 0 -0.001232130621416663 -0.0020777928871192441 0 0.013198203528484061 0.0079821753363270975 0 0.021499084507464909 -0.003797340117839746 0 -0.001232130621416663 -0.0020777928871192441 0 0.0021079083337136729 0.0053407000606703128 0 0.013198203528484061 0.0079821753363270975 0 0.013198203528484061 0.0079821753363270975 0 0.003317343323110164 0.01250078373403221 0 0.0074584298565783993 0.019960156445247391 0 0.0021079083337136729 0.0053407000606703128 0 0.013198203528484061 0.0079821753363270975 0 0.003317343323110164 0.01250078373403221 0 -0.0049819674850969577 0.011652421509774 0 0.0021079083337136729 0.0053407000606703128 0 0.003317343323110164 0.01250078373403221 0 -0.001195857618128358 0.017568465318142219 0 0.003317343323110164 0.01250078373403221 0 0.0074584298565783993 0.019960156445247391 0 -0.0031386675291401409 0.02446751004832734 0 -0.001195857618128358 0.017568465318142219 0 0.0074584298565783993 0.019960156445247391 0 -0.0031386675291401409 0.02446751004832734 0 0.0074584298565783993 0.019960156445247391 0 0.009693360049961932 0.035418909019346217 0 0.0074584298565783993 0.019960156445247391 0 0.02254984327728812 0.02006115608461996 0 0.009693360049961932 0.035418909019346217 0 0.013198203528484061 0.0079821753363270975 0 0.0074584298565783993 0.019960156445247391 0 0.02254984327728812 0.02006115608461996 0 0.02254984327728812 0.02006115608461996 0 0.009693360049961932 0.035418909019346217 0 0.032916112049703232 0.037703349541657723 0 0.013198203528484061 0.0079821753363270975 0 0.033459748335975807 0.003209115068594174 0 0.021499084507464909 -0.003797340117839746 0 0.013198203528484061 0.0079821753363270975 0 0.02254984327728812 0.02006115608461996 0 0.033459748335975807 0.003209115068594174 0 0.0043095648003977829 0.054645729123212097 0 0.018152096752766422 0.0499644640400735 0 0.0155671829517384 0.066619106550980495 0 0.0043095648003977829 0.054645729123212097 0 0.009693360049961932 0.035418909019346217 0 0.018152096752766422 0.0499644640400735 0 -0.0073808714088060348 0.046274748502808952 0 0.0043095648003977829 0.054645729123212097 0 0.009693360049961932 0.035418909019346217 0 0.028274263912030761 0.055435225965170962 0 0.032916112049703232 0.037703349541657723 0 0.009693360049961932 0.035418909019346217 0 0.032916112049703232 0.037703349541657723 0 0.009693360049961932 0.035418909019346217 0 0.018152096752766422 0.0499644640400735 0 0.032916112049703232 0.037703349541657723 0 0.018152096752766422 0.0499644640400735 0 0.028274263912030761 0.055435225965170962 0 0.032916112049703232 0.037703349541657723 0 0.018152096752766422 0.0499644640400735 0 0.028274263912030761 0.055435225965170962 0 0.0155671829517384 0.066619106550980495 0 0.028274263912030761 0.055435225965170962 0 0.04433622958124895 0.052961350683900017 0 0.032916112049703232 0.037703349541657723 0 0.028274263912030761 0.055435225965170962 0 0.04433622958124895 0.052961350683900017 0 0.038479749015994907 0.065005542606645733 0 0.04433622958124895 0.052961350683900017 0 0.051661919990661408 0.064541760028811235 0 0.038479749015994907 0.065005542606645733 0 0.04433622958124895 0.052961350683900017 0 0.032916112049703232 0.037703349541657723 0 0.050769451201204817 0.039459596665887463 0 0.032916112049703232 0.037703349541657723 0 0.050769451201204817 0.039459596665887463 0 0.052954557538810627 0.023452921930968599 0 0.032916112049703232 0.037703349541657723 0 0.050769451201204817 0.039459596665887463 0 0.050769451201204817 0.039459596665887463 0 0.052954557538810627 0.023452921930968599 0 0.068622790352706325 0.04121584379011755 0 0.050769451201204817 0.039459596665887463 0 0.068622790352706325 0.04121584379011755 0 0.063327693335017587 0.055095609110307038 0 0.050769451201204817 0.039459596665887463 0 0.068622790352706325 0.04121584379011755 0 0.04433622958124895 0.052961350683900017 0 0.063327693335017587 0.055095609110307038 0 0.051661919990661408 0.064541760028811235 0 0.04433622958124895 0.052961350683900017 0 0.050769451201204817 0.039459596665887463 0 0.063327693335017587 0.055095609110307038 0 0.038573205843025288 0.016093231096547169 0 0.05708107628875321 0.008349605863279522 0 0.04423029963634624 -0.0055168873485637003 0 0.02254984327728812 0.02006115608461996 0 0.033459748335975807 0.003209115068594174 0 0.038573205843025288 0.016093231096547169 0 0.033459748335975807 0.003209115068594174 0 0.038573205843025288 0.016093231096547169 0 0.04423029963634624 -0.0055168873485637003 0 0.038573205843025288 0.016093231096547169 0 0.04423029963634624 -0.0055168873485637003 0 0.032916112049703232 0.037703349541657723 0 0.038573205843025288 0.016093231096547169 0 0.032916112049703232 0.037703349541657723 0 0.038573205843025288 0.016093231096547169 0 0.052954557538810627 0.023452921930968599 0 0.02254984327728812 0.02006115608461996 0 0.032916112049703232 0.037703349541657723 0 0.038573205843025288 0.016093231096547169 0 0.052954557538810627 0.023452921930968599 0 0.05708107628875321 0.008349605863279522 0 0.069674851453806072 0.019242693105355362 0 0.038573205843025288 0.016093231096547169 0 0.052954557538810627 0.023452921930968599 0 0.05708107628875321 0.008349605863279522 0 0.05708107628875321 0.008349605863279522 0 0.073087558780478457 0.0038355082269659261 0 0.069674851453806072 0.019242693105355362 0 0.05708107628875321 0.008349605863279522 0 0.073087558780478457 0.0038355082269659261 0 0.063965984480052585 -0.007009831831596214 0 0.073087558780478457 0.0038355082269659261 0 0.092010640503342248 0.01638079425953352 0 0.085708057037023444 -0.0044132752837509528 0 0.073087558780478457 0.0038355082269659261 0 0.092010640503342248 0.01638079425953352 0 0.069674851453806072 0.019242693105355362 0 0.092010640503342248 0.01638079425953352 0 0.080919483881860682 0.02936596267927026 0 0.069674851453806072 0.019242693105355362 0 0.092010640503342248 0.01638079425953352 0 0.080919483881860682 0.02936596267927026 0 0.092226932690226901 0.031776774230844643 0 0.052954557538810627 0.023452921930968599 0 0.069674851453806072 0.019242693105355362 0 0.068622790352706325 0.04121584379011755 0 0.080919483881860682 0.02936596267927026 0 0.069674851453806072 0.019242693105355362 0 0.068622790352706325 0.04121584379011755 0 0.080919483881860682 0.02936596267927026 0 0.068622790352706325 0.04121584379011755 0 0.079299678241311344 0.047736501279411467 0 0.063327693335017587 0.055095609110307038 0 0.079299678241311344 0.047736501279411467 0 0.077010399885444017 0.063035046424187058 0 0.068622790352706325 0.04121584379011755 0 0.063327693335017587 0.055095609110307038 0 0.079299678241311344 0.047736501279411467 0 0.079299678241311344 0.047736501279411467 0 0.088712055662668113 0.056514442233033209 0 0.077010399885444017 0.063035046424187058 0 0.088712055662668113 0.056514442233033209 0 0.090969029319941414 0.042994693451585797 0 0.099379499178818706 0.049199820380889561 0 0.079299678241311344 0.047736501279411467 0 0.088712055662668113 0.056514442233033209 0 0.090969029319941414 0.042994693451585797 0 0.080919483881860682 0.02936596267927026 0 0.079299678241311344 0.047736501279411467 0 0.090969029319941414 0.042994693451585797 0 0.080919483881860682 0.02936596267927026 0 0.090969029319941414 0.042994693451585797 0 0.092226932690226901 0.031776774230844643 0 0.092226932690226901 0.031776774230844643 0 0.1022911634599233 0.040518588602255753 0 0.10284945288023779 0.029213761316337291 0 0.090969029319941414 0.042994693451585797 0 0.092226932690226901 0.031776774230844643 0 0.1022911634599233 0.040518588602255753 0 0.090969029319941414 0.042994693451585797 0 0.1022911634599233 0.040518588602255753 0 0.099379499178818706 0.049199820380889561 0 0.1022911634599233 0.040518588602255753 0 0.099379499178818706 0.049199820380889561 0 0.1148965039992159 0.042570238397055357 0 0.1022911634599233 0.040518588602255753 0 0.10817700622735101 0.035452396000755768 0 0.1148965039992159 0.042570238397055357 0 0.1022911634599233 0.040518588602255753 0 0.10817700622735101 0.035452396000755768 0 0.10284945288023779 0.029213761316337291 0 0.10817700622735101 0.035452396000755768 0 0.11328625649572149 0.029854699669526339 0 0.10284945288023779 0.029213761316337291 0 0.11062629236605009 0.048915630745740728 0 0.097072097192649268 0.074115126048055646 0 0.11062629236605009 0.048915630745740728 0 0.097072097192649268 0.074115126048055646 0 0.1006440953780391 0.063748843202669284 0 0.088712055662668113 0.056514442233033209 0 0.099379499178818706 0.049199820380889561 0 0.1006440953780391 0.063748843202669284 0 0.099379499178818706 0.049199820380889561 0 0.11062629236605009 0.048915630745740728 0 0.1006440953780391 0.063748843202669284 0 0.099379499178818706 0.049199820380889561 0 0.11062629236605009 0.048915630745740728 0 0.1148965039992159 0.042570238397055357 0 0.11062629236605009 0.048915630745740728 0 0.1006440953780391 0.063748843202669284 0 0.1168446063582832 0.057905092192679558 0 0.11062629236605009 0.048915630745740728 0 0.1109153730485526 0.065717478894529932 0 0.1168446063582832 0.057905092192679558 0 0.11062629236605009 0.048915630745740728 0 0.11966196957832639 0.050899674437979388 0 0.11966196957832639 0.050899674437979388 0 0.1245199581964158 0.041085751114384478 0 0.12616091508649771 0.055358362717315847 0 0.11062629236605009 0.048915630745740728 0 0.11966196957832639 0.050899674437979388 0 0.1245199581964158 0.041085751114384478 0 0.1168446063582832 0.057905092192679558 0 0.11966196957832639 0.050899674437979388 0 0.12616091508649771 0.055358362717315847 0 0.1168446063582832 0.057905092192679558 0 0.1204782051597738 0.069896231882758231 0 0.12616091508649771 0.055358362717315847 0 0.1148965039992159 0.042570238397055357 0 0.12517270015156851 0.024383857407019691 0 0.1148965039992159 0.042570238397055357 0 0.11328625649572149 0.029854699669526339 0 0.12517270015156851 0.024383857407019691 0 0.1148965039992159 0.042570238397055357 0 0.1245199581964158 0.041085751114384478 0 0.12517270015156851 0.024383857407019691 0 0.10817700622735101 0.035452396000755768 0 0.1148965039992159 0.042570238397055357 0 0.11328625649572149 0.029854699669526339 0 0.11062629236605009 0.048915630745740728 0 0.1148965039992159 0.042570238397055357 0 0.1245199581964158 0.041085751114384478 0 0.11062629236605009 0.048915630745740728 0 0.1148965039992159 0.042570238397055357 0 0.11328625649572149 0.029854699669526339 0 0.1090779034578031 0.018078913773535151 0 0.12517270015156851 0.024383857407019691 0 0.11282348191201889 0.00088817969455626678 0 0.1090779034578031 0.018078913773535151 0 0.12517270015156851 0.024383857407019691 0 0.092010640503342248 0.01638079425953352 0 0.11282348191201889 0.00088817969455626678 0 0.085708057037023444 -0.0044132752837509528 0 0.092010640503342248 0.01638079425953352 0 0.11282348191201889 0.00088817969455626678 0 0.1090779034578031 0.018078913773535151 0 0.092010640503342248 0.01638079425953352 0 0.10284945288023779 0.029213761316337291 0 0.1090779034578031 0.018078913773535151 0 0.092010640503342248 0.01638079425953352 0 0.092226932690226901 0.031776774230844643 0 0.10284945288023779 0.029213761316337291 0 0.11328625649572149 0.029854699669526339 0 0.10284945288023779 0.029213761316337291 0 0.1090779034578031 0.018078913773535151 0 0.095432395258969266 0.1041113136834038 0 0.12148222858609151 0.1042231587294513 0 0.103440403088585 0.089430599808061159 0 0.095432395258969266 0.1041113136834038 0 0.098000355335783274 0.11730691473043831 0 0.12148222858609151 0.1042231587294513 0 0.095432395258969266 0.1041113136834038 0 0.103440403088585 0.089430599808061159 0 0.093577307218900591 0.093697265744458011 0 0.098000355335783274 0.11730691473043831 0 0.12148222858609151 0.1042231587294513 0 0.1067757195549917 0.12825561517086789 0 0.098000355335783274 0.11730691473043831 0 0.092575843722125489 0.12914084662735381 0 0.1067757195549917 0.12825561517086789 0 0.12148222858609151 0.1042231587294513 0 0.1067757195549917 0.12825561517086789 0 0.12148222858609151 0.1042231587294513 0 0.1067757195549917 0.12825561517086789 0 0.1257811839006113 0.1237321329528436 0 0.12148222858609151 0.1042231587294513 0 0.11811843408548189 0.084482505876629643 0 0.103440403088585 0.089430599808061159 0 0.11811843408548189 0.084482505876629643 0 0.1204782051597738 0.069896231882758231 0 0.1361887376171913 0.08019070228803471 0 0.11811843408548189 0.084482505876629643 0 0.109059557859948 0.077421452621618564 0 0.103440403088585 0.089430599808061159 0 0.11811843408548189 0.084482505876629643 0 0.1204782051597738 0.069896231882758231 0 0.109059557859948 0.077421452621618564 0 0.1204782051597738 0.069896231882758231 0 0.1109153730485526 0.065717478894529932 0 0.109059557859948 0.077421452621618564 0 0.1168446063582832 0.057905092192679558 0 0.1204782051597738 0.069896231882758231 0 0.1109153730485526 0.065717478894529932 0 0.097072097192649268 0.074115126048055646 0 0.1006440953780391 0.063748843202669284 0 0.087007038682556673 0.085275151990434742 0 0.11062629236605009 0.048915630745740728 0 0.1109153730485526 0.065717478894529932 0 0.097072097192649268 0.074115126048055646 0 0.1006440953780391 0.063748843202669284 0 0.087007038682556673 0.085275151990434742 0 0.1109153730485526 0.065717478894529932 0 0.109059557859948 0.077421452621618564 0 0.097072097192649268 0.074115126048055646 0 0.103440403088585 0.089430599808061159 0 0.093577307218900591 0.093697265744458011 0 0.087007038682556673 0.085275151990434742 0 0.097072097192649268 0.074115126048055646 0 0.103440403088585 0.089430599808061159 0 0.087007038682556673 0.085275151990434742 0 0.109059557859948 0.077421452621618564 0 0.097072097192649268 0.074115126048055646 0 0.103440403088585 0.089430599808061159 0 0.093577307218900591 0.093697265744458011 0 0.087007038682556673 0.085275151990434742 0 0.086377910516738252 0.099434342667696449 0 0.087007038682556673 0.085275151990434742 0 0.086017494690853791 0.069102258157034302 0 0.076315040910610185 0.075721111834026092 0 0.1006440953780391 0.063748843202669284 0 0.087007038682556673 0.085275151990434742 0 0.086017494690853791 0.069102258157034302 0 0.088712055662668113 0.056514442233033209 0 0.1006440953780391 0.063748843202669284 0 0.086017494690853791 0.069102258157034302 0 0.086017494690853791 0.069102258157034302 0 0.077010399885444017 0.063035046424187058 0 0.076315040910610185 0.075721111834026092 0 0.088712055662668113 0.056514442233033209 0 0.086017494690853791 0.069102258157034302 0 0.077010399885444017 0.063035046424187058 0 0.063327693335017587 0.055095609110307038 0 0.077010399885444017 0.063035046424187058 0 0.063540251121099955 0.070763522585249553 0 0.077010399885444017 0.063035046424187058 0 0.076315040910610185 0.075721111834026092 0 0.063540251121099955 0.070763522585249553 0 0.087007038682556673 0.085275151990434742 0 0.076315040910610185 0.075721111834026092 0 0.066329800226759855 0.088474409914501673 0 0.087007038682556673 0.085275151990434742 0 0.066329800226759855 0.088474409914501673 0 0.073369981987074187 0.1068014607782003 0 0.076315040910610185 0.075721111834026092 0 0.063540251121099955 0.070763522585249553 0 0.066329800226759855 0.088474409914501673 0 0.066329800226759855 0.088474409914501673 0 0.073369981987074187 0.1068014607782003 0 0.069594701072870344 0.1104829318811295 0 0.087007038682556673 0.085275151990434742 0 0.073369981987074187 0.1068014607782003 0 0.087007038682556673 0.085275151990434742 0 0.073369981987074187 0.1068014607782003 0 0.086377910516738252 0.099434342667696449 0 0.073369981987074187 0.1068014607782003 0 0.083715425285757122 0.10678376568612399 0 0.085030849459053204 0.113687653458011 0 0.073369981987074187 0.1068014607782003 0 0.083715425285757122 0.10678376568612399 0 0.086377910516738252 0.099434342667696449 0 0.095432395258969266 0.1041113136834038 0 0.083715425285757122 0.10678376568612399 0 0.085030849459053204 0.113687653458011 0 0.095432395258969266 0.1041113136834038 0 0.083715425285757122 0.10678376568612399 0 0.086377910516738252 0.099434342667696449 0 0.095432395258969266 0.1041113136834038 0 0.093577307218900591 0.093697265744458011 0 0.086377910516738252 0.099434342667696449 0 0.069594701072870344 0.1104829318811295 0 0.092575843722125489 0.12914084662735381 0 0.085030849459053204 0.113687653458011 0 0.069594701072870344 0.1104829318811295 0 0.092575843722125489 0.12914084662735381 0 0.098000355335783274 0.11730691473043831 0 0.085030849459053204 0.113687653458011 0 0.092575843722125489 0.12914084662735381 0 0.095432395258969266 0.1041113136834038 0 0.098000355335783274 0.11730691473043831 0 0.085030849459053204 0.113687653458011 0 0.069594701072870344 0.1104829318811295 0 0.067215395027280134 0.12268629262793219 0 0.092575843722125489 0.12914084662735381 0 0.073369981987074187 0.1068014607782003 0 0.085030849459053204 0.113687653458011 0 0.069594701072870344 0.1104829318811295 0 0.069594701072870344 0.1104829318811295 0 0.067215395027280134 0.12268629262793219 0 0.060244666502617512 0.116083192775529 0 0.067215395027280134 0.12268629262793219 0 0.051808603573562102 0.1246884213832367 0 0.060244666502617512 0.116083192775529 0 0.051808603573562102 0.1246884213832367 0 0.060244666502617512 0.116083192775529 0 0.052367395761446812 0.1082199678885514 0 0.069594701072870344 0.1104829318811295 0 0.060244666502617512 0.116083192775529 0 0.052367395761446812 0.1082199678885514 0 0.069594701072870344 0.1104829318811295 0 0.046613558423615212 0.091825017134905276 0 0.066329800226759855 0.088474409914501673 0 0.069594701072870344 0.1104829318811295 0 0.046613558423615212 0.091825017134905276 0 0.069594701072870344 0.1104829318811295 0 0.052367395761446812 0.1082199678885514 0 0.046613558423615212 0.091825017134905276 0 0.052367395761446812 0.1082199678885514 0 0.034879791224718959 0.10935603746640379 0 0.046613558423615212 0.091825017134905276 0 0.034879791224718959 0.10935603746640379 0 0.046613558423615212 0.091825017134905276 0 0.031046462340643271 0.091193562902763953 0 0.051808603573562102 0.1246884213832367 0 0.052367395761446812 0.1082199678885514 0 0.034879791224718959 0.10935603746640379 0 0.051808603573562102 0.1246884213832367 0 0.034879791224718959 0.10935603746640379 0 0.035749551737767248 0.1295762003257748 0 0.063327693335017587 0.055095609110307038 0 0.063540251121099955 0.070763522585249553 0 0.051661919990661408 0.064541760028811235 0 0.063540251121099955 0.070763522585249553 0 0.051661919990661408 0.064541760028811235 0 0.048376282425414821 0.075629559109799571 0 0.063540251121099955 0.070763522585249553 0 0.066329800226759855 0.088474409914501673 0 0.048376282425414821 0.075629559109799571 0 0.066329800226759855 0.088474409914501673 0 0.048376282425414821 0.075629559109799571 0 0.046613558423615212 0.091825017134905276 0 0.046613558423615212 0.091825017134905276 0 0.02363241577435763 0.073167102388684041 0 0.031046462340643271 0.091193562902763953 0 0.046613558423615212 0.091825017134905276 0 0.02363241577435763 0.073167102388684041 0 0.048376282425414821 0.075629559109799571 0 0.046613558423615212 0.091825017134905276 0 0.02363241577435763 0.073167102388684041 0 0.048376282425414821 0.075629559109799571 0 0.038479749015994907 0.065005542606645733 0 0.02363241577435763 0.073167102388684041 0 0.051661919990661408 0.064541760028811235 0 0.048376282425414821 0.075629559109799571 0 0.038479749015994907 0.065005542606645733 0 0.028274263912030761 0.055435225965170962 0 0.038479749015994907 0.065005542606645733 0 0.02363241577435763 0.073167102388684041 0 0.028274263912030761 0.055435225965170962 0 0.02363241577435763 0.073167102388684041 0 0.0155671829517384 0.066619106550980495 0 0.028274263912030761 0.055435225965170962 0 0.02363241577435763 0.073167102388684041 0 0.02363241577435763 0.073167102388684041 0 0.0155671829517384 0.066619106550980495 0 0.02363241577435763 0.073167102388684041 0 0.022286148636961489 0.078309847649900968 0 0.02363241577435763 0.073167102388684041 0 0.017263824797691021 0.07546851486791073 0 0.022286148636961489 0.078309847649900968 0 0.02363241577435763 0.073167102388684041 0 0.017263824797691021 0.07546851486791073 0 0.0155671829517384 0.066619106550980495 0 0.02363241577435763 0.073167102388684041 0 0.022286148636961489 0.078309847649900968 0 0.031046462340643271 0.091193562902763953 0 0.031046462340643271 0.091193562902763953 0 0.02173603528780875 0.086292881998510956 0 0.014940638574791019 0.091347587179448603 0 0.01712216597207749 0.081966530447564953 0 0.022286148636961489 0.078309847649900968 0 0.02173603528780875 0.086292881998510956 0 0.017263824797691021 0.07546851486791073 0 0.01712216597207749 0.081966530447564953 0 0.022286148636961489 0.078309847649900968 0 0.022286148636961489 0.078309847649900968 0 0.031046462340643271 0.091193562902763953 0 0.02173603528780875 0.086292881998510956 0 0.01712216597207749 0.081966530447564953 0 0.02173603528780875 0.086292881998510956 0 0.014940638574791019 0.091347587179448603 0 -0.0022182310817397449 0.084616986109569928 0 0.014940638574791019 0.091347587179448603 0 0.002036173543087758 0.1010327718088819 0 -0.0022182310817397449 0.084616986109569928 0 0.014940638574791019 0.091347587179448603 0 0.0091621748758126571 0.078076377908113503 0 0.017263824797691021 0.07546851486791073 0 0.01712216597207749 0.081966530447564953 0 0.0091621748758126571 0.078076377908113503 0 0.01712216597207749 0.081966530447564953 0 0.014940638574791019 0.091347587179448603 0 0.0091621748758126571 0.078076377908113503 0 -0.0022182310817397449 0.084616986109569928 0 0.0091621748758126571 0.078076377908113503 0 5.2914774821825937e-05 0.068765955202620382 0 0.0091621748758126571 0.078076377908113503 0 5.2914774821825937e-05 0.068765955202620382 0 0.0155671829517384 0.066619106550980495 0 0.017263824797691021 0.07546851486791073 0 0.0091621748758126571 0.078076377908113503 0 0.0155671829517384 0.066619106550980495 0 0.0043095648003977829 0.054645729123212097 0 5.2914774821825937e-05 0.068765955202620382 0 0.0155671829517384 0.066619106550980495 0 0.034879791224718959 0.10935603746640379 0 0.019054973034706671 0.12424385260234409 0 0.016603666996647309 0.10698792785563541 0 0.034879791224718959 0.10935603746640379 0 0.019054973034706671 0.12424385260234409 0 0.035749551737767248 0.1295762003257748 0 0.031046462340643271 0.091193562902763953 0 0.014940638574791019 0.091347587179448603 0 0.016603666996647309 0.10698792785563541 0 0.034879791224718959 0.10935603746640379 0 0.031046462340643271 0.091193562902763953 0 0.016603666996647309 0.10698792785563541 0 0.016603666996647309 0.10698792785563541 0 0.002036173543087758 0.1010327718088819 0 0.001602643676593709 0.1197505604973356 0 0.014940638574791019 0.091347587179448603 0 0.016603666996647309 0.10698792785563541 0 0.002036173543087758 0.1010327718088819 0 0.019054973034706671 0.12424385260234409 0 0.016603666996647309 0.10698792785563541 0 0.001602643676593709 0.1197505604973356 0 0.019054973034706671 0.12424385260234409 0 0.001602643676593709 0.1197505604973356 0 0.0052302380533622173 0.13946062954234309 0 0.019054973034706671 0.12424385260234409 0 0.0052302380533622173 0.13946062954234309 0 0.024367399106248241 0.14265175633246191 0 0.019054973034706671 0.12424385260234409 0 0.024367399106248241 0.14265175633246191 0 0.035749551737767248 0.1295762003257748 0 0.024367399106248241 0.14265175633246191 0 0.01291153899277213 0.156167891309791 0 0.029726325102087892 0.16097073612188331 0 -0.010047945575113451 0.16042490400575399 0 0.0052302380533622173 0.13946062954234309 0 0.01291153899277213 0.156167891309791 0 0.0052302380533622173 0.13946062954234309 0 0.024367399106248241 0.14265175633246191 0 0.01291153899277213 0.156167891309791 0 -0.010047945575113451 0.16042490400575399 0 0.01291153899277213 0.156167891309791 0 0.012174290038738369 0.1761176349092779 0 0.012174290038738369 0.1761176349092779 0 0.03006592938574626 0.17707808706397199 0 0.025701286718084089 0.1904007205875469 0 0.012174290038738369 0.1761176349092779 0 0.03006592938574626 0.17707808706397199 0 0.029726325102087892 0.16097073612188331 0 0.01291153899277213 0.156167891309791 0 0.012174290038738369 0.1761176349092779 0 0.029726325102087892 0.16097073612188331 0 0.029726325102087892 0.16097073612188331 0 0.045779767963090932 0.15987177133633801 0 0.042853921072262408 0.17270545987911409 0 0.03006592938574626 0.17707808706397199 0 0.029726325102087892 0.16097073612188331 0 0.042853921072262408 0.17270545987911409 0 0.03006592938574626 0.17707808706397199 0 0.040439026148007921 0.18630619193713621 0 0.025701286718084089 0.1904007205875469 0 0.03006592938574626 0.17707808706397199 0 0.042853921072262408 0.17270545987911409 0 0.040439026148007921 0.18630619193713621 0 0.042853921072262408 0.17270545987911409 0 0.040439026148007921 0.18630619193713621 0 0.05489144694171097 0.1859093374359117 0 0.042853921072262408 0.17270545987911409 0 0.05489144694171097 0.1859093374359117 0 0.056692377950110118 0.1710906745050014 0 0.05489144694171097 0.1859093374359117 0 0.056692377950110118 0.1710906745050014 0 0.067505791101065152 0.18078277762864389 0 0.045779767963090932 0.15987177133633801 0 0.056692377950110118 0.1710906745050014 0 0.061100694268045437 0.15642628917293711 0 0.045779767963090932 0.15987177133633801 0 0.042853921072262408 0.17270545987911409 0 0.056692377950110118 0.1710906745050014 0 0.056692377950110118 0.1710906745050014 0 0.061100694268045437 0.15642628917293711 0 0.068573813397855329 0.16831017438465029 0 0.045779767963090932 0.15987177133633801 0 0.061100694268045437 0.15642628917293711 0 0.043531767716793297 0.14549122809263509 0 0.061100694268045437 0.15642628917293711 0 0.062345438576702862 0.13852142767773171 0 0.043531767716793297 0.14549122809263509 0 0.051808603573562102 0.1246884213832367 0 0.062345438576702862 0.13852142767773171 0 0.043531767716793297 0.14549122809263509 0 0.067215395027280134 0.12268629262793219 0 0.051808603573562102 0.1246884213832367 0 0.062345438576702862 0.13852142767773171 0 0.051808603573562102 0.1246884213832367 0 0.035749551737767248 0.1295762003257748 0 0.043531767716793297 0.14549122809263509 0 0.024367399106248241 0.14265175633246191 0 0.035749551737767248 0.1295762003257748 0 0.043531767716793297 0.14549122809263509 0 0.024367399106248241 0.14265175633246191 0 0.029726325102087892 0.16097073612188331 0 0.043531767716793297 0.14549122809263509 0 0.029726325102087892 0.16097073612188331 0 0.045779767963090932 0.15987177133633801 0 0.043531767716793297 0.14549122809263509 0 0.02254246164907555 0.2359754897048725 0 0.033173840028481477 0.24856065214669679 0 0.01493593853923748 0.25231212075350568 0 0.02254246164907555 0.2359754897048725 0 0.035366311324869767 0.2394924000398693 0 0.033173840028481477 0.24856065214669679 0 0.02254246164907555 0.2359754897048725 0 0.0086896884719066935 0.23776578336380419 0 0.01493593853923748 0.25231212075350568 0 -0.005385523692544171 0.24929328381291499 0 0.0086896884719066935 0.23776578336380419 0 0.01493593853923748 0.25231212075350568 0 0.02254246164907555 0.2359754897048725 0 0.0086896884719066935 0.23776578336380419 0 0.0096859308998218027 0.22318218386266081 0 -0.0043552915850206177 0.2324827301985872 0 0.0086896884719066935 0.23776578336380419 0 0.0096859308998218027 0.22318218386266081 0 0.0096859308998218027 0.22318218386266081 0 0.021064952320629111 0.21678766860344789 0 0.036560883215030787 0.22478812502990009 0 0.02254246164907555 0.2359754897048725 0 0.0096859308998218027 0.22318218386266081 0 0.036560883215030787 0.22478812502990009 0 0.0096859308998218027 0.22318218386266081 0 0.036560883215030787 0.22478812502990009 0 0.021064952320629111 0.21678766860344789 0 0.036560883215030787 0.22478812502990009 0 0.033812176248037958 0.21959484441554031 0 0.027039145451543099 0.20531509709308099 0 0.021064952320629111 0.21678766860344789 0 0.0093493598243874071 0.20224793201591401 0 0.029698129276193089 0.2129067232227487 0 0.021064952320629111 0.21678766860344789 0 0.033812176248037958 0.21959484441554031 0 0.029698129276193089 0.2129067232227487 0 0.027039145451543099 0.20531509709308099 0 0.021064952320629111 0.21678766860344789 0 0.029698129276193089 0.2129067232227487 0 0.027039145451543099 0.20531509709308099 0 0.036876243084562201 0.20992928277892561 0 -0.0094582990268084182 0.20659518038089991 0 0.0096859308998218027 0.22318218386266081 0 0.0093493598243874071 0.20224793201591401 0 0.0096859308998218027 0.22318218386266081 0 0.021064952320629111 0.21678766860344789 0 0.0093493598243874071 0.20224793201591401 0 -0.0045931836233857881 0.18982760473440399 0 0.012174290038738369 0.1761176349092779 0 0.0093493598243874071 0.20224793201591401 0 0.012174290038738369 0.1761176349092779 0 0.0093493598243874071 0.20224793201591401 0 0.025701286718084089 0.1904007205875469 0 0.027039145451543099 0.20531509709308099 0 0.0093493598243874071 0.20224793201591401 0 0.025701286718084089 0.1904007205875469 0 0.027039145451543099 0.20531509709308099 0 0.025701286718084089 0.1904007205875469 0 0.039450744310559123 0.19952292276827971 0 0.040439026148007921 0.18630619193713621 0 0.025701286718084089 0.1904007205875469 0 0.039450744310559123 0.19952292276827971 0 0.039450744310559123 0.19952292276827971 0 0.048620427567987692 0.19463688824868619 0 0.048737950265433011 0.20520412665060911 0 0.040439026148007921 0.18630619193713621 0 0.039450744310559123 0.19952292276827971 0 0.048620427567987692 0.19463688824868619 0 0.040439026148007921 0.18630619193713621 0 0.05489144694171097 0.1859093374359117 0 0.048620427567987692 0.19463688824868619 0 0.05489144694171097 0.1859093374359117 0 0.048620427567987692 0.19463688824868619 0 0.057328717178202829 0.19932540926056361 0 0.05489144694171097 0.1859093374359117 0 0.057328717178202829 0.19932540926056361 0 0.066771803350564332 0.19189547525713541 0 0.048620427567987692 0.19463688824868619 0 0.057328717178202829 0.19932540926056361 0 0.048737950265433011 0.20520412665060911 0 0.057328717178202829 0.19932540926056361 0 0.048737950265433011 0.20520412665060911 0 0.062082778436431993 0.21243711374117741 0 0.057328717178202829 0.19932540926056361 0 0.062082778436431993 0.21243711374117741 0 0.067744689112088183 0.2025334626513966 0 0.062082778436431993 0.21243711374117741 0 0.048068791014854263 0.21537314310602201 0 0.058373605861548182 0.22609156731537031 0 0.048737950265433011 0.20520412665060911 0 0.062082778436431993 0.21243711374117741 0 0.048068791014854263 0.21537314310602201 0 0.048068791014854263 0.21537314310602201 0 0.039711743106667988 0.21693967617947979 0 0.036876243084562201 0.20992928277892561 0 0.039450744310559123 0.19952292276827971 0 0.048737950265433011 0.20520412665060911 0 0.036876243084562201 0.20992928277892561 0 0.048737950265433011 0.20520412665060911 0 0.048068791014854263 0.21537314310602201 0 0.036876243084562201 0.20992928277892561 0 0.027039145451543099 0.20531509709308099 0 0.039450744310559123 0.19952292276827971 0 0.036876243084562201 0.20992928277892561 0 0.029698129276193089 0.2129067232227487 0 0.036876243084562201 0.20992928277892561 0 0.033812176248037958 0.21959484441554031 0 0.039711743106667988 0.21693967617947979 0 0.036876243084562201 0.20992928277892561 0 0.033812176248037958 0.21959484441554031 0 0.039711743106667988 0.21693967617947979 0 0.036560883215030787 0.22478812502990009 0 0.033812176248037958 0.21959484441554031 0 0.036560883215030787 0.22478812502990009 0 0.033812176248037958 0.21959484441554031 0 0.02254246164907555 0.2359754897048725 0 0.036560883215030787 0.22478812502990009 0 0.035366311324869767 0.2394924000398693 0 0.048068791014854263 0.21537314310602201 0 0.039711743106667988 0.21693967617947979 0 0.036560883215030787 0.22478812502990009 0 0.048068791014854263 0.21537314310602201 0 0.036560883215030787 0.22478812502990009 0 0.058373605861548182 0.22609156731537031 0 0.036560883215030787 0.22478812502990009 0 0.058373605861548182 0.22609156731537031 0 0.036560883215030787 0.22478812502990009 0 0.058373605861548182 0.22609156731537031 0 0.049188060406891262 0.2486453332780077 0 0.058373605861548182 0.22609156731537031 0 0.049188060406891262 0.2486453332780077 0 0.065836852148560748 0.2377292258254107 0 0.049188060406891262 0.2486453332780077 0 0.075599413817737854 0.24878499310742461 0 0.049188060406891262 0.2486453332780077 0 0.033173840028481477 0.24856065214669679 0 0.049188060406891262 0.2486453332780077 0 0.035366311324869767 0.2394924000398693 0 0.033173840028481477 0.24856065214669679 0 0.036560883215030787 0.22478812502990009 0 0.049188060406891262 0.2486453332780077 0 0.035366311324869767 0.2394924000398693 0 0.036560883215030787 0.22478812502990009 0 0.049188060406891262 0.2486453332780077 0 0.090431787144937298 0.23717415578260589 0 0.075599413817737854 0.24878499310742461 0 0.080186328508065688 0.22739500960084011 0 0.090431787144937298 0.23717415578260589 0 0.075599413817737854 0.24878499310742461 0 0.1020107672285845 0.24892465293684121 0 0.075599413817737854 0.24878499310742461 0 0.1020107672285845 0.24892465293684121 0 0.065836852148560748 0.2377292258254107 0 0.075599413817737854 0.24878499310742461 0 0.080186328508065688 0.22739500960084011 0 0.049188060406891262 0.2486453332780077 0 0.065836852148560748 0.2377292258254107 0 0.075599413817737854 0.24878499310742461 0 0.058373605861548182 0.22609156731537031 0 0.080186328508065688 0.22739500960084011 0 0.062082778436431993 0.21243711374117741 0 0.058373605861548182 0.22609156731537031 0 0.080186328508065688 0.22739500960084011 0 0.058373605861548182 0.22609156731537031 0 0.065836852148560748 0.2377292258254107 0 0.080186328508065688 0.22739500960084011 0 0.090431787144937298 0.23717415578260589 0 0.080186328508065688 0.22739500960084011 0 0.1019990511545833 0.22869845188630861 0 0.080186328508065688 0.22739500960084011 0 0.1019990511545833 0.22869845188630861 0 0.080186328508065688 0.22739500960084011 0 0.091756848239077579 0.21693223545429921 0 0.1019990511545833 0.22869845188630861 0 0.080186328508065688 0.22739500960084011 0 0.091756848239077579 0.21693223545429921 0 0.078930441644673846 0.20958850163369219 0 0.091756848239077579 0.21693223545429921 0 0.078930441644673846 0.20958850163369219 0 0.092916616657680279 0.2017172701192245 0 0.062082778436431993 0.21243711374117741 0 0.080186328508065688 0.22739500960084011 0 0.078930441644673846 0.20958850163369219 0 0.062082778436431993 0.21243711374117741 0 0.078930441644673846 0.20958850163369219 0 0.067744689112088183 0.2025334626513966 0 0.067744689112088183 0.2025334626513966 0 0.066771803350564332 0.19189547525713541 0 0.078895388914699369 0.1965159182352155 0 0.078930441644673846 0.20958850163369219 0 0.067744689112088183 0.2025334626513966 0 0.078895388914699369 0.1965159182352155 0 0.057328717178202829 0.19932540926056361 0 0.067744689112088183 0.2025334626513966 0 0.066771803350564332 0.19189547525713541 0 0.066771803350564332 0.19189547525713541 0 0.078895388914699369 0.1965159182352155 0 0.079358507480206564 0.18423669711159171 0 0.078895388914699369 0.1965159182352155 0 0.09060473893201379 0.18826441863464691 0 0.079358507480206564 0.18423669711159171 0 0.078930441644673846 0.20958850163369219 0 0.078895388914699369 0.1965159182352155 0 0.092916616657680279 0.2017172701192245 0 0.078895388914699369 0.1965159182352155 0 0.092916616657680279 0.2017172701192245 0 0.09060473893201379 0.18826441863464691 0 0.092916616657680279 0.2017172701192245 0 0.10334821584396529 0.18942374804990059 0 0.11349323352219221 0.20885079905217929 0 0.092916616657680279 0.2017172701192245 0 0.09060473893201379 0.18826441863464691 0 0.10334821584396529 0.18942374804990059 0 0.10334821584396529 0.18942374804990059 0 0.1249874158898005 0.1890031462180497 0 0.11349323352219221 0.20885079905217929 0 0.1249874158898005 0.1890031462180497 0 0.11349323352219221 0.20885079905217929 0 0.1249874158898005 0.1890031462180497 0 0.11349323352219221 0.20885079905217929 0 0.1251176174820747 0.20622408870014591 0 0.11349323352219221 0.20885079905217929 0 0.1208174146846747 0.21872485091644989 0 0.1251176174820747 0.20622408870014591 0 0.091756848239077579 0.21693223545429921 0 0.11349323352219221 0.20885079905217929 0 0.1019990511545833 0.22869845188630861 0 0.091756848239077579 0.21693223545429921 0 0.092916616657680279 0.2017172701192245 0 0.11349323352219221 0.20885079905217929 0 0.11349323352219221 0.20885079905217929 0 0.1019990511545833 0.22869845188630861 0 0.1019990511545833 0.22869845188630861 0 0.11317590055616319 0.2343136260571678 0 0.10509123112408369 0.23868405993591149 0 0.1019990511545833 0.22869845188630861 0 0.12815088529730639 0.2302611823632254 0 0.1208174146846747 0.21872485091644989 0 0.1019990511545833 0.22869845188630861 0 0.12815088529730639 0.2302611823632254 0 0.11349323352219221 0.20885079905217929 0 0.1208174146846747 0.21872485091644989 0 0.1019990511545833 0.22869845188630861 0 0.1019990511545833 0.22869845188630861 0 0.11317590055616319 0.2343136260571678 0 0.12815088529730639 0.2302611823632254 0 0.11317590055616319 0.2343136260571678 0 0.12169901011353609 0.2359802674308456 0 0.12815088529730639 0.2302611823632254 0 0.1020107672285845 0.24892465293684121 0 0.12842212063943101 0.24906431276625779 0 0.1165238963252522 0.24078923312344891 0 0.1020107672285845 0.24892465293684121 0 0.12842212063943101 0.24906431276625779 0 0.11317590055616319 0.2343136260571678 0 0.1165238963252522 0.24078923312344891 0 0.12169901011353609 0.2359802674308456 0 0.11317590055616319 0.2343136260571678 0 0.1165238963252522 0.24078923312344891 0 0.10509123112408369 0.23868405993591149 0 0.1165238963252522 0.24078923312344891 0 0.12169901011353609 0.2359802674308456 0 0.12874434828971471 0.2377684796136697 0 0.1165238963252522 0.24078923312344891 0 0.12842212063943101 0.24906431276625779 0 0.12874434828971471 0.2377684796136697 0 0.1165238963252522 0.24078923312344891 0 0.1020107672285845 0.24892465293684121 0 0.10509123112408369 0.23868405993591149 0 0.090431787144937298 0.23717415578260589 0 0.1019990511545833 0.22869845188630861 0 0.10509123112408369 0.23868405993591149 0 0.090431787144937298 0.23717415578260589 0 0.1020107672285845 0.24892465293684121 0 0.10509123112408369 0.23868405993591149 0 0.082715215863809477 0.15557416093016699 0 0.092069210523893122 0.152288071612285 0 0.076291660272331238 0.1487979762404997 0 0.092069210523893122 0.152288071612285 0 0.074537749952802546 0.13273448794449841 0 0.092069210523893122 0.152288071612285 0 0.074537749952802546 0.13273448794449841 0 0.076291660272331238 0.1487979762404997 0 0.082715215863809477 0.15557416093016699 0 0.076291660272331238 0.1487979762404997 0 0.075920233435878587 0.15995200657572389 0 0.092069210523893122 0.152288071612285 0 0.092575843722125489 0.12914084662735381 0 0.074537749952802546 0.13273448794449841 0 0.067215395027280134 0.12268629262793219 0 0.062345438576702862 0.13852142767773171 0 0.074537749952802546 0.13273448794449841 0 0.062345438576702862 0.13852142767773171 0 0.074537749952802546 0.13273448794449841 0 0.076291660272331238 0.1487979762404997 0 0.067215395027280134 0.12268629262793219 0 0.092575843722125489 0.12914084662735381 0 0.074537749952802546 0.13273448794449841 0 0.061100694268045437 0.15642628917293711 0 0.062345438576702862 0.13852142767773171 0 0.076291660272331238 0.1487979762404997 0 0.061100694268045437 0.15642628917293711 0 0.076291660272331238 0.1487979762404997 0 0.075920233435878587 0.15995200657572389 0 0.061100694268045437 0.15642628917293711 0 0.068573813397855329 0.16831017438465029 0 0.075920233435878587 0.15995200657572389 0 0.068573813397855329 0.16831017438465029 0 0.075920233435878587 0.15995200657572389 0 0.079395597857583308 0.17166105706115431 0 0.05489144694171097 0.1859093374359117 0 0.066771803350564332 0.19189547525713541 0 0.067505791101065152 0.18078277762864389 0 0.056692377950110118 0.1710906745050014 0 0.068573813397855329 0.16831017438465029 0 0.067505791101065152 0.18078277762864389 0 0.067505791101065152 0.18078277762864389 0 0.079358507480206564 0.18423669711159171 0 0.079395597857583308 0.17166105706115431 0 0.068573813397855329 0.16831017438465029 0 0.067505791101065152 0.18078277762864389 0 0.079395597857583308 0.17166105706115431 0 0.066771803350564332 0.19189547525713541 0 0.067505791101065152 0.18078277762864389 0 0.079358507480206564 0.18423669711159171 0 0.079358507480206564 0.18423669711159171 0 0.093276970074472859 0.17601537518567861 0 0.079395597857583308 0.17166105706115431 0 0.09060473893201379 0.18826441863464691 0 0.079358507480206564 0.18423669711159171 0 0.093276970074472859 0.17601537518567861 0 0.082715215863809477 0.15557416093016699 0 0.075920233435878587 0.15995200657572389 0 0.086579759223134947 0.1612585892921593 0 0.075920233435878587 0.15995200657572389 0 0.079395597857583308 0.17166105706115431 0 0.086579759223134947 0.1612585892921593 0 0.093276970074472859 0.17601537518567861 0 0.079395597857583308 0.17166105706115431 0 0.086579759223134947 0.1612585892921593 0 0.082715215863809477 0.15557416093016699 0 0.092069210523893122 0.152288071612285 0 0.086579759223134947 0.1612585892921593 0 0.092069210523893122 0.152288071612285 0 0.086579759223134947 0.1612585892921593 0 0.092069210523893122 0.152288071612285 0 0.1030940595440388 0.16458455466148411 0 0.10674348304235159 0.15228577365023829 0 0.092069210523893122 0.152288071612285 0 0.1030940595440388 0.16458455466148411 0 0.093276970074472859 0.17601537518567861 0 0.086579759223134947 0.1612585892921593 0 0.1030940595440388 0.16458455466148411 0 0.092069210523893122 0.152288071612285 0 0.086579759223134947 0.1612585892921593 0 0.1030940595440388 0.16458455466148411 0 0.1030940595440388 0.16458455466148411 0 0.1141189085641839 0.1768810377106837 0 0.1030940595440388 0.16458455466148411 0 0.1143529930304279 0.1590426050701228 0 0.10674348304235159 0.15228577365023829 0 0.10334821584396529 0.18942374804990059 0 0.093276970074472859 0.17601537518567861 0 0.1141189085641839 0.1768810377106837 0 0.093276970074472859 0.17601537518567861 0 0.1030940595440388 0.16458455466148411 0 0.1141189085641839 0.1768810377106837 0 0.09060473893201379 0.18826441863464691 0 0.10334821584396529 0.18942374804990059 0 0.093276970074472859 0.17601537518567861 0 0.10334821584396529 0.18942374804990059 0 0.1141189085641839 0.1768810377106837 0 0.10334821584396529 0.18942374804990059 0 0.1249874158898005 0.1890031462180497 0 0.1141189085641839 0.1768810377106837 0 0.1249874158898005 0.1890031462180497 0 0.1141189085641839 0.1768810377106837 0 0.134130918925258 0.17321454393808791 0 0.1249874158898005 0.1890031462180497 0 0.1141189085641839 0.1768810377106837 0 0.1141189085641839 0.1768810377106837 0 0.1143529930304279 0.1590426050701228 0 0.132946965081819 0.15495534868717961 0 0.1141189085641839 0.1768810377106837 0 0.132946965081819 0.15495534868717961 0 0.1030940595440388 0.16458455466148411 0 0.1141189085641839 0.1768810377106837 0 0.1143529930304279 0.1590426050701228 0 0.1143529930304279 0.1590426050701228 0 0.1148615489197484 0.1465063106410302 0 0.132946965081819 0.15495534868717961 0 0.1148615489197484 0.1465063106410302 0 0.132946965081819 0.15495534868717961 0 0.12692284821571179 0.14145760206862379 0 0.1148615489197484 0.1465063106410302 0 0.1181491377636737 0.13489638029194251 0 0.12692284821571179 0.14145760206862379 0 0.1148615489197484 0.1465063106410302 0 0.1077198199609317 0.14284643027327279 0 0.1181491377636737 0.13489638029194251 0 0.1148615489197484 0.1465063106410302 0 0.10674348304235159 0.15228577365023829 0 0.1077198199609317 0.14284643027327279 0 0.1143529930304279 0.1590426050701228 0 0.1148615489197484 0.1465063106410302 0 0.10674348304235159 0.15228577365023829 0 0.092069210523893122 0.152288071612285 0 0.10674348304235159 0.15228577365023829 0 0.1077198199609317 0.14284643027327279 0 0.092069210523893122 0.152288071612285 0 0.1077198199609317 0.14284643027327279 0 0.1067757195549917 0.12825561517086789 0 0.092069210523893122 0.152288071612285 0 0.092575843722125489 0.12914084662735381 0 0.1067757195549917 0.12825561517086789 0 0.092069210523893122 0.152288071612285 0 0.1067757195549917 0.12825561517086789 0 0.1067757195549917 0.12825561517086789 0 0.1181491377636737 0.13489638029194251 0 0.1257811839006113 0.1237321329528436 0 0.1077198199609317 0.14284643027327279 0 0.1067757195549917 0.12825561517086789 0 0.1181491377636737 0.13489638029194251 0 0.1181491377636737 0.13489638029194251 0 0.1304997208334609 0.13410001784834891 0 0.1257811839006113 0.1237321329528436 0 0.1304997208334609 0.13410001784834891 0 0.1257811839006113 0.1237321329528436 0 0.13927377004872221 0.1249659211089434 0 0.1304997208334609 0.13410001784834891 0 0.1381568684798572 0.1368299528746181 0 0.15240924386951121 0.1328526730660135 0 0.1181491377636737 0.13489638029194251 0 0.1304997208334609 0.13410001784834891 0 0.12692284821571179 0.14145760206862379 0 0.1304997208334609 0.13410001784834891 0 0.1381568684798572 0.1368299528746181 0 0.12692284821571179 0.14145760206862379 0 0.1304997208334609 0.13410001784834891 0 0.15240924386951121 0.1328526730660135 0 0.13927377004872221 0.1249659211089434 0 0.1304997208334609 0.13410001784834891 0 0.15240924386951121 0.1328526730660135 0 0.1381568684798572 0.1368299528746181 0 0.15240924386951121 0.1328526730660135 0 0.1381568684798572 0.1368299528746181 0 0.15240924386951121 0.1328526730660135 0 0.132946965081819 0.15495534868717961 0 0.15240924386951121 0.1328526730660135 0 0.132946965081819 0.15495534868717961 0 0.14327442196071569 0.15742594165812629 0 0.15240924386951121 0.1328526730660135 0 0.132946965081819 0.15495534868717961 0 0.1562135338085493 0.1350832476130506 0 0.14327442196071569 0.15742594165812629 0 0.15819383810000379 0.14588468652849171 0 0.15240924386951121 0.1328526730660135 0 0.1562135338085493 0.1350832476130506 0 0.14327442196071569 0.15742594165812629 0 0.1562135338085493 0.1350832476130506 0 0.14327442196071569 0.15742594165812629 0 0.14327442196071569 0.15742594165812629 0 0.15810312648874919 0.15800502685202231 0 0.15819383810000379 0.14588468652849171 0 0.1381568684798572 0.1368299528746181 0 0.132946965081819 0.15495534868717961 0 0.12692284821571179 0.14145760206862379 0 0.1141189085641839 0.1768810377106837 0 0.132946965081819 0.15495534868717961 0 0.134130918925258 0.17321454393808791 0 0.132946965081819 0.15495534868717961 0 0.134130918925258 0.17321454393808791 0 0.14327442196071569 0.15742594165812629 0 0.134130918925258 0.17321454393808791 0 0.14327442196071569 0.15742594165812629 0 0.1249874158898005 0.1890031462180497 0 0.134130918925258 0.17321454393808791 0 0.1249874158898005 0.1890031462180497 0 0.134130918925258 0.17321454393808791 0 0.13718354290068099 0.1851465337217276 0 0.134130918925258 0.17321454393808791 0 0.13718354290068099 0.1851465337217276 0 0.14563744911786911 0.17695287344870439 0 0.14563744911786911 0.17695287344870439 0 0.15503393627588849 0.16933175977073109 0 0.16679345059106121 0.181237577883336 0 0.14563744911786911 0.17695287344870439 0 0.16679345059106121 0.181237577883336 0 0.1494507665667438 0.1890913532467175 0 0.13718354290068099 0.1851465337217276 0 0.14563744911786911 0.17695287344870439 0 0.1494507665667438 0.1890913532467175 0 0.134130918925258 0.17321454393808791 0 0.14563744911786911 0.17695287344870439 0 0.14327442196071569 0.15742594165812629 0 0.14563744911786911 0.17695287344870439 0 0.14327442196071569 0.15742594165812629 0 0.15503393627588849 0.16933175977073109 0 0.14327442196071569 0.15742594165812629 0 0.15503393627588849 0.16933175977073109 0 0.14327442196071569 0.15742594165812629 0 0.15503393627588849 0.16933175977073109 0 0.15810312648874919 0.15800502685202231 0 0.15503393627588849 0.16933175977073109 0 0.16953726362593571 0.16357676000194821 0 0.16679345059106121 0.181237577883336 0 0.15503393627588849 0.16933175977073109 0 0.15810312648874919 0.15800502685202231 0 0.16953726362593571 0.16357676000194821 0 0.15810312648874919 0.15800502685202231 0 0.16953726362593571 0.16357676000194821 0 0.16664562714417661 0.15261518246940681 0 0.16679345059106121 0.181237577883336 0 0.1494507665667438 0.1890913532467175 0 0.15503393627588849 0.16933175977073109 0 0.16679345059106121 0.181237577883336 0 0.16679345059106121 0.181237577883336 0 0.1915291670571686 0.1700358077130017 0 0.16679345059106121 0.181237577883336 0 0.1826170956332642 0.19725808984511209 0 0.1915291670571686 0.1700358077130017 0 0.16953726362593571 0.16357676000194821 0 0.16679345059106121 0.181237577883336 0 0.1915291670571686 0.1700358077130017 0 0.16953726362593571 0.16357676000194821 0 0.1807167944634048 0.14902409630665381 0 0.1915291670571686 0.1700358077130017 0 0.1807167944634048 0.14902409630665381 0 0.1718067906134618 0.13174833917972109 0 0.16987415357245811 0.1441631246248426 0 0.16953726362593571 0.16357676000194821 0 0.1807167944634048 0.14902409630665381 0 0.16664562714417661 0.15261518246940681 0 0.1807167944634048 0.14902409630665381 0 0.16664562714417661 0.15261518246940681 0 0.16987415357245811 0.1441631246248426 0 0.1718067906134618 0.13174833917972109 0 0.19886122583489579 0.13020808617846061 0 0.17748078706293041 0.12585618723207179 0 0.1718067906134618 0.13174833917972109 0 0.19886122583489579 0.13020808617846061 0 0.1807167944634048 0.14902409630665381 0 0.1718067906134618 0.13174833917972109 0 0.19886122583489579 0.13020808617846061 0 0.17748078706293041 0.12585618723207179 0 0.1718067906134618 0.13174833917972109 0 0.15240924386951121 0.1328526730660135 0 0.17748078706293041 0.12585618723207179 0 0.1718067906134618 0.13174833917972109 0 0.15819383810000379 0.14588468652849171 0 0.16987415357245811 0.1441631246248426 0 0.15240924386951121 0.1328526730660135 0 0.17748078706293041 0.12585618723207179 0 0.1718067906134618 0.13174833917972109 0 0.15240924386951121 0.1328526730660135 0 0.1562135338085493 0.1350832476130506 0 0.1718067906134618 0.13174833917972109 0 0.15240924386951121 0.1328526730660135 0 0.1718067906134618 0.13174833917972109 0 0.1718067906134618 0.13174833917972109 0 0.15819383810000379 0.14588468652849171 0 0.1562135338085493 0.1350832476130506 0 0.1718067906134618 0.13174833917972109 0 0.15819383810000379 0.14588468652849171 0 0.15810312648874919 0.15800502685202231 0 0.15819383810000379 0.14588468652849171 0 0.16664562714417661 0.15261518246940681 0 0.15819383810000379 0.14588468652849171 0 0.16664562714417661 0.15261518246940681 0 0.16987415357245811 0.1441631246248426 0 0.15441663236692249 0.23846815955472289 0 0.14142611014427289 0.24378275514704609 0 0.12874434828971471 0.2377684796136697 0 0.15483347405027731 0.24920397259567451 0 0.14142611014427289 0.24378275514704609 0 0.12842212063943101 0.24906431276625779 0 0.15441663236692249 0.23846815955472289 0 0.12874434828971471 0.2377684796136697 0 0.15441663236692249 0.23846815955472289 0 0.12874434828971471 0.2377684796136697 0 0.1543027194400296 0.23182391284014089 0 0.15483347405027731 0.24920397259567451 0 0.12842212063943101 0.24906431276625779 0 0.1521228616034459 0.2440536868732601 0 0.15483347405027731 0.24920397259567451 0 0.14142611014427289 0.24378275514704609 0 0.1521228616034459 0.2440536868732601 0 0.15441663236692249 0.23846815955472289 0 0.15781522985231089 0.2447598601955969 0 0.1521228616034459 0.2440536868732601 0 0.15483347405027731 0.24920397259567451 0 0.15781522985231089 0.2447598601955969 0 0.1521228616034459 0.2440536868732601 0 0.15441663236692249 0.23846815955472289 0 0.14142611014427289 0.24378275514704609 0 0.14142611014427289 0.24378275514704609 0 0.12842212063943101 0.24906431276625779 0 0.12874434828971471 0.2377684796136697 0 0.12169901011353609 0.2359802674308456 0 0.12874434828971471 0.2377684796136697 0 0.12815088529730639 0.2302611823632254 0 0.12874434828971471 0.2377684796136697 0 0.12815088529730639 0.2302611823632254 0 0.1543027194400296 0.23182391284014089 0 0.12815088529730639 0.2302611823632254 0 0.1487589948407862 0.21551659933558279 0 0.13088964646401069 0.21545388233844609 0 0.1208174146846747 0.21872485091644989 0 0.12815088529730639 0.2302611823632254 0 0.13088964646401069 0.21545388233844609 0 0.12815088529730639 0.2302611823632254 0 0.1543027194400296 0.23182391284014089 0 0.1487589948407862 0.21551659933558279 0 0.1543027194400296 0.23182391284014089 0 0.1487589948407862 0.21551659933558279 0 0.16550317883417559 0.21955467631862891 0 0.12815088529730639 0.2302611823632254 0 0.1543027194400296 0.23182391284014089 0 0.1487589948407862 0.21551659933558279 0 0.1321080825424277 0.19694512861010149 0 0.14824844292746889 0.2010597148862352 0 0.1487589948407862 0.21551659933558279 0 0.14824844292746889 0.2010597148862352 0 0.16267592775991829 0.2026857783525387 0 0.1487589948407862 0.21551659933558279 0 0.13088964646401069 0.21545388233844609 0 0.13251536955510629 0.2058597514551411 0 0.1487589948407862 0.21551659933558279 0 0.1321080825424277 0.19694512861010149 0 0.1487589948407862 0.21551659933558279 0 0.13251536955510629 0.2058597514551411 0 0.1321080825424277 0.19694512861010149 0 0.1208174146846747 0.21872485091644989 0 0.13088964646401069 0.21545388233844609 0 0.1251176174820747 0.20622408870014591 0 0.1251176174820747 0.20622408870014591 0 0.13251536955510629 0.2058597514551411 0 0.13019154367241181 0.19781304880856371 0 0.13088964646401069 0.21545388233844609 0 0.1251176174820747 0.20622408870014591 0 0.13251536955510629 0.2058597514551411 0 0.1249874158898005 0.1890031462180497 0 0.1251176174820747 0.20622408870014591 0 0.13019154367241181 0.19781304880856371 0 0.13718354290068099 0.1851465337217276 0 0.1321080825424277 0.19694512861010149 0 0.1494507665667438 0.1890913532467175 0 0.13251536955510629 0.2058597514551411 0 0.1321080825424277 0.19694512861010149 0 0.13019154367241181 0.19781304880856371 0 0.1321080825424277 0.19694512861010149 0 0.13019154367241181 0.19781304880856371 0 0.1249874158898005 0.1890031462180497 0 0.1321080825424277 0.19694512861010149 0 0.13019154367241181 0.19781304880856371 0 0.1249874158898005 0.1890031462180497 0 0.1321080825424277 0.19694512861010149 0 0.1249874158898005 0.1890031462180497 0 0.13718354290068099 0.1851465337217276 0 0.1321080825424277 0.19694512861010149 0 0.1321080825424277 0.19694512861010149 0 0.1494507665667438 0.1890913532467175 0 0.1321080825424277 0.19694512861010149 0 0.14824844292746889 0.2010597148862352 0 0.1494507665667438 0.1890913532467175 0 0.14824844292746889 0.2010597148862352 0 0.1494507665667438 0.1890913532467175 0 0.16267592775991829 0.2026857783525387 0 0.16679345059106121 0.181237577883336 0 0.16267592775991829 0.2026857783525387 0 0.1826170956332642 0.19725808984511209 0 0.16679345059106121 0.181237577883336 0 0.1494507665667438 0.1890913532467175 0 0.16267592775991829 0.2026857783525387 0 0.16679345059106121 0.181237577883336 0 0.1826170956332642 0.19725808984511209 0 0.16267592775991829 0.2026857783525387 0 0.1826170956332642 0.19725808984511209 0 0.17959645403194449 0.21378509579895791 0 0.1826170956332642 0.19725808984511209 0 0.17959645403194449 0.21378509579895791 0 0.1984407406754673 0.21327860180688801 0 0.16267592775991829 0.2026857783525387 0 0.17959645403194449 0.21378509579895791 0 0.16550317883417559 0.21955467631862891 0 0.1487589948407862 0.21551659933558279 0 0.16267592775991829 0.2026857783525387 0 0.16550317883417559 0.21955467631862891 0 0.1543027194400296 0.23182391284014089 0 0.16550317883417559 0.21955467631862891 0 0.18045455358275281 0.23338664331705641 0 0.1543027194400296 0.23182391284014089 0 0.18045455358275281 0.23338664331705641 0 0.17959645403194449 0.21378509579895791 0 0.18045455358275281 0.23338664331705641 0 0.1984407406754673 0.21327860180688801 0 0.17959645403194449 0.21378509579895791 0 0.16550317883417559 0.21955467631862891 0 0.18045455358275281 0.23338664331705641 0 0.1800889164441303 0.23916783949577619 0 0.18132649927743749 0.24536976147728409 0 0.19039254197853331 0.24498135347324501 0 0.18536847187354341 0.24877511519777609 0 0.18132649927743749 0.24536976147728409 0 0.19039254197853331 0.24498135347324501 0 0.18536847187354341 0.24877511519777609 0 0.18132649927743749 0.24536976147728409 0 0.17863838944849589 0.25247101701671731 0 0.18132649927743749 0.24536976147728409 0 0.17520083133244771 0.24604225849407099 0 0.17863838944849589 0.25247101701671731 0 0.1800889164441303 0.23916783949577619 0 0.17520083133244771 0.24604225849407099 0 0.16709514297165479 0.24379247500549439 0 0.17520083133244771 0.24604225849407099 0 0.16982464433405869 0.25049927989616733 0 0.17863838944849589 0.25247101701671731 0 0.1800889164441303 0.23916783949577619 0 0.18132649927743749 0.24536976147728409 0 0.17520083133244771 0.24604225849407099 0 0.15441663236692249 0.23846815955472289 0 0.1543027194400296 0.23182391284014089 0 0.18045455358275281 0.23338664331705641 0 0.17520083133244771 0.24604225849407099 0 0.16709514297165479 0.24379247500549439 0 0.16982464433405869 0.25049927989616733 0 0.15441663236692249 0.23846815955472289 0 0.1800889164441303 0.23916783949577619 0 0.15441663236692249 0.23846815955472289 0 0.18045455358275281 0.23338664331705641 0 0.1800889164441303 0.23916783949577619 0 0.15441663236692249 0.23846815955472289 0 0.1800889164441303 0.23916783949577619 0 0.16709514297165479 0.24379247500549439 0 0.16709514297165479 0.24379247500549439 0 0.16301415405994099 0.2487187799899023 0 0.16982464433405869 0.25049927989616733 0 0.15441663236692249 0.23846815955472289 0 0.16709514297165479 0.24379247500549439 0 0.15781522985231089 0.2447598601955969 0 0.15483347405027731 0.24920397259567451 0 0.15781522985231089 0.2447598601955969 0 0.16301415405994099 0.2487187799899023 0 0.16709514297165479 0.24379247500549439 0 0.15781522985231089 0.2447598601955969 0 0.16301415405994099 0.2487187799899023 0 0.21844555229601689 0.2457867669992943 0 0.20576120052133801 0.23986751943682949 0 0.2314334845985456 0.24056719937788529 0 0.2066063877254761 0.23494937379397191 0 0.20576120052133801 0.23986751943682949 0 0.2314334845985456 0.24056719937788529 0 0.20576120052133801 0.23986751943682949 0 0.2314334845985456 0.24056719937788529 0 0.21844555229601689 0.2457867669992943 0 0.2094280185885794 0.24711730631398141 0 0.20907279808091611 0.25517521009296568 0 0.21844555229601689 0.2457867669992943 0 0.20576120052133801 0.23986751943682949 0 0.2094280185885794 0.24711730631398141 0 0.2094280185885794 0.24711730631398141 0 0.20443252345604671 0.24763972872683621 0 0.20907279808091611 0.25517521009296568 0 0.20576120052133801 0.23986751943682949 0 0.2094280185885794 0.24711730631398141 0 0.20443252345604671 0.24763972872683621 0 0.20576120052133801 0.23986751943682949 0 0.19803038949263749 0.24635307038681581 0 0.19039254197853331 0.24498135347324501 0 0.18045455358275281 0.23338664331705641 0 0.1800889164441303 0.23916783949577619 0 0.20576120052133801 0.23986751943682949 0 0.18045455358275281 0.23338664331705641 0 0.2066063877254761 0.23494937379397191 0 0.20576120052133801 0.23986751943682949 0 0.20443252345604671 0.24763972872683621 0 0.19803038949263749 0.24635307038681581 0 0.1992518842695819 0.25285521611731221 0 0.1800889164441303 0.23916783949577619 0 0.20576120052133801 0.23986751943682949 0 0.19039254197853331 0.24498135347324501 0 0.1800889164441303 0.23916783949577619 0 0.20576120052133801 0.23986751943682949 0 0.20576120052133801 0.23986751943682949 0 0.20443252345604671 0.24763972872683621 0 0.19803038949263749 0.24635307038681581 0 0.19803038949263749 0.24635307038681581 0 0.19177977426211329 0.25035481484498823 0 0.1992518842695819 0.25285521611731221 0 0.19803038949263749 0.24635307038681581 0 0.19039254197853331 0.24498135347324501 0 0.19177977426211329 0.25035481484498823 0 0.18536847187354341 0.24877511519777609 0 0.19039254197853331 0.24498135347324501 0 0.19177977426211329 0.25035481484498823 0 0.18045455358275281 0.23338664331705641 0 0.2066063877254761 0.23494937379397191 0 0.1984407406754673 0.21327860180688801 0 0.18045455358275281 0.23338664331705641 0 0.2066063877254761 0.23494937379397191 0 0.2142643857176704 0.22929911376866391 0 0.1984407406754673 0.21327860180688801 0 0.2142643857176704 0.22929911376866391 0 0.21130985716955081 0.21639248116850951 0 0.1984407406754673 0.21327860180688801 0 0.2066063877254761 0.23494937379397191 0 0.2142643857176704 0.22929911376866391 0 0.1984407406754673 0.21327860180688801 0 0.2066063877254761 0.23494937379397191 0 0.2142643857176704 0.22929911376866391 0 0.22200954115487401 0.23075448943789631 0 0.2142643857176704 0.22929911376866391 0 0.21130985716955081 0.21639248116850951 0 0.22028345136832711 0.22393506213968051 0 0.21130985716955081 0.21639248116850951 0 0.2076299566722947 0.19218165867231049 0 0.22394534402746821 0.21229195766569939 0 0.21130985716955081 0.21639248116850951 0 0.1984407406754673 0.21327860180688801 0 0.2076299566722947 0.19218165867231049 0 0.21130985716955081 0.21639248116850951 0 0.22394534402746821 0.21229195766569939 0 0.22028345136832711 0.22393506213968051 0 0.1826170956332642 0.19725808984511209 0 0.1984407406754673 0.21327860180688801 0 0.1826170956332642 0.19725808984511209 0 0.1984407406754673 0.21327860180688801 0 0.2076299566722947 0.19218165867231049 0 0.2076299566722947 0.19218165867231049 0 0.22394534402746821 0.21229195766569939 0 0.2298801231866405 0.17967081525449469 0 0.24260117369921549 0.2063822764758719 0 0.22394534402746821 0.21229195766569939 0 0.2298801231866405 0.17967081525449469 0 0.24260117369921549 0.2063822764758719 0 0.25178330512113389 0.17827525702852451 0 0.24260117369921549 0.2063822764758719 0 0.2298801231866405 0.17967081525449469 0 0.25178330512113389 0.17827525702852451 0 0.24260117369921549 0.2063822764758719 0 0.22394534402746821 0.21229195766569939 0 0.22988812877207221 0.23093726865763359 0 0.22394534402746821 0.21229195766569939 0 0.22028345136832711 0.22393506213968051 0 0.22988812877207221 0.23093726865763359 0 0.2066063877254761 0.23494937379397191 0 0.22200954115487401 0.23075448943789631 0 0.23275822186819889 0.23651210427089239 0 0.22028345136832711 0.22393506213968051 0 0.22200954115487401 0.23075448943789631 0 0.22988812877207221 0.23093726865763359 0 0.2142643857176704 0.22929911376866391 0 0.22028345136832711 0.22393506213968051 0 0.22200954115487401 0.23075448943789631 0 0.22200954115487401 0.23075448943789631 0 0.22988812877207221 0.23093726865763359 0 0.23275822186819889 0.23651210427089239 0 0.22988812877207221 0.23093726865763359 0 0.2334190422772989 0.23448929592321979 0 0.23275822186819889 0.23651210427089239 0 0.22988812877207221 0.23093726865763359 0 0.2334190422772989 0.23448929592321979 0 0.24260117369921549 0.2063822764758719 0 0.2468455111910782 0.22332217668025431 0 0.2334190422772989 0.23448929592321979 0 0.24260117369921549 0.2063822764758719 0 0.22988812877207221 0.23093726865763359 0 0.2334190422772989 0.23448929592321979 0 0.2468455111910782 0.22332217668025431 0 0.23559854435376329 0.23668183074162821 0 0.26515898450982101 0.23844824607184231 0 0.24260117369921549 0.2063822764758719 0 0.2334190422772989 0.23448929592321979 0 0.2468455111910782 0.22332217668025431 0 0.23559854435376329 0.23668183074162821 0 0.2334190422772989 0.23448929592321979 0 0.23559854435376329 0.23668183074162821 0 0.23968435270501551 0.24079207095117161 0 0.26515898450982101 0.23844824607184231 0 0.23559854435376329 0.23668183074162821 0 0.23968435270501551 0.24079207095117161 0 0.2314334845985456 0.24056719937788529 0 0.23968435270501551 0.24079207095117161 0 0.25626813768261603 0.25747502178523579 0 0.23968435270501551 0.24079207095117161 0 0.23533289242664959 0.24897286914193131 0 0.24021539923885529 0.25684826073986988 0 0.23968435270501551 0.24079207095117161 0 0.2314334845985456 0.24056719937788529 0 0.23968435270501551 0.24079207095117161 0 0.25626813768261603 0.25747502178523579 0 0.25101200242116428 0.24576759366761389 0 0.23559854435376329 0.23668183074162821 0 0.2334190422772989 0.23448929592321979 0 0.23559854435376329 0.23668183074162821 0 0.23968435270501551 0.24079207095117161 0 0.23968435270501551 0.24079207095117161 0 0.23533289242664959 0.24897286914193131 0 0.2314334845985456 0.24056719937788529 0 0.2066063877254761 0.23494937379397191 0 0.2314334845985456 0.24056719937788529 0 0.23275822186819889 0.23651210427089239 0 0.2066063877254761 0.23494937379397191 0 0.23275822186819889 0.23651210427089239 0 0.21844555229601689 0.2457867669992943 0 0.2314334845985456 0.24056719937788529 0 0.22472439729901619 0.26110409201609242 0 0.2314334845985456 0.24056719937788529 0 0.23275822186819889 0.23651210427089239 0 0.23559854435376329 0.23668183074162821 0 0.2314334845985456 0.24056719937788529 0 0.23275822186819889 0.23651210427089239 0 0.23559854435376329 0.23668183074162821 0 0.2334190422772989 0.23448929592321979 0 0.23275822186819889 0.23651210427089239 0 0.2334190422772989 0.23448929592321979 0 0.23275822186819889 0.23651210427089239 0 0.23559854435376329 0.23668183074162821 0 0.23275822186819889 0.23651210427089239 0 0.1986044444993072 0.14996760870013789 0 0.21626488352327619 0.15883403754266801 0 0.22591566105632979 0.12866783317719871 0 0.19886122583489579 0.13020808617846061 0 0.1986044444993072 0.14996760870013789 0 0.22591566105632979 0.12866783317719871 0 0.19886122583489579 0.13020808617846061 0 0.22591566105632979 0.12866783317719871 0 0.17748078706293041 0.12585618723207179 0 0.19886122583489579 0.13020808617846061 0 0.19826164861671991 0.1200570626087278 0 0.1807167944634048 0.14902409630665381 0 0.19886122583489579 0.13020808617846061 0 0.1986044444993072 0.14996760870013789 0 0.2076299566722947 0.19218165867231049 0 0.21626488352327619 0.15883403754266801 0 0.2298801231866405 0.17967081525449469 0 0.1986044444993072 0.14996760870013789 0 0.1915291670571686 0.1700358077130017 0 0.21626488352327619 0.15883403754266801 0 0.1807167944634048 0.14902409630665381 0 0.1986044444993072 0.14996760870013789 0 0.1915291670571686 0.1700358077130017 0 0.2076299566722947 0.19218165867231049 0 0.1915291670571686 0.1700358077130017 0 0.21626488352327619 0.15883403754266801 0 0.1826170956332642 0.19725808984511209 0 0.2076299566722947 0.19218165867231049 0 0.1915291670571686 0.1700358077130017 0 0.1915291670571686 0.1700358077130017 0 0.21626488352327619 0.15883403754266801 0 0.2298801231866405 0.17967081525449469 0 0.2403825599810655 0.1444031426134452 0 0.25178330512113389 0.17827525702852451 0 0.21626488352327619 0.15883403754266801 0 0.2298801231866405 0.17967081525449469 0 0.2403825599810655 0.1444031426134452 0 0.21626488352327619 0.15883403754266801 0 0.2403825599810655 0.1444031426134452 0 0.22591566105632979 0.12866783317719871 0 0.22591566105632979 0.12866783317719871 0 0.25297009627776379 0.12712758017593651 0 0.2403825599810655 0.1444031426134452 0 0.22591566105632979 0.12866783317719871 0 0.25297009627776379 0.12712758017593651 0 0.22591566105632979 0.12866783317719871 0 0.23395020168767169 0.1221768809855375 0 0.25297009627776379 0.12712758017593651 0 0.23752399234208921 0.1206063545706494 0 0.2560054745136684 0.12695477115591469 0 0.24603526103522361 0.1122539454401394 0 0.23752399234208921 0.1206063545706494 0 0.2560054745136684 0.12695477115591469 0 0.23752399234208921 0.1206063545706494 0 0.25297009627776379 0.12712758017593651 0 0.2560054745136684 0.12695477115591469 0 0.23752399234208921 0.1206063545706494 0 0.23395020168767169 0.1221768809855375 0 0.25297009627776379 0.12712758017593651 0 0.23395020168767169 0.1221768809855375 0 0.25297009627776379 0.12712758017593651 0 0.24603526103522361 0.1122539454401394 0 0.23881980536685971 0.1134140340369539 0 0.2441653948944352 0.10691004701393871 0 0.24603526103522361 0.1122539454401394 0 0.2441653948944352 0.10691004701393871 0 0.24603526103522361 0.1122539454401394 0 0.23881980536685971 0.1134140340369539 0 0.23752399234208921 0.1206063545706494 0 0.23881980536685971 0.1134140340369539 0 0.23752399234208921 0.1206063545706494 0 0.23208185367220499 0.11063555361014921 0 0.23881980536685971 0.1134140340369539 0 0.2441653948944352 0.10691004701393871 0 0.23208185367220499 0.11063555361014921 0 0.24858712997760121 0.094839990787380729 0 0.2441653948944352 0.10691004701393871 0 0.23708920951586029 0.086686986612307365 0 0.2441653948944352 0.10691004701393871 0 0.23708920951586029 0.086686986612307365 0 0.2441653948944352 0.10691004701393871 0 0.22526663686868331 0.1013842414972214 0 0.23708920951586029 0.086686986612307365 0 0.2441653948944352 0.10691004701393871 0 0.22526663686868331 0.1013842414972214 0 0.2441653948944352 0.10691004701393871 0 0.22526663686868331 0.1013842414972214 0 0.23208185367220499 0.11063555361014921 0 0.2249346808870388 0.1081731675370091 0 0.22526663686868331 0.1013842414972214 0 0.23208185367220499 0.11063555361014921 0 0.2249346808870388 0.1081731675370091 0 0.22526663686868331 0.1013842414972214 0 0.21719848159714439 0.1059477315797053 0 0.2249346808870388 0.1081731675370091 0 0.22110625311774401 0.1136820281507224 0 0.21719848159714439 0.1059477315797053 0 0.23752399234208921 0.1206063545706494 0 0.23208185367220499 0.11063555361014921 0 0.22110625311774401 0.1136820281507224 0 0.23752399234208921 0.1206063545706494 0 0.2190425101705098 0.1142579379853849 0 0.23752399234208921 0.1206063545706494 0 0.23395020168767169 0.1221768809855375 0 0.2190425101705098 0.1142579379853849 0 0.23752399234208921 0.1206063545706494 0 0.22110625311774401 0.1136820281507224 0 0.2190425101705098 0.1142579379853849 0 0.22110625311774401 0.1136820281507224 0 0.2190425101705098 0.1142579379853849 0 0.21719848159714439 0.1059477315797053 0 0.2249346808870388 0.1081731675370091 0 0.23208185367220499 0.11063555361014921 0 0.22110625311774401 0.1136820281507224 0 0.22110625311774401 0.1136820281507224 0 0.2190425101705098 0.1142579379853849 0 0.22591566105632979 0.12866783317719871 0 0.23395020168767169 0.1221768809855375 0 0.2190425101705098 0.1142579379853849 0 0.2190425101705098 0.1142579379853849 0 0.1962041612522317 0.1064129311993075 0 0.19886122583489579 0.13020808617846061 0 0.22591566105632979 0.12866783317719871 0 0.2190425101705098 0.1142579379853849 0 0.2190425101705098 0.1142579379853849 0 0.1962041612522317 0.1064129311993075 0 0.19826164861671991 0.1200570626087278 0 0.2190425101705098 0.1142579379853849 0 0.19826164861671991 0.1200570626087278 0 0.19886122583489579 0.13020808617846061 0 0.2190425101705098 0.1142579379853849 0 0.19826164861671991 0.1200570626087278 0 0.22526663686868331 0.1013842414972214 0 0.20636787884293109 0.095858435980505446 0 0.21719848159714439 0.1059477315797053 0 0.20636787884293109 0.095858435980505446 0 0.1962041612522317 0.1064129311993075 0 0.2190425101705098 0.1142579379853849 0 0.21719848159714439 0.1059477315797053 0 0.1962041612522317 0.1064129311993075 0 0.22526663686868331 0.1013842414972214 0 0.21719848159714439 0.1059477315797053 0 0.20636787884293109 0.095858435980505446 0 0.22526663686868331 0.1013842414972214 0 0.20636787884293109 0.095858435980505446 0 0.22323722004321389 0.090311060530182008 0 0.1962041612522317 0.1064129311993075 0 0.17974556408905529 0.10045734313854331 0 0.20636787884293109 0.095858435980505446 0 0.1962041612522317 0.1064129311993075 0 0.18824504941983741 0.090559504131741575 0 0.1962041612522317 0.1064129311993075 0 0.18824504941983741 0.090559504131741575 0 0.17974556408905529 0.10045734313854331 0 0.20636787884293109 0.095858435980505446 0 0.1962041612522317 0.1064129311993075 0 0.17748078706293041 0.12585618723207179 0 0.1962041612522317 0.1064129311993075 0 0.19826164861671991 0.1200570626087278 0 0.17748078706293041 0.12585618723207179 0 0.19826164861671991 0.1200570626087278 0 0.20219811606365309 0.074310848840636767 0 0.1877822169545896 0.060441580508610072 0 0.1817492901387284 0.074132066340561659 0 0.20219811606365309 0.074310848840636767 0 0.2033485328724324 0.055741430354311478 0 0.1877822169545896 0.060441580508610072 0 0.20636787884293109 0.095858435980505446 0 0.18824504941983741 0.090559504131741575 0 0.20219811606365309 0.074310848840636767 0 0.18824504941983741 0.090559504131741575 0 0.1817492901387284 0.074132066340561659 0 0.20219811606365309 0.074310848840636767 0 0.18824504941983741 0.090559504131741575 0 0.20636787884293109 0.095858435980505446 0 0.20219811606365309 0.074310848840636767 0 0.18824504941983741 0.090559504131741575 0 0.20636787884293109 0.095858435980505446 0 0.22422515494538031 0.077314578030696357 0 0.20636787884293109 0.095858435980505446 0 0.20219811606365309 0.074310848840636767 0 0.2130600078388207 0.076924634077142784 0 0.20636787884293109 0.095858435980505446 0 0.22422515494538031 0.077314578030696357 0 0.22323722004321389 0.090311060530182008 0 0.20636787884293109 0.095858435980505446 0 0.2130600078388207 0.076924634077142784 0 0.22422515494538031 0.077314578030696357 0 0.20219811606365309 0.074310848840636767 0 0.2130600078388207 0.076924634077142784 0 0.2182660296832962 0.068984912284827726 0 0.20219811606365309 0.074310848840636767 0 0.2033485328724324 0.055741430354311478 0 0.21615118270746941 0.058062193549532487 0 0.20219811606365309 0.074310848840636767 0 0.21615118270746941 0.058062193549532487 0 0.2130600078388207 0.076924634077142784 0 0.2182660296832962 0.068984912284827726 0 0.22422515494538031 0.077314578030696357 0 0.20219811606365309 0.074310848840636767 0 0.2182660296832962 0.068984912284827726 0 0.21615118270746941 0.058062193549532487 0 0.2182660296832962 0.068984912284827726 0 0.22163701789902199 0.061784995867642689 0 0.21615118270746941 0.058062193549532487 0 0.22422515494538031 0.077314578030696357 0 0.23001302413728339 0.066463926210676719 0 0.23708920951586029 0.086686986612307365 0 0.2182660296832962 0.068984912284827726 0 0.23001302413728339 0.066463926210676719 0 0.22163701789902199 0.061784995867642689 0 0.23001302413728339 0.066463926210676719 0 0.23708920951586029 0.086686986612307365 0 0.2182660296832962 0.068984912284827726 0 0.22422515494538031 0.077314578030696357 0 0.23001302413728339 0.066463926210676719 0 0.22422515494538031 0.077314578030696357 0 0.22323722004321389 0.090311060530182008 0 0.23708920951586029 0.086686986612307365 0 0.22526663686868331 0.1013842414972214 0 0.22323722004321389 0.090311060530182008 0 0.23708920951586029 0.086686986612307365 0 0.23708920951586029 0.086686986612307365 0 0.2498249339517854 0.083553344971119353 0 0.23638088635524629 0.064897105390082463 0 0.24858712997760121 0.094839990787380729 0 0.23708920951586029 0.086686986612307365 0 0.2498249339517854 0.083553344971119353 0 0.2498249339517854 0.083553344971119353 0 0.23638088635524629 0.064897105390082463 0 0.24802215836849931 0.070680319635506431 0 0.2498249339517854 0.083553344971119353 0 0.23638088635524629 0.064897105390082463 0 0.23001302413728339 0.066463926210676719 0 0.23708920951586029 0.086686986612307365 0 0.23638088635524629 0.064897105390082463 0 0.24802215836849931 0.070680319635506431 0 0.246484843568023 0.063348635926204808 0 0.255045197248224 0.065599831429916988 0 0.23638088635524629 0.064897105390082463 0 0.24802215836849931 0.070680319635506431 0 0.246484843568023 0.063348635926204808 0 0.24197865854072459 0.057710320060512771 0 0.2454742261021734 0.049841505048206537 0 0.25071186858859212 0.057511580944188248 0 0.246484843568023 0.063348635926204808 0 0.24197865854072459 0.057710320060512771 0 0.25071186858859212 0.057511580944188248 0 0.23638088635524629 0.064897105390082463 0 0.246484843568023 0.063348635926204808 0 0.24197865854072459 0.057710320060512771 0 0.23638088635524629 0.064897105390082463 0 0.24197865854072459 0.057710320060512771 0 0.23434252764749591 0.054602791871714303 0 0.23607372693530551 0.049562876227216002 0 0.2454742261021734 0.049841505048206537 0 0.24008850944615709 0.042524323774902652 0 0.24197865854072459 0.057710320060512771 0 0.23607372693530551 0.049562876227216002 0 0.23434252764749591 0.054602791871714303 0 0.24197865854072459 0.057710320060512771 0 0.23607372693530551 0.049562876227216002 0 0.2454742261021734 0.049841505048206537 0 0.24888620373076961 0.042396610431623551 0 0.24500910383362151 0.034452739384772342 0 0.24008850944615709 0.042524323774902652 0 0.2454742261021734 0.049841505048206537 0 0.24888620373076961 0.042396610431623551 0 0.24008850944615709 0.042524323774902652 0 0.2454742261021734 0.049841505048206537 0 0.24888620373076961 0.042396610431623551 0 0.2555053042261427 0.048332827107252049 0 0.24500910383362151 0.034452739384772342 0 0.23508802561685899 0.03542862505806281 0 0.23768239999351889 0.026911354962824059 0 0.24500910383362151 0.034452739384772342 0 0.23508802561685899 0.03542862505806281 0 0.24008850944615709 0.042524323774902652 0 0.23607372693530551 0.049562876227216002 0 0.24008850944615709 0.042524323774902652 0 0.2313154220177058 0.043093948347994203 0 0.23508802561685899 0.03542862505806281 0 0.24008850944615709 0.042524323774902652 0 0.2313154220177058 0.043093948347994203 0 0.2313154220177058 0.043093948347994203 0 0.22293683875870701 0.046240865809045913 0 0.2256939465334834 0.041660943289812569 0 0.23607372693530551 0.049562876227216002 0 0.2313154220177058 0.043093948347994203 0 0.22293683875870701 0.046240865809045913 0 0.2313154220177058 0.043093948347994203 0 0.22759952230311911 0.036820584945280808 0 0.2256939465334834 0.041660943289812569 0 0.23508802561685899 0.03542862505806281 0 0.22759952230311911 0.036820584945280808 0 0.22368784099920019 0.025870408907248031 0 0.23508802561685899 0.03542862505806281 0 0.2313154220177058 0.043093948347994203 0 0.22759952230311911 0.036820584945280808 0 0.22759952230311911 0.036820584945280808 0 0.22092400305440191 0.040488374056929358 0 0.22368784099920019 0.025870408907248031 0 0.22759952230311911 0.036820584945280808 0 0.2256939465334834 0.041660943289812569 0 0.22092400305440191 0.040488374056929358 0 0.22293683875870701 0.046240865809045913 0 0.2256939465334834 0.041660943289812569 0 0.22092400305440191 0.040488374056929358 0 0.22293683875870701 0.046240865809045913 0 0.22092400305440191 0.040488374056929358 0 0.23001302413728339 0.066463926210676719 0 0.23638088635524629 0.064897105390082463 0 0.22293683875870701 0.046240865809045913 0 0.22293683875870701 0.046240865809045913 0 0.22135814867941431 0.055846584774534143 0 0.21453330711734081 0.051116209133773419 0 0.23638088635524629 0.064897105390082463 0 0.22293683875870701 0.046240865809045913 0 0.23434252764749591 0.054602791871714303 0 0.23001302413728339 0.066463926210676719 0 0.22293683875870701 0.046240865809045913 0 0.22135814867941431 0.055846584774534143 0 0.23001302413728339 0.066463926210676719 0 0.22293683875870701 0.046240865809045913 0 0.23638088635524629 0.064897105390082463 0 0.22293683875870701 0.046240865809045913 0 0.23001302413728339 0.066463926210676719 0 0.22135814867941431 0.055846584774534143 0 0.22163701789902199 0.061784995867642689 0 0.22135814867941431 0.055846584774534143 0 0.22163701789902199 0.061784995867642689 0 0.21615118270746941 0.058062193549532487 0 0.23607372693530551 0.049562876227216002 0 0.22293683875870701 0.046240865809045913 0 0.23434252764749591 0.054602791871714303 0 0.24630168148306139 0.0063678786522736869 0 0.23609541842164139 0.01501473870733191 0 0.23481737798904601 -0.0036562947842957872 0 0.24630168148306139 0.0063678786522736869 0 0.23609541842164139 0.01501473870733191 0 0.24853161109627231 0.023790262756705181 0 0.23609541842164139 0.01501473870733191 0 0.24853161109627231 0.023790262756705181 0 0.23768239999351889 0.026911354962824059 0 0.24500910383362151 0.034452739384772342 0 0.24853161109627231 0.023790262756705181 0 0.23768239999351889 0.026911354962824059 0 0.23609541842164139 0.01501473870733191 0 0.22368784099920019 0.025870408907248031 0 0.21771973177549209 0.0070155188345058682 0 0.23508802561685899 0.03542862505806281 0 0.23768239999351889 0.026911354962824059 0 0.22368784099920019 0.025870408907248031 0 0.23609541842164139 0.01501473870733191 0 0.23768239999351889 0.026911354962824059 0 0.22368784099920019 0.025870408907248031 0 0.23609541842164139 0.01501473870733191 0 0.21771973177549209 0.0070155188345058682 0 0.23481737798904601 -0.0036562947842957872 0 0.21771973177549209 0.0070155188345058682 0 0.19939818938408821 0.0142167805087044 0 0.20215432104622591 -0.0094436744371548895 0 0.21771973177549209 0.0070155188345058682 0 0.20883228725958999 0.026668048169040628 0 0.19939818938408821 0.0142167805087044 0 0.22368784099920019 0.025870408907248031 0 0.21771973177549209 0.0070155188345058682 0 0.20883228725958999 0.026668048169040628 0 0.22092400305440191 0.040488374056929358 0 0.22368784099920019 0.025870408907248031 0 0.20883228725958999 0.026668048169040628 0 0.20883228725958999 0.026668048169040628 0 0.19939818938408821 0.0142167805087044 0 0.19817406176341809 0.032848464876967728 0 0.19939818938408821 0.0142167805087044 0 0.19817406176341809 0.032848464876967728 0 0.1832318938880188 0.02643424238064114 0 0.19939818938408821 0.0142167805087044 0 0.1832318938880188 0.02643424238064114 0 0.18568482543388271 -0.001083590498363957 0 0.19939818938408821 0.0142167805087044 0 0.18568482543388271 -0.001083590498363957 0 0.20215432104622591 -0.0094436744371548895 0 0.2033485328724324 0.055741430354311478 0 0.21453330711734081 0.051116209133773419 0 0.2073811962552419 0.045169854060990028 0 0.2033485328724324 0.055741430354311478 0 0.21615118270746941 0.058062193549532487 0 0.21453330711734081 0.051116209133773419 0 0.22135814867941431 0.055846584774534143 0 0.21615118270746941 0.058062193549532487 0 0.21453330711734081 0.051116209133773419 0 0.22293683875870701 0.046240865809045913 0 0.21453330711734081 0.051116209133773419 0 0.2073811962552419 0.045169854060990028 0 0.22293683875870701 0.046240865809045913 0 0.22092400305440191 0.040488374056929358 0 0.20883228725958999 0.026668048169040628 0 0.20883228725958999 0.026668048169040628 0 0.2073811962552419 0.045169854060990028 0 0.19817406176341809 0.032848464876967728 0 0.22293683875870701 0.046240865809045913 0 0.20883228725958999 0.026668048169040628 0 0.2073811962552419 0.045169854060990028 0 0.22293683875870701 0.046240865809045913 0 0.20883228725958999 0.026668048169040628 0 0.19817406176341809 0.032848464876967728 0 0.19191648881353901 0.047161813800197662 0 0.1832318938880188 0.02643424238064114 0 0.2073811962552419 0.045169854060990028 0 0.19817406176341809 0.032848464876967728 0 0.19191648881353901 0.047161813800197662 0 0.2033485328724324 0.055741430354311478 0 0.19191648881353901 0.047161813800197662 0 0.1877822169545896 0.060441580508610072 0 0.2033485328724324 0.055741430354311478 0 0.2073811962552419 0.045169854060990028 0 0.19191648881353901 0.047161813800197662 0 0.1877822169545896 0.060441580508610072 0 0.17576047940342321 0.045818428829893038 0 0.16990574659754271 0.062981106044524782 0 0.19191648881353901 0.047161813800197662 0 0.1877822169545896 0.060441580508610072 0 0.17576047940342321 0.045818428829893038 0 0.17576047940342321 0.045818428829893038 0 0.16599837625379579 0.03220751307089316 0 0.1832318938880188 0.02643424238064114 0 0.19191648881353901 0.047161813800197662 0 0.17576047940342321 0.045818428829893038 0 0.1832318938880188 0.02643424238064114 0 0.17576047940342321 0.045818428829893038 0 0.16599837625379579 0.03220751307089316 0 0.1557281539130537 0.045684317174491493 0 0.16599837625379579 0.03220751307089316 0 0.1478195700761783 0.02540969727626205 0 0.1557281539130537 0.045684317174491493 0 0.1557281539130537 0.045684317174491493 0 0.15317197548962611 0.064006891826969489 0 0.16990574659754271 0.062981106044524782 0 0.17576047940342321 0.045818428829893038 0 0.1557281539130537 0.045684317174491493 0 0.16990574659754271 0.062981106044524782 0 0.16475813662622049 0.012188041064479099 0 0.18568482543388271 -0.001083590498363957 0 0.16559315265926189 -0.0083108592955545239 0 0.1832318938880188 0.02643424238064114 0 0.16475813662622049 0.012188041064479099 0 0.18568482543388271 -0.001083590498363957 0 0.16599837625379579 0.03220751307089316 0 0.1832318938880188 0.02643424238064114 0 0.16475813662622049 0.012188041064479099 0 0.16599837625379579 0.03220751307089316 0 0.16475813662622049 0.012188041064479099 0 0.1478195700761783 0.02540969727626205 0 0.16475813662622049 0.012188041064479099 0 0.13922300163102791 -0.00048177691349810328 0 0.16559315265926189 -0.0083108592955545239 0 0.16475813662622049 0.012188041064479099 0 0.1478195700761783 0.02540969727626205 0 0.13922300163102791 -0.00048177691349810328 0 0.1478195700761783 0.02540969727626205 0 0.12517270015156851 0.024383857407019691 0 0.13922300163102791 -0.00048177691349810328 0 0.1478195700761783 0.02540969727626205 0 0.12517270015156851 0.024383857407019691 0 0.13754831489937311 0.036793890394237083 0 0.12517270015156851 0.024383857407019691 0 0.13922300163102791 -0.00048177691349810328 0 0.11282348191201889 0.00088817969455626678 0 0.12517270015156851 0.024383857407019691 0 0.13922300163102791 -0.00048177691349810328 0 0.1557281539130537 0.045684317174491493 0 0.1390192233262631 0.050769713131362137 0 0.15317197548962611 0.064006891826969489 0 0.1390192233262631 0.050769713131362137 0 0.1369546800655449 0.064046274905390721 0 0.15317197548962611 0.064006891826969489 0 0.1557281539130537 0.045684317174491493 0 0.13754831489937311 0.036793890394237083 0 0.1390192233262631 0.050769713131362137 0 0.1478195700761783 0.02540969727626205 0 0.1557281539130537 0.045684317174491493 0 0.13754831489937311 0.036793890394237083 0 0.1245199581964158 0.041085751114384478 0 0.13754831489937311 0.036793890394237083 0 0.1390192233262631 0.050769713131362137 0 0.1245199581964158 0.041085751114384478 0 0.12517270015156851 0.024383857407019691 0 0.13754831489937311 0.036793890394237083 0 0.1245199581964158 0.041085751114384478 0 0.1390192233262631 0.050769713131362137 0 0.12616091508649771 0.055358362717315847 0 0.1390192233262631 0.050769713131362137 0 0.12616091508649771 0.055358362717315847 0 0.1369546800655449 0.064046274905390721 0 0.1204782051597738 0.069896231882758231 0 0.12616091508649771 0.055358362717315847 0 0.1369546800655449 0.064046274905390721 0 0.1204782051597738 0.069896231882758231 0 0.1369546800655449 0.064046274905390721 0 0.1361887376171913 0.08019070228803471 0 0.1369546800655449 0.064046274905390721 0 0.15317197548962611 0.064006891826969489 0 0.1361887376171913 0.08019070228803471 0 0.15317197548962611 0.064006891826969489 0 0.1361887376171913 0.08019070228803471 0 0.16085210729766569 0.08255008517989372 0 0.1361887376171913 0.08019070228803471 0 0.1467279515306544 0.098569539271133544 0 0.16085210729766569 0.08255008517989372 0 0.12148222858609151 0.1042231587294513 0 0.1361887376171913 0.08019070228803471 0 0.12148222858609151 0.1042231587294513 0 0.11811843408548189 0.084482505876629643 0 0.1361887376171913 0.08019070228803471 0 0.12148222858609151 0.1042231587294513 0 0.13693354462376131 0.11364863270625961 0 0.1467279515306544 0.098569539271133544 0 0.12148222858609151 0.1042231587294513 0 0.1361887376171913 0.08019070228803471 0 0.1467279515306544 0.098569539271133544 0 0.12148222858609151 0.1042231587294513 0 0.1257811839006113 0.1237321329528436 0 0.13693354462376131 0.11364863270625961 0 0.1257811839006113 0.1237321329528436 0 0.13693354462376131 0.11364863270625961 0 0.13927377004872221 0.1249659211089434 0 0.13693354462376131 0.11364863270625961 0 0.14898222297677571 0.11635723072696461 0 0.1467279515306544 0.098569539271133544 0 0.15240924386951121 0.1328526730660135 0 0.13927377004872221 0.1249659211089434 0 0.14898222297677571 0.11635723072696461 0 0.13693354462376131 0.11364863270625961 0 0.13927377004872221 0.1249659211089434 0 0.14898222297677571 0.11635723072696461 0 0.14898222297677571 0.11635723072696461 0 0.1467279515306544 0.098569539271133544 0 0.17007363270019249 0.11172052156007579 0 0.17007363270019249 0.11172052156007579 0 0.17974556408905529 0.10045734313854331 0 0.16085210729766569 0.08255008517989372 0 0.1467279515306544 0.098569539271133544 0 0.17007363270019249 0.11172052156007579 0 0.16085210729766569 0.08255008517989372 0 0.15240924386951121 0.1328526730660135 0 0.17007363270019249 0.11172052156007579 0 0.15240924386951121 0.1328526730660135 0 0.17748078706293041 0.12585618723207179 0 0.17007363270019249 0.11172052156007579 0 0.15240924386951121 0.1328526730660135 0 0.14898222297677571 0.11635723072696461 0 0.17007363270019249 0.11172052156007579 0 0.17748078706293041 0.12585618723207179 0 0.1962041612522317 0.1064129311993075 0 0.17748078706293041 0.12585618723207179 0 0.1962041612522317 0.1064129311993075 0 0.17974556408905529 0.10045734313854331 0 0.17748078706293041 0.12585618723207179 0 0.17007363270019249 0.11172052156007579 0 0.17974556408905529 0.10045734313854331 0 0.17007363270019249 0.11172052156007579 0 0.17974556408905529 0.10045734313854331 0 0.18824504941983741 0.090559504131741575 0 0.17974556408905529 0.10045734313854331 0 0.18824504941983741 0.090559504131741575 0 0.17974556408905529 0.10045734313854331 0 0.16085210729766569 0.08255008517989372 0 0.18824504941983741 0.090559504131741575 0 0.1817492901387284 0.074132066340561659 0 0.16085210729766569 0.08255008517989372 0 0.18824504941983741 0.090559504131741575 0 0.16085210729766569 0.08255008517989372 0 0.1877822169545896 0.060441580508610072 0 0.1817492901387284 0.074132066340561659 0 0.16990574659754271 0.062981106044524782 0 0.15317197548962611 0.064006891826969489 0 0.16990574659754271 0.062981106044524782 0 0.16085210729766569 0.08255008517989372 0 0.1817492901387284 0.074132066340561659 0 0.16990574659754271 0.062981106044524782 0 0.16085210729766569 0.08255008517989372 0 0.096493649476541044 0.47658922008419979 0 0.1023897888627386 0.5 0 0.11934144755591621 0.47974633068843509 0 0.1023897888627386 0.5 0 0.11934144755591621 0.47974633068843509 0 0.12970225877795641 0.5 0 0.096493649476541044 0.47658922008419979 0 0.11934144755591621 0.47974633068843509 0 0.1156390195334011 0.45550589981538991 0 0.11934144755591621 0.47974633068843509 0 0.1156390195334011 0.45550589981538991 0 0.1315029716647812 0.46611799505521589 0 0.1156390195334011 0.45550589981538991 0 0.1192066742806038 0.42885697672847461 0 0.13478438959026129 0.43442257954658042 0 0.1156390195334011 0.45550589981538991 0 0.10393095342265871 0.43520469295305469 0 0.1192066742806038 0.42885697672847461 0 0.1156390195334011 0.45550589981538991 0 0.090290663006369301 0.45442044385850461 0 0.10393095342265871 0.43520469295305469 0 0.096493649476541044 0.47658922008419979 0 0.1156390195334011 0.45550589981538991 0 0.096493649476541044 0.47658922008419979 0 0.1156390195334011 0.45550589981538991 0 0.090290663006369301 0.45442044385850461 0 0.090290663006369301 0.45442044385850461 0 0.072975242740688076 0.45952111937696177 0 0.078975880506876261 0.47335608117322808 0 0.096493649476541044 0.47658922008419979 0 0.090290663006369301 0.45442044385850461 0 0.078975880506876261 0.47335608117322808 0 0.090290663006369301 0.45442044385850461 0 0.086047440888406157 0.43377485491116252 0 0.10393095342265871 0.43520469295305469 0 0.090290663006369301 0.45442044385850461 0 0.077190901845102272 0.44514639188384442 0 0.086047440888406157 0.43377485491116252 0 0.090290663006369301 0.45442044385850461 0 0.077190901845102272 0.44514639188384442 0 0.072975242740688076 0.45952111937696177 0 0.077190901845102272 0.44514639188384442 0 0.061171345799725219 0.44348675075755101 0 0.070488400775598786 0.42804982237503642 0 0.077190901845102272 0.44514639188384442 0 0.072975242740688076 0.45952111937696177 0 0.061171345799725219 0.44348675075755101 0 0.072975242740688076 0.45952111937696177 0 0.060042528363262043 0.47624962254647468 0 0.058839349603663167 0.45864049011895219 0 0.072975242740688076 0.45952111937696177 0 0.058839349603663167 0.45864049011895219 0 0.061171345799725219 0.44348675075755101 0 0.072975242740688076 0.45952111937696177 0 0.078975880506876261 0.47335608117322808 0 0.060042528363262043 0.47624962254647468 0 0.078975880506876261 0.47335608117322808 0 0.075077318947520844 0.5 0 0.060042528363262043 0.47624962254647468 0 0.096493649476541044 0.47658922008419979 0 0.078975880506876261 0.47335608117322808 0 0.075077318947520844 0.5 0 0.096493649476541044 0.47658922008419979 0 0.1023897888627386 0.5 0 0.075077318947520844 0.5 0 0.075077318947520844 0.5 0 0.047764849032303103 0.5 0 0.060042528363262043 0.47624962254647468 0 0.047764849032303103 0.5 0 0.060042528363262043 0.47624962254647468 0 0.041346461837313532 0.47971284763372168 0 0.060042528363262043 0.47624962254647468 0 0.041346461837313532 0.47971284763372168 0 0.044537043243557672 0.46067197271076848 0 0.041346461837313532 0.47971284763372168 0 0.022312565034541269 0.47283157732577918 0 0.044537043243557672 0.46067197271076848 0 0.047764849032303103 0.5 0 0.020452379117085421 0.5 0 0.028880456946198781 0.48624671243002893 0 0.047764849032303103 0.5 0 0.041346461837313532 0.47971284763372168 0 0.028880456946198781 0.48624671243002893 0 0.020452379117085421 0.5 0 0.028880456946198781 0.48624671243002893 0 0.015069705413471921 0.48598356189042341 0 0.041346461837313532 0.47971284763372168 0 0.028880456946198781 0.48624671243002893 0 0.022312565034541269 0.47283157732577918 0 0.028880456946198781 0.48624671243002893 0 0.022312565034541269 0.47283157732577918 0 0.015069705413471921 0.48598356189042341 0 -0.0086394520105620119 0.47424627061482549 0 0.0073060011384684506 0.47179360407978371 0 0.0031535297926917269 0.46399381410558871 0 0.022312565034541269 0.47283157732577918 0 8.8086825524967202e-05 0.48499118194078988 0 0.015069705413471921 0.48598356189042341 0 0.022312565034541269 0.47283157732577918 0 0.0073060011384684506 0.47179360407978371 0 8.8086825524967202e-05 0.48499118194078988 0 0.022312565034541269 0.47283157732577918 0 8.8086825524967202e-05 0.48499118194078988 0 0.022312565034541269 0.47283157732577918 0 0.0073060011384684506 0.47179360407978371 0 0.013449771823490161 0.46626036433352691 0 -0.0068600907981323234 0.5 0 0.020452379117085421 0.5 0 8.8086825524967202e-05 0.48499118194078988 0 0.020452379117085421 0.5 0 8.8086825524967202e-05 0.48499118194078988 0 0.015069705413471921 0.48598356189042341 0 -0.0048063569523164699 0.44452071464576792 0 0.01661979354444364 0.43077396435518539 0 -0.0048063569523164699 0.44452071464576792 0 0.011353758651843149 0.44469645767087962 0 0.01661979354444364 0.43077396435518539 0 -6.6829357673443834e-05 0.45074082477813598 0 -0.0048063569523164699 0.44452071464576792 0 0.011353758651843149 0.44469645767087962 0 0.011353758651843149 0.44469645767087962 0 0.0082584686342945923 0.45678137059852808 0 0.020352019422100281 0.45352687309320477 0 -6.6829357673443834e-05 0.45074082477813598 0 0.011353758651843149 0.44469645767087962 0 0.0082584686342945923 0.45678137059852808 0 -0.0055572594818514946 0.46257063223737699 0 0.0031535297926917269 0.46399381410558871 0 0.0082584686342945923 0.45678137059852808 0 0.0073060011384684506 0.47179360407978371 0 0.0031535297926917269 0.46399381410558871 0 0.013449771823490161 0.46626036433352691 0 0.0031535297926917269 0.46399381410558871 0 0.013449771823490161 0.46626036433352691 0 0.0082584686342945923 0.45678137059852808 0 0.0082584686342945923 0.45678137059852808 0 0.026218294517454749 0.46590145555795442 0 0.022312565034541269 0.47283157732577918 0 0.026218294517454749 0.46590145555795442 0 0.044537043243557672 0.46067197271076848 0 0.0082584686342945923 0.45678137059852808 0 0.020352019422100281 0.45352687309320477 0 0.026218294517454749 0.46590145555795442 0 0.013449771823490161 0.46626036433352691 0 0.0082584686342945923 0.45678137059852808 0 0.026218294517454749 0.46590145555795442 0 0.022312565034541269 0.47283157732577918 0 0.013449771823490161 0.46626036433352691 0 0.026218294517454749 0.46590145555795442 0 0.020352019422100281 0.45352687309320477 0 0.026218294517454749 0.46590145555795442 0 0.031904291446656803 0.45468733303324999 0 0.020352019422100281 0.45352687309320477 0 0.025738681538422601 0.44444897469972588 0 0.031904291446656803 0.45468733303324999 0 0.011353758651843149 0.44469645767087962 0 0.020352019422100281 0.45352687309320477 0 0.025738681538422601 0.44444897469972588 0 0.011353758651843149 0.44469645767087962 0 0.025738681538422601 0.44444897469972588 0 0.01661979354444364 0.43077396435518539 0 0.025738681538422601 0.44444897469972588 0 0.043263843830581607 0.44817471447866303 0 0.036197519734912982 0.43397026603788152 0 0.025738681538422601 0.44444897469972588 0 0.043263843830581607 0.44817471447866303 0 0.031904291446656803 0.45468733303324999 0 0.043263843830581607 0.44817471447866303 0 0.048412893589690212 0.43652804050623878 0 0.036197519734912982 0.43397026603788152 0 0.026218294517454749 0.46590145555795442 0 0.031904291446656803 0.45468733303324999 0 0.044537043243557672 0.46067197271076848 0 0.022312565034541269 0.47283157732577918 0 0.044537043243557672 0.46067197271076848 0 0.043263843830581607 0.44817471447866303 0 0.031904291446656803 0.45468733303324999 0 0.044537043243557672 0.46067197271076848 0 0.060042528363262043 0.47624962254647468 0 0.044537043243557672 0.46067197271076848 0 0.058839349603663167 0.45864049011895219 0 0.043263843830581607 0.44817471447866303 0 0.044537043243557672 0.46067197271076848 0 0.058839349603663167 0.45864049011895219 0 0.043263843830581607 0.44817471447866303 0 0.061171345799725219 0.44348675075755101 0 0.048412893589690212 0.43652804050623878 0 0.043263843830581607 0.44817471447866303 0 0.058839349603663167 0.45864049011895219 0 0.061171345799725219 0.44348675075755101 0 0.061171345799725219 0.44348675075755101 0 0.05773694798417757 0.42802131177639491 0 0.048412893589690212 0.43652804050623878 0 0.05773694798417757 0.42802131177639491 0 0.050404248209199178 0.41521976928376308 0 0.04615951071183693 0.42615332033377662 0 0.05773694798417757 0.42802131177639491 0 0.048412893589690212 0.43652804050623878 0 0.04615951071183693 0.42615332033377662 0 0.038045944041204732 0.4170272140646043 0 0.059472094537965911 0.4032804637740231 0 0.050404248209199178 0.41521976928376308 0 0.074282661982565334 0.3979485249043041 0 0.050404248209199178 0.41521976928376308 0 0.038045944041204732 0.4170272140646043 0 0.059472094537965911 0.4032804637740231 0 0.06241788940115163 0.41747842723937112 0 0.050404248209199178 0.41521976928376308 0 0.074282661982565334 0.3979485249043041 0 0.038045944041204732 0.4170272140646043 0 0.043367259831453307 0.40142132770232508 0 0.059472094537965911 0.4032804637740231 0 0.05773694798417757 0.42802131177639491 0 0.06241788940115163 0.41747842723937112 0 0.050404248209199178 0.41521976928376308 0 0.050404248209199178 0.41521976928376308 0 0.038045944041204732 0.4170272140646043 0 0.04615951071183693 0.42615332033377662 0 0.038045944041204732 0.4170272140646043 0 0.031381474206299477 0.40308484306788123 0 0.043367259831453307 0.40142132770232508 0 0.038045944041204732 0.4170272140646043 0 0.04615951071183693 0.42615332033377662 0 0.036197519734912982 0.43397026603788152 0 0.048412893589690212 0.43652804050623878 0 0.04615951071183693 0.42615332033377662 0 0.036197519734912982 0.43397026603788152 0 0.038045944041204732 0.4170272140646043 0 0.036197519734912982 0.43397026603788152 0 0.01661979354444364 0.43077396435518539 0 0.025738681538422601 0.44444897469972588 0 0.036197519734912982 0.43397026603788152 0 0.01661979354444364 0.43077396435518539 0 0.038045944041204732 0.4170272140646043 0 0.01661979354444364 0.43077396435518539 0 0.038045944041204732 0.4170272140646043 0 0.01661979354444364 0.43077396435518539 0 0.018174278727777889 0.40995203349265602 0 0.038045944041204732 0.4170272140646043 0 0.018174278727777889 0.40995203349265602 0 0.031381474206299477 0.40308484306788123 0 0.01661979354444364 0.43077396435518539 0 0.018174278727777889 0.40995203349265602 0 0.0069831076625062622 0.41910718979136857 0 0.018174278727777889 0.40995203349265602 0 0.0048620858419262756 0.40822632285850913 0 0.0069831076625062622 0.41910718979136857 0 -0.0038554386195961878 0.41772609948927958 0 0.0048620858419262756 0.40822632285850913 0 0.0069831076625062622 0.41910718979136857 0 -0.00088518118202030526 0.42885752876121253 0 -0.0048063569523164699 0.44452071464576792 0 0.01661979354444364 0.43077396435518539 0 -0.00088518118202030526 0.42885752876121253 0 0.01661979354444364 0.43077396435518539 0 0.0069831076625062622 0.41910718979136857 0 -0.00088518118202030526 0.42885752876121253 0 -0.0038554386195961878 0.41772609948927958 0 0.0069831076625062622 0.41910718979136857 0 0.01161026744254821 0.37808791365417999 0 0.010324518962966239 0.39749795922778769 0 0.022037862420366171 0.39182213829556739 0 -0.005061899617787349 0.39940138783802642 0 0.01161026744254821 0.37808791365417999 0 -0.005061899617787349 0.39940138783802642 0 0.01161026744254821 0.37808791365417999 0 0.010324518962966239 0.39749795922778769 0 -0.005061899617787349 0.39940138783802642 0 0.0048620858419262756 0.40822632285850913 0 0.010324518962966239 0.39749795922778769 0 0.018174278727777889 0.40995203349265602 0 0.0048620858419262756 0.40822632285850913 0 0.010324518962966239 0.39749795922778769 0 0.018174278727777889 0.40995203349265602 0 0.010324518962966239 0.39749795922778769 0 0.022037862420366171 0.39182213829556739 0 0.018174278727777889 0.40995203349265602 0 0.022037862420366171 0.39182213829556739 0 0.031381474206299477 0.40308484306788123 0 0.022037862420366171 0.39182213829556739 0 0.03586852768488135 0.39006228220508021 0 0.031381474206299477 0.40308484306788123 0 0.01161026744254821 0.37808791365417999 0 0.022037862420366171 0.39182213829556739 0 0.028091521635337079 0.37775189277844973 0 0.022037862420366171 0.39182213829556739 0 0.028091521635337079 0.37775189277844973 0 0.03586852768488135 0.39006228220508021 0 0.028091521635337079 0.37775189277844973 0 0.03586852768488135 0.39006228220508021 0 0.042658516126005908 0.37201269026708739 0 0.03586852768488135 0.39006228220508021 0 0.050814592984596132 0.38893859071296399 0 0.042658516126005908 0.37201269026708739 0 0.03586852768488135 0.39006228220508021 0 0.031381474206299477 0.40308484306788123 0 0.043367259831453307 0.40142132770232508 0 0.03586852768488135 0.39006228220508021 0 0.043367259831453307 0.40142132770232508 0 0.050814592984596132 0.38893859071296399 0 0.043367259831453307 0.40142132770232508 0 0.059472094537965911 0.4032804637740231 0 0.050814592984596132 0.38893859071296399 0 0.050404248209199178 0.41521976928376308 0 0.059472094537965911 0.4032804637740231 0 0.074282661982565334 0.3979485249043041 0 0.059472094537965911 0.4032804637740231 0 0.050814592984596132 0.38893859071296399 0 0.064859323684456169 0.38840834987750861 0 0.050814592984596132 0.38893859071296399 0 0.058661836042814129 0.3784464304517598 0 0.042658516126005908 0.37201269026708739 0 0.050814592984596132 0.38893859071296399 0 0.058661836042814129 0.3784464304517598 0 0.064859323684456169 0.38840834987750861 0 0.064859323684456169 0.38840834987750861 0 0.080898245034727048 0.38953371348344201 0 0.069737398862381353 0.37496164700837609 0 0.080898245034727048 0.38953371348344201 0 0.082520795289113866 0.37144391875452609 0 0.069737398862381353 0.37496164700837609 0 0.058661836042814129 0.3784464304517598 0 0.064859323684456169 0.38840834987750861 0 0.069737398862381353 0.37496164700837609 0 0.080898245034727048 0.38953371348344201 0 0.098161075755931429 0.38067728052484517 0 0.082520795289113866 0.37144391875452609 0 0.074282661982565334 0.3979485249043041 0 0.098161075755931429 0.38067728052484517 0 0.080898245034727048 0.38953371348344201 0 0.074282661982565334 0.3979485249043041 0 0.098161075755931429 0.38067728052484517 0 0.092795547607331219 0.39945270843434028 0 0.074282661982565334 0.3979485249043041 0 0.098161075755931429 0.38067728052484517 0 0.092795547607331219 0.39945270843434028 0 0.074282661982565334 0.3979485249043041 0 0.080751220737173363 0.40890433391197828 0 0.059472094537965911 0.4032804637740231 0 0.080898245034727048 0.38953371348344201 0 0.059472094537965911 0.4032804637740231 0 0.080898245034727048 0.38953371348344201 0 0.074282661982565334 0.3979485249043041 0 0.059472094537965911 0.4032804637740231 0 0.064859323684456169 0.38840834987750861 0 0.080898245034727048 0.38953371348344201 0 0.074282661982565334 0.3979485249043041 0 0.071727290495871718 0.41510252830798078 0 0.080751220737173363 0.40890433391197828 0 0.06241788940115163 0.41747842723937112 0 0.074282661982565334 0.3979485249043041 0 0.071727290495871718 0.41510252830798078 0 0.06241788940115163 0.41747842723937112 0 0.071727290495871718 0.41510252830798078 0 0.070488400775598786 0.42804982237503642 0 0.071727290495871718 0.41510252830798078 0 0.070488400775598786 0.42804982237503642 0 0.082123255633503395 0.42040709514902802 0 0.077190901845102272 0.44514639188384442 0 0.070488400775598786 0.42804982237503642 0 0.086047440888406157 0.43377485491116252 0 0.061171345799725219 0.44348675075755101 0 0.05773694798417757 0.42802131177639491 0 0.070488400775598786 0.42804982237503642 0 0.05773694798417757 0.42802131177639491 0 0.06241788940115163 0.41747842723937112 0 0.070488400775598786 0.42804982237503642 0 0.070488400775598786 0.42804982237503642 0 0.086047440888406157 0.43377485491116252 0 0.082123255633503395 0.42040709514902802 0 0.086047440888406157 0.43377485491116252 0 0.082123255633503395 0.42040709514902802 0 0.094107021832898818 0.42417954006330871 0 0.080751220737173363 0.40890433391197828 0 0.082123255633503395 0.42040709514902802 0 0.089813836447580217 0.41200223225897531 0 0.071727290495871718 0.41510252830798078 0 0.080751220737173363 0.40890433391197828 0 0.082123255633503395 0.42040709514902802 0 0.082123255633503395 0.42040709514902802 0 0.089813836447580217 0.41200223225897531 0 0.094107021832898818 0.42417954006330871 0 0.092795547607331219 0.39945270843434028 0 0.080751220737173363 0.40890433391197828 0 0.089813836447580217 0.41200223225897531 0 0.092795547607331219 0.39945270843434028 0 0.089813836447580217 0.41200223225897531 0 0.1092818450688969 0.41238834419364412 0 0.089813836447580217 0.41200223225897531 0 0.1092818450688969 0.41238834419364412 0 0.094107021832898818 0.42417954006330871 0 0.1092818450688969 0.41238834419364412 0 0.10393095342265871 0.43520469295305469 0 0.094107021832898818 0.42417954006330871 0 0.086047440888406157 0.43377485491116252 0 0.10393095342265871 0.43520469295305469 0 0.094107021832898818 0.42417954006330871 0 0.1092818450688969 0.41238834419364412 0 0.10393095342265871 0.43520469295305469 0 0.1192066742806038 0.42885697672847461 0 0.1092818450688969 0.41238834419364412 0 0.128969511317164 0.40202118343686849 0 0.1092818450688969 0.41238834419364412 0 0.1192066742806038 0.42885697672847461 0 0.13187695045371409 0.41822188149172418 0 0.1092818450688969 0.41238834419364412 0 0.128969511317164 0.40202118343686849 0 0.13187695045371409 0.41822188149172418 0 0.1109424960345112 0.39545062527616509 0 0.1255045004232325 0.38271360979112762 0 0.128969511317164 0.40202118343686849 0 0.1092818450688969 0.41238834419364412 0 0.1109424960345112 0.39545062527616509 0 0.128969511317164 0.40202118343686849 0 0.098161075755931429 0.38067728052484517 0 0.1220394895292983 0.36340603614538708 0 0.1255045004232325 0.38271360979112762 0 0.1109424960345112 0.39545062527616509 0 0.098161075755931429 0.38067728052484517 0 0.1255045004232325 0.38271360979112762 0 0.092795547607331219 0.39945270843434028 0 0.1092818450688969 0.41238834419364412 0 0.1109424960345112 0.39545062527616509 0 0.092795547607331219 0.39945270843434028 0 0.1109424960345112 0.39545062527616509 0 0.098161075755931429 0.38067728052484517 0 0.094317057712648783 0.34894949914988488 0 0.1123197591179117 0.3515682778897955 0 0.11176717451683001 0.33956041925776281 0 0.094317057712648783 0.34894949914988488 0 0.1019442674472551 0.36108836217165768 0 0.1123197591179117 0.3515682778897955 0 0.1019442674472551 0.36108836217165768 0 0.11210425762662531 0.36175031924379503 0 0.1123197591179117 0.3515682778897955 0 0.094317057712648783 0.34894949914988488 0 0.1019442674472551 0.36108836217165768 0 0.090552488086866834 0.36348935404708121 0 0.098161075755931429 0.38067728052484517 0 0.1019442674472551 0.36108836217165768 0 0.090552488086866834 0.36348935404708121 0 0.098161075755931429 0.38067728052484517 0 0.1019442674472551 0.36108836217165768 0 0.11210425762662531 0.36175031924379503 0 0.098161075755931429 0.38067728052484517 0 0.11210425762662531 0.36175031924379503 0 0.1220394895292983 0.36340603614538708 0 0.098161075755931429 0.38067728052484517 0 0.1220394895292983 0.36340603614538708 0 0.1220394895292983 0.36340603614538708 0 0.1255045004232325 0.38271360979112762 0 0.11210425762662531 0.36175031924379503 0 0.1220394895292983 0.36340603614538708 0 0.1212157899516218 0.35881625540737921 0 0.1220394895292983 0.36340603614538708 0 0.1212157899516218 0.35881625540737921 0 0.1220394895292983 0.36340603614538708 0 0.1212157899516218 0.35881625540737921 0 0.12847550265599661 0.35335610077298618 0 0.1212157899516218 0.35881625540737921 0 0.12218927595701359 0.35255432105582651 0 0.12847550265599661 0.35335610077298618 0 0.1212157899516218 0.35881625540737921 0 0.12218927595701359 0.35255432105582651 0 0.1169513408483253 0.35557151458671249 0 0.12218927595701359 0.35255432105582651 0 0.1169513408483253 0.35557151458671249 0 0.1123197591179117 0.3515682778897955 0 0.11210425762662531 0.36175031924379503 0 0.1169513408483253 0.35557151458671249 0 0.1123197591179117 0.3515682778897955 0 0.11210425762662531 0.36175031924379503 0 0.1212157899516218 0.35881625540737921 0 0.1169513408483253 0.35557151458671249 0 0.1123197591179117 0.3515682778897955 0 0.1228187489786231 0.3462485094077572 0 0.11176717451683001 0.33956041925776281 0 0.12218927595701359 0.35255432105582651 0 0.1123197591179117 0.3515682778897955 0 0.1228187489786231 0.3462485094077572 0 0.12218927595701359 0.35255432105582651 0 0.1228187489786231 0.3462485094077572 0 0.12847550265599661 0.35335610077298618 0 0.1228187489786231 0.3462485094077572 0 0.1245660170080297 0.33899410970665578 0 0.11176717451683001 0.33956041925776281 0 0.1245660170080297 0.33899410970665578 0 0.1227650874046195 0.33127102124079649 0 0.11176717451683001 0.33956041925776281 0 0.1227650874046195 0.33127102124079649 0 0.11176717451683001 0.33956041925776281 0 0.110265640372014 0.32600354936753889 0 0.11895491310110221 0.3169138685149418 0 0.110265640372014 0.32600354936753889 0 0.10212514876299041 0.31707333454321179 0 0.1227650874046195 0.33127102124079649 0 0.11895491310110221 0.3169138685149418 0 0.110265640372014 0.32600354936753889 0 0.10212514876299041 0.31707333454321179 0 0.092715439765162319 0.33088396334284842 0 0.092667307689356201 0.31094245455733571 0 0.110265640372014 0.32600354936753889 0 0.10212514876299041 0.31707333454321179 0 0.092715439765162319 0.33088396334284842 0 0.094317057712648783 0.34894949914988488 0 0.11176717451683001 0.33956041925776281 0 0.092715439765162319 0.33088396334284842 0 0.11176717451683001 0.33956041925776281 0 0.110265640372014 0.32600354936753889 0 0.092715439765162319 0.33088396334284842 0 0.094317057712648783 0.34894949914988488 0 0.092715439765162319 0.33088396334284842 0 0.074865697896361244 0.34004093818414249 0 0.092715439765162319 0.33088396334284842 0 0.074039240809954943 0.32372695383860461 0 0.074865697896361244 0.34004093818414249 0 0.092715439765162319 0.33088396334284842 0 0.081833594925594597 0.310324305826638 0 0.092667307689356201 0.31094245455733571 0 0.092715439765162319 0.33088396334284842 0 0.074039240809954943 0.32372695383860461 0 0.081833594925594597 0.310324305826638 0 0.092715439765162319 0.33088396334284842 0 0.081833594925594597 0.310324305826638 0 0.074039240809954943 0.32372695383860461 0 0.058982904744711628 0.30668321331151238 0 0.081833594925594597 0.310324305826638 0 0.074039240809954943 0.32372695383860461 0 0.059845835911240888 0.32996635983547851 0 0.058982904744711628 0.30668321331151238 0 0.074039240809954943 0.32372695383860461 0 0.074865697896361244 0.34004093818414249 0 0.059845835911240888 0.32996635983547851 0 0.074865697896361244 0.34004093818414249 0 0.073944473142858791 0.3586209034250647 0 0.051517615703424037 0.35035185521026568 0 0.094317057712648783 0.34894949914988488 0 0.073944473142858791 0.3586209034250647 0 0.090552488086866834 0.36348935404708121 0 0.094317057712648783 0.34894949914988488 0 0.074865697896361244 0.34004093818414249 0 0.073944473142858791 0.3586209034250647 0 0.073944473142858791 0.3586209034250647 0 0.082520795289113866 0.37144391875452609 0 0.090552488086866834 0.36348935404708121 0 0.098161075755931429 0.38067728052484517 0 0.082520795289113866 0.37144391875452609 0 0.090552488086866834 0.36348935404708121 0 0.073944473142858791 0.3586209034250647 0 0.069737398862381353 0.37496164700837609 0 0.058439846508470533 0.36513398402456548 0 0.073944473142858791 0.3586209034250647 0 0.082520795289113866 0.37144391875452609 0 0.069737398862381353 0.37496164700837609 0 0.058439846508470533 0.36513398402456548 0 0.051517615703424037 0.35035185521026568 0 0.042658516126005908 0.37201269026708739 0 0.058661836042814129 0.3784464304517598 0 0.069737398862381353 0.37496164700837609 0 0.058439846508470533 0.36513398402456548 0 0.058661836042814129 0.3784464304517598 0 0.058439846508470533 0.36513398402456548 0 0.042658516126005908 0.37201269026708739 0 0.073944473142858791 0.3586209034250647 0 0.058439846508470533 0.36513398402456548 0 0.051517615703424037 0.35035185521026568 0 0.051517615703424037 0.35035185521026568 0 0.028282434502883771 0.35677443947033372 0 0.044207759438934027 0.33485059117352262 0 0.051517615703424037 0.35035185521026568 0 0.042658516126005908 0.37201269026708739 0 0.028282434502883771 0.35677443947033372 0 0.028091521635337079 0.37775189277844973 0 0.042658516126005908 0.37201269026708739 0 0.028282434502883771 0.35677443947033372 0 0.01161026744254821 0.37808791365417999 0 0.028091521635337079 0.37775189277844973 0 0.028282434502883771 0.35677443947033372 0 0.01161026744254821 0.37808791365417999 0 0.028282434502883771 0.35677443947033372 0 0.028282434502883771 0.35677443947033372 0 0.0044005467850372262 0.36089330999227048 0 0.01583523936711646 0.33861431243238332 0 -0.0063835723511108926 0.34789911355088188 0 0.0044005467850372262 0.36089330999227048 0 0.01583523936711646 0.33861431243238332 0 0.01161026744254821 0.37808791365417999 0 0.028282434502883771 0.35677443947033372 0 0.0044005467850372262 0.36089330999227048 0 -0.0090975729182999378 0.37888365566417509 0 0.01161026744254821 0.37808791365417999 0 0.0044005467850372262 0.36089330999227048 0 -0.00047151567167168668 0.32750498055838168 0 0.01381393180103305 0.31341217517001801 0 0.01583523936711646 0.33861431243238332 0 -0.0020642756458347971 0.3152294905834277 0 -0.00047151567167168668 0.32750498055838168 0 0.01381393180103305 0.31341217517001801 0 -0.00047151567167168668 0.32750498055838168 0 -0.0063835723511108926 0.34789911355088188 0 0.01583523936711646 0.33861431243238332 0 0.01583523936711646 0.33861431243238332 0 0.030687895402084431 0.32559756853536048 0 0.044207759438934027 0.33485059117352262 0 0.028282434502883771 0.35677443947033372 0 0.01583523936711646 0.33861431243238332 0 0.044207759438934027 0.33485059117352262 0 0.01381393180103305 0.31341217517001801 0 0.030687895402084431 0.32559756853536048 0 0.01381393180103305 0.31341217517001801 0 0.030687895402084431 0.32559756853536048 0 0.041331244594315038 0.31214361514568528 0 0.01381393180103305 0.31341217517001801 0 0.01583523936711646 0.33861431243238332 0 0.030687895402084431 0.32559756853536048 0 0.030687895402084431 0.32559756853536048 0 0.044207759438934027 0.33485059117352262 0 0.041331244594315038 0.31214361514568528 0 0.051517615703424037 0.35035185521026568 0 0.044207759438934027 0.33485059117352262 0 0.059845835911240888 0.32996635983547851 0 0.074865697896361244 0.34004093818414249 0 0.051517615703424037 0.35035185521026568 0 0.059845835911240888 0.32996635983547851 0 0.044207759438934027 0.33485059117352262 0 0.059845835911240888 0.32996635983547851 0 0.041331244594315038 0.31214361514568528 0 0.059845835911240888 0.32996635983547851 0 0.058982904744711628 0.30668321331151238 0 0.041331244594315038 0.31214361514568528 0 0.058982904744711628 0.30668321331151238 0 0.048826181865742023 0.2813081562711825 0 0.070951750086026957 0.28976464831042781 0 0.058982904744711628 0.30668321331151238 0 0.048826181865742023 0.2813081562711825 0 0.039007591640787653 0.29641717716921567 0 0.048826181865742023 0.2813081562711825 0 0.039007591640787653 0.29641717716921567 0 0.025873084377206181 0.28458251423411762 0 0.058982904744711628 0.30668321331151238 0 0.039007591640787653 0.29641717716921567 0 0.041331244594315038 0.31214361514568528 0 0.039007591640787653 0.29641717716921567 0 0.041331244594315038 0.31214361514568528 0 0.022849622205056791 0.29892201248853822 0 0.01381393180103305 0.31341217517001801 0 0.041331244594315038 0.31214361514568528 0 0.022849622205056791 0.29892201248853822 0 0.01381393180103305 0.31341217517001801 0 0.022849622205056791 0.29892201248853822 0 0.01060714874604581 0.30032875049147051 0 0.039007591640787653 0.29641717716921567 0 0.022849622205056791 0.29892201248853822 0 0.025873084377206181 0.28458251423411762 0 0.022849622205056791 0.29892201248853822 0 0.025873084377206181 0.28458251423411762 0 0.0088250727781104508 0.28775403250265208 0 0.025873084377206181 0.28458251423411762 0 0.0088250727781104508 0.28775403250265208 0 0.015301450566745671 0.28015329736152661 0 0.022849622205056791 0.29892201248853822 0 0.0088250727781104508 0.28775403250265208 0 0.01060714874604581 0.30032875049147051 0 0.0088250727781104508 0.28775403250265208 0 0.0024927389620208028 0.28158994341642107 0 0.015301450566745671 0.28015329736152661 0 -0.00076577755752341875 0.29127202886697129 0 0.0088250727781104508 0.28775403250265208 0 0.0024927389620208028 0.28158994341642107 0 -0.0030600318000170621 0.30122678180467383 0 0.0088250727781104508 0.28775403250265208 0 -0.0030600318000170621 0.30122678180467383 0 0.0088250727781104508 0.28775403250265208 0 0.01060714874604581 0.30032875049147051 0 -0.0030600318000170621 0.30122678180467383 0 -0.00076577755752341875 0.29127202886697129 0 0.0088250727781104508 0.28775403250265208 0 -0.0030600318000170621 0.30122678180467383 0 -0.0020642756458347971 0.3152294905834277 0 0.01381393180103305 0.31341217517001801 0 -0.0030600318000170621 0.30122678180467383 0 0.01381393180103305 0.31341217517001801 0 0.01060714874604581 0.30032875049147051 0 -0.0030600318000170621 0.30122678180467383 0 0.01381393180103305 0.31341217517001801 0 -0.00042423155656892751 0.26484914111438379 0 0.01493593853923748 0.25231212075350568 0 0.017992439926696201 0.26913619847095899 0 -0.00042423155656892751 0.26484914111438379 0 -0.005385523692544171 0.24929328381291499 0 0.01493593853923748 0.25231212075350568 0 -0.00042423155656892751 0.26484914111438379 0 0.0024927389620208028 0.28158994341642107 0 0.017992439926696201 0.26913619847095899 0 0.0024927389620208028 0.28158994341642107 0 0.015301450566745671 0.28015329736152661 0 0.017992439926696201 0.26913619847095899 0 0.0024927389620208028 0.28158994341642107 0 0.017992439926696201 0.26913619847095899 0 0.025873084377206181 0.28458251423411762 0 0.017992439926696201 0.26913619847095899 0 0.038522322505624283 0.26839543338591132 0 0.017992439926696201 0.26913619847095899 0 0.027962894947615561 0.2606042966609089 0 0.038522322505624283 0.26839543338591132 0 0.025873084377206181 0.28458251423411762 0 0.015301450566745671 0.28015329736152661 0 0.017992439926696201 0.26913619847095899 0 0.033173840028481477 0.24856065214669679 0 0.01493593853923748 0.25231212075350568 0 0.027962894947615561 0.2606042966609089 0 0.01493593853923748 0.25231212075350568 0 0.017992439926696201 0.26913619847095899 0 0.027962894947615561 0.2606042966609089 0 0.033173840028481477 0.24856065214669679 0 0.027962894947615561 0.2606042966609089 0 0.038522322505624283 0.26839543338591132 0 0.049188060406891262 0.2486453332780077 0 0.033173840028481477 0.24856065214669679 0 0.038522322505624283 0.26839543338591132 0 0.048826181865742023 0.2813081562711825 0 0.025873084377206181 0.28458251423411762 0 0.038522322505624283 0.26839543338591132 0 0.048826181865742023 0.2813081562711825 0 0.060069905246459353 0.26920499079421761 0 0.070951750086026957 0.28976464831042781 0 0.048826181865742023 0.2813081562711825 0 0.038522322505624283 0.26839543338591132 0 0.060069905246459353 0.26920499079421761 0 0.049188060406891262 0.2486453332780077 0 0.075599413817737854 0.24878499310742461 0 0.060069905246459353 0.26920499079421761 0 0.049188060406891262 0.2486453332780077 0 0.060069905246459353 0.26920499079421761 0 0.049188060406891262 0.2486453332780077 0 0.038522322505624283 0.26839543338591132 0 0.060069905246459353 0.26920499079421761 0 0.075599413817737854 0.24878499310742461 0 0.060069905246459353 0.26920499079421761 0 0.077230396058112355 0.26533116725088979 0 0.075599413817737854 0.24878499310742461 0 0.1020107672285845 0.24892465293684121 0 0.090289181148562422 0.25981091392971961 0 0.075599413817737854 0.24878499310742461 0 0.077230396058112355 0.26533116725088979 0 0.090289181148562422 0.25981091392971961 0 0.077230396058112355 0.26533116725088979 0 0.091440995107418974 0.27432520083782092 0 0.070951750086026957 0.28976464831042781 0 0.077230396058112355 0.26533116725088979 0 0.090289181148562422 0.25981091392971961 0 0.091440995107418974 0.27432520083782092 0 0.060069905246459353 0.26920499079421761 0 0.070951750086026957 0.28976464831042781 0 0.060069905246459353 0.26920499079421761 0 0.077230396058112355 0.26533116725088979 0 0.070951750086026957 0.28976464831042781 0 0.070951750086026957 0.28976464831042781 0 0.081833594925594597 0.310324305826638 0 0.058982904744711628 0.30668321331151238 0 0.070951750086026957 0.28976464831042781 0 0.081833594925594597 0.310324305826638 0 0.070951750086026957 0.28976464831042781 0 0.081833594925594597 0.310324305826638 0 0.087215956388933605 0.29897002908958392 0 0.087215956388933605 0.29897002908958392 0 0.092667307689356201 0.31094245455733571 0 0.096022442887317039 0.30062283693339459 0 0.087215956388933605 0.29897002908958392 0 0.093875416561606542 0.29378898602677223 0 0.096022442887317039 0.30062283693339459 0 0.081833594925594597 0.310324305826638 0 0.087215956388933605 0.29897002908958392 0 0.092667307689356201 0.31094245455733571 0 0.091440995107418974 0.27432520083782092 0 0.070951750086026957 0.28976464831042781 0 0.088050795233759416 0.28887389387780021 0 0.070951750086026957 0.28976464831042781 0 0.087215956388933605 0.29897002908958392 0 0.088050795233759416 0.28887389387780021 0 0.087215956388933605 0.29897002908958392 0 0.088050795233759416 0.28887389387780021 0 0.093875416561606542 0.29378898602677223 0 0.088050795233759416 0.28887389387780021 0 0.097580574367271369 0.28705427137777201 0 0.093875416561606542 0.29378898602677223 0 0.091440995107418974 0.27432520083782092 0 0.088050795233759416 0.28887389387780021 0 0.097580574367271369 0.28705427137777201 0 0.097580574367271369 0.28705427137777201 0 0.093875416561606542 0.29378898602677223 0 0.1010140453710352 0.29580926363066168 0 0.093875416561606542 0.29378898602677223 0 0.1010140453710352 0.29580926363066168 0 0.096022442887317039 0.30062283693339459 0 0.097580574367271369 0.28705427137777201 0 0.1010140453710352 0.29580926363066168 0 0.1078178637276027 0.28890335860202038 0 0.1010140453710352 0.29580926363066168 0 0.1078178637276027 0.28890335860202038 0 0.113060661207167 0.29490582666774029 0 0.1078178637276027 0.28890335860202038 0 0.11130521255039259 0.28023481109164278 0 0.10338989925226449 0.28112187628642132 0 0.097580574367271369 0.28705427137777201 0 0.1078178637276027 0.28890335860202038 0 0.10338989925226449 0.28112187628642132 0 0.1010140453710352 0.29580926363066168 0 0.096022442887317039 0.30062283693339459 0 0.1191156364184216 0.30545061612840241 0 0.11895491310110221 0.3169138685149418 0 0.096022442887317039 0.30062283693339459 0 0.10212514876299041 0.31707333454321179 0 0.092667307689356201 0.31094245455733571 0 0.096022442887317039 0.30062283693339459 0 0.11895491310110221 0.3169138685149418 0 0.10212514876299041 0.31707333454321179 0 0.096022442887317039 0.30062283693339459 0 0.1010140453710352 0.29580926363066168 0 0.1191156364184216 0.30545061612840241 0 0.1010140453710352 0.29580926363066168 0 0.1191156364184216 0.30545061612840241 0 0.113060661207167 0.29490582666774029 0 0.11895491310110221 0.3169138685149418 0 0.096022442887317039 0.30062283693339459 0 0.1191156364184216 0.30545061612840241 0 0.1191156364184216 0.30545061612840241 0 0.113060661207167 0.29490582666774029 0 0.12099433709558841 0.29528619794443828 0 0.1191156364184216 0.30545061612840241 0 0.12099433709558841 0.29528619794443828 0 0.13133302520114709 0.29556601860505272 0 0.1078178637276027 0.28890335860202038 0 0.1163614234231872 0.28907969703317871 0 0.11130521255039259 0.28023481109164278 0 0.1163614234231872 0.28907969703317871 0 0.11982608661643809 0.27953386069634889 0 0.11130521255039259 0.28023481109164278 0 0.1078178637276027 0.28890335860202038 0 0.1163614234231872 0.28907969703317871 0 0.113060661207167 0.29490582666774029 0 0.1163614234231872 0.28907969703317871 0 0.113060661207167 0.29490582666774029 0 0.12099433709558841 0.29528619794443828 0 0.1163614234231872 0.28907969703317871 0 0.12099433709558841 0.29528619794443828 0 0.1248544584312493 0.28775520123140541 0 0.1163614234231872 0.28907969703317871 0 0.1248544584312493 0.28775520123140541 0 0.11982608661643809 0.27953386069634889 0 0.1248544584312493 0.28775520123140541 0 0.11982608661643809 0.27953386069634889 0 0.12728542915239341 0.28052406769488669 0 0.11982608661643809 0.27953386069634889 0 0.12439237942316279 0.27193904564082011 0 0.12728542915239341 0.28052406769488669 0 0.11982608661643809 0.27953386069634889 0 0.1145344887751483 0.27108909740294729 0 0.12439237942316279 0.27193904564082011 0 0.11130521255039259 0.28023481109164278 0 0.1145344887751483 0.27108909740294729 0 0.1055235759918059 0.27310708864027128 0 0.11982608661643809 0.27953386069634889 0 0.11130521255039259 0.28023481109164278 0 0.1145344887751483 0.27108909740294729 0 0.1145344887751483 0.27108909740294729 0 0.12439237942316279 0.27193904564082011 0 0.1198075052122592 0.26100490598385251 0 0.1020107672285845 0.24892465293684121 0 0.12842212063943101 0.24906431276625779 0 0.1198075052122592 0.26100490598385251 0 0.1145344887751483 0.27108909740294729 0 0.1198075052122592 0.26100490598385251 0 0.1053191241500212 0.26276083245292159 0 0.1020107672285845 0.24892465293684121 0 0.1198075052122592 0.26100490598385251 0 0.1053191241500212 0.26276083245292159 0 0.1020107672285845 0.24892465293684121 0 0.090289181148562422 0.25981091392971961 0 0.1053191241500212 0.26276083245292159 0 0.091440995107418974 0.27432520083782092 0 0.1053191241500212 0.26276083245292159 0 0.1055235759918059 0.27310708864027128 0 0.090289181148562422 0.25981091392971961 0 0.091440995107418974 0.27432520083782092 0 0.1053191241500212 0.26276083245292159 0 0.091440995107418974 0.27432520083782092 0 0.10338989925226449 0.28112187628642132 0 0.1055235759918059 0.27310708864027128 0 0.091440995107418974 0.27432520083782092 0 0.097580574367271369 0.28705427137777201 0 0.10338989925226449 0.28112187628642132 0 0.11130521255039259 0.28023481109164278 0 0.10338989925226449 0.28112187628642132 0 0.1055235759918059 0.27310708864027128 0 0.1145344887751483 0.27108909740294729 0 0.1053191241500212 0.26276083245292159 0 0.1055235759918059 0.27310708864027128 0 0.1439664164719146 0.26837956320461209 0 0.1428027524558606 0.28076060988678508 0 0.15367902390204061 0.28036841798900491 0 0.1439664164719146 0.26837956320461209 0 0.15231243168027861 0.25988045737976317 0 0.15745626723729991 0.26870861279967051 0 0.1439664164719146 0.26837956320461209 0 0.15367902390204061 0.28036841798900491 0 0.15745626723729991 0.26870861279967051 0 0.15483347405027731 0.24920397259567451 0 0.12842212063943101 0.24906431276625779 0 0.14100161593552149 0.25690385887910799 0 0.15483347405027731 0.24920397259567451 0 0.15231243168027861 0.25988045737976317 0 0.14100161593552149 0.25690385887910799 0 0.1439664164719146 0.26837956320461209 0 0.15231243168027861 0.25988045737976317 0 0.14100161593552149 0.25690385887910799 0 0.14100161593552149 0.25690385887910799 0 0.1308540631594664 0.25794741278103361 0 0.13134389687557729 0.26612967859152931 0 0.1439664164719146 0.26837956320461209 0 0.14100161593552149 0.25690385887910799 0 0.13134389687557729 0.26612967859152931 0 0.12842212063943101 0.24906431276625779 0 0.14100161593552149 0.25690385887910799 0 0.1308540631594664 0.25794741278103361 0 0.12842212063943101 0.24906431276625779 0 0.1198075052122592 0.26100490598385251 0 0.1308540631594664 0.25794741278103361 0 0.1198075052122592 0.26100490598385251 0 0.1308540631594664 0.25794741278103361 0 0.13134389687557729 0.26612967859152931 0 0.12439237942316279 0.27193904564082011 0 0.1198075052122592 0.26100490598385251 0 0.13134389687557729 0.26612967859152931 0 0.12439237942316279 0.27193904564082011 0 0.13134389687557729 0.26612967859152931 0 0.13405011840168021 0.27560442660037482 0 0.1439664164719146 0.26837956320461209 0 0.13134389687557729 0.26612967859152931 0 0.13405011840168021 0.27560442660037482 0 0.1439664164719146 0.26837956320461209 0 0.1428027524558606 0.28076060988678508 0 0.13405011840168021 0.27560442660037482 0 0.1428027524558606 0.28076060988678508 0 0.13405011840168021 0.27560442660037482 0 0.13436611311672331 0.28544774456101191 0 0.12439237942316279 0.27193904564082011 0 0.13405011840168021 0.27560442660037482 0 0.12728542915239341 0.28052406769488669 0 0.13405011840168021 0.27560442660037482 0 0.12728542915239341 0.28052406769488669 0 0.13436611311672331 0.28544774456101191 0 0.1248544584312493 0.28775520123140541 0 0.12728542915239341 0.28052406769488669 0 0.13436611311672331 0.28544774456101191 0 0.12099433709558841 0.29528619794443828 0 0.1248544584312493 0.28775520123140541 0 0.13133302520114709 0.29556601860505272 0 0.1248544584312493 0.28775520123140541 0 0.13133302520114709 0.29556601860505272 0 0.13436611311672331 0.28544774456101191 0 0.13133302520114709 0.29556601860505272 0 0.13436611311672331 0.28544774456101191 0 0.14587089505800879 0.292476143347567 0 0.1191156364184216 0.30545061612840241 0 0.137217227465808 0.31509196862614303 0 0.11895491310110221 0.3169138685149418 0 0.1191156364184216 0.30545061612840241 0 0.137217227465808 0.31509196862614303 0 0.1191156364184216 0.30545061612840241 0 0.13950222878999791 0.30343454819564802 0 0.137217227465808 0.31509196862614303 0 0.1191156364184216 0.30545061612840241 0 0.13133302520114709 0.29556601860505272 0 0.13950222878999791 0.30343454819564802 0 0.13133302520114709 0.29556601860505272 0 0.13950222878999791 0.30343454819564802 0 0.14587089505800879 0.292476143347567 0 0.13950222878999791 0.30343454819564802 0 0.15377908842821489 0.30672811523603671 0 0.137217227465808 0.31509196862614303 0 0.15377908842821489 0.30672811523603671 0 0.14587089505800879 0.292476143347567 0 0.1639378716787355 0.29332882127097221 0 0.13950222878999791 0.30343454819564802 0 0.15377908842821489 0.30672811523603671 0 0.14587089505800879 0.292476143347567 0 0.15367902390204061 0.28036841798900491 0 0.14587089505800879 0.292476143347567 0 0.1639378716787355 0.29332882127097221 0 0.1428027524558606 0.28076060988678508 0 0.13436611311672331 0.28544774456101191 0 0.14587089505800879 0.292476143347567 0 0.1428027524558606 0.28076060988678508 0 0.15367902390204061 0.28036841798900491 0 0.14587089505800879 0.292476143347567 0 0.1639378716787355 0.29332882127097221 0 0.18024680744773569 0.28935570188899279 0 0.16803994051042409 0.27855675742442221 0 0.15367902390204061 0.28036841798900491 0 0.1639378716787355 0.29332882127097221 0 0.16803994051042409 0.27855675742442221 0 0.15377908842821489 0.30672811523603671 0 0.1639378716787355 0.29332882127097221 0 0.17892976301630609 0.30984124309776129 0 0.17892976301630609 0.30984124309776129 0 0.18024680744773569 0.28935570188899279 0 0.1891237800411085 0.29425263725930878 0 0.1639378716787355 0.29332882127097221 0 0.17892976301630609 0.30984124309776129 0 0.18024680744773569 0.28935570188899279 0 0.18024680744773569 0.28935570188899279 0 0.18234067770170789 0.27769097213123412 0 0.16803994051042409 0.27855675742442221 0 0.18024680744773569 0.28935570188899279 0 0.18234067770170789 0.27769097213123412 0 0.1947778421809748 0.28286443897883989 0 0.17713566178244691 0.26853123206323021 0 0.1836221939567233 0.2607636139458932 0 0.19150313658695789 0.26914673030068531 0 0.18234067770170789 0.27769097213123412 0 0.17713566178244691 0.26853123206323021 0 0.19150313658695789 0.26914673030068531 0 0.18234067770170789 0.27769097213123412 0 0.17713566178244691 0.26853123206323021 0 0.16803994051042409 0.27855675742442221 0 0.16803994051042409 0.27855675742442221 0 0.1674775192647229 0.26591776569927023 0 0.15745626723729991 0.26870861279967051 0 0.17713566178244691 0.26853123206323021 0 0.16803994051042409 0.27855675742442221 0 0.1674775192647229 0.26591776569927023 0 0.15367902390204061 0.28036841798900491 0 0.16803994051042409 0.27855675742442221 0 0.15745626723729991 0.26870861279967051 0 0.15483347405027731 0.24920397259567451 0 0.15231243168027861 0.25988045737976317 0 0.16430438470637981 0.25620627941975088 0 0.15483347405027731 0.24920397259567451 0 0.16301415405994099 0.2487187799899023 0 0.16430438470637981 0.25620627941975088 0 0.15231243168027861 0.25988045737976317 0 0.15745626723729991 0.26870861279967051 0 0.16430438470637981 0.25620627941975088 0 0.1674775192647229 0.26591776569927023 0 0.15745626723729991 0.26870861279967051 0 0.16430438470637981 0.25620627941975088 0 0.1674775192647229 0.26591776569927023 0 0.16430438470637981 0.25620627941975088 0 0.17314737327183519 0.25920524761129599 0 0.16430438470637981 0.25620627941975088 0 0.16982464433405869 0.25049927989616733 0 0.17314737327183519 0.25920524761129599 0 0.16301415405994099 0.2487187799899023 0 0.16430438470637981 0.25620627941975088 0 0.16982464433405869 0.25049927989616733 0 0.16982464433405869 0.25049927989616733 0 0.17863838944849589 0.25247101701671731 0 0.17314737327183519 0.25920524761129599 0 0.17863838944849589 0.25247101701671731 0 0.17314737327183519 0.25920524761129599 0 0.1836221939567233 0.2607636139458932 0 0.17713566178244691 0.26853123206323021 0 0.17314737327183519 0.25920524761129599 0 0.1836221939567233 0.2607636139458932 0 0.17713566178244691 0.26853123206323021 0 0.1674775192647229 0.26591776569927023 0 0.17314737327183519 0.25920524761129599 0 0.17863838944849589 0.25247101701671731 0 0.1836221939567233 0.2607636139458932 0 0.1857866299664257 0.25436317409169101 0 0.1836221939567233 0.2607636139458932 0 0.1857866299664257 0.25436317409169101 0 0.19225120530835979 0.25677131780394991 0 0.18536847187354341 0.24877511519777609 0 0.17863838944849589 0.25247101701671731 0 0.1857866299664257 0.25436317409169101 0 0.18536847187354341 0.24877511519777609 0 0.1857866299664257 0.25436317409169101 0 0.19177977426211329 0.25035481484498823 0 0.1857866299664257 0.25436317409169101 0 0.19177977426211329 0.25035481484498823 0 0.19225120530835979 0.25677131780394991 0 0.19177977426211329 0.25035481484498823 0 0.19225120530835979 0.25677131780394991 0 0.1992518842695819 0.25285521611731221 0 0.1836221939567233 0.2607636139458932 0 0.19225120530835979 0.25677131780394991 0 0.19150313658695789 0.26914673030068531 0 0.19225120530835979 0.25677131780394991 0 0.2000306750574809 0.26202513493918261 0 0.19150313658695789 0.26914673030068531 0 0.2000306750574809 0.26202513493918261 0 0.1992518842695819 0.25285521611731221 0 0.20907279808091611 0.25517521009296568 0 0.19225120530835979 0.25677131780394991 0 0.2000306750574809 0.26202513493918261 0 0.1992518842695819 0.25285521611731221 0 0.18234067770170789 0.27769097213123412 0 0.19150313658695789 0.26914673030068531 0 0.1947778421809748 0.28286443897883989 0 0.2000306750574809 0.26202513493918261 0 0.19150313658695789 0.26914673030068531 0 0.20649089480167379 0.27156451915054147 0 0.19150313658695789 0.26914673030068531 0 0.20649089480167379 0.27156451915054147 0 0.1947778421809748 0.28286443897883989 0 0.20649089480167379 0.27156451915054147 0 0.20683720764179281 0.28429415003034919 0 0.1947778421809748 0.28286443897883989 0 0.20649089480167379 0.27156451915054147 0 0.22472439729901619 0.26110409201609242 0 0.21801530999948529 0.28164098465429899 0 0.20649089480167379 0.27156451915054147 0 0.21801530999948529 0.28164098465429899 0 0.20683720764179281 0.28429415003034919 0 0.20649089480167379 0.27156451915054147 0 0.21801530999948529 0.28164098465429899 0 0.21844555229601689 0.2457867669992943 0 0.20907279808091611 0.25517521009296568 0 0.22472439729901619 0.26110409201609242 0 0.2000306750574809 0.26202513493918261 0 0.20649089480167379 0.27156451915054147 0 0.20907279808091611 0.25517521009296568 0 0.20649089480167379 0.27156451915054147 0 0.20907279808091611 0.25517521009296568 0 0.22472439729901619 0.26110409201609242 0 0.20443252345604671 0.24763972872683621 0 0.1992518842695819 0.25285521611731221 0 0.20907279808091611 0.25517521009296568 0 0.23533289242664959 0.24897286914193131 0 0.2314334845985456 0.24056719937788529 0 0.22472439729901619 0.26110409201609242 0 0.2314334845985456 0.24056719937788529 0 0.22472439729901619 0.26110409201609242 0 0.22472439729901619 0.26110409201609242 0 0.23711100108742639 0.27548839371101469 0 0.24021539923885529 0.25684826073986988 0 0.23533289242664959 0.24897286914193131 0 0.22472439729901619 0.26110409201609242 0 0.24021539923885529 0.25684826073986988 0 0.22472439729901619 0.26110409201609242 0 0.23711100108742639 0.27548839371101469 0 0.21801530999948529 0.28164098465429899 0 0.22472439729901619 0.26110409201609242 0 0.21801530999948529 0.28164098465429899 0 0.23711100108742639 0.27548839371101469 0 0.25298448859367201 0.29201933016264192 0 0.2546487262936768 0.27409994788838732 0 0.23711100108742639 0.27548839371101469 0 0.24021539923885529 0.25684826073986988 0 0.2546487262936768 0.27409994788838732 0 0.23968435270501551 0.24079207095117161 0 0.24021539923885529 0.25684826073986988 0 0.25626813768261603 0.25747502178523579 0 0.23530095071560139 0.29675482421983718 0 0.25298448859367201 0.29201933016264192 0 0.25258659143171891 0.31186866378537392 0 0.23530095071560139 0.29675482421983718 0 0.23491432865902631 0.31288377269406981 0 0.25258659143171891 0.31186866378537392 0 0.23530095071560139 0.29675482421983718 0 0.25258659143171891 0.31186866378537392 0 0.23711100108742639 0.27548839371101469 0 0.23530095071560139 0.29675482421983718 0 0.25298448859367201 0.29201933016264192 0 0.23711100108742639 0.27548839371101469 0 0.23530095071560139 0.29675482421983718 0 0.21801530999948529 0.28164098465429899 0 0.23530095071560139 0.29675482421983718 0 0.22325560693257021 0.30041605470006078 0 0.21801530999948529 0.28164098465429899 0 0.23530095071560139 0.29675482421983718 0 0.21801530999948529 0.28164098465429899 0 0.23530095071560139 0.29675482421983718 0 0.22325560693257021 0.30041605470006078 0 0.23491432865902631 0.31288377269406981 0 0.22325560693257021 0.30041605470006078 0 0.22166649815358841 0.31134526971578869 0 0.23491432865902631 0.31288377269406981 0 0.22325560693257021 0.30041605470006078 0 0.22166649815358841 0.31134526971578869 0 0.21386358294331481 0.30577862380457221 0 0.22166649815358841 0.31134526971578869 0 0.21386358294331481 0.30577862380457221 0 0.2130387706976116 0.31647932981256732 0 0.22325560693257021 0.30041605470006078 0 0.21386358294331481 0.30577862380457221 0 0.21366248747643421 0.29496521861311892 0 0.21386358294331481 0.30577862380457221 0 0.20661261667821881 0.30339855861346088 0 0.21366248747643421 0.29496521861311892 0 0.20661261667821881 0.30339855861346088 0 0.21366248747643421 0.29496521861311892 0 0.2025407075194173 0.2949491650716411 0 0.21386358294331481 0.30577862380457221 0 0.2055305869391344 0.31118743556625578 0 0.2130387706976116 0.31647932981256732 0 0.20661261667821881 0.30339855861346088 0 0.2055305869391344 0.31118743556625578 0 0.1974657185127934 0.31011235001171611 0 0.21386358294331481 0.30577862380457221 0 0.20661261667821881 0.30339855861346088 0 0.2055305869391344 0.31118743556625578 0 0.22325560693257021 0.30041605470006078 0 0.21801530999948529 0.28164098465429899 0 0.21366248747643421 0.29496521861311892 0 0.21801530999948529 0.28164098465429899 0 0.21366248747643421 0.29496521861311892 0 0.20683720764179281 0.28429415003034919 0 0.21801530999948529 0.28164098465429899 0 0.21366248747643421 0.29496521861311892 0 0.21366248747643421 0.29496521861311892 0 0.20683720764179281 0.28429415003034919 0 0.2025407075194173 0.2949491650716411 0 0.20683720764179281 0.28429415003034919 0 0.2025407075194173 0.2949491650716411 0 0.1947778421809748 0.28286443897883989 0 0.2025407075194173 0.2949491650716411 0 0.1891237800411085 0.29425263725930878 0 0.1947778421809748 0.28286443897883989 0 0.18024680744773569 0.28935570188899279 0 0.1891237800411085 0.29425263725930878 0 0.1947778421809748 0.28286443897883989 0 0.17892976301630609 0.30984124309776129 0 0.2025407075194173 0.2949491650716411 0 0.1974657185127934 0.31011235001171611 0 0.17892976301630609 0.30984124309776129 0 0.2025407075194173 0.2949491650716411 0 0.1891237800411085 0.29425263725930878 0 0.17892976301630609 0.30984124309776129 0 0.2025407075194173 0.2949491650716411 0 0.20661261667821881 0.30339855861346088 0 0.2025407075194173 0.2949491650716411 0 0.1974657185127934 0.31011235001171611 0 0.17892976301630609 0.30984124309776129 0 0.1974657185127934 0.31011235001171611 0 0.1903230932725736 0.32194222143968959 0 0.1903230932725736 0.32194222143968959 0 0.20168733781538001 0.32026121042301853 0 0.19968671867945839 0.33173978736651027 0 0.2055305869391344 0.31118743556625578 0 0.1974657185127934 0.31011235001171611 0 0.20168733781538001 0.32026121042301853 0 0.1974657185127934 0.31011235001171611 0 0.1903230932725736 0.32194222143968959 0 0.20168733781538001 0.32026121042301853 0 0.19312661190772271 0.34211315305402451 0 0.18921069153598419 0.33225172139979198 0 0.1819540955239444 0.33891992460328818 0 0.1903230932725736 0.32194222143968959 0 0.18921069153598419 0.33225172139979198 0 0.19968671867945839 0.33173978736651027 0 0.19312661190772271 0.34211315305402451 0 0.18921069153598419 0.33225172139979198 0 0.19968671867945839 0.33173978736651027 0 0.19312661190772271 0.34211315305402451 0 0.19968671867945839 0.33173978736651027 0 0.2025684001470992 0.34312036987236161 0 0.2025684001470992 0.34312036987236161 0 0.20959171550030481 0.33632615419657602 0 0.2104998962745924 0.34661614379921568 0 0.19968671867945839 0.33173978736651027 0 0.2025684001470992 0.34312036987236161 0 0.20959171550030481 0.33632615419657602 0 0.19968671867945839 0.33173978736651027 0 0.20959171550030481 0.33632615419657602 0 0.21031586818642181 0.326101126312832 0 0.20959171550030481 0.33632615419657602 0 0.2177642940902301 0.33127081122574448 0 0.21031586818642181 0.326101126312832 0 0.20959171550030481 0.33632615419657602 0 0.2178385027808705 0.34049692246390761 0 0.2104998962745924 0.34661614379921568 0 0.20959171550030481 0.33632615419657602 0 0.2177642940902301 0.33127081122574448 0 0.2178385027808705 0.34049692246390761 0 0.2055305869391344 0.31118743556625578 0 0.20168733781538001 0.32026121042301853 0 0.2130387706976116 0.31647932981256732 0 0.20168733781538001 0.32026121042301853 0 0.21031586818642181 0.326101126312832 0 0.2130387706976116 0.31647932981256732 0 0.20168733781538001 0.32026121042301853 0 0.19968671867945839 0.33173978736651027 0 0.21031586818642181 0.326101126312832 0 0.21031586818642181 0.326101126312832 0 0.2130387706976116 0.31647932981256732 0 0.22088295157014071 0.322040468760598 0 0.2177642940902301 0.33127081122574448 0 0.21031586818642181 0.326101126312832 0 0.22088295157014071 0.322040468760598 0 0.22166649815358841 0.31134526971578869 0 0.2130387706976116 0.31647932981256732 0 0.22088295157014071 0.322040468760598 0 0.22166649815358841 0.31134526971578869 0 0.22088295157014071 0.322040468760598 0 0.23491432865902631 0.31288377269406981 0 0.23178280550124611 0.32760142582841772 0 0.22088295157014071 0.322040468760598 0 0.23491432865902631 0.31288377269406981 0 0.2177642940902301 0.33127081122574448 0 0.23178280550124611 0.32760142582841772 0 0.22088295157014071 0.322040468760598 0 0.2177642940902301 0.33127081122574448 0 0.23178280550124611 0.32760142582841772 0 0.2259808769436685 0.33552309486085757 0 0.2177642940902301 0.33127081122574448 0 0.2178385027808705 0.34049692246390761 0 0.2259808769436685 0.33552309486085757 0 0.2178385027808705 0.34049692246390761 0 0.2259808769436685 0.33552309486085757 0 0.22590005020687581 0.34212739154653088 0 0.2178385027808705 0.34049692246390761 0 0.22590005020687581 0.34212739154653088 0 0.2203966920499475 0.34666690065609512 0 0.22590005020687581 0.34212739154653088 0 0.23421025920595789 0.33827066968190689 0 0.23278533157888581 0.3473536934368987 0 0.2259808769436685 0.33552309486085757 0 0.22590005020687581 0.34212739154653088 0 0.23421025920595789 0.33827066968190689 0 0.23178280550124611 0.32760142582841772 0 0.2259808769436685 0.33552309486085757 0 0.23421025920595789 0.33827066968190689 0 0.23178280550124611 0.32760142582841772 0 0.23421025920595789 0.33827066968190689 0 0.24128538921056519 0.33176965158092669 0 0.23421025920595789 0.33827066968190689 0 0.23802289865052251 0.34326098316702047 0 0.23278533157888581 0.3473536934368987 0 0.23421025920595789 0.33827066968190689 0 0.23802289865052251 0.34326098316702047 0 0.24139019385306321 0.33805400816375492 0 0.23421025920595789 0.33827066968190689 0 0.24128538921056519 0.33176965158092669 0 0.24139019385306321 0.33805400816375492 0 0.23802289865052251 0.34326098316702047 0 0.24139019385306321 0.33805400816375492 0 0.24284275464761571 0.34335802678473509 0 0.24139019385306321 0.33805400816375492 0 0.24284275464761571 0.34335802678473509 0 0.25142738989823499 0.33309874237627568 0 0.24128538921056519 0.33176965158092669 0 0.24139019385306321 0.33805400816375492 0 0.25142738989823499 0.33309874237627568 0 0.24128538921056519 0.33176965158092669 0 0.25054534105967702 0.32691114110327901 0 0.25142738989823499 0.33309874237627568 0 0.2422228911724468 0.32220693099841352 0 0.23491432865902631 0.31288377269406981 0 0.25258659143171891 0.31186866378537392 0 0.24128538921056519 0.33176965158092669 0 0.2422228911724468 0.32220693099841352 0 0.25054534105967702 0.32691114110327901 0 0.2422228911724468 0.32220693099841352 0 0.25054534105967702 0.32691114110327901 0 0.25258659143171891 0.31186866378537392 0 0.23178280550124611 0.32760142582841772 0 0.2422228911724468 0.32220693099841352 0 0.23491432865902631 0.31288377269406981 0 0.23178280550124611 0.32760142582841772 0 0.24128538921056519 0.33176965158092669 0 0.2422228911724468 0.32220693099841352 0 0.2401186940965763 0.36297956418980393 0 0.24066484379848699 0.35604885772695782 0 0.22465585112297681 0.36378821892756608 0 0.2401186940965763 0.36297956418980393 0 0.23720146261612879 0.37414816688571501 0 0.25285619943820442 0.36858978742794257 0 0.2401186940965763 0.36297956418980393 0 0.24866990205605541 0.35616870183163352 0 0.25285619943820442 0.36858978742794257 0 0.2401186940965763 0.36297956418980393 0 0.24866990205605541 0.35616870183163352 0 0.24066484379848699 0.35604885772695782 0 0.24290702123547631 0.34681107507384229 0 0.24066484379848699 0.35604885772695782 0 0.22465585112297681 0.36378821892756608 0 0.24866990205605541 0.35616870183163352 0 0.2467093583527786 0.35031285144032998 0 0.24066484379848699 0.35604885772695782 0 0.2467093583527786 0.35031285144032998 0 0.24290702123547631 0.34681107507384229 0 0.24066484379848699 0.35604885772695782 0 0.24866990205605541 0.35616870183163352 0 0.2467093583527786 0.35031285144032998 0 0.25109846422569032 0.34632698245984889 0 0.24790978108704151 0.34460523117290082 0 0.2467093583527786 0.35031285144032998 0 0.25109846422569032 0.34632698245984889 0 0.24284275464761571 0.34335802678473509 0 0.24790978108704151 0.34460523117290082 0 0.24290702123547631 0.34681107507384229 0 0.24790978108704151 0.34460523117290082 0 0.2467093583527786 0.35031285144032998 0 0.24290702123547631 0.34681107507384229 0 0.23802289865052251 0.34326098316702047 0 0.24290702123547631 0.34681107507384229 0 0.23278533157888581 0.3473536934368987 0 0.23802289865052251 0.34326098316702047 0 0.24284275464761571 0.34335802678473509 0 0.24290702123547631 0.34681107507384229 0 0.23278533157888581 0.3473536934368987 0 0.22465585112297681 0.36378821892756608 0 0.21495967940851299 0.35674035203392268 0 0.24290702123547631 0.34681107507384229 0 0.23278533157888581 0.3473536934368987 0 0.22465585112297681 0.36378821892756608 0 0.23278533157888581 0.3473536934368987 0 0.2203966920499475 0.34666690065609512 0 0.21495967940851299 0.35674035203392268 0 0.23278533157888581 0.3473536934368987 0 0.21495967940851299 0.35674035203392268 0 0.24290702123547631 0.34681107507384229 0 0.22465585112297681 0.36378821892756608 0 0.22590005020687581 0.34212739154653088 0 0.23278533157888581 0.3473536934368987 0 0.2203966920499475 0.34666690065609512 0 0.23720146261612879 0.37414816688571501 0 0.22465585112297681 0.36378821892756608 0 0.22347697366934621 0.381102736558321 0 0.2401186940965763 0.36297956418980393 0 0.23720146261612879 0.37414816688571501 0 0.22465585112297681 0.36378821892756608 0 0.22465585112297681 0.36378821892756608 0 0.2107885596950268 0.36685523609343129 0 0.20640468101047729 0.38076536278128997 0 0.2107885596950268 0.36685523609343129 0 0.21495967940851299 0.35674035203392268 0 0.19713402723814019 0.3661270106309466 0 0.21495967940851299 0.35674035203392268 0 0.19713402723814019 0.3661270106309466 0 0.22465585112297681 0.36378821892756608 0 0.20640468101047729 0.38076536278128997 0 0.22465585112297681 0.36378821892756608 0 0.2107885596950268 0.36685523609343129 0 0.21495967940851299 0.35674035203392268 0 0.2107885596950268 0.36685523609343129 0 0.19713402723814019 0.3661270106309466 0 0.20640468101047729 0.38076536278128997 0 0.21495967940851299 0.35674035203392268 0 0.20032705856237479 0.35232622320843149 0 0.19713402723814019 0.3661270106309466 0 0.2203966920499475 0.34666690065609512 0 0.21495967940851299 0.35674035203392268 0 0.2104998962745924 0.34661614379921568 0 0.2178385027808705 0.34049692246390761 0 0.2203966920499475 0.34666690065609512 0 0.2104998962745924 0.34661614379921568 0 0.21495967940851299 0.35674035203392268 0 0.2104998962745924 0.34661614379921568 0 0.20032705856237479 0.35232622320843149 0 0.2025684001470992 0.34312036987236161 0 0.2104998962745924 0.34661614379921568 0 0.20032705856237479 0.35232622320843149 0 0.19312661190772271 0.34211315305402451 0 0.2025684001470992 0.34312036987236161 0 0.20032705856237479 0.35232622320843149 0 0.20032705856237479 0.35232622320843149 0 0.19713402723814019 0.3661270106309466 0 0.1865093012063771 0.35491778611404551 0 0.19312661190772271 0.34211315305402451 0 0.20032705856237479 0.35232622320843149 0 0.1865093012063771 0.35491778611404551 0 0.19713402723814019 0.3661270106309466 0 0.17930837506776751 0.37551366922797069 0 0.19142280487247959 0.38328179087787628 0 0.19713402723814019 0.3661270106309466 0 0.1865093012063771 0.35491778611404551 0 0.17930837506776751 0.37551366922797069 0 0.19713402723814019 0.3661270106309466 0 0.17930837506776751 0.37551366922797069 0 0.1703611453682379 0.34823603380845097 0 0.1865093012063771 0.35491778611404551 0 0.17930837506776751 0.37551366922797069 0 0.1703611453682379 0.34823603380845097 0 0.17930837506776751 0.37551366922797069 0 0.16242327833201159 0.36772618015186681 0 0.15534375931689459 0.37619368205009052 0 0.17930837506776751 0.37551366922797069 0 0.1634103392593329 0.3573222624911212 0 0.1703611453682379 0.34823603380845097 0 0.17930837506776751 0.37551366922797069 0 0.16242327833201159 0.36772618015186681 0 0.1634103392593329 0.3573222624911212 0 0.17930837506776751 0.37551366922797069 0 0.16242327833201159 0.36772618015186681 0 0.1634103392593329 0.3573222624911212 0 0.15017355070287061 0.36565089229798509 0 0.16077206788439449 0.34662041922117798 0 0.15293939175214299 0.34105615278808221 0 0.16077206788439449 0.34662041922117798 0 0.1634103392593329 0.3573222624911212 0 0.15008206302818849 0.35337340421516539 0 0.16077206788439449 0.34662041922117798 0 0.1634103392593329 0.3573222624911212 0 0.1703611453682379 0.34823603380845097 0 0.16077206788439449 0.34662041922117798 0 0.1703611453682379 0.34823603380845097 0 0.16674290837790839 0.34038224978246751 0 0.1703611453682379 0.34823603380845097 0 0.1865093012063771 0.35491778611404551 0 0.1819540955239444 0.33891992460328818 0 0.19312661190772271 0.34211315305402451 0 0.1865093012063771 0.35491778611404551 0 0.1819540955239444 0.33891992460328818 0 0.18921069153598419 0.33225172139979198 0 0.1819540955239444 0.33891992460328818 0 0.18096293829622201 0.32654352053544722 0 0.1819540955239444 0.33891992460328818 0 0.16694515311019051 0.33092579281396189 0 0.1819540955239444 0.33891992460328818 0 0.18096293829622201 0.32654352053544722 0 0.16694515311019051 0.33092579281396189 0 0.1819540955239444 0.33891992460328818 0 0.16674290837790839 0.34038224978246751 0 0.16694515311019051 0.33092579281396189 0 0.1703611453682379 0.34823603380845097 0 0.1819540955239444 0.33891992460328818 0 0.16674290837790839 0.34038224978246751 0 0.17892976301630609 0.30984124309776129 0 0.18096293829622201 0.32654352053544722 0 0.16694515311019051 0.33092579281396189 0 0.17892976301630609 0.30984124309776129 0 0.1903230932725736 0.32194222143968959 0 0.18096293829622201 0.32654352053544722 0 0.1903230932725736 0.32194222143968959 0 0.18921069153598419 0.33225172139979198 0 0.18096293829622201 0.32654352053544722 0 0.17892976301630609 0.30984124309776129 0 0.15531881851319529 0.32473332112388231 0 0.17892976301630609 0.30984124309776129 0 0.16694515311019051 0.33092579281396189 0 0.15531881851319529 0.32473332112388231 0 0.15377908842821489 0.30672811523603671 0 0.17892976301630609 0.30984124309776129 0 0.15531881851319529 0.32473332112388231 0 0.16694515311019051 0.33092579281396189 0 0.15531881851319529 0.32473332112388231 0 0.16694515311019051 0.33092579281396189 0 0.15293939175214299 0.34105615278808221 0 0.15531881851319529 0.32473332112388231 0 0.16674290837790839 0.34038224978246751 0 0.16694515311019051 0.33092579281396189 0 0.15293939175214299 0.34105615278808221 0 0.16694515311019051 0.33092579281396189 0 0.15293939175214299 0.34105615278808221 0 0.16077206788439449 0.34662041922117798 0 0.16674290837790839 0.34038224978246751 0 0.15293939175214299 0.34105615278808221 0 0.15293939175214299 0.34105615278808221 0 0.14188738331488709 0.33320490009648912 0 0.15531881851319529 0.32473332112388231 0 0.15293939175214299 0.34105615278808221 0 0.14188738331488709 0.33320490009648912 0 0.13748944064072049 0.35223109446673451 0 0.14188738331488709 0.33320490009648912 0 0.15531881851319529 0.32473332112388231 0 0.15293939175214299 0.34105615278808221 0 0.14188738331488709 0.33320490009648912 0 0.14188738331488709 0.33320490009648912 0 0.15531881851319529 0.32473332112388231 0 0.137217227465808 0.31509196862614303 0 0.15377908842821489 0.30672811523603671 0 0.15531881851319529 0.32473332112388231 0 0.137217227465808 0.31509196862614303 0 0.15531881851319529 0.32473332112388231 0 0.137217227465808 0.31509196862614303 0 0.11895491310110221 0.3169138685149418 0 0.14188738331488709 0.33320490009648912 0 0.11895491310110221 0.3169138685149418 0 0.14188738331488709 0.33320490009648912 0 0.137217227465808 0.31509196862614303 0 0.1227650874046195 0.33127102124079649 0 0.11895491310110221 0.3169138685149418 0 0.14188738331488709 0.33320490009648912 0 0.1227650874046195 0.33127102124079649 0 0.14188738331488709 0.33320490009648912 0 0.1330514689110148 0.33877795655415271 0 0.14188738331488709 0.33320490009648912 0 0.1330514689110148 0.33877795655415271 0 0.13748944064072049 0.35223109446673451 0 0.14188738331488709 0.33320490009648912 0 0.1330514689110148 0.33877795655415271 0 0.1245660170080297 0.33899410970665578 0 0.1330514689110148 0.33877795655415271 0 0.12928023563887689 0.34592155418165732 0 0.1245660170080297 0.33899410970665578 0 0.1227650874046195 0.33127102124079649 0 0.1330514689110148 0.33877795655415271 0 0.1228187489786231 0.3462485094077572 0 0.1245660170080297 0.33899410970665578 0 0.12928023563887689 0.34592155418165732 0 0.12928023563887689 0.34592155418165732 0 0.13748944064072049 0.35223109446673451 0 0.12847550265599661 0.35335610077298618 0 0.1228187489786231 0.3462485094077572 0 0.12928023563887689 0.34592155418165732 0 0.12847550265599661 0.35335610077298618 0 0.1330514689110148 0.33877795655415271 0 0.12928023563887689 0.34592155418165732 0 0.13748944064072049 0.35223109446673451 0 0.1220394895292983 0.36340603614538708 0 0.13748944064072049 0.35223109446673451 0 0.12847550265599661 0.35335610077298618 0 0.1220394895292983 0.36340603614538708 0 0.13748944064072049 0.35223109446673451 0 0.1220394895292983 0.36340603614538708 0 0.13748944064072049 0.35223109446673451 0 0.1385419965272838 0.37091796122613768 0 0.1220394895292983 0.36340603614538708 0 0.1385419965272838 0.37091796122613768 0 0.1255045004232325 0.38271360979112762 0 0.13748944064072049 0.35223109446673451 0 0.1385419965272838 0.37091796122613768 0 0.15017355070287061 0.36565089229798509 0 0.1385419965272838 0.37091796122613768 0 0.15017355070287061 0.36565089229798509 0 0.15534375931689459 0.37619368205009052 0 0.16242327833201159 0.36772618015186681 0 0.15017355070287061 0.36565089229798509 0 0.15534375931689459 0.37619368205009052 0 0.1634103392593329 0.3573222624911212 0 0.15017355070287061 0.36565089229798509 0 0.15008206302818849 0.35337340421516539 0 0.16077206788439449 0.34662041922117798 0 0.15293939175214299 0.34105615278808221 0 0.15008206302818849 0.35337340421516539 0 0.15293939175214299 0.34105615278808221 0 0.13748944064072049 0.35223109446673451 0 0.15293939175214299 0.34105615278808221 0 0.13748944064072049 0.35223109446673451 0 0.15008206302818849 0.35337340421516539 0 0.13748944064072049 0.35223109446673451 0 0.15017355070287061 0.36565089229798509 0 0.15008206302818849 0.35337340421516539 0 0.15413894319246549 0.38876742633241917 0 0.1437765979362805 0.40801039659382082 0 0.15767025994861891 0.40922013462320128 0 0.15413894319246549 0.38876742633241917 0 0.128969511317164 0.40202118343686849 0 0.15413894319246549 0.38876742633241917 0 0.13998534954727521 0.38496656181316641 0 0.128969511317164 0.40202118343686849 0 0.15413894319246549 0.38876742633241917 0 0.128969511317164 0.40202118343686849 0 0.1437765979362805 0.40801039659382082 0 0.1385419965272838 0.37091796122613768 0 0.15534375931689459 0.37619368205009052 0 0.13998534954727521 0.38496656181316641 0 0.15413894319246549 0.38876742633241917 0 0.15534375931689459 0.37619368205009052 0 0.13998534954727521 0.38496656181316641 0 0.13998534954727521 0.38496656181316641 0 0.1255045004232325 0.38271360979112762 0 0.128969511317164 0.40202118343686849 0 0.1385419965272838 0.37091796122613768 0 0.13998534954727521 0.38496656181316641 0 0.1255045004232325 0.38271360979112762 0 0.1255045004232325 0.38271360979112762 0 0.128969511317164 0.40202118343686849 0 0.128969511317164 0.40202118343686849 0 0.13187695045371409 0.41822188149172418 0 0.1437765979362805 0.40801039659382082 0 0.128969511317164 0.40202118343686849 0 0.13187695045371409 0.41822188149172418 0 0.13187695045371409 0.41822188149172418 0 0.13478438959026129 0.43442257954658042 0 0.13187695045371409 0.41822188149172418 0 0.13478438959026129 0.43442257954658042 0 0.14622732476944 0.42182135708489071 0 0.1192066742806038 0.42885697672847461 0 0.13187695045371409 0.41822188149172418 0 0.13478438959026129 0.43442257954658042 0 0.13478438959026129 0.43442257954658042 0 0.14622732476944 0.42182135708489071 0 0.13478438959026129 0.43442257954658042 0 0.15125260096431101 0.43695824477875772 0 0.14622732476944 0.42182135708489071 0 0.15125260096431101 0.43695824477875772 0 0.14622732476944 0.42182135708489071 0 0.16149854659190691 0.42640507576007342 0 0.14622732476944 0.42182135708489071 0 0.15767025994861891 0.40922013462320128 0 0.16149854659190691 0.42640507576007342 0 0.13187695045371409 0.41822188149172418 0 0.1437765979362805 0.40801039659382082 0 0.14622732476944 0.42182135708489071 0 0.14622732476944 0.42182135708489071 0 0.15767025994861891 0.40922013462320128 0 0.1437765979362805 0.40801039659382082 0 0.14622732476944 0.42182135708489071 0 0.15767025994861891 0.40922013462320128 0 0.15767025994861891 0.40922013462320128 0 0.16149854659190691 0.42640507576007342 0 0.17323675269629429 0.4190821514862802 0 0.15767025994861891 0.40922013462320128 0 0.17323675269629429 0.4190821514862802 0 0.1736097898783821 0.40476898146927182 0 0.15125260096431101 0.43695824477875772 0 0.16149854659190691 0.42640507576007342 0 0.1688012396355506 0.44087894787093312 0 0.16149854659190691 0.42640507576007342 0 0.1743270722670513 0.42996108222882778 0 0.17323675269629429 0.4190821514862802 0 0.16149854659190691 0.42640507576007342 0 0.1743270722670513 0.42996108222882778 0 0.1688012396355506 0.44087894787093312 0 0.1743270722670513 0.42996108222882778 0 0.18315922087965039 0.43834506373513737 0 0.1688012396355506 0.44087894787093312 0 0.1743270722670513 0.42996108222882778 0 0.18493960153185421 0.42509417229171481 0 0.17323675269629429 0.4190821514862802 0 0.1743270722670513 0.42996108222882778 0 0.18493960153185421 0.42509417229171481 0 0.18315922087965039 0.43834506373513737 0 0.18493960153185421 0.42509417229171481 0 0.19203058270394521 0.43577680435775612 0 0.18315922087965039 0.43834506373513737 0 0.1821901688119715 0.41244292222236473 0 0.1827745332713544 0.40274600374726782 0 0.1736097898783821 0.40476898146927182 0 0.17323675269629429 0.4190821514862802 0 0.1821901688119715 0.41244292222236473 0 0.1736097898783821 0.40476898146927182 0 0.18493960153185421 0.42509417229171481 0 0.1821901688119715 0.41244292222236473 0 0.19193553761009871 0.41401040484108759 0 0.18493960153185421 0.42509417229171481 0 0.17323675269629429 0.4190821514862802 0 0.1821901688119715 0.41244292222236473 0 0.1861597797555142 0.40756762409634267 0 0.1821901688119715 0.41244292222236473 0 0.19193553761009871 0.41401040484108759 0 0.1861597797555142 0.40756762409634267 0 0.1821901688119715 0.41244292222236473 0 0.1827745332713544 0.40274600374726782 0 0.1861597797555142 0.40756762409634267 0 0.1827745332713544 0.40274600374726782 0 0.1881535108979776 0.3977425066350137 0 0.1827745332713544 0.40274600374726782 0 0.18288886597940859 0.39843142442362939 0 0.1881535108979776 0.3977425066350137 0 0.1827745332713544 0.40274600374726782 0 0.1881535108979776 0.3977425066350137 0 0.1827745332713544 0.40274600374726782 0 0.18288886597940859 0.39843142442362939 0 0.1790841240016631 0.39940661412539852 0 0.18611343014803489 0.39626040511416039 0 0.18288886597940859 0.39843142442362939 0 0.18348601065580639 0.39435160693278698 0 0.18611343014803489 0.39626040511416039 0 0.18288886597940859 0.39843142442362939 0 0.1881535108979776 0.3977425066350137 0 0.18611343014803489 0.39626040511416039 0 0.18348601065580639 0.39435160693278698 0 0.18611343014803489 0.39626040511416039 0 0.1881535108979776 0.3977425066350137 0 0.18288886597940859 0.39843142442362939 0 0.18045796915492829 0.3967892426872941 0 0.18348601065580639 0.39435160693278698 0 0.18045796915492829 0.3967892426872941 0 0.18348601065580639 0.39435160693278698 0 0.17637287598283491 0.39496732526736172 0 0.18288886597940859 0.39843142442362939 0 0.18045796915492829 0.3967892426872941 0 0.1790841240016631 0.39940661412539852 0 0.17637287598283491 0.39496732526736172 0 0.1736097898783821 0.40476898146927182 0 0.1680843338829105 0.39477764986539671 0 0.18045796915492829 0.3967892426872941 0 0.17637287598283491 0.39496732526736172 0 0.1790841240016631 0.39940661412539852 0 0.17637287598283491 0.39496732526736172 0 0.1736097898783821 0.40476898146927182 0 0.1790841240016631 0.39940661412539852 0 0.1827745332713544 0.40274600374726782 0 0.1736097898783821 0.40476898146927182 0 0.1790841240016631 0.39940661412539852 0 0.15413894319246549 0.38876742633241917 0 0.15767025994861891 0.40922013462320128 0 0.1680843338829105 0.39477764986539671 0 0.15767025994861891 0.40922013462320128 0 0.1736097898783821 0.40476898146927182 0 0.1680843338829105 0.39477764986539671 0 0.15413894319246549 0.38876742633241917 0 0.1680843338829105 0.39477764986539671 0 0.17930837506776751 0.37551366922797069 0 0.15413894319246549 0.38876742633241917 0 0.17930837506776751 0.37551366922797069 0 0.15413894319246549 0.38876742633241917 0 0.15534375931689459 0.37619368205009052 0 0.17930837506776751 0.37551366922797069 0 0.18611343014803489 0.39626040511416039 0 0.17930837506776751 0.37551366922797069 0 0.17637287598283491 0.39496732526736172 0 0.1680843338829105 0.39477764986539671 0 0.17930837506776751 0.37551366922797069 0 0.18348601065580639 0.39435160693278698 0 0.17637287598283491 0.39496732526736172 0 0.17930837506776751 0.37551366922797069 0 0.18611343014803489 0.39626040511416039 0 0.17930837506776751 0.37551366922797069 0 0.19142280487247959 0.38328179087787628 0 0.18611343014803489 0.39626040511416039 0 0.18348601065580639 0.39435160693278698 0 0.17930837506776751 0.37551366922797069 0 0.19713402723814019 0.3661270106309466 0 0.19142280487247959 0.38328179087787628 0 0.20640468101047729 0.38076536278128997 0 0.19142280487247959 0.38328179087787628 0 0.1881535108979776 0.3977425066350137 0 0.20640468101047729 0.38076536278128997 0 0.1881535108979776 0.3977425066350137 0 0.20640468101047729 0.38076536278128997 0 0.1881535108979776 0.3977425066350137 0 0.2044870168760099 0.39594486032237469 0 0.20463066471311969 0.40971302041463131 0 0.1881535108979776 0.3977425066350137 0 0.19193553761009871 0.41401040484108759 0 0.1881535108979776 0.3977425066350137 0 0.2044870168760099 0.39594486032237469 0 0.20640468101047729 0.38076536278128997 0 0.1881535108979776 0.3977425066350137 0 0.20463066471311969 0.40971302041463131 0 0.18611343014803489 0.39626040511416039 0 0.19142280487247959 0.38328179087787628 0 0.1881535108979776 0.3977425066350137 0 0.2044870168760099 0.39594486032237469 0 0.21228199877849041 0.4019014471700989 0 0.20463066471311969 0.40971302041463131 0 0.2044870168760099 0.39594486032237469 0 0.21574730964748509 0.39186151730309088 0 0.21228199877849041 0.4019014471700989 0 0.21228199877849041 0.4019014471700989 0 0.22162620016823531 0.40323399397322413 0 0.21727720370650361 0.40975590774586451 0 0.21574730964748509 0.39186151730309088 0 0.21228199877849041 0.4019014471700989 0 0.22162620016823531 0.40323399397322413 0 0.21574730964748509 0.39186151730309088 0 0.20640468101047729 0.38076536278128997 0 0.22347697366934621 0.381102736558321 0 0.22465585112297681 0.36378821892756608 0 0.20640468101047729 0.38076536278128997 0 0.22347697366934621 0.381102736558321 0 0.2044870168760099 0.39594486032237469 0 0.21574730964748509 0.39186151730309088 0 0.20640468101047729 0.38076536278128997 0 0.23720146261612879 0.37414816688571501 0 0.22347697366934621 0.381102736558321 0 0.23362290184409981 0.38329993485919828 0 0.23362290184409981 0.38329993485919828 0 0.22574461780008739 0.39434179771924949 0 0.23526723994389481 0.39349489861400461 0 0.22347697366934621 0.381102736558321 0 0.23362290184409981 0.38329993485919828 0 0.22574461780008739 0.39434179771924949 0 0.21574730964748509 0.39186151730309088 0 0.22347697366934621 0.381102736558321 0 0.22574461780008739 0.39434179771924949 0 0.21574730964748509 0.39186151730309088 0 0.22574461780008739 0.39434179771924949 0 0.22162620016823531 0.40323399397322413 0 0.22574461780008739 0.39434179771924949 0 0.22162620016823531 0.40323399397322413 0 0.23196993068969821 0.40322410372235701 0 0.22574461780008739 0.39434179771924949 0 0.23196993068969821 0.40322410372235701 0 0.23526723994389481 0.39349489861400461 0 0.23526723994389481 0.39349489861400461 0 0.2443297674504594 0.40162761958936383 0 0.24847815552556909 0.38512875935145791 0 0.2443297674504594 0.40162761958936383 0 0.24847815552556909 0.38512875935145791 0 0.25718983499877179 0.40092058067958281 0 0.23196993068969821 0.40322410372235701 0 0.2443297674504594 0.40162761958936383 0 0.23951324652881451 0.41299448266800109 0 0.23196993068969821 0.40322410372235701 0 0.23526723994389481 0.39349489861400461 0 0.2443297674504594 0.40162761958936383 0 0.23720146261612879 0.37414816688571501 0 0.24847815552556909 0.38512875935145791 0 0.25285619943820442 0.36858978742794257 0 0.23720146261612879 0.37414816688571501 0 0.23362290184409981 0.38329993485919828 0 0.24847815552556909 0.38512875935145791 0 0.23362290184409981 0.38329993485919828 0 0.23526723994389481 0.39349489861400461 0 0.24847815552556909 0.38512875935145791 0 0.23758497234340339 0.4336540479738672 0 0.25465024561763888 0.43849839512229399 0 0.23758497234340339 0.4336540479738672 0 0.24742977331756899 0.42462964834911671 0 0.25465024561763888 0.43849839512229399 0 0.23758497234340339 0.4336540479738672 0 0.24742977331756899 0.42462964834911671 0 0.2347131050041017 0.42118595653187541 0 0.24742977331756899 0.42462964834911671 0 0.23951324652881451 0.41299448266800109 0 0.25356019701600802 0.41400289250077948 0 0.2443297674504594 0.40162761958936383 0 0.23951324652881451 0.41299448266800109 0 0.25356019701600802 0.41400289250077948 0 0.24742977331756899 0.42462964834911671 0 0.23951324652881451 0.41299448266800109 0 0.2347131050041017 0.42118595653187541 0 0.2347131050041017 0.42118595653187541 0 0.22791853695386241 0.41274857493146389 0 0.2211078185282612 0.4216835341942497 0 0.23951324652881451 0.41299448266800109 0 0.2347131050041017 0.42118595653187541 0 0.22791853695386241 0.41274857493146389 0 0.22162620016823531 0.40323399397322413 0 0.23196993068969821 0.40322410372235701 0 0.22791853695386241 0.41274857493146389 0 0.23196993068969821 0.40322410372235701 0 0.23951324652881451 0.41299448266800109 0 0.22791853695386241 0.41274857493146389 0 0.22162620016823531 0.40323399397322413 0 0.22791853695386241 0.41274857493146389 0 0.21727720370650361 0.40975590774586451 0 0.22791853695386241 0.41274857493146389 0 0.2211078185282612 0.4216835341942497 0 0.21727720370650361 0.40975590774586451 0 0.23758497234340339 0.4336540479738672 0 0.21981104445531541 0.42860853387647208 0 0.23758497234340339 0.4336540479738672 0 0.2347131050041017 0.42118595653187541 0 0.2211078185282612 0.4216835341942497 0 0.23758497234340339 0.4336540479738672 0 0.2211078185282612 0.4216835341942497 0 0.21981104445531541 0.42860853387647208 0 0.23758497234340339 0.4336540479738672 0 0.2211078185282612 0.4216835341942497 0 0.23758497234340339 0.4336540479738672 0 0.21981104445531541 0.42860853387647208 0 0.22675107066766681 0.43777988227107217 0 0.21981104445531541 0.42860853387647208 0 0.21764895393573341 0.43818461562570521 0 0.22675107066766681 0.43777988227107217 0 0.21981104445531541 0.42860853387647208 0 0.2106568889195562 0.4317791391098178 0 0.21764895393573341 0.43818461562570521 0 0.20909455603824581 0.43671608592319222 0 0.2106568889195562 0.4317791391098178 0 0.21764895393573341 0.43818461562570521 0 0.21981104445531541 0.42860853387647208 0 0.2106568889195562 0.4317791391098178 0 0.20203711656722709 0.42356301977907851 0 0.21981104445531541 0.42860853387647208 0 0.20203711656722709 0.42356301977907851 0 0.2211078185282612 0.4216835341942497 0 0.21981104445531541 0.42860853387647208 0 0.20203711656722709 0.42356301977907851 0 0.20469277360125951 0.43182344034464087 0 0.2106568889195562 0.4317791391098178 0 0.20203711656722709 0.42356301977907851 0 0.20469277360125951 0.43182344034464087 0 0.20909455603824581 0.43671608592319222 0 0.20081637384734899 0.43720152176173133 0 0.20469277360125951 0.43182344034464087 0 0.20909455603824581 0.43671608592319222 0 0.2106568889195562 0.4317791391098178 0 0.2211078185282612 0.4216835341942497 0 0.20463066471311969 0.40971302041463131 0 0.2211078185282612 0.4216835341942497 0 0.20463066471311969 0.40971302041463131 0 0.20203711656722709 0.42356301977907851 0 0.2211078185282612 0.4216835341942497 0 0.21727720370650361 0.40975590774586451 0 0.20463066471311969 0.40971302041463131 0 0.21228199877849041 0.4019014471700989 0 0.21727720370650361 0.40975590774586451 0 0.20463066471311969 0.40971302041463131 0 0.1881535108979776 0.3977425066350137 0 0.20463066471311969 0.40971302041463131 0 0.19193553761009871 0.41401040484108759 0 0.1861597797555142 0.40756762409634267 0 0.1881535108979776 0.3977425066350137 0 0.19193553761009871 0.41401040484108759 0 0.20463066471311969 0.40971302041463131 0 0.19193553761009871 0.41401040484108759 0 0.20203711656722709 0.42356301977907851 0 0.19193553761009871 0.41401040484108759 0 0.1969082248968925 0.42917075675108157 0 0.20081637384734899 0.43720152176173133 0 0.1969082248968925 0.42917075675108157 0 0.19203058270394521 0.43577680435775612 0 0.20469277360125951 0.43182344034464087 0 0.20081637384734899 0.43720152176173133 0 0.1969082248968925 0.42917075675108157 0 0.20469277360125951 0.43182344034464087 0 0.20203711656722709 0.42356301977907851 0 0.1969082248968925 0.42917075675108157 0 0.19193553761009871 0.41401040484108759 0 0.20203711656722709 0.42356301977907851 0 0.1969082248968925 0.42917075675108157 0 0.18493960153185421 0.42509417229171481 0 0.19193553761009871 0.41401040484108759 0 0.1969082248968925 0.42917075675108157 0 0.18493960153185421 0.42509417229171481 0 0.1969082248968925 0.42917075675108157 0 0.19203058270394521 0.43577680435775612 0 0.19203058270394521 0.43577680435775612 0 0.19624718626852811 0.44562407275557142 0 0.18315922087965039 0.43834506373513737 0 0.19624718626852811 0.44562407275557142 0 0.19485301200831151 0.46039312495856771 0 0.1824295686911272 0.4511960334852918 0 0.20081637384734899 0.43720152176173133 0 0.19203058270394521 0.43577680435775612 0 0.19624718626852811 0.44562407275557142 0 0.20081637384734899 0.43720152176173133 0 0.19624718626852811 0.44562407275557142 0 0.20890258313782509 0.4450192495589812 0 0.19485301200831151 0.46039312495856771 0 0.20893611606612239 0.45936652887744212 0 0.20213739235783409 0.4792307191779791 0 0.19624718626852811 0.44562407275557142 0 0.19485301200831151 0.46039312495856771 0 0.20893611606612239 0.45936652887744212 0 0.20893611606612239 0.45936652887744212 0 0.2173410346799817 0.45109343668308549 0 0.22420676215244389 0.45988066334668748 0 0.20893611606612239 0.45936652887744212 0 0.22420676215244389 0.45988066334668748 0 0.21977422720887399 0.47185078448230677 0 0.20909455603824581 0.43671608592319222 0 0.20081637384734899 0.43720152176173133 0 0.20890258313782509 0.4450192495589812 0 0.19624718626852811 0.44562407275557142 0 0.20893611606612239 0.45936652887744212 0 0.20890258313782509 0.4450192495589812 0 0.20893611606612239 0.45936652887744212 0 0.20890258313782509 0.4450192495589812 0 0.2173410346799817 0.45109343668308549 0 0.20890258313782509 0.4450192495589812 0 0.2173410346799817 0.45109343668308549 0 0.21764895393573341 0.43818461562570521 0 0.20909455603824581 0.43671608592319222 0 0.20890258313782509 0.4450192495589812 0 0.21764895393573341 0.43818461562570521 0 0.2173410346799817 0.45109343668308549 0 0.21764895393573341 0.43818461562570521 0 0.22539303939697131 0.44653818986311639 0 0.21764895393573341 0.43818461562570521 0 0.22675107066766681 0.43777988227107217 0 0.22539303939697131 0.44653818986311639 0 0.23298210574220959 0.44292468888157571 0 0.22675107066766681 0.43777988227107217 0 0.22539303939697131 0.44653818986311639 0 0.23758497234340339 0.4336540479738672 0 0.23298210574220959 0.44292468888157571 0 0.22675107066766681 0.43777988227107217 0 0.2333385104406118 0.45168894029107498 0 0.22539303939697131 0.44653818986311639 0 0.22420676215244389 0.45988066334668748 0 0.23298210574220959 0.44292468888157571 0 0.2333385104406118 0.45168894029107498 0 0.22539303939697131 0.44653818986311639 0 0.2173410346799817 0.45109343668308549 0 0.22539303939697131 0.44653818986311639 0 0.22420676215244389 0.45988066334668748 0 0.22420676215244389 0.45988066334668748 0 0.24212921977017421 0.46016508193317818 0 0.23653088871522721 0.47260931715785731 0 0.2333385104406118 0.45168894029107498 0 0.22420676215244389 0.45988066334668748 0 0.24212921977017421 0.46016508193317818 0 0.22420676215244389 0.45988066334668748 0 0.23653088871522721 0.47260931715785731 0 0.21977422720887399 0.47185078448230677 0 0.24212921977017421 0.46016508193317818 0 0.25698125892247697 0.45690610729752662 0 0.25040189276293479 0.46757914786360572 0 0.24212921977017421 0.46016508193317818 0 0.23653088871522721 0.47260931715785731 0 0.25040189276293479 0.46757914786360572 0 0.24212921977017421 0.46016508193317818 0 0.24184293586239461 0.44496238400874721 0 0.25698125892247697 0.45690610729752662 0 0.23758497234340339 0.4336540479738672 0 0.26057102690071832 0.45035322344460749 0 0.23758497234340339 0.4336540479738672 0 0.24184293586239461 0.44496238400874721 0 0.26057102690071832 0.45035322344460749 0 0.24184293586239461 0.44496238400874721 0 0.25698125892247697 0.45690610729752662 0 0.23758497234340339 0.4336540479738672 0 0.23298210574220959 0.44292468888157571 0 0.24184293586239461 0.44496238400874721 0 0.23298210574220959 0.44292468888157571 0 0.2333385104406118 0.45168894029107498 0 0.24184293586239461 0.44496238400874721 0 0.2333385104406118 0.45168894029107498 0 0.24212921977017421 0.46016508193317818 0 0.24184293586239461 0.44496238400874721 0 0.24371346089417431 0.5 0 0.2405411653962076 0.48463159934042233 0 0.2266762125611545 0.48635476716185239 0 0.24371346089417431 0.5 0 0.2405411653962076 0.48463159934042233 0 0.25395472127454072 0.48198349033560012 0 0.23653088871522721 0.47260931715785731 0 0.25395472127454072 0.48198349033560012 0 0.25040189276293479 0.46757914786360572 0 0.2405411653962076 0.48463159934042233 0 0.23653088871522721 0.47260931715785731 0 0.25395472127454072 0.48198349033560012 0 0.2405411653962076 0.48463159934042233 0 0.23653088871522721 0.47260931715785731 0 0.2266762125611545 0.48635476716185239 0 0.23653088871522721 0.47260931715785731 0 0.21977422720887399 0.47185078448230677 0 0.2266762125611545 0.48635476716185239 0 0.24371346089417431 0.5 0 0.2266762125611545 0.48635476716185239 0 0.21481388349384081 0.5 0 0.2266762125611545 0.48635476716185239 0 0.21481388349384081 0.5 0 0.20213739235783409 0.4792307191779791 0 0.20893611606612239 0.45936652887744212 0 0.21977422720887399 0.47185078448230677 0 0.20213739235783409 0.4792307191779791 0 0.21977422720887399 0.47185078448230677 0 0.2266762125611545 0.48635476716185239 0 0.20213739235783409 0.4792307191779791 0 0.19485301200831151 0.46039312495856771 0 0.20213739235783409 0.4792307191779791 0 0.18216441604056541 0.46807870608233482 0 0.20213739235783409 0.4792307191779791 0 0.1849514217146942 0.48283719457537028 0 0.18216441604056541 0.46807870608233482 0 0.20213739235783409 0.4792307191779791 0 0.18591430609350751 0.5 0 0.1849514217146942 0.48283719457537028 0 0.21481388349384081 0.5 0 0.20213739235783409 0.4792307191779791 0 0.18591430609350751 0.5 0 0.18591430609350751 0.5 0 0.16958957236686981 0.48403935304116757 0 0.1849514217146942 0.48283719457537028 0 0.15701472869317409 0.50000000000000022 0 0.15673119536452601 0.47576956012470939 0 0.16958957236686981 0.48403935304116757 0 0.18591430609350751 0.5 0 0.15701472869317409 0.50000000000000022 0 0.16958957236686981 0.48403935304116757 0 0.15701472869317409 0.50000000000000022 0 0.16958957236686981 0.48403935304116757 0 0.15673119536452601 0.47576956012470939 0 0.16958957236686981 0.48403935304116757 0 0.16759432975641339 0.46854996876014671 0 0.16958957236686981 0.48403935304116757 0 0.1849514217146942 0.48283719457537028 0 0.18216441604056541 0.46807870608233482 0 0.16958957236686981 0.48403935304116757 0 0.18216441604056541 0.46807870608233482 0 0.16759432975641339 0.46854996876014671 0 0.16958957236686981 0.48403935304116757 0 0.18216441604056541 0.46807870608233482 0 0.19485301200831151 0.46039312495856771 0 0.18216441604056541 0.46807870608233482 0 0.1824295686911272 0.4511960334852918 0 0.18216441604056541 0.46807870608233482 0 0.1824295686911272 0.4511960334852918 0 0.16935233731415739 0.45385628550920659 0 0.18216441604056541 0.46807870608233482 0 0.16759432975641339 0.46854996876014671 0 0.16935233731415739 0.45385628550920659 0 0.19624718626852811 0.44562407275557142 0 0.18315922087965039 0.43834506373513737 0 0.1824295686911272 0.4511960334852918 0 0.1824295686911272 0.4511960334852918 0 0.1688012396355506 0.44087894787093312 0 0.16935233731415739 0.45385628550920659 0 0.18315922087965039 0.43834506373513737 0 0.1824295686911272 0.4511960334852918 0 0.1688012396355506 0.44087894787093312 0 0.15125260096431101 0.43695824477875772 0 0.1688012396355506 0.44087894787093312 0 0.15567958590710559 0.45115647814172649 0 0.1688012396355506 0.44087894787093312 0 0.16935233731415739 0.45385628550920659 0 0.15567958590710559 0.45115647814172649 0 0.16759432975641339 0.46854996876014671 0 0.16935233731415739 0.45385628550920659 0 0.1601341276959482 0.46100593904331499 0 0.16935233731415739 0.45385628550920659 0 0.1601341276959482 0.46100593904331499 0 0.15567958590710559 0.45115647814172649 0 0.15673119536452601 0.47576956012470939 0 0.16759432975641339 0.46854996876014671 0 0.1601341276959482 0.46100593904331499 0 0.15673119536452601 0.47576956012470939 0 0.1601341276959482 0.46100593904331499 0 0.1467910252420927 0.46331329481347838 0 0.1467910252420927 0.46331329481347838 0 0.15567958590710559 0.45115647814172649 0 0.13774618459057361 0.45092615683466858 0 0.1601341276959482 0.46100593904331499 0 0.1467910252420927 0.46331329481347838 0 0.15567958590710559 0.45115647814172649 0 0.13478438959026129 0.43442257954658042 0 0.15125260096431101 0.43695824477875772 0 0.13774618459057361 0.45092615683466858 0 0.15125260096431101 0.43695824477875772 0 0.15567958590710559 0.45115647814172649 0 0.13774618459057361 0.45092615683466858 0 0.13478438959026129 0.43442257954658042 0 0.13774618459057361 0.45092615683466858 0 0.1156390195334011 0.45550589981538991 0 0.13478438959026129 0.43442257954658042 0 0.13774618459057361 0.45092615683466858 0 0.1156390195334011 0.45550589981538991 0 0.13478438959026129 0.43442257954658042 0 0.1156390195334011 0.45550589981538991 0 0.13774618459057361 0.45092615683466858 0 0.1315029716647812 0.46611799505521589 0 0.1467910252420927 0.46331329481347838 0 0.13774618459057361 0.45092615683466858 0 0.1315029716647812 0.46611799505521589 0 0.11934144755591621 0.47974633068843509 0 0.1315029716647812 0.46611799505521589 0 0.14032099702007911 0.48026486917580541 0 0.1467910252420927 0.46331329481347838 0 0.1315029716647812 0.46611799505521589 0 0.14032099702007911 0.48026486917580541 0 0.11934144755591621 0.47974633068843509 0 0.14032099702007911 0.48026486917580541 0 0.12970225877795641 0.5 0 0.15701472869317409 0.50000000000000022 0 0.14032099702007911 0.48026486917580541 0 0.12970225877795641 0.5 0 0.15701472869317409 0.50000000000000022 0 0.15673119536452601 0.47576956012470939 0 0.14032099702007911 0.48026486917580541 0 0.15673119536452601 0.47576956012470939 0 0.1467910252420927 0.46331329481347838 0 0.14032099702007911 0.48026486917580541 0 0.34794717834933719 0.47353288173542879 0 0.35481189936780699 0.5 0 0.33439053595420831 0.48430435931722587 0 0.34794717834933719 0.47353288173542879 0 0.35481189936780699 0.5 0 0.37376662332152139 0.48018370270074168 0 0.35481189936780699 0.5 0 0.37376662332152139 0.48018370270074168 0 0.38340645844659083 0.5 0 0.34794717834933719 0.47353288173542879 0 0.37376662332152139 0.48018370270074168 0 0.36531614909333571 0.45502114096090968 0 0.36531614909333571 0.45502114096090968 0 0.34683669191583461 0.43811404298566481 0 0.3744218206881802 0.42928844274333611 0 0.36531614909333571 0.45502114096090968 0 0.3744218206881802 0.42928844274333611 0 0.36531614909333571 0.45502114096090968 0 0.34683669191583461 0.43811404298566481 0 0.3424236777353844 0.45577951606423722 0 0.34794717834933719 0.47353288173542879 0 0.36531614909333571 0.45502114096090968 0 0.3424236777353844 0.45577951606423722 0 0.3424236777353844 0.45577951606423722 0 0.32539933471849652 0.45063100768112602 0 0.32699021387742949 0.4675316567963701 0 0.34794717834933719 0.47353288173542879 0 0.3424236777353844 0.45577951606423722 0 0.32699021387742949 0.4675316567963701 0 0.34683669191583461 0.43811404298566481 0 0.3424236777353844 0.45577951606423722 0 0.32539933471849652 0.45063100768112602 0 0.34683669191583461 0.43811404298566481 0 0.32539933471849652 0.45063100768112602 0 0.32526625816880189 0.42582782807794911 0 0.32539933471849652 0.45063100768112602 0 0.32526625816880189 0.42582782807794911 0 0.32539933471849652 0.45063100768112602 0 0.30575475548586439 0.46091451610866357 0 0.310961181047545 0.43861175774500022 0 0.32539933471849652 0.45063100768112602 0 0.310961181047545 0.43861175774500022 0 0.32526625816880189 0.42582782807794911 0 0.32539933471849652 0.45063100768112602 0 0.32699021387742949 0.4675316567963701 0 0.30575475548586439 0.46091451610866357 0 0.32699021387742949 0.4675316567963701 0 0.31598604788744422 0.48045725805433059 0 0.30575475548586439 0.46091451610866357 0 0.32699021387742949 0.4675316567963701 0 0.31598604788744422 0.48045725805433059 0 0.33439053595420831 0.48430435931722587 0 0.34794717834933719 0.47353288173542879 0 0.32699021387742949 0.4675316567963701 0 0.33439053595420831 0.48430435931722587 0 0.35481189936780699 0.5 0 0.33439053595420831 0.48430435931722587 0 0.32621734028902333 0.49999999999999811 0 0.31598604788744422 0.48045725805433059 0 0.33439053595420831 0.48430435931722587 0 0.32621734028902333 0.49999999999999811 0 0.31598604788744422 0.48045725805433059 0 0.32621734028902333 0.49999999999999811 0 0.31160151877556752 0.49999999999999889 0 0.31598604788744422 0.48045725805433059 0 0.32621734028902333 0.49999999999999811 0 0.31598604788744422 0.48045725805433059 0 0.31160151877556752 0.49999999999999889 0 0.29186055037906389 0.48442491529315213 0 0.31160151877556752 0.49999999999999889 0 0.29186055037906389 0.48442491529315213 0 0.31160151877556752 0.49999999999999889 0 0.29210727853503771 0.5 0 0.29186055037906389 0.48442491529315213 0 0.31598604788744422 0.48045725805433059 0 0.30575475548586439 0.46091451610866357 0 0.31598604788744422 0.48045725805433059 0 0.29186055037906389 0.48442491529315213 0 0.30575475548586439 0.46091451610866357 0 0.29186055037906389 0.48442491529315213 0 0.28895760742206728 0.46496880618530412 0 0.30575475548586439 0.46091451610866357 0 0.29186055037906389 0.48442491529315213 0 0.27211958198255959 0.46884983058630592 0 0.28895760742206728 0.46496880618530412 0 0.29186055037906389 0.48442491529315213 0 0.27211958198255959 0.46884983058630592 0 0.29210727853503771 0.5 0 0.28223679433678578 0.49221245764657401 0 0.27261303829450778 0.49999999999999389 0 0.29186055037906389 0.48442491529315213 0 0.28223679433678578 0.49221245764657401 0 0.27236631013853391 0.4844249152931499 0 0.29210727853503771 0.5 0 0.29186055037906389 0.48442491529315213 0 0.28223679433678578 0.49221245764657401 0 0.28223679433678578 0.49221245764657401 0 0.27261303829450778 0.49999999999999389 0 0.27236631013853391 0.4844249152931499 0 0.27261303829450778 0.49999999999999389 0 0.27236631013853391 0.4844249152931499 0 0.25395472127454072 0.48198349033560012 0 0.27261303829450778 0.49999999999999389 0 0.27236631013853391 0.4844249152931499 0 0.29186055037906389 0.48442491529315213 0 0.27236631013853391 0.4844249152931499 0 0.27211958198255959 0.46884983058630592 0 0.27236631013853391 0.4844249152931499 0 0.27211958198255959 0.46884983058630592 0 0.26127826411766791 0.47142897503147663 0 0.27236631013853391 0.4844249152931499 0 0.27211958198255959 0.46884983058630592 0 0.27236631013853391 0.4844249152931499 0 0.26127826411766791 0.47142897503147663 0 0.25395472127454072 0.48198349033560012 0 0.26127826411766791 0.47142897503147663 0 0.25395472127454072 0.48198349033560012 0 0.25040189276293479 0.46757914786360572 0 0.24371346089417431 0.5 0 0.27261303829450778 0.49999999999999389 0 0.25395472127454072 0.48198349033560012 0 0.23758497234340339 0.4336540479738672 0 0.26057102690071832 0.45035322344460749 0 0.25465024561763888 0.43849839512229399 0 0.25465024561763888 0.43849839512229399 0 0.27171551889187401 0.44334274227072279 0 0.24184293586239461 0.44496238400874721 0 0.26057102690071832 0.45035322344460749 0 0.25698125892247697 0.45690610729752662 0 0.26057102690071832 0.45035322344460749 0 0.25465024561763888 0.43849839512229399 0 0.27171551889187401 0.44334274227072279 0 0.27211958198255959 0.46884983058630592 0 0.26057102690071832 0.45035322344460749 0 0.25698125892247697 0.45690610729752662 0 0.26127826411766791 0.47142897503147663 0 0.25698125892247697 0.45690610729752662 0 0.25040189276293479 0.46757914786360572 0 0.27211958198255959 0.46884983058630592 0 0.25698125892247697 0.45690610729752662 0 0.27211958198255959 0.46884983058630592 0 0.26127826411766791 0.47142897503147663 0 0.25698125892247697 0.45690610729752662 0 0.27211958198255959 0.46884983058630592 0 0.27171551889187401 0.44334274227072279 0 0.28730592581143849 0.44776841668506961 0 0.27211958198255959 0.46884983058630592 0 0.26057102690071832 0.45035322344460749 0 0.27171551889187401 0.44334274227072279 0 0.27211958198255959 0.46884983058630592 0 0.27171551889187401 0.44334274227072279 0 0.27171551889187401 0.44334274227072279 0 0.28730592581143849 0.44776841668506961 0 0.27171551889187401 0.44334274227072279 0 0.27898133942568559 0.43867690038541141 0 0.28730592581143849 0.44776841668506961 0 0.27898133942568559 0.43867690038541141 0 0.28772723434185882 0.4385840428568164 0 0.28730592581143849 0.44776841668506961 0 0.28730592581143849 0.44776841668506961 0 0.29552346308428462 0.44137177416299639 0 0.30575475548586439 0.46091451610866357 0 0.28772723434185882 0.4385840428568164 0 0.28730592581143849 0.44776841668506961 0 0.29552346308428462 0.44137177416299639 0 0.27211958198255959 0.46884983058630592 0 0.28730592581143849 0.44776841668506961 0 0.28895760742206728 0.46496880618530412 0 0.28730592581143849 0.44776841668506961 0 0.28895760742206728 0.46496880618530412 0 0.30575475548586439 0.46091451610866357 0 0.29552346308428462 0.44137177416299639 0 0.30575475548586439 0.46091451610866357 0 0.29552346308428462 0.44137177416299639 0 0.30575475548586439 0.46091451610866357 0 0.310961181047545 0.43861175774500022 0 0.310961181047545 0.43861175774500022 0 0.31123670015290622 0.42457750808073519 0 0.30104311644729359 0.42905371179808471 0 0.31123670015290622 0.42457750808073519 0 0.30104311644729359 0.42905371179808471 0 0.30368627627833378 0.4161056132403852 0 0.29552346308428462 0.44137177416299639 0 0.310961181047545 0.43861175774500022 0 0.30104311644729359 0.42905371179808471 0 0.30368627627833378 0.4161056132403852 0 0.29605639675887591 0.40915817811634581 0 0.30926746966601049 0.39961334927699588 0 0.30368627627833378 0.4161056132403852 0 0.30926746966601049 0.39961334927699588 0 0.31522666882255662 0.41328862954225692 0 0.31123670015290622 0.42457750808073519 0 0.30368627627833378 0.4161056132403852 0 0.31522666882255662 0.41328862954225692 0 0.30368627627833378 0.4161056132403852 0 0.29605639675887591 0.40915817811634581 0 0.29447963311577802 0.42009824611049879 0 0.30104311644729359 0.42905371179808471 0 0.30368627627833378 0.4161056132403852 0 0.29447963311577802 0.42009824611049879 0 0.29605639675887591 0.40915817811634581 0 0.28430906604985789 0.41617105741458982 0 0.2896367926740302 0.39366521444376812 0 0.29605639675887591 0.40915817811634581 0 0.29447963311577802 0.42009824611049879 0 0.28430906604985789 0.41617105741458982 0 0.27898133942568559 0.43867690038541141 0 0.28430906604985789 0.41617105741458982 0 0.28949781802379088 0.42972784979210632 0 0.27898133942568559 0.43867690038541141 0 0.28430906604985789 0.41617105741458982 0 0.28772723434185882 0.4385840428568164 0 0.29552346308428462 0.44137177416299639 0 0.28949781802379088 0.42972784979210632 0 0.29552346308428462 0.44137177416299639 0 0.30104311644729359 0.42905371179808471 0 0.28949781802379088 0.42972784979210632 0 0.30104311644729359 0.42905371179808471 0 0.29447963311577802 0.42009824611049879 0 0.28949781802379088 0.42972784979210632 0 0.29447963311577802 0.42009824611049879 0 0.28430906604985789 0.41617105741458982 0 0.28949781802379088 0.42972784979210632 0 0.27898133942568559 0.43867690038541141 0 0.28772723434185882 0.4385840428568164 0 0.28949781802379088 0.42972784979210632 0 0.27171551889187401 0.44334274227072279 0 0.27898133942568559 0.43867690038541141 0 0.27845135446972691 0.42558570199369511 0 0.27171551889187401 0.44334274227072279 0 0.27845135446972691 0.42558570199369511 0 0.27128565062904741 0.41620666378043969 0 0.27898133942568559 0.43867690038541141 0 0.28430906604985789 0.41617105741458982 0 0.27845135446972691 0.42558570199369511 0 0.27171551889187401 0.44334274227072279 0 0.27128565062904741 0.41620666378043969 0 0.27171551889187401 0.44334274227072279 0 0.27128565062904741 0.41620666378043969 0 0.25972827709442708 0.42733606840467048 0 0.27845135446972691 0.42558570199369511 0 0.27128565062904741 0.41620666378043969 0 0.27687451430252558 0.39973409739004401 0 0.27845135446972691 0.42558570199369511 0 0.27687451430252558 0.39973409739004401 0 0.28430906604985789 0.41617105741458982 0 0.27845135446972691 0.42558570199369511 0 0.27687451430252558 0.39973409739004401 0 0.27128565062904741 0.41620666378043969 0 0.25356019701600802 0.41400289250077948 0 0.25718983499877179 0.40092058067958281 0 0.27128565062904741 0.41620666378043969 0 0.25356019701600802 0.41400289250077948 0 0.25972827709442708 0.42733606840467048 0 0.25465024561763888 0.43849839512229399 0 0.27171551889187401 0.44334274227072279 0 0.25972827709442708 0.42733606840467048 0 0.24742977331756899 0.42462964834911671 0 0.25356019701600802 0.41400289250077948 0 0.25972827709442708 0.42733606840467048 0 0.24742977331756899 0.42462964834911671 0 0.25465024561763888 0.43849839512229399 0 0.25972827709442708 0.42733606840467048 0 0.24847815552556909 0.38512875935145791 0 0.27085578236622287 0.38907058529015659 0 0.25285619943820442 0.36858978742794257 0 0.24847815552556909 0.38512875935145791 0 0.25718983499877179 0.40092058067958281 0 0.27085578236622287 0.38907058529015659 0 0.2443297674504594 0.40162761958936383 0 0.25356019701600802 0.41400289250077948 0 0.25718983499877179 0.40092058067958281 0 0.27128565062904741 0.41620666378043969 0 0.25718983499877179 0.40092058067958281 0 0.27085578236622287 0.38907058529015659 0 0.27128565062904741 0.41620666378043969 0 0.27085578236622287 0.38907058529015659 0 0.27128565062904741 0.41620666378043969 0 0.27687451430252558 0.39973409739004401 0 0.27085578236622287 0.38907058529015659 0 0.27085578236622287 0.38907058529015659 0 0.27042591410339839 0.36193450679987371 0 0.27687451430252558 0.39973409739004401 0 0.28630412701321029 0.38099275639165309 0 0.27529767413532419 0.37388249278639268 0 0.27687451430252558 0.39973409739004401 0 0.27085578236622287 0.38907058529015659 0 0.27529767413532419 0.37388249278639268 0 0.27687451430252558 0.39973409739004401 0 0.27529767413532419 0.37388249278639268 0 0.2896367926740302 0.39366521444376812 0 0.29496451929820239 0.37115937147294642 0 0.2896367926740302 0.39366521444376812 0 0.30115367545211141 0.38358383838534033 0 0.29496451929820239 0.37115937147294642 0 0.28630412701321029 0.38099275639165309 0 0.2896367926740302 0.39366521444376812 0 0.29496451929820239 0.37115937147294642 0 0.28630412701321029 0.38099275639165309 0 0.29496451929820239 0.37115937147294642 0 0.27529767413532419 0.37388249278639268 0 0.28430906604985789 0.41617105741458982 0 0.2896367926740302 0.39366521444376812 0 0.28430906604985789 0.41617105741458982 0 0.27687451430252558 0.39973409739004401 0 0.2896367926740302 0.39366521444376812 0 0.27687451430252558 0.39973409739004401 0 0.28630412701321029 0.38099275639165309 0 0.2896367926740302 0.39366521444376812 0 0.2896367926740302 0.39366521444376812 0 0.30926746966601049 0.39961334927699588 0 0.30115367545211141 0.38358383838534033 0 0.29605639675887591 0.40915817811634581 0 0.2896367926740302 0.39366521444376812 0 0.30926746966601049 0.39961334927699588 0 0.30926746966601049 0.39961334927699588 0 0.31074592017020253 0.369897418347651 0 0.30926746966601049 0.39961334927699588 0 0.30115367545211141 0.38358383838534033 0 0.31074592017020253 0.369897418347651 0 0.30926746966601049 0.39961334927699588 0 0.31753666913118328 0.38668922124275362 0 0.31074592017020253 0.369897418347651 0 0.3250001050694129 0.37622146887159541 0 0.32513318161910743 0.40102464847477232 0 0.31753666913118328 0.38668922124275362 0 0.3250001050694129 0.37622146887159541 0 0.32513318161910743 0.40102464847477232 0 0.31753666913118328 0.38668922124275362 0 0.3250001050694129 0.37622146887159541 0 0.31074592017020253 0.369897418347651 0 0.3250001050694129 0.37622146887159541 0 0.34083786587437997 0.38853844130104298 0 0.34442051644081878 0.36879744102086742 0 0.3250001050694129 0.37622146887159541 0 0.34083786587437997 0.38853844130104298 0 0.32513318161910743 0.40102464847477232 0 0.34083786587437997 0.38853844130104298 0 0.33873068910371978 0.40623179643084328 0 0.32513318161910743 0.40102464847477232 0 0.30926746966601049 0.39961334927699588 0 0.31753666913118328 0.38668922124275362 0 0.32513318161910743 0.40102464847477232 0 0.30926746966601049 0.39961334927699588 0 0.32513318161910743 0.40102464847477232 0 0.31522666882255662 0.41328862954225692 0 0.32513318161910743 0.40102464847477232 0 0.31522666882255662 0.41328862954225692 0 0.32526625816880189 0.42582782807794911 0 0.32513318161910743 0.40102464847477232 0 0.32526625816880189 0.42582782807794911 0 0.31123670015290622 0.42457750808073519 0 0.31522666882255662 0.41328862954225692 0 0.32526625816880189 0.42582782807794911 0 0.310961181047545 0.43861175774500022 0 0.31123670015290622 0.42457750808073519 0 0.32526625816880189 0.42582782807794911 0 0.34683669191583461 0.43811404298566481 0 0.32526625816880189 0.42582782807794911 0 0.3505904716882749 0.41611611693385719 0 0.33873068910371978 0.40623179643084328 0 0.32513318161910743 0.40102464847477232 0 0.32526625816880189 0.42582782807794911 0 0.33873068910371978 0.40623179643084328 0 0.32526625816880189 0.42582782807794911 0 0.3505904716882749 0.41611611693385719 0 0.33873068910371978 0.40623179643084328 0 0.3505904716882749 0.41611611693385719 0 0.35182566816803468 0.39965194736659471 0 0.3505904716882749 0.41611611693385719 0 0.36469988027989708 0.40504940667328948 0 0.35182566816803468 0.39965194736659471 0 0.34683669191583461 0.43811404298566481 0 0.3505904716882749 0.41611611693385719 0 0.3744218206881802 0.42928844274333611 0 0.3744218206881802 0.42928844274333611 0 0.36469988027989708 0.40504940667328948 0 0.3835274922830274 0.40355574452576343 0 0.3505904716882749 0.41611611693385719 0 0.3744218206881802 0.42928844274333611 0 0.36469988027989708 0.40504940667328948 0 0.36469988027989708 0.40504940667328948 0 0.36397400436192351 0.38617659277331501 0 0.3835274922830274 0.40355574452576343 0 0.36397400436192351 0.38617659277331501 0 0.3835274922830274 0.40355574452576343 0 0.36469988027989708 0.40504940667328948 0 0.36397400436192351 0.38617659277331501 0 0.35182566816803468 0.39965194736659471 0 0.36397400436192351 0.38617659277331501 0 0.35916181477577003 0.3718761332965782 0 0.37302264504290827 0.36725088297641251 0 0.36397400436192351 0.38617659277331501 0 0.37302264504290827 0.36725088297641251 0 0.38068365501407742 0.3783184793659643 0 0.36397400436192351 0.38617659277331501 0 0.34442051644081878 0.36879744102086742 0 0.35916181477577003 0.3718761332965782 0 0.34083786587437997 0.38853844130104298 0 0.36397400436192351 0.38617659277331501 0 0.34442051644081878 0.36879744102086742 0 0.36397400436192351 0.38617659277331501 0 0.34442051644081878 0.36879744102086742 0 0.34083786587437997 0.38853844130104298 0 0.36397400436192351 0.38617659277331501 0 0.35182566816803468 0.39965194736659471 0 0.34083786587437997 0.38853844130104298 0 0.33873068910371978 0.40623179643084328 0 0.35182566816803468 0.39965194736659471 0 0.35629788685841618 0.34613612365944452 0 0.35235763261728392 0.35965872667193449 0 0.36495448305700912 0.3546766331875767 0 0.35629788685841618 0.34613612365944452 0 0.34786149004779437 0.33696315499841373 0 0.34291093137555101 0.34837706813032271 0 0.35629788685841618 0.34613612365944452 0 0.35235763261728392 0.35965872667193449 0 0.34291093137555101 0.34837706813032271 0 0.35235763261728392 0.35965872667193449 0 0.34113902723834189 0.35706288127288621 0 0.34291093137555101 0.34837706813032271 0 0.34442051644081878 0.36879744102086742 0 0.35235763261728392 0.35965872667193449 0 0.34113902723834189 0.35706288127288621 0 0.34442051644081878 0.36879744102086742 0 0.35916181477577003 0.3718761332965782 0 0.35235763261728392 0.35965872667193449 0 0.35235763261728392 0.35965872667193449 0 0.37302264504290827 0.36725088297641251 0 0.36495448305700912 0.3546766331875767 0 0.35916181477577003 0.3718761332965782 0 0.35235763261728392 0.35965872667193449 0 0.37302264504290827 0.36725088297641251 0 0.35235763261728392 0.35965872667193449 0 0.37302264504290827 0.36725088297641251 0 0.36495448305700912 0.3546766331875767 0 0.36987287066507601 0.34419164823033821 0 0.38473841160113281 0.35442161106652159 0 0.37302264504290827 0.36725088297641251 0 0.36495448305700912 0.3546766331875767 0 0.38473841160113281 0.35442161106652159 0 0.35629788685841618 0.34613612365944452 0 0.36495448305700912 0.3546766331875767 0 0.36987287066507601 0.34419164823033821 0 0.36190617482023391 0.33340928645676698 0 0.36825023302166271 0.32035821071263132 0 0.38403452481540801 0.33166414643000558 0 0.36987287066507601 0.34419164823033821 0 0.36190617482023391 0.33340928645676698 0 0.38403452481540801 0.33166414643000558 0 0.35629788685841618 0.34613612365944452 0 0.36987287066507601 0.34419164823033821 0 0.36190617482023391 0.33340928645676698 0 0.36190617482023391 0.33340928645676698 0 0.36825023302166271 0.32035821071263132 0 0.34593568047149498 0.32557653676744741 0 0.36825023302166271 0.32035821071263132 0 0.34593568047149498 0.32557653676744741 0 0.34902730937842941 0.31087752640283772 0 0.36825023302166271 0.32035821071263132 0 0.34902730937842941 0.31087752640283772 0 0.36190617482023391 0.33340928645676698 0 0.34593568047149498 0.32557653676744741 0 0.34786149004779437 0.33696315499841373 0 0.35629788685841618 0.34613612365944452 0 0.36190617482023391 0.33340928645676698 0 0.34786149004779437 0.33696315499841373 0 0.33669050323943572 0.33753599748282981 0 0.32473955958418871 0.32766027248012769 0 0.32486702851971549 0.35141828926841839 0 0.34786149004779437 0.33696315499841373 0 0.33669050323943572 0.33753599748282981 0 0.34291093137555101 0.34837706813032271 0 0.34593568047149498 0.32557653676744741 0 0.33669050323943572 0.33753599748282981 0 0.32473955958418871 0.32766027248012769 0 0.34593568047149498 0.32557653676744741 0 0.34786149004779437 0.33696315499841373 0 0.33669050323943572 0.33753599748282981 0 0.34593568047149498 0.32557653676744741 0 0.33450558010950321 0.31338897595381582 0 0.32473955958418871 0.32766027248012769 0 0.34593568047149498 0.32557653676744741 0 0.33450558010950321 0.31338897595381582 0 0.34902730937842941 0.31087752640283772 0 0.32473955958418871 0.32766027248012769 0 0.32461209064866009 0.30390225569183699 0 0.32473955958418871 0.32766027248012769 0 0.31372690721858798 0.30998144214153378 0 0.32461209064866009 0.30390225569183699 0 0.33450558010950321 0.31338897595381582 0 0.32473955958418871 0.32766027248012769 0 0.32461209064866009 0.30390225569183699 0 0.31222437067439512 0.34018148741830589 0 0.31372690721858798 0.30998144214153378 0 0.32473955958418871 0.32766027248012769 0 0.31222437067439512 0.34018148741830589 0 0.31372690721858798 0.30998144214153378 0 0.32473955958418871 0.32766027248012769 0 0.32486702851971549 0.35141828926841839 0 0.32473955958418871 0.32766027248012769 0 0.32486702851971549 0.35141828926841839 0 0.31222437067439512 0.34018148741830589 0 0.32486702851971549 0.35141828926841839 0 0.31222437067439512 0.34018148741830589 0 0.32486702851971549 0.35141828926841839 0 0.31074592017020253 0.369897418347651 0 0.31222437067439512 0.34018148741830589 0 0.34442051644081878 0.36879744102086742 0 0.32486702851971549 0.35141828926841839 0 0.34113902723834189 0.35706288127288621 0 0.33669050323943572 0.33753599748282981 0 0.32486702851971549 0.35141828926841839 0 0.34291093137555101 0.34837706813032271 0 0.32486702851971549 0.35141828926841839 0 0.34113902723834189 0.35706288127288621 0 0.34291093137555101 0.34837706813032271 0 0.34442051644081878 0.36879744102086742 0 0.32486702851971549 0.35141828926841839 0 0.3250001050694129 0.37622146887159541 0 0.34442051644081878 0.36879744102086742 0 0.32486702851971549 0.35141828926841839 0 0.3250001050694129 0.37622146887159541 0 0.32486702851971549 0.35141828926841839 0 0.31074592017020253 0.369897418347651 0 0.3250001050694129 0.37622146887159541 0 0.32486702851971549 0.35141828926841839 0 0.30029224592237469 0.34865352850212461 0 0.29496451929820239 0.37115937147294642 0 0.30115367545211141 0.38358383838534033 0 0.31074592017020253 0.369897418347651 0 0.29496451929820239 0.37115937147294642 0 0.31074592017020253 0.369897418347651 0 0.30029224592237469 0.34865352850212461 0 0.29496451929820239 0.37115937147294642 0 0.31074592017020253 0.369897418347651 0 0.30029224592237469 0.34865352850212461 0 0.31222437067439512 0.34018148741830589 0 0.31074592017020253 0.369897418347651 0 0.31222437067439512 0.34018148741830589 0 0.30029224592237469 0.34865352850212461 0 0.28533452429263367 0.35811669504018401 0 0.29496451929820239 0.37115937147294642 0 0.30029224592237469 0.34865352850212461 0 0.29217135110473941 0.34647991810703233 0 0.29711672383694882 0.33825882608149221 0 0.30029224592237469 0.34865352850212461 0 0.29217135110473941 0.34647991810703233 0 0.28533452429263367 0.35811669504018401 0 0.29217135110473941 0.34647991810703233 0 0.28533452429263367 0.35811669504018401 0 0.28319475797501259 0.35021355559907391 0 0.28533452429263367 0.35811669504018401 0 0.29496451929820239 0.37115937147294642 0 0.27529767413532419 0.37388249278639268 0 0.28533452429263367 0.35811669504018401 0 0.27529767413532419 0.37388249278639268 0 0.27372083396812302 0.34803088818274158 0 0.27529767413532419 0.37388249278639268 0 0.27372083396812302 0.34803088818274158 0 0.27085578236622287 0.38907058529015659 0 0.27042591410339839 0.36193450679987371 0 0.27529767413532419 0.37388249278639268 0 0.27042591410339839 0.36193450679987371 0 0.27529767413532419 0.37388249278639268 0 0.27372083396812302 0.34803088818274158 0 0.27042591410339839 0.36193450679987371 0 0.26999604584057518 0.33479842830959072 0 0.27042591410339839 0.36193450679987371 0 0.25929308974004178 0.35430046657657982 0 0.26999604584057518 0.33479842830959072 0 0.28533452429263367 0.35811669504018401 0 0.28319475797501259 0.35021355559907391 0 0.27372083396812302 0.34803088818274158 0 0.27042591410339839 0.36193450679987371 0 0.27372083396812302 0.34803088818274158 0 0.26999604584057518 0.33479842830959072 0 0.25929308974004178 0.35430046657657982 0 0.25109846422569032 0.34632698245984889 0 0.26999604584057518 0.33479842830959072 0 0.24866990205605541 0.35616870183163352 0 0.25929308974004178 0.35430046657657982 0 0.25109846422569032 0.34632698245984889 0 0.27085578236622287 0.38907058529015659 0 0.27042591410339839 0.36193450679987371 0 0.25285619943820442 0.36858978742794257 0 0.24866990205605541 0.35616870183163352 0 0.25929308974004178 0.35430046657657982 0 0.25285619943820442 0.36858978742794257 0 0.27042591410339839 0.36193450679987371 0 0.25929308974004178 0.35430046657657982 0 0.25285619943820442 0.36858978742794257 0 0.26987223214783579 0.32698250335091139 0 0.26956382963546638 0.30751413244297587 0 0.25258659143171891 0.31186866378537392 0 0.26987223214783579 0.32698250335091139 0 0.25258659143171891 0.31186866378537392 0 0.26071614759040718 0.32800594476304962 0 0.25054534105967702 0.32691114110327901 0 0.25258659143171891 0.31186866378537392 0 0.26071614759040718 0.32800594476304962 0 0.26987223214783579 0.32698250335091139 0 0.25258659143171891 0.31186866378537392 0 0.25109846422569032 0.34632698245984889 0 0.26999604584057518 0.33479842830959072 0 0.26992463221978469 0.33029033644370348 0 0.26071614759040718 0.32800594476304962 0 0.25142738989823499 0.33309874237627568 0 0.26992463221978469 0.33029033644370348 0 0.25109846422569032 0.34632698245984889 0 0.26999604584057518 0.33479842830959072 0 0.24284275464761571 0.34335802678473509 0 0.24790978108704151 0.34460523117290082 0 0.26992463221978469 0.33029033644370348 0 0.24790978108704151 0.34460523117290082 0 0.25109846422569032 0.34632698245984889 0 0.26992463221978469 0.33029033644370348 0 0.26071614759040718 0.32800594476304962 0 0.25054534105967702 0.32691114110327901 0 0.25142738989823499 0.33309874237627568 0 0.24284275464761571 0.34335802678473509 0 0.25142738989823499 0.33309874237627568 0 0.26992463221978469 0.33029033644370348 0 0.24284275464761571 0.34335802678473509 0 0.26992463221978469 0.33029033644370348 0 0.26071614759040718 0.32800594476304962 0 0.26992463221978469 0.33029033644370348 0 0.26987223214783579 0.32698250335091139 0 0.28319475797501259 0.35021355559907391 0 0.27372083396812302 0.34803088818274158 0 0.27518844836468848 0.33163077993589579 0 0.27372083396812302 0.34803088818274158 0 0.26999604584057518 0.33479842830959072 0 0.27518844836468848 0.33163077993589579 0 0.26999604584057518 0.33479842830959072 0 0.26992463221978469 0.33029033644370348 0 0.26999604584057518 0.33479842830959072 0 0.27518844836468848 0.33163077993589579 0 0.26999604584057518 0.33479842830959072 0 0.26992463221978469 0.33029033644370348 0 0.27518844836468848 0.33163077993589579 0 0.27232868314328318 0.32913032111800972 0 0.26992463221978469 0.33029033644370348 0 0.27518844836468848 0.33163077993589579 0 0.26992463221978469 0.33029033644370348 0 0.26987223214783579 0.32698250335091139 0 0.27232868314328318 0.32913032111800972 0 0.26992463221978469 0.33029033644370348 0 0.27232868314328318 0.32913032111800972 0 0.26992463221978469 0.33029033644370348 0 0.26987223214783579 0.32698250335091139 0 0.27232868314328318 0.32913032111800972 0 0.27518844836468848 0.33163077993589579 0 0.27232868314328318 0.32913032111800972 0 0.27518844836468848 0.33163077993589579 0 0.29144541871297702 0.32171314249430089 0 0.26987223214783579 0.32698250335091139 0 0.26956382963546638 0.30751413244297587 0 0.27232868314328318 0.32913032111800972 0 0.27706242107688678 0.321237737377571 0 0.29144541871297702 0.32171314249430089 0 0.26987223214783579 0.32698250335091139 0 0.27584778691019302 0.31411068914048368 0 0.26956382963546638 0.30751413244297587 0 0.27706242107688678 0.321237737377571 0 0.26987223214783579 0.32698250335091139 0 0.27584778691019302 0.31411068914048368 0 0.27232868314328318 0.32913032111800972 0 0.27706242107688678 0.321237737377571 0 0.26987223214783579 0.32698250335091139 0 0.27232868314328318 0.32913032111800972 0 0.26987223214783579 0.32698250335091139 0 0.27706242107688678 0.321237737377571 0 0.27584778691019302 0.31411068914048368 0 0.28336766281561271 0.3145336282242151 0 0.27706242107688678 0.321237737377571 0 0.28336766281561271 0.3145336282242151 0 0.29144541871297702 0.32171314249430089 0 0.28336766281561271 0.3145336282242151 0 0.29144541871297702 0.32171314249430089 0 0.27518844836468848 0.33163077993589579 0 0.29144541871297702 0.32171314249430089 0 0.27232868314328318 0.32913032111800972 0 0.29144541871297702 0.32171314249430089 0 0.28336766281561271 0.3145336282242151 0 0.29144541871297702 0.32171314249430089 0 0.28884829461144479 0.31093140420959758 0 0.29144541871297702 0.32171314249430089 0 0.29533401812898141 0.31174552517547433 0 0.28884829461144479 0.31093140420959758 0 0.29217135110473941 0.34647991810703233 0 0.27518844836468848 0.33163077993589579 0 0.28945023277025728 0.33426605388569791 0 0.29217135110473941 0.34647991810703233 0 0.28319475797501259 0.35021355559907391 0 0.27518844836468848 0.33163077993589579 0 0.27518844836468848 0.33163077993589579 0 0.29144541871297702 0.32171314249430089 0 0.28945023277025728 0.33426605388569791 0 0.29217135110473941 0.34647991810703233 0 0.27518844836468848 0.33163077993589579 0 0.29144541871297702 0.32171314249430089 0 0.28945023277025728 0.33426605388569791 0 0.29711672383694882 0.33825882608149221 0 0.29217135110473941 0.34647991810703233 0 0.28945023277025728 0.33426605388569791 0 0.29711672383694882 0.33825882608149221 0 0.29144541871297702 0.32171314249430089 0 0.31222437067439512 0.34018148741830589 0 0.29144541871297702 0.32171314249430089 0 0.29711672383694882 0.33825882608149221 0 0.31222437067439512 0.34018148741830589 0 0.30029224592237469 0.34865352850212461 0 0.29711672383694882 0.33825882608149221 0 0.31222437067439512 0.34018148741830589 0 0.31222437067439512 0.34018148741830589 0 0.30561573754036908 0.31306847614189709 0 0.31372690721858798 0.30998144214153378 0 0.29144541871297702 0.32171314249430089 0 0.31222437067439512 0.34018148741830589 0 0.30561573754036908 0.31306847614189709 0 0.29144541871297702 0.32171314249430089 0 0.30561573754036908 0.31306847614189709 0 0.29533401812898141 0.31174552517547433 0 0.29144541871297702 0.32171314249430089 0 0.30561573754036908 0.31306847614189709 0 0.30601949261541628 0.30752387428742978 0 0.28943570763781618 0.29084092345336521 0 0.30601949261541628 0.30752387428742978 0 0.29746702893360227 0.30560637302553478 0 0.28943570763781618 0.29084092345336521 0 0.30601949261541628 0.30752387428742978 0 0.31159988599999172 0.29916323960662838 0 0.30502984389871252 0.28917811748950778 0 0.30561573754036908 0.31306847614189709 0 0.31040844953078067 0.30625644344525171 0 0.3183986819673455 0.30527018374505122 0 0.30561573754036908 0.31306847614189709 0 0.3183986819673455 0.30527018374505122 0 0.30561573754036908 0.31306847614189709 0 0.30601949261541628 0.30752387428742978 0 0.31040844953078067 0.30625644344525171 0 0.30601949261541628 0.30752387428742978 0 0.31040844953078067 0.30625644344525171 0 0.31159988599999172 0.29916323960662838 0 0.30561573754036908 0.31306847614189709 0 0.30601949261541628 0.30752387428742978 0 0.29746702893360227 0.30560637302553478 0 0.30561573754036908 0.31306847614189709 0 0.29746702893360227 0.30560637302553478 0 0.29533401812898141 0.31174552517547433 0 0.30601949261541628 0.30752387428742978 0 0.30502984389871252 0.28917811748950778 0 0.28943570763781618 0.29084092345336521 0 0.30502984389871252 0.28917811748950778 0 0.29972089189479978 0.27529551979476141 0 0.31262997313013302 0.27976791018162322 0 0.28943570763781618 0.29084092345336521 0 0.27285192266021607 0.27415797261930053 0 0.28547485115797888 0.27953365776548139 0 0.30502984389871252 0.28917811748950778 0 0.28943570763781618 0.29084092345336521 0 0.28547485115797888 0.27953365776548139 0 0.30502984389871252 0.28917811748950778 0 0.28547485115797888 0.27953365776548139 0 0.30502984389871252 0.28917811748950778 0 0.28547485115797888 0.27953365776548139 0 0.29972089189479978 0.27529551979476141 0 0.28943570763781618 0.29084092345336521 0 0.28191423481102762 0.30427133571533821 0 0.27775049818729181 0.29265876122177747 0 0.29093018874542848 0.30485306606950718 0 0.29533401812898141 0.31174552517547433 0 0.28884829461144479 0.31093140420959758 0 0.29746702893360227 0.30560637302553478 0 0.29093018874542848 0.30485306606950718 0 0.29533401812898141 0.31174552517547433 0 0.29746702893360227 0.30560637302553478 0 0.28943570763781618 0.29084092345336521 0 0.29093018874542848 0.30485306606950718 0 0.28943570763781618 0.29084092345336521 0 0.29093018874542848 0.30485306606950718 0 0.28191423481102762 0.30427133571533821 0 0.29093018874542848 0.30485306606950718 0 0.28191423481102762 0.30427133571533821 0 0.28884829461144479 0.31093140420959758 0 0.28336766281561271 0.3145336282242151 0 0.28191423481102762 0.30427133571533821 0 0.28884829461144479 0.31093140420959758 0 0.27584778691019302 0.31411068914048368 0 0.28191423481102762 0.30427133571533821 0 0.26956382963546638 0.30751413244297587 0 0.27584778691019302 0.31411068914048368 0 0.28336766281561271 0.3145336282242151 0 0.28191423481102762 0.30427133571533821 0 0.26956382963546638 0.30751413244297587 0 0.26925542712309841 0.28804576153504041 0 0.28191423481102762 0.30427133571533821 0 0.26956382963546638 0.30751413244297587 0 0.27775049818729181 0.29265876122177747 0 0.26925542712309841 0.28804576153504041 0 0.27775049818729181 0.29265876122177747 0 0.27285192266021607 0.27415797261930053 0 0.26956382963546638 0.30751413244297587 0 0.26925542712309841 0.28804576153504041 0 0.27775049818729181 0.29265876122177747 0 0.28943570763781618 0.29084092345336521 0 0.27775049818729181 0.29265876122177747 0 0.27285192266021607 0.27415797261930053 0 0.28943570763781618 0.29084092345336521 0 0.27285192266021607 0.27415797261930053 0 0.26956382963546638 0.30751413244297587 0 0.26925542712309841 0.28804576153504041 0 0.25298448859367201 0.29201933016264192 0 0.26925542712309841 0.28804576153504041 0 0.25298448859367201 0.29201933016264192 0 0.2546487262936768 0.27409994788838732 0 0.26956382963546638 0.30751413244297587 0 0.25298448859367201 0.29201933016264192 0 0.25258659143171891 0.31186866378537392 0 0.25626813768261603 0.25747502178523579 0 0.27358751784805091 0.25514366092888657 0 0.26392899044334139 0.24984289055140321 0 0.24021539923885529 0.25684826073986988 0 0.25626813768261603 0.25747502178523579 0 0.2546487262936768 0.27409994788838732 0 0.25626813768261603 0.25747502178523579 0 0.25822886967006409 0.24784996208995541 0 0.26392899044334139 0.24984289055140321 0 0.25626813768261603 0.25747502178523579 0 0.25822886967006409 0.24784996208995541 0 0.25101200242116428 0.24576759366761389 0 0.25626813768261603 0.25747502178523579 0 0.27285192266021607 0.27415797261930053 0 0.25626813768261603 0.25747502178523579 0 0.2546487262936768 0.27409994788838732 0 0.27285192266021607 0.27415797261930053 0 0.26925542712309841 0.28804576153504041 0 0.2546487262936768 0.27409994788838732 0 0.27285192266021607 0.27415797261930053 0 0.27285192266021607 0.27415797261930053 0 0.27162625787102201 0.26318524399396309 0 0.28379745329320499 0.26596432064242981 0 0.27285192266021607 0.27415797261930053 0 0.28547485115797888 0.27953365776548139 0 0.28379745329320499 0.26596432064242981 0 0.27162625787102201 0.26318524399396309 0 0.27358751784805091 0.25514366092888657 0 0.28379745329320499 0.26596432064242981 0 0.25626813768261603 0.25747502178523579 0 0.27285192266021607 0.27415797261930053 0 0.27162625787102201 0.26318524399396309 0 0.25626813768261603 0.25747502178523579 0 0.27162625787102201 0.26318524399396309 0 0.27358751784805091 0.25514366092888657 0 0.27358751784805091 0.25514366092888657 0 0.2858237347350282 0.25419181109229222 0 0.28379745329320499 0.26596432064242981 0 0.27358751784805091 0.25514366092888657 0 0.2725878999537022 0.24772681559853921 0 0.26392899044334139 0.24984289055140321 0 0.27358751784805091 0.25514366092888657 0 0.2858237347350282 0.25419181109229222 0 0.27885912889025721 0.249419559427452 0 0.27358751784805091 0.25514366092888657 0 0.27885912889025721 0.249419559427452 0 0.2725878999537022 0.24772681559853921 0 0.2858237347350282 0.25419181109229222 0 0.29587787946868632 0.26231198018546031 0 0.28379745329320499 0.26596432064242981 0 0.2858237347350282 0.25419181109229222 0 0.29587787946868632 0.26231198018546031 0 0.29661091264573047 0.25116560552523309 0 0.28547485115797888 0.27953365776548139 0 0.28379745329320499 0.26596432064242981 0 0.29121776895366752 0.27077636959703322 0 0.29587787946868632 0.26231198018546031 0 0.28379745329320499 0.26596432064242981 0 0.29121776895366752 0.27077636959703322 0 0.29587787946868632 0.26231198018546031 0 0.29121776895366752 0.27077636959703322 0 0.29972089189479978 0.27529551979476141 0 0.28547485115797888 0.27953365776548139 0 0.29121776895366752 0.27077636959703322 0 0.29972089189479978 0.27529551979476141 0 0.29587787946868632 0.26231198018546031 0 0.29972089189479978 0.27529551979476141 0 0.30849430634474612 0.26838622680717827 0 0.29972089189479978 0.27529551979476141 0 0.30849430634474612 0.26838622680717827 0 0.31262997313013302 0.27976791018162322 0 0.29587787946868632 0.26231198018546031 0 0.29661091264573047 0.25116560552523309 0 0.30936661842828428 0.25577625558603351 0 0.29587787946868632 0.26231198018546031 0 0.30849430634474612 0.26838622680717827 0 0.30936661842828428 0.25577625558603351 0 0.30849430634474612 0.26838622680717827 0 0.30936661842828428 0.25577625558603351 0 0.32443235073069149 0.27040182697289278 0 0.32443235073069149 0.27040182697289278 0 0.32427986482193738 0.241981076732251 0 0.30936661842828428 0.25577625558603351 0 0.32443235073069149 0.27040182697289278 0 0.32427986482193738 0.241981076732251 0 0.33738320273473188 0.2584674133916291 0 0.32443235073069149 0.27040182697289278 0 0.32427986482193738 0.241981076732251 0 0.33738320273473188 0.2584674133916291 0 0.34206387357384771 0.27756051409384491 0 0.32443235073069149 0.27040182697289278 0 0.30849430634474612 0.26838622680717827 0 0.32443235073069149 0.27040182697289278 0 0.31262997313013302 0.27976791018162322 0 0.31159988599999172 0.29916323960662838 0 0.30502984389871252 0.28917811748950778 0 0.32458483663944582 0.29882257721353489 0 0.32443235073069149 0.27040182697289278 0 0.32458483663944582 0.29882257721353489 0 0.30502984389871252 0.28917811748950778 0 0.32458483663944582 0.29882257721353489 0 0.32443235073069149 0.27040182697289278 0 0.31262997313013302 0.27976791018162322 0 0.32458483663944582 0.29882257721353489 0 0.30502984389871252 0.28917811748950778 0 0.31262997313013302 0.27976791018162322 0 0.32458483663944582 0.29882257721353489 0 0.30561573754036908 0.31306847614189709 0 0.31372690721858798 0.30998144214153378 0 0.32461209064866009 0.30390225569183699 0 0.30561573754036908 0.31306847614189709 0 0.3183986819673455 0.30527018374505122 0 0.32461209064866009 0.30390225569183699 0 0.30561573754036908 0.31306847614189709 0 0.32461209064866009 0.30390225569183699 0 0.31159988599999172 0.29916323960662838 0 0.3183986819673455 0.30527018374505122 0 0.32458483663944582 0.29882257721353489 0 0.31040844953078067 0.30625644344525171 0 0.31159988599999172 0.29916323960662838 0 0.3183986819673455 0.30527018374505122 0 0.32458483663944582 0.29882257721353489 0 0.32980438573519549 0.30139684209304501 0 0.32458483663944582 0.29882257721353489 0 0.32461209064866009 0.30390225569183699 0 0.32980438573519549 0.30139684209304501 0 0.32461209064866009 0.30390225569183699 0 0.32980438573519549 0.30139684209304501 0 0.32458483663944582 0.29882257721353489 0 0.32461209064866009 0.30390225569183699 0 0.3183986819673455 0.30527018374505122 0 0.32458483663944582 0.29882257721353489 0 0.32461209064866009 0.30390225569183699 0 0.33450558010950321 0.31338897595381582 0 0.32980438573519549 0.30139684209304501 0 0.34902730937842941 0.31087752640283772 0 0.32980438573519549 0.30139684209304501 0 0.33584434701250188 0.29848240813501242 0 0.34902730937842941 0.31087752640283772 0 0.32980438573519549 0.30139684209304501 0 0.34902730937842941 0.31087752640283772 0 0.33450558010950321 0.31338897595381582 0 0.32461209064866009 0.30390225569183699 0 0.32980438573519549 0.30139684209304501 0 0.32458483663944582 0.29882257721353489 0 0.32980438573519549 0.30139684209304501 0 0.33584434701250188 0.29848240813501242 0 0.32980438573519549 0.30139684209304501 0 0.33584434701250188 0.29848240813501242 0 0.34206387357384771 0.27756051409384491 0 0.32443235073069149 0.27040182697289278 0 0.32458483663944582 0.29882257721353489 0 0.32458483663944582 0.29882257721353489 0 0.33584434701250188 0.29848240813501242 0 0.34210059455337871 0.2903857300547622 0 0.34206387357384771 0.27756051409384491 0 0.32458483663944582 0.29882257721353489 0 0.34210059455337871 0.2903857300547622 0 0.33584434701250188 0.29848240813501242 0 0.34210059455337871 0.2903857300547622 0 0.34870313977751838 0.29814901364092222 0 0.34206387357384771 0.27756051409384491 0 0.34210059455337871 0.2903857300547622 0 0.35458757615436648 0.28966254016649301 0 0.34210059455337871 0.2903857300547622 0 0.35458757615436648 0.28966254016649301 0 0.34870313977751838 0.29814901364092222 0 0.35458757615436648 0.28966254016649301 0 0.34870313977751838 0.29814901364092222 0 0.36195587178891597 0.30133686344550559 0 0.33584434701250188 0.29848240813501242 0 0.34902730937842941 0.31087752640283772 0 0.34870313977751838 0.29814901364092222 0 0.34902730937842941 0.31087752640283772 0 0.34870313977751838 0.29814901364092222 0 0.36195587178891597 0.30133686344550559 0 0.36825023302166271 0.32035821071263132 0 0.36195587178891597 0.30133686344550559 0 0.38115184560091431 0.30048288663732142 0 0.36825023302166271 0.32035821071263132 0 0.34902730937842941 0.31087752640283772 0 0.36195587178891597 0.30133686344550559 0 0.35458757615436648 0.28966254016649301 0 0.36195587178891597 0.30133686344550559 0 0.37067262551586272 0.28792642675569191 0 0.35458757615436648 0.28966254016649301 0 0.37067262551586272 0.28792642675569191 0 0.35786196009822108 0.27588135611575643 0 0.36195587178891597 0.30133686344550559 0 0.37067262551586272 0.28792642675569191 0 0.38115184560091431 0.30048288663732142 0 0.37168735916558282 0.27356918449198347 0 0.35556752598711339 0.25943899486135957 0 0.35786196009822108 0.27588135611575643 0 0.37067262551586272 0.28792642675569191 0 0.37168735916558282 0.27356918449198347 0 0.35786196009822108 0.27588135611575643 0 0.35556752598711339 0.25943899486135957 0 0.37536728315023787 0.25934056838048791 0 0.36873656884902528 0.2458778915423398 0 0.37168735916558282 0.27356918449198347 0 0.35556752598711339 0.25943899486135957 0 0.37536728315023787 0.25934056838048791 0 0.33738320273473188 0.2584674133916291 0 0.34206387357384771 0.27756051409384491 0 0.35556752598711339 0.25943899486135957 0 0.33738320273473188 0.2584674133916291 0 0.35556752598711339 0.25943899486135957 0 0.34057239856006799 0.242954654297797 0 0.34206387357384771 0.27756051409384491 0 0.35556752598711339 0.25943899486135957 0 0.35786196009822108 0.27588135611575643 0 0.34206387357384771 0.27756051409384491 0 0.35458757615436648 0.28966254016649301 0 0.35786196009822108 0.27588135611575643 0 0.40307418664371603 0.25682028776850852 0 0.39020546597709971 0.2758105192699376 0 0.41040178068133409 0.26836613231682621 0 0.39020546597709971 0.2758105192699376 0 0.41262400097845581 0.28672856468017183 0 0.41040178068133409 0.26836613231682621 0 0.40307418664371603 0.25682028776850852 0 0.38934578001878462 0.25392075763104482 0 0.39020546597709971 0.2758105192699376 0 0.40307418664371603 0.25682028776850852 0 0.38934578001878462 0.25392075763104482 0 0.40904225466125799 0.2416931807633316 0 0.38934578001878462 0.25392075763104482 0 0.37536728315023787 0.25934056838048791 0 0.39020546597709971 0.2758105192699376 0 0.38934578001878462 0.25392075763104482 0 0.37536728315023787 0.25934056838048791 0 0.36873656884902528 0.2458778915423398 0 0.37067262551586272 0.28792642675569191 0 0.37168735916558282 0.27356918449198347 0 0.39020546597709971 0.2758105192699376 0 0.37168735916558282 0.27356918449198347 0 0.37536728315023787 0.25934056838048791 0 0.39020546597709971 0.2758105192699376 0 0.39020546597709971 0.2758105192699376 0 0.38115184560091431 0.30048288663732142 0 0.39882343228545852 0.29706613163941997 0 0.37067262551586272 0.28792642675569191 0 0.39020546597709971 0.2758105192699376 0 0.38115184560091431 0.30048288663732142 0 0.36825023302166271 0.32035821071263132 0 0.38115184560091431 0.30048288663732142 0 0.39469429384986049 0.31583301982748302 0 0.38115184560091431 0.30048288663732142 0 0.39882343228545852 0.29706613163941997 0 0.39469429384986049 0.31583301982748302 0 0.39882343228545852 0.29706613163941997 0 0.41777254650848289 0.30587572356807557 0 0.39469429384986049 0.31583301982748302 0 0.39020546597709971 0.2758105192699376 0 0.39882343228545852 0.29706613163941997 0 0.41262400097845581 0.28672856468017183 0 0.41262400097845581 0.28672856468017183 0 0.41777254650848289 0.30587572356807557 0 0.43437484747036609 0.29684372598166758 0 0.39882343228545852 0.29706613163941997 0 0.41262400097845581 0.28672856468017183 0 0.41777254650848289 0.30587572356807557 0 0.41777254650848289 0.30587572356807557 0 0.43437484747036609 0.29684372598166758 0 0.43894407025337612 0.31731218973171788 0 0.41262400097845581 0.28672856468017183 0 0.43437484747036609 0.29684372598166758 0 0.42819507345076208 0.27223332076613183 0 0.41262400097845581 0.28672856468017183 0 0.42819507345076208 0.27223332076613183 0 0.41040178068133409 0.26836613231682621 0 0.42819507345076208 0.27223332076613183 0 0.41040178068133409 0.26836613231682621 0 0.41627707818610921 0.25785361445278138 0 0.41627707818610921 0.25785361445278138 0 0.43065155930722698 0.25297656014731312 0 0.40904225466125799 0.2416931807633316 0 0.40307418664371603 0.25682028776850852 0 0.41627707818610921 0.25785361445278138 0 0.40904225466125799 0.2416931807633316 0 0.40307418664371603 0.25682028776850852 0 0.41040178068133409 0.26836613231682621 0 0.41627707818610921 0.25785361445278138 0 0.43065155930722698 0.25297656014731312 0 0.44136831110345132 0.26105196276379311 0 0.43014667593833489 0.2364380047092168 0 0.42819507345076208 0.27223332076613183 0 0.43065155930722698 0.25297656014731312 0 0.44136831110345132 0.26105196276379311 0 0.42819507345076208 0.27223332076613183 0 0.41627707818610921 0.25785361445278138 0 0.43065155930722698 0.25297656014731312 0 0.5 0.25965274995772752 0 0.46381158143368412 0.31027987887294572 0 0.47503321659880049 0.33489383692752211 0 0.44136831110345132 0.26105196276379311 0 0.46829616284555559 0.26364039186870181 0 0.44968719480507968 0.2471698486618242 0 0.44136831110345132 0.26105196276379311 0 0.45258994626856769 0.28566592081836939 0 0.42819507345076208 0.27223332076613183 0 0.44136831110345132 0.26105196276379311 0 0.45258994626856769 0.28566592081836939 0 0.44136831110345132 0.26105196276379311 0 0.46829616284555559 0.26364039186870181 0 0.45258994626856769 0.28566592081836939 0 0.46829616284555559 0.26364039186870181 0 0.46486075961764528 0.2440253591183783 0 0.44968719480507968 0.2471698486618242 0 0.46829616284555559 0.26364039186870181 0 0.5 0.25965274995772752 0 0.46486075961764528 0.2440253591183783 0 0.46829616284555559 0.26364039186870181 0 0.5 0.25965274995772752 0 0.46381158143368412 0.31027987887294572 0 0.46829616284555559 0.26364039186870181 0 0.46381158143368412 0.31027987887294572 0 0.45258994626856769 0.28566592081836939 0 0.46381158143368412 0.31027987887294572 0 0.45258994626856769 0.28566592081836939 0 0.43437484747036609 0.29684372598166758 0 0.42819507345076208 0.27223332076613183 0 0.45258994626856769 0.28566592081836939 0 0.43437484747036609 0.29684372598166758 0 0.46381158143368412 0.31027987887294572 0 0.45258994626856769 0.28566592081836939 0 0.43437484747036609 0.29684372598166758 0 0.46381158143368412 0.31027987887294572 0 0.43894407025337612 0.31731218973171788 0 0.46381158143368412 0.31027987887294572 0 0.43894407025337612 0.31731218973171788 0 0.45299310323920428 0.33970551807851512 0 0.5 0.25965274995772752 0 0.48625485176391692 0.35950779498209839 0 0.5 0.37888216841833311 0 0.5 0.25965274995772752 0 0.47503321659880049 0.33489383692752211 0 0.48625485176391692 0.35950779498209839 0 0.43894407025337612 0.31731218973171788 0 0.45299310323920428 0.33970551807851512 0 0.42660014161343152 0.32959580564013818 0 0.45299310323920428 0.33970551807851512 0 0.47503321659880049 0.33489383692752211 0 0.46867681674476941 0.35326678275147472 0 0.46381158143368412 0.31027987887294572 0 0.45299310323920428 0.33970551807851512 0 0.47503321659880049 0.33489383692752211 0 0.46381158143368412 0.31027987887294572 0 0.47503321659880049 0.33489383692752211 0 0.48625485176391692 0.35950779498209839 0 0.46627473617504561 0.3827569414080173 0 0.5 0.37888216841833311 0 0.47503321659880049 0.33489383692752211 0 0.48625485176391692 0.35950779498209839 0 0.47503321659880049 0.33489383692752211 0 0.48625485176391692 0.35950779498209839 0 0.46867681674476941 0.35326678275147472 0 0.48625485176391692 0.35950779498209839 0 0.46867681674476941 0.35326678275147472 0 0.46627473617504561 0.3827569414080173 0 0.45380730950309051 0.36225005046582642 0 0.44994402797188698 0.37815538143855693 0 0.46627473617504561 0.3827569414080173 0 0.45380730950309051 0.36225005046582642 0 0.46867681674476941 0.35326678275147472 0 0.46627473617504561 0.3827569414080173 0 0.45299310323920428 0.33970551807851512 0 0.45380730950309051 0.36225005046582642 0 0.46867681674476941 0.35326678275147472 0 0.45299310323920428 0.33970551807851512 0 0.45380730950309051 0.36225005046582642 0 0.44467722900056328 0.35129281865358308 0 0.45299310323920428 0.33970551807851512 0 0.44467722900056328 0.35129281865358308 0 0.43180276249389993 0.34608751717911163 0 0.44467722900056328 0.35129281865358308 0 0.44230868150193919 0.36826604856646089 0 0.43252014452594589 0.36152765808224818 0 0.45380730950309051 0.36225005046582642 0 0.44230868150193919 0.36826604856646089 0 0.44994402797188698 0.37815538143855693 0 0.45380730950309051 0.36225005046582642 0 0.44467722900056328 0.35129281865358308 0 0.44230868150193919 0.36826604856646089 0 0.44230868150193919 0.36826604856646089 0 0.43559029628155449 0.37430559347592662 0 0.44220776025527608 0.37862314483746179 0 0.43559029628155449 0.37430559347592662 0 0.43252014452594589 0.36152765808224818 0 0.42255589040240032 0.37223818795008728 0 0.43252014452594589 0.36152765808224818 0 0.42255589040240032 0.37223818795008728 0 0.42118040266287632 0.35460933381666959 0 0.44230868150193919 0.36826604856646089 0 0.43559029628155449 0.37430559347592662 0 0.43252014452594589 0.36152765808224818 0 0.42255589040240032 0.37223818795008728 0 0.42118040266287632 0.35460933381666959 0 0.40329520760890408 0.35195116719004649 0 0.42255589040240032 0.37223818795008728 0 0.40882631744621822 0.37320700981884558 0 0.40457856466894287 0.3651588534230259 0 0.42255589040240032 0.37223818795008728 0 0.40457856466894287 0.3651588534230259 0 0.40329520760890408 0.35195116719004649 0 0.42255589040240032 0.37223818795008728 0 0.40329520760890408 0.35195116719004649 0 0.42118040266287632 0.35460933381666959 0 0.41595920000678671 0.34027637449173259 0 0.40329520760890408 0.35195116719004649 0 0.42118040266287632 0.35460933381666959 0 0.43180276249389993 0.34608751717911163 0 0.41595920000678671 0.34027637449173259 0 0.43252014452594589 0.36152765808224818 0 0.42118040266287632 0.35460933381666959 0 0.43180276249389993 0.34608751717911163 0 0.44467722900056328 0.35129281865358308 0 0.43252014452594589 0.36152765808224818 0 0.43180276249389993 0.34608751717911163 0 0.43180276249389993 0.34608751717911163 0 0.42660014161343152 0.32959580564013818 0 0.41595920000678671 0.34027637449173259 0 0.45299310323920428 0.33970551807851512 0 0.43180276249389993 0.34608751717911163 0 0.42660014161343152 0.32959580564013818 0 0.41777254650848289 0.30587572356807557 0 0.43894407025337612 0.31731218973171788 0 0.42660014161343152 0.32959580564013818 0 0.41777254650848289 0.30587572356807557 0 0.4122149525648392 0.32142793913620771 0 0.39469429384986049 0.31583301982748302 0 0.41777254650848289 0.30587572356807557 0 0.42660014161343152 0.32959580564013818 0 0.4122149525648392 0.32142793913620771 0 0.41595920000678671 0.34027637449173259 0 0.40199339742444862 0.33242368225311952 0 0.40329520760890408 0.35195116719004649 0 0.42660014161343152 0.32959580564013818 0 0.4122149525648392 0.32142793913620771 0 0.41595920000678671 0.34027637449173259 0 0.4122149525648392 0.32142793913620771 0 0.41595920000678671 0.34027637449173259 0 0.40199339742444862 0.33242368225311952 0 0.40199339742444862 0.33242368225311952 0 0.38403452481540801 0.33166414643000558 0 0.40329520760890408 0.35195116719004649 0 0.38403452481540801 0.33166414643000558 0 0.40329520760890408 0.35195116719004649 0 0.4122149525648392 0.32142793913620771 0 0.40199339742444862 0.33242368225311952 0 0.39469429384986049 0.31583301982748302 0 0.40199339742444862 0.33242368225311952 0 0.39469429384986049 0.31583301982748302 0 0.38403452481540801 0.33166414643000558 0 0.36825023302166271 0.32035821071263132 0 0.39469429384986049 0.31583301982748302 0 0.38403452481540801 0.33166414643000558 0 0.36987287066507601 0.34419164823033821 0 0.38403452481540801 0.33166414643000558 0 0.38473841160113281 0.35442161106652159 0 0.37302264504290827 0.36725088297641251 0 0.38473841160113281 0.35442161106652159 0 0.38704169316731962 0.36520363604885459 0 0.37302264504290827 0.36725088297641251 0 0.39368765746853213 0.37484303928089202 0 0.38068365501407742 0.3783184793659643 0 0.37302264504290827 0.36725088297641251 0 0.38704169316731962 0.36520363604885459 0 0.39368765746853213 0.37484303928089202 0 0.37302264504290827 0.36725088297641251 0 0.39368765746853213 0.37484303928089202 0 0.38473841160113281 0.35442161106652159 0 0.38704169316731962 0.36520363604885459 0 0.39488692235748202 0.36123496037291147 0 0.39488692235748202 0.36123496037291147 0 0.39554600745802321 0.36959132786519822 0 0.40457856466894287 0.3651588534230259 0 0.38704169316731962 0.36520363604885459 0 0.39488692235748202 0.36123496037291147 0 0.39554600745802321 0.36959132786519822 0 0.38704169316731962 0.36520363604885459 0 0.39368765746853213 0.37484303928089202 0 0.39554600745802321 0.36959132786519822 0 0.39368765746853213 0.37484303928089202 0 0.39554600745802321 0.36959132786519822 0 0.40121881494623768 0.3704479249228963 0 0.39368765746853213 0.37484303928089202 0 0.39554600745802321 0.36959132786519822 0 0.40882631744621822 0.37320700981884558 0 0.39368765746853213 0.37484303928089202 0 0.40121881494623768 0.3704479249228963 0 0.40882631744621822 0.37320700981884558 0 0.40121881494623768 0.3704479249228963 0 0.40457856466894287 0.3651588534230259 0 0.39554600745802321 0.36959132786519822 0 0.40121881494623768 0.3704479249228963 0 0.40457856466894287 0.3651588534230259 0 0.39488692235748202 0.36123496037291147 0 0.40457856466894287 0.3651588534230259 0 0.40329520760890408 0.35195116719004649 0 0.38473841160113281 0.35442161106652159 0 0.39488692235748202 0.36123496037291147 0 0.40329520760890408 0.35195116719004649 0 0.38403452481540801 0.33166414643000558 0 0.38473841160113281 0.35442161106652159 0 0.40329520760890408 0.35195116719004649 0 0.39889444864407592 0.40121798559267718 0 0.40544511033246222 0.39006489390588522 0 0.38860757487577852 0.38919939190332731 0 0.39889444864407592 0.40121798559267718 0 0.40544511033246222 0.39006489390588522 0 0.4125210132627613 0.4025669080235435 0 0.39368765746853213 0.37484303928089202 0 0.40544511033246222 0.39006489390588522 0 0.41775211533221468 0.383684123995509 0 0.39368765746853213 0.37484303928089202 0 0.41775211533221468 0.383684123995509 0 0.39368765746853213 0.37484303928089202 0 0.40544511033246222 0.39006489390588522 0 0.38860757487577852 0.38919939190332731 0 0.39368765746853213 0.37484303928089202 0 0.38860757487577852 0.38919939190332731 0 0.36397400436192351 0.38617659277331501 0 0.38860757487577852 0.38919939190332731 0 0.38068365501407742 0.3783184793659643 0 0.39368765746853213 0.37484303928089202 0 0.38860757487577852 0.38919939190332731 0 0.38068365501407742 0.3783184793659643 0 0.36397400436192351 0.38617659277331501 0 0.38860757487577852 0.38919939190332731 0 0.3835274922830274 0.40355574452576343 0 0.39889444864407592 0.40121798559267718 0 0.38860757487577852 0.38919939190332731 0 0.3835274922830274 0.40355574452576343 0 0.38860757487577852 0.38919939190332731 0 0.3835274922830274 0.40355574452576343 0 0.3744218206881802 0.42928844274333611 0 0.3835274922830274 0.40355574452576343 0 0.40301889947224578 0.42087971888659997 0 0.3744218206881802 0.42928844274333611 0 0.3835274922830274 0.40355574452576343 0 0.3744218206881802 0.42928844274333611 0 0.40301889947224578 0.42087971888659997 0 0.39508334512184229 0.44381760115017038 0 0.39889444864407592 0.40121798559267718 0 0.40301889947224578 0.42087971888659997 0 0.4125210132627613 0.4025669080235435 0 0.39889444864407592 0.40121798559267718 0 0.3835274922830274 0.40355574452576343 0 0.40301889947224578 0.42087971888659997 0 0.3835274922830274 0.40355574452576343 0 0.40301889947224578 0.42087971888659997 0 0.40301889947224578 0.42087971888659997 0 0.42755094269837768 0.42483430898650038 0 0.42402820945328229 0.41048301477679561 0 0.40301889947224578 0.42087971888659997 0 0.42402820945328229 0.41048301477679561 0 0.4125210132627613 0.4025669080235435 0 0.40301889947224578 0.42087971888659997 0 0.42755094269837768 0.42483430898650038 0 0.42251030666146361 0.43820369324743752 0 0.40301889947224578 0.42087971888659997 0 0.42251030666146361 0.43820369324743752 0 0.39508334512184229 0.44381760115017038 0 0.40301889947224578 0.42087971888659997 0 0.42251030666146361 0.43820369324743752 0 0.42755094269837768 0.42483430898650038 0 0.44126423557245409 0.44130971302256311 0 0.42251030666146361 0.43820369324743752 0 0.42755094269837768 0.42483430898650038 0 0.43894692717358119 0.41750080902383241 0 0.44126423557245409 0.44130971302256311 0 0.42755094269837768 0.42483430898650038 0 0.42402820945328229 0.41048301477679561 0 0.43894692717358119 0.41750080902383241 0 0.42402820945328229 0.41048301477679561 0 0.43506132715212797 0.40328330369235871 0 0.43894692717358119 0.41750080902383241 0 0.43506132715212797 0.40328330369235871 0 0.43268271364301852 0.39695916330569819 0 0.42499955134083639 0.39963468452772388 0 0.43506132715212797 0.40328330369235871 0 0.43268271364301852 0.39695916330569819 0 0.43845519347658191 0.39739427032023122 0 0.43612927963231107 0.39458395221612919 0 0.4280401345031104 0.39116039045612772 0 0.44181657319589662 0.39252520871012808 0 0.43612927963231107 0.39458395221612919 0 0.43268271364301852 0.39695916330569819 0 0.4280401345031104 0.39116039045612772 0 0.43612927963231107 0.39458395221612919 0 0.43268271364301852 0.39695916330569819 0 0.43845519347658191 0.39739427032023122 0 0.43268271364301852 0.39695916330569819 0 0.4280401345031104 0.39116039045612772 0 0.42499955134083639 0.39963468452772388 0 0.4280401345031104 0.39116039045612772 0 0.42499955134083639 0.39963468452772388 0 0.417751584954277 0.39342220018175778 0 0.42402820945328229 0.41048301477679561 0 0.43506132715212797 0.40328330369235871 0 0.42499955134083639 0.39963468452772388 0 0.42402820945328229 0.41048301477679561 0 0.42499955134083639 0.39963468452772388 0 0.4125210132627613 0.4025669080235435 0 0.42499955134083639 0.39963468452772388 0 0.417751584954277 0.39342220018175778 0 0.4125210132627613 0.4025669080235435 0 0.40544511033246222 0.39006489390588522 0 0.417751584954277 0.39342220018175778 0 0.4125210132627613 0.4025669080235435 0 0.40882631744621822 0.37320700981884558 0 0.39368765746853213 0.37484303928089202 0 0.41775211533221468 0.383684123995509 0 0.40544511033246222 0.39006489390588522 0 0.417751584954277 0.39342220018175778 0 0.41775211533221468 0.383684123995509 0 0.4280401345031104 0.39116039045612772 0 0.417751584954277 0.39342220018175778 0 0.41775211533221468 0.383684123995509 0 0.42255589040240032 0.37223818795008728 0 0.40882631744621822 0.37320700981884558 0 0.41775211533221468 0.383684123995509 0 0.43559029628155449 0.37430559347592662 0 0.42255589040240032 0.37223818795008728 0 0.43851748407318031 0.38213542930061573 0 0.41775211533221468 0.383684123995509 0 0.44181657319589662 0.39252520871012808 0 0.42255589040240032 0.37223818795008728 0 0.44181657319589662 0.39252520871012808 0 0.4280401345031104 0.39116039045612772 0 0.41775211533221468 0.383684123995509 0 0.44181657319589662 0.39252520871012808 0 0.42255589040240032 0.37223818795008728 0 0.43851748407318031 0.38213542930061573 0 0.44181657319589662 0.39252520871012808 0 0.42255589040240032 0.37223818795008728 0 0.41775211533221468 0.383684123995509 0 0.44181657319589662 0.39252520871012808 0 0.43559029628155449 0.37430559347592662 0 0.44220776025527608 0.37862314483746179 0 0.43851748407318031 0.38213542930061573 0 0.45575798891954378 0.40246991534294541 0 0.46627473617504561 0.3827569414080173 0 0.47567916917184971 0.41904221269264208 0 0.44230868150193919 0.36826604856646089 0 0.44220776025527608 0.37862314483746179 0 0.44994402797188698 0.37815538143855693 0 0.5 0.37888216841833311 0 0.47567916917184971 0.41904221269264208 0 0.47351615800888042 0.44602814179509381 0 0.44220776025527608 0.37862314483746179 0 0.43851748407318031 0.38213542930061573 0 0.44540347554629128 0.38568315012245152 0 0.43851748407318031 0.38213542930061573 0 0.44353090875766282 0.38943729070763933 0 0.44181657319589662 0.39252520871012808 0 0.44353090875766282 0.38943729070763933 0 0.44540347554629128 0.38568315012245152 0 0.44591410351479432 0.3910517936999155 0 0.43851748407318031 0.38213542930061573 0 0.44353090875766282 0.38943729070763933 0 0.44540347554629128 0.38568315012245152 0 0.44540347554629128 0.38568315012245152 0 0.44994402797188698 0.37815538143855693 0 0.45081490803004698 0.39080042623198408 0 0.44540347554629128 0.38568315012245152 0 0.44591410351479432 0.3910517936999155 0 0.45081490803004698 0.39080042623198408 0 0.44220776025527608 0.37862314483746179 0 0.44540347554629128 0.38568315012245152 0 0.44994402797188698 0.37815538143855693 0 0.43506132715212797 0.40328330369235871 0 0.44145333792288072 0.39913598385380472 0 0.44554896502943442 0.40466956110993929 0 0.44145333792288072 0.39913598385380472 0 0.44437228485511793 0.39521710577541891 0 0.44554896502943442 0.40466956110993929 0 0.43506132715212797 0.40328330369235871 0 0.44145333792288072 0.39913598385380472 0 0.43845519347658191 0.39739427032023122 0 0.44145333792288072 0.39913598385380472 0 0.44437228485511793 0.39521710577541891 0 0.44139338769890829 0.39576566111519668 0 0.44145333792288072 0.39913598385380472 0 0.43845519347658191 0.39739427032023122 0 0.44139338769890829 0.39576566111519668 0 0.43612927963231107 0.39458395221612919 0 0.43845519347658191 0.39739427032023122 0 0.43965178334294808 0.39488072828846132 0 0.43845519347658191 0.39739427032023122 0 0.44139338769890829 0.39576566111519668 0 0.43965178334294808 0.39488072828846132 0 0.43612927963231107 0.39458395221612919 0 0.43965178334294808 0.39488072828846132 0 0.44181657319589662 0.39252520871012808 0 0.44139338769890829 0.39576566111519668 0 0.43965178334294808 0.39488072828846132 0 0.44181657319589662 0.39252520871012808 0 0.44353090875766282 0.38943729070763933 0 0.44181657319589662 0.39252520871012808 0 0.44334592813486912 0.3930870811882351 0 0.44437228485511793 0.39521710577541891 0 0.44334592813486912 0.3930870811882351 0 0.44591410351479432 0.3910517936999155 0 0.44437228485511793 0.39521710577541891 0 0.44181657319589662 0.39252520871012808 0 0.44437228485511793 0.39521710577541891 0 0.44181657319589662 0.39252520871012808 0 0.44334592813486912 0.3930870811882351 0 0.44437228485511793 0.39521710577541891 0 0.44139338769890829 0.39576566111519668 0 0.44181657319589662 0.39252520871012808 0 0.44181657319589662 0.39252520871012808 0 0.44334592813486912 0.3930870811882351 0 0.44353090875766282 0.38943729070763933 0 0.44334592813486912 0.3930870811882351 0 0.44591410351479432 0.3910517936999155 0 0.44437228485511793 0.39521710577541891 0 0.45081490803004698 0.39080042623198408 0 0.45575798891954378 0.40246991534294541 0 0.44437228485511793 0.39521710577541891 0 0.44591410351479432 0.3910517936999155 0 0.45081490803004698 0.39080042623198408 0 0.44437228485511793 0.39521710577541891 0 0.44554896502943442 0.40466956110993929 0 0.45575798891954378 0.40246991534294541 0 0.45081490803004698 0.39080042623198408 0 0.45575798891954378 0.40246991534294541 0 0.46627473617504561 0.3827569414080173 0 0.44994402797188698 0.37815538143855693 0 0.45081490803004698 0.39080042623198408 0 0.46627473617504561 0.3827569414080173 0 0.46627473617504561 0.3827569414080173 0 0.5 0.37888216841833311 0 0.47567916917184971 0.41904221269264208 0 0.47567916917184971 0.41904221269264208 0 0.47351615800888042 0.44602814179509381 0 0.47567916917184971 0.41904221269264208 0 0.45357876484554971 0.41896766236135341 0 0.47351615800888042 0.44602814179509381 0 0.45357876484554971 0.41896766236135341 0 0.44126423557245409 0.44130971302256311 0 0.47351615800888042 0.44602814179509381 0 0.45575798891954378 0.40246991534294541 0 0.47567916917184971 0.41904221269264208 0 0.45357876484554971 0.41896766236135341 0 0.44554896502943442 0.40466956110993929 0 0.45575798891954378 0.40246991534294541 0 0.45357876484554971 0.41896766236135341 0 0.44554896502943442 0.40466956110993929 0 0.45357876484554971 0.41896766236135341 0 0.43894692717358119 0.41750080902383241 0 0.43506132715212797 0.40328330369235871 0 0.44554896502943442 0.40466956110993929 0 0.43894692717358119 0.41750080902383241 0 0.45357876484554971 0.41896766236135341 0 0.43894692717358119 0.41750080902383241 0 0.44126423557245409 0.44130971302256311 0 0.44126423557245409 0.44130971302256311 0 0.45642696158719631 0.4608104813477012 0 0.47351615800888042 0.44602814179509381 0 0.5 0.37888216841833311 0 0.47351615800888042 0.44602814179509381 0 0.5 0.5 0 0.44126423557245409 0.44130971302256311 0 0.43883392697041451 0.46697099783680651 0 0.45642696158719631 0.4608104813477012 0 0.45642696158719631 0.4608104813477012 0 0.47351615800888042 0.44602814179509381 0 0.47135314684591112 0.47301407089754571 0 0.47351615800888042 0.44602814179509381 0 0.47135314684591112 0.47301407089754571 0 0.47351615800888042 0.44602814179509381 0 0.5 0.5 0 0.47135314684591112 0.47301407089754571 0 0.47135314684591112 0.47301407089754571 0 0.46919013568294199 0.49999999999999722 0 0.5 0.5 0 0.47135314684591112 0.47301407089754571 0 0.46919013568294199 0.49999999999999722 0 0.47135314684591112 0.47301407089754571 0 0.46919013568294199 0.49999999999999722 0 0.45462283079209331 0.4807905320027801 0 0.46919013568294199 0.49999999999999722 0 0.45462283079209331 0.4807905320027801 0 0.44059557660415832 0.5 0 0.43883392697041451 0.46697099783680651 0 0.45462283079209331 0.4807905320027801 0 0.44059557660415832 0.5 0 0.45642696158719631 0.4608104813477012 0 0.47135314684591112 0.47301407089754571 0 0.45462283079209331 0.4807905320027801 0 0.43883392697041451 0.46697099783680651 0 0.45642696158719631 0.4608104813477012 0 0.45462283079209331 0.4807905320027801 0 0.43883392697041451 0.46697099783680651 0 0.44059557660415832 0.5 0 0.4181844675358366 0.47874183199042791 0 0.44059557660415832 0.5 0 0.41200101752537449 0.5 0 0.4181844675358366 0.47874183199042791 0 0.41200101752537449 0.5 0 0.4181844675358366 0.47874183199042791 0 0.39770373798598302 0.48601342830766131 0 0.43883392697041451 0.46697099783680651 0 0.4181844675358366 0.47874183199042791 0 0.41821856941480201 0.45746676847185153 0 0.44126423557245409 0.44130971302256311 0 0.43883392697041451 0.46697099783680651 0 0.41821856941480201 0.45746676847185153 0 0.44126423557245409 0.44130971302256311 0 0.42251030666146361 0.43820369324743752 0 0.41821856941480201 0.45746676847185153 0 0.42251030666146361 0.43820369324743752 0 0.41821856941480201 0.45746676847185153 0 0.39508334512184229 0.44381760115017038 0 0.4181844675358366 0.47874183199042791 0 0.41821856941480201 0.45746676847185153 0 0.39341431668607529 0.46653476520045029 0 0.41821856941480201 0.45746676847185153 0 0.39341431668607529 0.46653476520045029 0 0.39508334512184229 0.44381760115017038 0 0.36531614909333571 0.45502114096090968 0 0.3744218206881802 0.42928844274333611 0 0.39508334512184229 0.44381760115017038 0 0.36531614909333571 0.45502114096090968 0 0.39341431668607529 0.46653476520045029 0 0.39508334512184229 0.44381760115017038 0 0.37376662332152139 0.48018370270074168 0 0.36531614909333571 0.45502114096090968 0 0.39341431668607529 0.46653476520045029 0 0.37376662332152139 0.48018370270074168 0 0.39341431668607529 0.46653476520045029 0 0.39770373798598302 0.48601342830766131 0 0.37376662332152139 0.48018370270074168 0 0.38340645844659083 0.5 0 0.39770373798598302 0.48601342830766131 0 0.41200101752537449 0.5 0 0.38340645844659083 0.5 0 0.39770373798598302 0.48601342830766131 0 0.4181844675358366 0.47874183199042791 0 0.39341431668607529 0.46653476520045029 0 0.39770373798598302 0.48601342830766131 0 0.32338655691961921 0.075483850939818853 0 0.34486840300724109 0.094463766014685674 0 0.34473995024110993 0.073339070652109539 0 0.32338655691961921 0.075483850939818853 0 0.32353323202915252 0.1028215681666637 0 0.34486840300724109 0.094463766014685674 0 0.32338655691961921 0.075483850939818853 0 0.34473995024110993 0.073339070652109539 0 0.34056912033128067 0.056348057004342908 0 0.32338655691961921 0.075483850939818853 0 0.32353323202915252 0.1028215681666637 0 0.30574107979710241 0.084377937965765606 0 0.32338655691961921 0.075483850939818853 0 0.32353323202915252 0.1028215681666637 0 0.32353323202915252 0.1028215681666637 0 0.30491399996718532 0.1052951232393973 0 0.32367990713868777 0.1301592853935086 0 0.32353323202915252 0.1028215681666637 0 0.32367990713868777 0.1301592853935086 0 0.32353323202915252 0.1028215681666637 0 0.33825913861463958 0.1214378614392415 0 0.341479507728573 0.1081234689187443 0 0.32353323202915252 0.1028215681666637 0 0.33825913861463958 0.1214378614392415 0 0.32367990713868777 0.1301592853935086 0 0.32353323202915252 0.1028215681666637 0 0.341479507728573 0.1081234689187443 0 0.34486840300724109 0.094463766014685674 0 0.34486840300724109 0.094463766014685674 0 0.35369024805077609 0.11433166078140231 0 0.3653231397043421 0.1008081875532487 0 0.341479507728573 0.1081234689187443 0 0.34486840300724109 0.094463766014685674 0 0.35369024805077609 0.11433166078140231 0 0.33825913861463958 0.1214378614392415 0 0.35369024805077609 0.11433166078140231 0 0.34926082809822961 0.1253985664324789 0 0.33825913861463958 0.1214378614392415 0 0.341479507728573 0.1081234689187443 0 0.35369024805077609 0.11433166078140231 0 0.35369024805077609 0.11433166078140231 0 0.34926082809822961 0.1253985664324789 0 0.36054651089251322 0.1282363271596958 0 0.35369024805077609 0.11433166078140231 0 0.3661226552269391 0.1132609741116027 0 0.36054651089251322 0.1282363271596958 0 0.35369024805077609 0.11433166078140231 0 0.3661226552269391 0.1132609741116027 0 0.3653231397043421 0.1008081875532487 0 0.3661226552269391 0.1132609741116027 0 0.36054651089251322 0.1282363271596958 0 0.3755744492651602 0.1220069314386624 0 0.3661226552269391 0.1132609741116027 0 0.3653231397043421 0.1008081875532487 0 0.38344366927837692 0.104630423762824 0 0.35369024805077609 0.11433166078140231 0 0.3653231397043421 0.1008081875532487 0 0.3653231397043421 0.1008081875532487 0 0.37695603135790751 0.087284714325094465 0 0.3653231397043421 0.1008081875532487 0 0.36331912427984109 0.084080661822106703 0 0.37695603135790751 0.087284714325094465 0 0.36331912427984109 0.084080661822106703 0 0.37378819741023128 0.073130933118814218 0 0.37695603135790751 0.087284714325094465 0 0.36331912427984109 0.084080661822106703 0 0.37695603135790751 0.087284714325094465 0 0.34486840300724109 0.094463766014685674 0 0.36331912427984109 0.084080661822106703 0 0.34473995024110993 0.073339070652109539 0 0.34486840300724109 0.094463766014685674 0 0.3653231397043421 0.1008081875532487 0 0.36331912427984109 0.084080661822106703 0 0.36331912427984109 0.084080661822106703 0 0.34473995024110993 0.073339070652109539 0 0.35830560505858938 0.069171671463323869 0 0.34473995024110993 0.073339070652109539 0 0.35830560505858938 0.069171671463323869 0 0.34056912033128067 0.056348057004342908 0 0.35830560505858938 0.069171671463323869 0 0.37378819741023128 0.073130933118814218 0 0.36905271651523941 0.063633430346783218 0 0.36331912427984109 0.084080661822106703 0 0.35830560505858938 0.069171671463323869 0 0.37378819741023128 0.073130933118814218 0 0.37378819741023128 0.073130933118814218 0 0.36905271651523941 0.063633430346783218 0 0.37945979803925978 0.062804002402409617 0 0.35830560505858938 0.069171671463323869 0 0.36905271651523941 0.063633430346783218 0 0.35780846584728399 0.053391898964225727 0 0.37350668529943409 0.051089696320389899 0 0.36444898725624753 0.039326195135703582 0 0.35780846584728399 0.053391898964225727 0 0.36905271651523941 0.063633430346783218 0 0.37350668529943409 0.051089696320389899 0 0.35780846584728399 0.053391898964225727 0 0.36905271651523941 0.063633430346783218 0 0.37350668529943409 0.051089696320389899 0 0.37945979803925978 0.062804002402409617 0 0.37350668529943409 0.051089696320389899 0 0.36444898725624753 0.039326195135703582 0 0.37834826788751008 0.029933764889754182 0 0.36444898725624753 0.039326195135703582 0 0.34976969041502892 0.02755321729158931 0 0.37834826788751008 0.029933764889754182 0 0.36444898725624753 0.039326195135703582 0 0.35780846584728399 0.053391898964225727 0 0.34976969041502892 0.02755321729158931 0 0.35780846584728399 0.053391898964225727 0 0.34976969041502892 0.02755321729158931 0 0.34056912033128067 0.056348057004342908 0 0.35830560505858938 0.069171671463323869 0 0.35780846584728399 0.053391898964225727 0 0.34056912033128067 0.056348057004342908 0 0.36786468483882317 0.003358404526962146 0 0.35517632518056302 0.012708339223962049 0 0.37834826788751008 0.029933764889754182 0 0.36786468483882317 0.003358404526962146 0 0.37834826788751008 0.029933764889754182 0 0.34976969041502892 0.02755321729158931 0 0.35517632518056302 0.012708339223962049 0 0.37834826788751008 0.029933764889754182 0 0.34976969041502892 0.02755321729158931 0 0.35517632518056302 0.012708339223962049 0 0.33815796160943612 0.01066384968016057 0 0.35517632518056302 0.012708339223962049 0 0.33815796160943612 0.01066384968016057 0 0.34577970100824962 -0.003284887659809175 0 0.36786468483882317 0.003358404526962146 0 0.35517632518056302 0.012708339223962049 0 0.34577970100824962 -0.003284887659809175 0 0.33815796160943612 0.01066384968016057 0 0.34577970100824962 -0.003284887659809175 0 0.32294653159101888 -0.006529300740715227 0 0.34976969041502892 0.02755321729158931 0 0.33815796160943612 0.01066384968016057 0 0.3230932067005523 0.020808416486129439 0 0.3230932067005523 0.020808416486129439 0 0.32294653159101888 -0.006529300740715227 0 0.33815796160943612 0.01066384968016057 0 0.3230932067005523 0.020808416486129439 0 0.32294653159101888 -0.006529300740715227 0 0.3230932067005523 0.020808416486129439 0 0.3088696369995102 0.00959182426317437 0 0.32294653159101888 -0.006529300740715227 0 0.32338655691961921 0.075483850939818853 0 0.34056912033128067 0.056348057004342908 0 0.32323988181008573 0.04814613371297416 0 0.34976969041502892 0.02755321729158931 0 0.3230932067005523 0.020808416486129439 0 0.32323988181008573 0.04814613371297416 0 0.34976969041502892 0.02755321729158931 0 0.34056912033128067 0.056348057004342908 0 0.32323988181008573 0.04814613371297416 0 0.3230932067005523 0.020808416486129439 0 0.32323988181008573 0.04814613371297416 0 0.30493406741591123 0.026242938488603179 0 0.3230932067005523 0.020808416486129439 0 0.32323988181008573 0.04814613371297416 0 0.32338655691961921 0.075483850939818853 0 0.32323988181008573 0.04814613371297416 0 0.32338655691961921 0.075483850939818853 0 0.32323988181008573 0.04814613371297416 0 0.30290486799167621 0.060391353330684523 0 0.32323988181008573 0.04814613371297416 0 0.30290486799167621 0.060391353330684523 0 0.29521235176041749 0.042997744577488513 0 0.32323988181008573 0.04814613371297416 0 0.29521235176041749 0.042997744577488513 0 0.30493406741591123 0.026242938488603179 0 0.29521235176041749 0.042997744577488513 0 0.28610206188385562 0.025627234820857259 0 0.27734754966403091 0.038057516219222307 0 0.29521235176041749 0.042997744577488513 0 0.27776331809639648 0.058682106085880849 0 0.27734754966403091 0.038057516219222307 0 0.29521235176041749 0.042997744577488513 0 0.30493406741591123 0.026242938488603179 0 0.28610206188385562 0.025627234820857259 0 0.30290486799167621 0.060391353330684523 0 0.29521235176041749 0.042997744577488513 0 0.27776331809639648 0.058682106085880849 0 0.3088696369995102 0.00959182426317437 0 0.29319248535186038 0.011293265119685829 0 0.30018189393820832 -0.0038561980378313812 0 0.3230932067005523 0.020808416486129439 0 0.3088696369995102 0.00959182426317437 0 0.30493406741591123 0.026242938488603179 0 0.3088696369995102 0.00959182426317437 0 0.30493406741591123 0.026242938488603179 0 0.29319248535186038 0.011293265119685829 0 0.28610206188385562 0.025627234820857259 0 0.29319248535186038 0.011293265119685829 0 0.27639549678227437 0.010939631611838819 0 0.30493406741591123 0.026242938488603179 0 0.28610206188385562 0.025627234820857259 0 0.29319248535186038 0.011293265119685829 0 0.29319248535186038 0.011293265119685829 0 0.27639549678227437 0.010939631611838819 0 0.2836309234320703 -0.01068997771329596 0 0.27639549678227437 0.010939631611838819 0 0.26953042032863911 0.024232312908304899 0 0.25999108388868258 0.01144962762614974 0 0.27639549678227437 0.010939631611838819 0 0.25999108388868258 0.01144962762614974 0 0.26694629184387419 -0.0057623965805192346 0 0.28610206188385562 0.025627234820857259 0 0.27639549678227437 0.010939631611838819 0 0.26953042032863911 0.024232312908304899 0 0.28610206188385562 0.025627234820857259 0 0.26953042032863911 0.024232312908304899 0 0.27734754966403091 0.038057516219222307 0 0.26953042032863911 0.024232312908304899 0 0.2591734757012697 0.023758003787458661 0 0.258640787491485 0.035559811858674843 0 0.24853161109627231 0.023790262756705181 0 0.2591734757012697 0.023758003787458661 0 0.258640787491485 0.035559811858674843 0 0.24853161109627231 0.023790262756705181 0 0.2591734757012697 0.023758003787458661 0 0.25999108388868258 0.01144962762614974 0 0.26953042032863911 0.024232312908304899 0 0.2591734757012697 0.023758003787458661 0 0.25999108388868258 0.01144962762614974 0 0.24630168148306139 0.0063678786522736869 0 0.24853161109627231 0.023790262756705181 0 0.25999108388868258 0.01144962762614974 0 0.24630168148306139 0.0063678786522736869 0 0.25999108388868258 0.01144962762614974 0 0.25219536379736601 -0.0066985404507094526 0 0.26695612292323961 0.047287413109346359 0 0.27776331809639648 0.058682106085880849 0 0.27734754966403091 0.038057516219222307 0 0.26695612292323961 0.047287413109346359 0 0.27776331809639648 0.058682106085880849 0 0.26236261652059661 0.0574000412514728 0 0.27776331809639648 0.058682106085880849 0 0.26236261652059661 0.0574000412514728 0 0.26511481325167507 0.067831543335650585 0 0.26953042032863911 0.024232312908304899 0 0.27734754966403091 0.038057516219222307 0 0.258640787491485 0.035559811858674843 0 0.26695612292323961 0.047287413109346359 0 0.27734754966403091 0.038057516219222307 0 0.258640787491485 0.035559811858674843 0 0.26695612292323961 0.047287413109346359 0 0.258640787491485 0.035559811858674843 0 0.2555053042261427 0.048332827107252049 0 0.24500910383362151 0.034452739384772342 0 0.24853161109627231 0.023790262756705181 0 0.258640787491485 0.035559811858674843 0 0.24888620373076961 0.042396610431623551 0 0.24500910383362151 0.034452739384772342 0 0.258640787491485 0.035559811858674843 0 0.24888620373076961 0.042396610431623551 0 0.258640787491485 0.035559811858674843 0 0.2555053042261427 0.048332827107252049 0 0.2555053042261427 0.048332827107252049 0 0.26236261652059661 0.0574000412514728 0 0.25071186858859212 0.057511580944188248 0 0.2454742261021734 0.049841505048206537 0 0.2555053042261427 0.048332827107252049 0 0.25071186858859212 0.057511580944188248 0 0.26695612292323961 0.047287413109346359 0 0.2555053042261427 0.048332827107252049 0 0.26236261652059661 0.0574000412514728 0 0.26236261652059661 0.0574000412514728 0 0.25071186858859212 0.057511580944188248 0 0.255045197248224 0.065599831429916988 0 0.246484843568023 0.063348635926204808 0 0.25071186858859212 0.057511580944188248 0 0.255045197248224 0.065599831429916988 0 0.2568898062187695 0.076001214276517806 0 0.26511481325167507 0.067831543335650585 0 0.27322767943556048 0.081130501463647267 0 0.24802215836849931 0.070680319635506431 0 0.255045197248224 0.065599831429916988 0 0.2568898062187695 0.076001214276517806 0 0.2498249339517854 0.083553344971119353 0 0.24802215836849931 0.070680319635506431 0 0.2568898062187695 0.076001214276517806 0 0.26236261652059661 0.0574000412514728 0 0.255045197248224 0.065599831429916988 0 0.26511481325167507 0.067831543335650585 0 0.255045197248224 0.065599831429916988 0 0.2568898062187695 0.076001214276517806 0 0.26511481325167507 0.067831543335650585 0 0.2568898062187695 0.076001214276517806 0 0.26266326620532621 0.087236972889192174 0 0.27322767943556048 0.081130501463647267 0 0.2498249339517854 0.083553344971119353 0 0.26266326620532621 0.087236972889192174 0 0.26326898154832451 0.1022095845521563 0 0.2498249339517854 0.083553344971119353 0 0.26326898154832451 0.1022095845521563 0 0.24858712997760121 0.094839990787380729 0 0.2498249339517854 0.083553344971119353 0 0.26326898154832451 0.1022095845521563 0 0.2498249339517854 0.083553344971119353 0 0.2568898062187695 0.076001214276517806 0 0.26266326620532621 0.087236972889192174 0 0.27010492987219081 0.093290219182520145 0 0.27322767943556048 0.081130501463647267 0 0.28025002649933639 0.10087060705068381 0 0.27322767943556048 0.081130501463647267 0 0.29026055409455243 0.088998351648256369 0 0.28025002649933639 0.10087060705068381 0 0.26266326620532621 0.087236972889192174 0 0.27010492987219081 0.093290219182520145 0 0.27322767943556048 0.081130501463647267 0 0.27776331809639648 0.058682106085880849 0 0.27322767943556048 0.081130501463647267 0 0.28944726778042901 0.073277380469773085 0 0.27776331809639648 0.058682106085880849 0 0.26511481325167507 0.067831543335650585 0 0.27322767943556048 0.081130501463647267 0 0.30290486799167621 0.060391353330684523 0 0.27776331809639648 0.058682106085880849 0 0.28944726778042901 0.073277380469773085 0 0.28944726778042901 0.073277380469773085 0 0.29026055409455243 0.088998351648256369 0 0.30574107979710241 0.084377937965765606 0 0.27322767943556048 0.081130501463647267 0 0.28944726778042901 0.073277380469773085 0 0.29026055409455243 0.088998351648256369 0 0.29026055409455243 0.088998351648256369 0 0.30574107979710241 0.084377937965765606 0 0.30491399996718532 0.1052951232393973 0 0.32338655691961921 0.075483850939818853 0 0.30290486799167621 0.060391353330684523 0 0.30574107979710241 0.084377937965765606 0 0.30290486799167621 0.060391353330684523 0 0.28944726778042901 0.073277380469773085 0 0.30574107979710241 0.084377937965765606 0 0.30267239406395091 0.1240169012493892 0 0.30491399996718532 0.1052951232393973 0 0.32367990713868777 0.1301592853935086 0 0.29717506972393692 0.1224095392669854 0 0.30267239406395091 0.1240169012493892 0 0.30491399996718532 0.1052951232393973 0 0.29717506972393692 0.1224095392669854 0 0.30267239406395091 0.1240169012493892 0 0.32353323202915252 0.1028215681666637 0 0.30574107979710241 0.084377937965765606 0 0.30491399996718532 0.1052951232393973 0 0.29026055409455243 0.088998351648256369 0 0.30491399996718532 0.1052951232393973 0 0.28025002649933639 0.10087060705068381 0 0.30267239406395091 0.1240169012493892 0 0.27929715121569809 0.12562873811730049 0 0.29717506972393692 0.1224095392669854 0 0.30491399996718532 0.1052951232393973 0 0.28025002649933639 0.10087060705068381 0 0.29717506972393692 0.1224095392669854 0 0.2706702323091858 0.1146597931404626 0 0.27929715121569809 0.12562873811730049 0 0.29717506972393692 0.1224095392669854 0 0.30267239406395091 0.1240169012493892 0 0.27929715121569809 0.12562873811730049 0 0.29717506972393692 0.1224095392669854 0 0.2706702323091858 0.1146597931404626 0 0.29717506972393692 0.1224095392669854 0 0.2706702323091858 0.1146597931404626 0 0.28025002649933639 0.10087060705068381 0 0.2706702323091858 0.1146597931404626 0 0.2560054745136684 0.12695477115591469 0 0.27929715121569809 0.12562873811730049 0 0.2706702323091858 0.1146597931404626 0 0.28025002649933639 0.10087060705068381 0 0.26326898154832451 0.1022095845521563 0 0.27010492987219081 0.093290219182520145 0 0.28025002649933639 0.10087060705068381 0 0.26326898154832451 0.1022095845521563 0 0.24858712997760121 0.094839990787380729 0 0.2441653948944352 0.10691004701393871 0 0.26326898154832451 0.1022095845521563 0 0.2441653948944352 0.10691004701393871 0 0.2706702323091858 0.1146597931404626 0 0.26326898154832451 0.1022095845521563 0 0.26266326620532621 0.087236972889192174 0 0.27010492987219081 0.093290219182520145 0 0.26326898154832451 0.1022095845521563 0 0.24603526103522361 0.1122539454401394 0 0.2441653948944352 0.10691004701393871 0 0.2706702323091858 0.1146597931404626 0 0.24603526103522361 0.1122539454401394 0 0.2706702323091858 0.1146597931404626 0 0.2560054745136684 0.12695477115591469 0 0.2441653948944352 0.10691004701393871 0 0.2706702323091858 0.1146597931404626 0 0.2403825599810655 0.1444031426134452 0 0.25297009627776379 0.12712758017593651 0 0.25784944680691729 0.13834195689761539 0 0.25297009627776379 0.12712758017593651 0 0.2560054745136684 0.12695477115591469 0 0.25297009627776379 0.12712758017593651 0 0.25784944680691729 0.13834195689761539 0 0.26757714550956718 0.1309296573359047 0 0.25297009627776379 0.12712758017593651 0 0.2560054745136684 0.12695477115591469 0 0.26757714550956718 0.1309296573359047 0 0.25297009627776379 0.12712758017593651 0 0.26757714550956718 0.1309296573359047 0 0.2560054745136684 0.12695477115591469 0 0.26757714550956718 0.1309296573359047 0 0.25784944680691729 0.13834195689761539 0 0.26757714550956718 0.1309296573359047 0 0.27723549753811227 0.14500434693943001 0 0.26757714550956718 0.1309296573359047 0 0.27723549753811227 0.14500434693943001 0 0.29568239062687451 0.1405838507917728 0 0.27929715121569809 0.12562873811730049 0 0.26757714550956718 0.1309296573359047 0 0.29566982544470433 0.1382419169886718 0 0.2560054745136684 0.12695477115591469 0 0.27929715121569809 0.12562873811730049 0 0.2560054745136684 0.12695477115591469 0 0.27929715121569809 0.12562873811730049 0 0.26757714550956718 0.1309296573359047 0 0.27723549753811227 0.14500434693943001 0 0.26096543654305238 0.15016823758117701 0 0.27837497462076188 0.16420619716163209 0 0.25784944680691729 0.13834195689761539 0 0.27723549753811227 0.14500434693943001 0 0.26096543654305238 0.15016823758117701 0 0.2403825599810655 0.1444031426134452 0 0.25784944680691729 0.13834195689761539 0 0.26096543654305238 0.15016823758117701 0 0.26096543654305238 0.15016823758117701 0 0.25178330512113389 0.17827525702852451 0 0.27837497462076188 0.16420619716163209 0 0.2403825599810655 0.1444031426134452 0 0.26096543654305238 0.15016823758117701 0 0.25178330512113389 0.17827525702852451 0 0.26096543654305238 0.15016823758117701 0 0.25178330512113389 0.17827525702852451 0 0.25178330512113389 0.17827525702852451 0 0.27837497462076188 0.16420619716163209 0 0.26891167048634101 0.18841489611107301 0 0.27837497462076188 0.16420619716163209 0 0.28918554534456331 0.18518899100939171 0 0.26891167048634101 0.18841489611107301 0 0.27837497462076188 0.16420619716163209 0 0.30317103394204742 0.1663529678237626 0 0.29568239062687451 0.1405838507917728 0 0.27837497462076188 0.16420619716163209 0 0.28918554534456331 0.18518899100939171 0 0.30317103394204742 0.1663529678237626 0 0.28918554534456331 0.18518899100939171 0 0.30815344667436562 0.18522622420573201 0 0.30317103394204742 0.1663529678237626 0 0.30815344667436562 0.18522622420573201 0 0.30317103394204742 0.1663529678237626 0 0.32391069301361919 0.17317380236879401 0 0.30317103394204742 0.1663529678237626 0 0.29568239062687451 0.1405838507917728 0 0.32378763574418162 0.15023804424764159 0 0.29566982544470433 0.1382419169886718 0 0.3237625053798413 0.1455541766414396 0 0.29568239062687451 0.1405838507917728 0 0.32378763574418162 0.15023804424764159 0 0.29566982544470433 0.1382419169886718 0 0.29568239062687451 0.1405838507917728 0 0.3237625053798413 0.1455541766414396 0 0.30267239406395091 0.1240169012493892 0 0.29566982544470433 0.1382419169886718 0 0.32367990713868777 0.1301592853935086 0 0.26757714550956718 0.1309296573359047 0 0.29566982544470433 0.1382419169886718 0 0.29568239062687451 0.1405838507917728 0 0.30267239406395091 0.1240169012493892 0 0.27929715121569809 0.12562873811730049 0 0.29566982544470433 0.1382419169886718 0 0.26757714550956718 0.1309296573359047 0 0.29566982544470433 0.1382419169886718 0 0.26757714550956718 0.1309296573359047 0 0.29568239062687451 0.1405838507917728 0 0.27723549753811227 0.14500434693943001 0 0.27837497462076188 0.16420619716163209 0 0.29568239062687451 0.1405838507917728 0 0.26515898450982101 0.23844824607184231 0 0.2947194246658788 0.24021466140205591 0 0.26259384375194478 0.2414164529226816 0 0.28550333479887408 0.24204083489419101 0 0.2725878999537022 0.24772681559853921 0 0.26259384375194478 0.2414164529226816 0 0.28550333479887408 0.24204083489419101 0 0.26515898450982101 0.23844824607184231 0 0.26259384375194478 0.2414164529226816 0 0.28550333479887408 0.24204083489419101 0 0.27885912889025721 0.249419559427452 0 0.2725878999537022 0.24772681559853921 0 0.28550333479887408 0.24204083489419101 0 0.2725878999537022 0.24772681559853921 0 0.26392899044334139 0.24984289055140321 0 0.26259384375194478 0.2414164529226816 0 0.25822886967006409 0.24784996208995541 0 0.26392899044334139 0.24984289055140321 0 0.26259384375194478 0.2414164529226816 0 0.23559854435376329 0.23668183074162821 0 0.26515898450982101 0.23844824607184231 0 0.23968435270501551 0.24079207095117161 0 0.26259384375194478 0.2414164529226816 0 0.23968435270501551 0.24079207095117161 0 0.25101200242116428 0.24576759366761389 0 0.26259384375194478 0.2414164529226816 0 0.23968435270501551 0.24079207095117161 0 0.26515898450982101 0.23844824607184231 0 0.26259384375194478 0.2414164529226816 0 0.25822886967006409 0.24784996208995541 0 0.25101200242116428 0.24576759366761389 0 0.26259384375194478 0.2414164529226816 0 0.2468455111910782 0.22332217668025431 0 0.26515898450982101 0.23844824607184231 0 0.27140444449161222 0.21018326231566961 0 0.26515898450982101 0.23844824607184231 0 0.27140444449161222 0.21018326231566961 0 0.28669518738512828 0.222502128805495 0 0.24260117369921549 0.2063822764758719 0 0.2468455111910782 0.22332217668025431 0 0.27140444449161222 0.21018326231566961 0 0.24260117369921549 0.2063822764758719 0 0.27140444449161222 0.21018326231566961 0 0.26891167048634101 0.18841489611107301 0 0.24260117369921549 0.2063822764758719 0 0.25178330512113389 0.17827525702852451 0 0.26891167048634101 0.18841489611107301 0 0.28918554534456331 0.18518899100939171 0 0.27140444449161222 0.21018326231566961 0 0.26891167048634101 0.18841489611107301 0 0.28918554534456331 0.18518899100939171 0 0.27140444449161222 0.21018326231566961 0 0.30079492617453218 0.2077024529802258 0 0.30815344667436562 0.18522622420573201 0 0.30079492617453218 0.2077024529802258 0 0.32403375028305897 0.19610956048994641 0 0.28918554534456331 0.18518899100939171 0 0.30815344667436562 0.18522622420573201 0 0.30079492617453218 0.2077024529802258 0 0.30079492617453218 0.2077024529802258 0 0.28669518738512828 0.222502128805495 0 0.30653985254399257 0.2255997612405021 0 0.30079492617453218 0.2077024529802258 0 0.30653985254399257 0.2255997612405021 0 0.32415680755249882 0.21904531861109869 0 0.27140444449161222 0.21018326231566961 0 0.30079492617453218 0.2077024529802258 0 0.28669518738512828 0.222502128805495 0 0.28669518738512828 0.222502128805495 0 0.30653985254399257 0.2255997612405021 0 0.2947194246658788 0.24021466140205591 0 0.26515898450982101 0.23844824607184231 0 0.28669518738512828 0.222502128805495 0 0.2947194246658788 0.24021466140205591 0 0.2947194246658788 0.24021466140205591 0 0.32427986482193738 0.241981076732251 0 0.30653985254399257 0.2255997612405021 0 0.2947194246658788 0.24021466140205591 0 0.32427986482193738 0.241981076732251 0 0.30841282584580332 0.24266521686570039 0 0.2947194246658788 0.24021466140205591 0 0.32427986482193738 0.241981076732251 0 0.30841282584580332 0.24266521686570039 0 0.28550333479887408 0.24204083489419101 0 0.29661091264573047 0.25116560552523309 0 0.30936661842828428 0.25577625558603351 0 0.30841282584580332 0.24266521686570039 0 0.30841282584580332 0.24266521686570039 0 0.2947194246658788 0.24021466140205591 0 0.28550333479887408 0.24204083489419101 0 0.26515898450982101 0.23844824607184231 0 0.2947194246658788 0.24021466140205591 0 0.28550333479887408 0.24204083489419101 0 0.29661091264573047 0.25116560552523309 0 0.30841282584580332 0.24266521686570039 0 0.28550333479887408 0.24204083489419101 0 0.2858237347350282 0.25419181109229222 0 0.29661091264573047 0.25116560552523309 0 0.28550333479887408 0.24204083489419101 0 0.2858237347350282 0.25419181109229222 0 0.27885912889025721 0.249419559427452 0 0.28550333479887408 0.24204083489419101 0 0.34057239856006799 0.242954654297797 0 0.32427986482193738 0.241981076732251 0 0.3347735166638835 0.22898843123788371 0 0.34057239856006799 0.242954654297797 0 0.32427986482193738 0.241981076732251 0 0.33738320273473188 0.2584674133916291 0 0.34057239856006799 0.242954654297797 0 0.32427986482193738 0.241981076732251 0 0.30936661842828428 0.25577625558603351 0 0.30841282584580332 0.24266521686570039 0 0.32427986482193738 0.241981076732251 0 0.30653985254399257 0.2255997612405021 0 0.32427986482193738 0.241981076732251 0 0.32415680755249882 0.21904531861109869 0 0.32427986482193738 0.241981076732251 0 0.32415680755249882 0.21904531861109869 0 0.32427986482193738 0.241981076732251 0 0.32415680755249882 0.21904531861109869 0 0.3347735166638835 0.22898843123788371 0 0.3347735166638835 0.22898843123788371 0 0.34421434072335089 0.20784304261138731 0 0.34846893832708731 0.22602903512784481 0 0.34057239856006799 0.242954654297797 0 0.3347735166638835 0.22898843123788371 0 0.34846893832708731 0.22602903512784481 0 0.32415680755249882 0.21904531861109869 0 0.3347735166638835 0.22898843123788371 0 0.34421434072335089 0.20784304261138731 0 0.32415680755249882 0.21904531861109869 0 0.32403375028305897 0.19610956048994641 0 0.34421434072335089 0.20784304261138731 0 0.30079492617453218 0.2077024529802258 0 0.32415680755249882 0.21904531861109869 0 0.32403375028305897 0.19610956048994641 0 0.32415680755249882 0.21904531861109869 0 0.32403375028305897 0.19610956048994641 0 0.32403375028305897 0.19610956048994641 0 0.34328083862273312 0.19146502357179149 0 0.34421434072335089 0.20784304261138731 0 0.32403375028305897 0.19610956048994641 0 0.34328083862273312 0.19146502357179149 0 0.33676831769272902 0.17992317079287221 0 0.34328083862273312 0.19146502357179149 0 0.35911807700048581 0.19576440187985389 0 0.35226970741404079 0.17768494208489771 0 0.34328083862273312 0.19146502357179149 0 0.35911807700048581 0.19576440187985389 0 0.34421434072335089 0.20784304261138731 0 0.35911807700048581 0.19576440187985389 0 0.37350736728908912 0.1906573370582321 0 0.36645253640686343 0.18078457809071469 0 0.35911807700048581 0.19576440187985389 0 0.37350736728908912 0.1906573370582321 0 0.37790088500025559 0.20670892213231201 0 0.35911807700048581 0.19576440187985389 0 0.36582364536931999 0.21912642199536869 0 0.37790088500025559 0.20670892213231201 0 0.34421434072335089 0.20784304261138731 0 0.34846893832708731 0.22602903512784481 0 0.36582364536931999 0.21912642199536869 0 0.34421434072335089 0.20784304261138731 0 0.36582364536931999 0.21912642199536869 0 0.35911807700048581 0.19576440187985389 0 0.34421434072335089 0.20784304261138731 0 0.36582364536931999 0.21912642199536869 0 0.34846893832708731 0.22602903512784481 0 0.36582364536931999 0.21912642199536869 0 0.35470611804495322 0.2392438013186397 0 0.36582364536931999 0.21912642199536869 0 0.36873656884902528 0.2458778915423398 0 0.38743295001528899 0.23040980137935019 0 0.35556752598711339 0.25943899486135957 0 0.36873656884902528 0.2458778915423398 0 0.35470611804495322 0.2392438013186397 0 0.36582364536931999 0.21912642199536869 0 0.36873656884902528 0.2458778915423398 0 0.35470611804495322 0.2392438013186397 0 0.35556752598711339 0.25943899486135957 0 0.34057239856006799 0.242954654297797 0 0.35470611804495322 0.2392438013186397 0 0.34057239856006799 0.242954654297797 0 0.34846893832708731 0.22602903512784481 0 0.35470611804495322 0.2392438013186397 0 0.3237625053798413 0.1455541766414396 0 0.34594018732949749 0.15132681810130649 0 0.33614157928348892 0.14283724443947229 0 0.3237625053798413 0.1455541766414396 0 0.34594018732949749 0.15132681810130649 0 0.33241018608914991 0.15319990310230799 0 0.3237625053798413 0.1455541766414396 0 0.34594018732949749 0.15132681810130649 0 0.33614157928348892 0.14283724443947229 0 0.33140352100351889 0.13852065531763899 0 0.3237625053798413 0.1455541766414396 0 0.33614157928348892 0.14283724443947229 0 0.34594018732949749 0.15132681810130649 0 0.34584345543616501 0.13663968253311781 0 0.33140352100351889 0.13852065531763899 0 0.32367990713868777 0.1301592853935086 0 0.34584345543616501 0.13663968253311781 0 0.33825913861463958 0.1214378614392415 0 0.32367990713868777 0.1301592853935086 0 0.34584345543616501 0.13663968253311781 0 0.33614157928348892 0.14283724443947229 0 0.33140352100351889 0.13852065531763899 0 0.34584345543616501 0.13663968253311781 0 0.32367990713868777 0.1301592853935086 0 0.34584345543616501 0.13663968253311781 0 0.30267239406395091 0.1240169012493892 0 0.32367990713868777 0.1301592853935086 0 0.33140352100351889 0.13852065531763899 0 0.32367990713868777 0.1301592853935086 0 0.3237625053798413 0.1455541766414396 0 0.32367990713868777 0.1301592853935086 0 0.3237625053798413 0.1455541766414396 0 0.29566982544470433 0.1382419169886718 0 0.32367990713868777 0.1301592853935086 0 0.3237625053798413 0.1455541766414396 0 0.29568239062687451 0.1405838507917728 0 0.3237625053798413 0.1455541766414396 0 0.32378763574418162 0.15023804424764159 0 0.3237625053798413 0.1455541766414396 0 0.32378763574418162 0.15023804424764159 0 0.33241018608914991 0.15319990310230799 0 0.32378763574418162 0.15023804424764159 0 0.33241018608914991 0.15319990310230799 0 0.3237625053798413 0.1455541766414396 0 0.32378763574418162 0.15023804424764159 0 0.33241018608914991 0.15319990310230799 0 0.32378763574418162 0.15023804424764159 0 0.32391069301361919 0.17317380236879401 0 0.32378763574418162 0.15023804424764159 0 0.32391069301361919 0.17317380236879401 0 0.30317103394204742 0.1663529678237626 0 0.32378763574418162 0.15023804424764159 0 0.32391069301361919 0.17317380236879401 0 0.32403375028305897 0.19610956048994641 0 0.32391069301361919 0.17317380236879401 0 0.30815344667436562 0.18522622420573201 0 0.32403375028305897 0.19610956048994641 0 0.32391069301361919 0.17317380236879401 0 0.32391069301361919 0.17317380236879401 0 0.33676831769272902 0.17992317079287221 0 0.34100466313223388 0.16623754489250589 0 0.32403375028305897 0.19610956048994641 0 0.32391069301361919 0.17317380236879401 0 0.33676831769272902 0.17992317079287221 0 0.33676831769272902 0.17992317079287221 0 0.34100466313223388 0.16623754489250589 0 0.35226970741404079 0.17768494208489771 0 0.33241018608914991 0.15319990310230799 0 0.32391069301361919 0.17317380236879401 0 0.34100466313223388 0.16623754489250589 0 0.33241018608914991 0.15319990310230799 0 0.34100466313223388 0.16623754489250589 0 0.34594018732949749 0.15132681810130649 0 0.34100466313223388 0.16623754489250589 0 0.35445942394518087 0.16413840113269129 0 0.34594018732949749 0.15132681810130649 0 0.35445942394518087 0.16413840113269129 0 0.36811786927915352 0.1570994595611743 0 0.34594018732949749 0.15132681810130649 0 0.34100466313223388 0.16623754489250589 0 0.35445942394518087 0.16413840113269129 0 0.35226970741404079 0.17768494208489771 0 0.35445942394518087 0.16413840113269129 0 0.35226970741404079 0.17768494208489771 0 0.3644355975437224 0.169019595753373 0 0.35911807700048581 0.19576440187985389 0 0.35226970741404079 0.17768494208489771 0 0.36645253640686343 0.18078457809071469 0 0.34328083862273312 0.19146502357179149 0 0.33676831769272902 0.17992317079287221 0 0.35226970741404079 0.17768494208489771 0 0.35226970741404079 0.17768494208489771 0 0.36645253640686343 0.18078457809071469 0 0.3644355975437224 0.169019595753373 0 0.36645253640686343 0.18078457809071469 0 0.37626474203569688 0.1712884111412496 0 0.37769923742022499 0.18189464525008039 0 0.36645253640686343 0.18078457809071469 0 0.3644355975437224 0.169019595753373 0 0.37626474203569688 0.1712884111412496 0 0.37350736728908912 0.1906573370582321 0 0.36645253640686343 0.18078457809071469 0 0.37769923742022499 0.18189464525008039 0 0.35445942394518087 0.16413840113269129 0 0.3644355975437224 0.169019595753373 0 0.36811786927915352 0.1570994595611743 0 0.3644355975437224 0.169019595753373 0 0.36811786927915352 0.1570994595611743 0 0.37626474203569688 0.1712884111412496 0 0.36811786927915352 0.1570994595611743 0 0.36800700373364198 0.14312007967272741 0 0.34594018732949749 0.15132681810130649 0 0.36811786927915352 0.1570994595611743 0 0.36800700373364198 0.14312007967272741 0 0.38216628382825713 0.15407440702550751 0 0.36800700373364198 0.14312007967272741 0 0.34594018732949749 0.15132681810130649 0 0.34584345543616501 0.13663968253311781 0 0.36811786927915352 0.1570994595611743 0 0.34594018732949749 0.15132681810130649 0 0.36800700373364198 0.14312007967272741 0 0.34584345543616501 0.13663968253311781 0 0.36054651089251322 0.1282363271596958 0 0.36800700373364198 0.14312007967272741 0 0.34584345543616501 0.13663968253311781 0 0.33825913861463958 0.1214378614392415 0 0.34926082809822961 0.1253985664324789 0 0.34584345543616501 0.13663968253311781 0 0.34926082809822961 0.1253985664324789 0 0.34584345543616501 0.13663968253311781 0 0.36054651089251322 0.1282363271596958 0 0.36800700373364198 0.14312007967272741 0 0.36054651089251322 0.1282363271596958 0 0.37128238607045949 0.13208055768875851 0 0.36800700373364198 0.14312007967272741 0 0.37128238607045949 0.13208055768875851 0 0.38195095006160212 0.1352330047450275 0 0.36054651089251322 0.1282363271596958 0 0.37128238607045949 0.13208055768875851 0 0.3755744492651602 0.1220069314386624 0 0.37128238607045949 0.13208055768875851 0 0.38195095006160212 0.1352330047450275 0 0.3755744492651602 0.1220069314386624 0 0.38195095006160212 0.1352330047450275 0 0.3755744492651602 0.1220069314386624 0 0.39028271812011561 0.1234526525397753 0 0.38195095006160212 0.1352330047450275 0 0.39552067738936791 0.138797772704851 0 0.39028271812011561 0.1234526525397753 0 0.39552067738936791 0.138797772704851 0 0.4053344918857581 0.12905682832534071 0 0.39028271812011561 0.1234526525397753 0 0.39552067738936791 0.138797772704851 0 0.39017055203111911 0.1496004768123371 0 0.40986467484824429 0.1566459011017742 0 0.39017055203111911 0.1496004768123371 0 0.39424044286856108 0.15767991806025661 0 0.40986467484824429 0.1566459011017742 0 0.39552067738936791 0.138797772704851 0 0.4053344918857581 0.12905682832534071 0 0.40986467484824429 0.1566459011017742 0 0.36800700373364198 0.14312007967272741 0 0.39017055203111911 0.1496004768123371 0 0.38216628382825713 0.15407440702550751 0 0.36800700373364198 0.14312007967272741 0 0.39017055203111911 0.1496004768123371 0 0.36800700373364198 0.14312007967272741 0 0.38195095006160212 0.1352330047450275 0 0.39017055203111911 0.1496004768123371 0 0.39017055203111911 0.1496004768123371 0 0.38216628382825713 0.15407440702550751 0 0.39424044286856108 0.15767991806025661 0 0.38195095006160212 0.1352330047450275 0 0.39552067738936791 0.138797772704851 0 0.39017055203111911 0.1496004768123371 0 0.36811786927915352 0.1570994595611743 0 0.38216628382825713 0.15407440702550751 0 0.3902955512288096 0.1628721010210421 0 0.36811786927915352 0.1570994595611743 0 0.37626474203569688 0.1712884111412496 0 0.3902955512288096 0.1628721010210421 0 0.36811786927915352 0.1570994595611743 0 0.3902955512288096 0.1628721010210421 0 0.37626474203569688 0.1712884111412496 0 0.3902955512288096 0.1628721010210421 0 0.38610077700141859 0.17765133440092309 0 0.38216628382825713 0.15407440702550751 0 0.3902955512288096 0.1628721010210421 0 0.39424044286856108 0.15767991806025661 0 0.3902955512288096 0.1628721010210421 0 0.38610077700141859 0.17765133440092309 0 0.39430636689469722 0.18222317253238829 0 0.37626474203569688 0.1712884111412496 0 0.37769923742022499 0.18189464525008039 0 0.38610077700141859 0.17765133440092309 0 0.37769923742022499 0.18189464525008039 0 0.38610077700141859 0.17765133440092309 0 0.38569045280418668 0.19127638630634011 0 0.38610077700141859 0.17765133440092309 0 0.39430636689469722 0.18222317253238829 0 0.38569045280418668 0.19127638630634011 0 0.3902955512288096 0.1628721010210421 0 0.39430636689469722 0.18222317253238829 0 0.40658274182088983 0.18475198235744861 0 0.39430636689469722 0.18222317253238829 0 0.40658274182088983 0.18475198235744861 0 0.39538005546271171 0.1926970827282494 0 0.39424044286856108 0.15767991806025661 0 0.40986467484824429 0.1566459011017742 0 0.40658274182088983 0.18475198235744861 0 0.3902955512288096 0.1628721010210421 0 0.39424044286856108 0.15767991806025661 0 0.40658274182088983 0.18475198235744861 0 0.39424044286856108 0.15767991806025661 0 0.40658274182088983 0.18475198235744861 0 0.40986467484824429 0.1566459011017742 0 0.42681877890921932 0.1567489256084772 0 0.42241887921557297 0.16981559342320179 0 0.40986467484824429 0.1566459011017742 0 0.4143948578107306 0.18423497387820759 0 0.40986467484824429 0.1566459011017742 0 0.4143948578107306 0.18423497387820759 0 0.42241887921557297 0.16981559342320179 0 0.40986467484824429 0.1566459011017742 0 0.40658274182088983 0.18475198235744861 0 0.4143948578107306 0.18423497387820759 0 0.4143948578107306 0.18423497387820759 0 0.4291708117720836 0.18331302455133799 0 0.42398699029568843 0.19447889340586749 0 0.4143948578107306 0.18423497387820759 0 0.4291708117720836 0.18331302455133799 0 0.42241887921557297 0.16981559342320179 0 0.4291708117720836 0.18331302455133799 0 0.42241887921557297 0.16981559342320179 0 0.43471917772809737 0.17003479183958681 0 0.42681877890921932 0.1567489256084772 0 0.42241887921557297 0.16981559342320179 0 0.43471917772809737 0.17003479183958681 0 0.42681877890921932 0.1567489256084772 0 0.42931324946388982 0.13901679328386449 0 0.45157265724474088 0.15734986773815671 0 0.40986467484824429 0.1566459011017742 0 0.42681877890921932 0.1567489256084772 0 0.42931324946388982 0.13901679328386449 0 0.42931324946388982 0.13901679328386449 0 0.43664584731353728 0.1179709525992557 0 0.42096846394234871 0.1241744890470986 0 0.4053344918857581 0.12905682832534071 0 0.42931324946388982 0.13901679328386449 0 0.42096846394234871 0.1241744890470986 0 0.4053344918857581 0.12905682832534071 0 0.40986467484824429 0.1566459011017742 0 0.42931324946388982 0.13901679328386449 0 0.4053344918857581 0.12905682832534071 0 0.40986467484824429 0.1566459011017742 0 0.38743295001528899 0.23040980137935019 0 0.40904225466125799 0.2416931807633316 0 0.38934578001878462 0.25392075763104482 0 0.38743295001528899 0.23040980137935019 0 0.40904225466125799 0.2416931807633316 0 0.38934578001878462 0.25392075763104482 0 0.36873656884902528 0.2458778915423398 0 0.38743295001528899 0.23040980137935019 0 0.36582364536931999 0.21912642199536869 0 0.38743295001528899 0.23040980137935019 0 0.38743295001528899 0.23040980137935019 0 0.4043654110014645 0.22428909461794691 0 0.39493848056090969 0.20710221004219559 0 0.38743295001528899 0.23040980137935019 0 0.4043654110014645 0.22428909461794691 0 0.40904225466125799 0.2416931807633316 0 0.39493848056090969 0.20710221004219559 0 0.39538005546271171 0.1926970827282494 0 0.41892504077321768 0.21182404665464091 0 0.4043654110014645 0.22428909461794691 0 0.39493848056090969 0.20710221004219559 0 0.41892504077321768 0.21182404665464091 0 0.36582364536931999 0.21912642199536869 0 0.38743295001528899 0.23040980137935019 0 0.37790088500025559 0.20670892213231201 0 0.38743295001528899 0.23040980137935019 0 0.39493848056090969 0.20710221004219559 0 0.37790088500025559 0.20670892213231201 0 0.37350736728908912 0.1906573370582321 0 0.37790088500025559 0.20670892213231201 0 0.38569045280418668 0.19127638630634011 0 0.39493848056090969 0.20710221004219559 0 0.37790088500025559 0.20670892213231201 0 0.38569045280418668 0.19127638630634011 0 0.37350736728908912 0.1906573370582321 0 0.37769923742022499 0.18189464525008039 0 0.38569045280418668 0.19127638630634011 0 0.39430636689469722 0.18222317253238829 0 0.38569045280418668 0.19127638630634011 0 0.39538005546271171 0.1926970827282494 0 0.39493848056090969 0.20710221004219559 0 0.38569045280418668 0.19127638630634011 0 0.39538005546271171 0.1926970827282494 0 0.40658274182088983 0.18475198235744861 0 0.39538005546271171 0.1926970827282494 0 0.41892504077321768 0.21182404665464091 0 0.4143948578107306 0.18423497387820759 0 0.42398699029568843 0.19447889340586749 0 0.41892504077321768 0.21182404665464091 0 0.4143948578107306 0.18423497387820759 0 0.41892504077321768 0.21182404665464091 0 0.40658274182088983 0.18475198235744861 0 0.41892504077321768 0.21182404665464091 0 0.40658274182088983 0.18475198235744861 0 0.4143948578107306 0.18423497387820759 0 0.41892504077321768 0.21182404665464091 0 0.4291708117720836 0.18331302455133799 0 0.42398699029568843 0.19447889340586749 0 0.43345725082672171 0.19854352853928339 0 0.42398699029568843 0.19447889340586749 0 0.43345725082672171 0.19854352853928339 0 0.41892504077321768 0.21182404665464091 0 0.43345725082672171 0.19854352853928339 0 0.43511683785718003 0.21775903147767031 0 0.41892504077321768 0.21182404665464091 0 0.4043654110014645 0.22428909461794691 0 0.41892504077321768 0.21182404665464091 0 0.41245855734755699 0.22978441680564701 0 0.41892504077321768 0.21182404665464091 0 0.42172519188605739 0.22887712673482599 0 0.4043654110014645 0.22428909461794691 0 0.41245855734755699 0.22978441680564701 0 0.40904225466125799 0.2416931807633316 0 0.41892504077321768 0.21182404665464091 0 0.41245855734755699 0.22978441680564701 0 0.42172519188605739 0.22887712673482599 0 0.41245855734755699 0.22978441680564701 0 0.42172519188605739 0.22887712673482599 0 0.41669527963571529 0.2367291871408462 0 0.43511683785718003 0.21775903147767031 0 0.41892504077321768 0.21182404665464091 0 0.43014667593833489 0.2364380047092168 0 0.41892504077321768 0.21182404665464091 0 0.42172519188605739 0.22887712673482599 0 0.43014667593833489 0.2364380047092168 0 0.41892504077321768 0.21182404665464091 0 0.43014667593833489 0.2364380047092168 0 0.43065155930722698 0.25297656014731312 0 0.43014667593833489 0.2364380047092168 0 0.42452534299889788 0.24593020681501099 0 0.42172519188605739 0.22887712673482599 0 0.43014667593833489 0.2364380047092168 0 0.42452534299889788 0.24593020681501099 0 0.44136831110345132 0.26105196276379311 0 0.43014667593833489 0.2364380047092168 0 0.42172519188605739 0.22887712673482599 0 0.42452534299889788 0.24593020681501099 0 0.42172519188605739 0.22887712673482599 0 0.42452534299889788 0.24593020681501099 0 0.41669527963571529 0.2367291871408462 0 0.43065155930722698 0.25297656014731312 0 0.42452534299889788 0.24593020681501099 0 0.40904225466125799 0.2416931807633316 0 0.43065155930722698 0.25297656014731312 0 0.40904225466125799 0.2416931807633316 0 0.42452534299889788 0.24593020681501099 0 0.41669527963571529 0.2367291871408462 0 0.40904225466125799 0.2416931807633316 0 0.41245855734755699 0.22978441680564701 0 0.41669527963571529 0.2367291871408462 0 0.40904225466125799 0.2416931807633316 0 0.5 0.25965274995772752 0 0.47219941651237751 0.1990296634595381 0 0.5 0.16664978928033439 0 0.46486075961764528 0.2440253591183783 0 0.44968719480507968 0.2471698486618242 0 0.44972768762160659 0.2295627088735849 0 0.44136831110345132 0.26105196276379311 0 0.43014667593833489 0.2364380047092168 0 0.44968719480507968 0.2471698486618242 0 0.43014667593833489 0.2364380047092168 0 0.44968719480507968 0.2471698486618242 0 0.44972768762160659 0.2295627088735849 0 0.43511683785718003 0.21775903147767031 0 0.44972768762160659 0.2295627088735849 0 0.44929115722721419 0.21129605263617909 0 0.43511683785718003 0.21775903147767031 0 0.43014667593833489 0.2364380047092168 0 0.44972768762160659 0.2295627088735849 0 0.46486075961764528 0.2440253591183783 0 0.44972768762160659 0.2295627088735849 0 0.46780086022103079 0.22642034961741289 0 0.44972768762160659 0.2295627088735849 0 0.46780086022103079 0.22642034961741289 0 0.44929115722721419 0.21129605263617909 0 0.46780086022103079 0.22642034961741289 0 0.44929115722721419 0.21129605263617909 0 0.47219941651237751 0.1990296634595381 0 0.43345725082672171 0.19854352853928339 0 0.43511683785718003 0.21775903147767031 0 0.44929115722721419 0.21129605263617909 0 0.4291708117720836 0.18331302455133799 0 0.43345725082672171 0.19854352853928339 0 0.44991710706211657 0.18322770998325091 0 0.43345725082672171 0.19854352853928339 0 0.44929115722721419 0.21129605263617909 0 0.44991710706211657 0.18322770998325091 0 0.44929115722721419 0.21129605263617909 0 0.47219941651237751 0.1990296634595381 0 0.44991710706211657 0.18322770998325091 0 0.5 0.25965274995772752 0 0.46486075961764528 0.2440253591183783 0 0.46780086022103079 0.22642034961741289 0 0.5 0.25965274995772752 0 0.46780086022103079 0.22642034961741289 0 0.47219941651237751 0.1990296634595381 0 0.5 0.16664978928033439 0 0.47708776678725973 0.1399902442952396 0 0.5 0.099852863980634976 0 0.45322820742736508 0.13147202549306269 0 0.45157265724474088 0.15734986773815671 0 0.47708776678725973 0.1399902442952396 0 0.45157265724474088 0.15734986773815671 0 0.47110030104475992 0.16996165837573479 0 0.47708776678725973 0.1399902442952396 0 0.45322820742736508 0.13147202549306269 0 0.47708776678725973 0.1399902442952396 0 0.46936089041210249 0.1221853510985368 0 0.42931324946388982 0.13901679328386449 0 0.45322820742736508 0.13147202549306269 0 0.43664584731353728 0.1179709525992557 0 0.45322820742736508 0.13147202549306269 0 0.45157265724474088 0.15734986773815671 0 0.42931324946388982 0.13901679328386449 0 0.45322820742736508 0.13147202549306269 0 0.45157265724474088 0.15734986773815671 0 0.42681877890921932 0.1567489256084772 0 0.43471917772809737 0.17003479183958681 0 0.45157265724474088 0.15734986773815671 0 0.45157265724474088 0.15734986773815671 0 0.44991710706211657 0.18322770998325091 0 0.43471917772809737 0.17003479183958681 0 0.45157265724474088 0.15734986773815671 0 0.44991710706211657 0.18322770998325091 0 0.4291708117720836 0.18331302455133799 0 0.43471917772809737 0.17003479183958681 0 0.44991710706211657 0.18322770998325091 0 0.47219941651237751 0.1990296634595381 0 0.44991710706211657 0.18322770998325091 0 0.47110030104475992 0.16996165837573479 0 0.45157265724474088 0.15734986773815671 0 0.44991710706211657 0.18322770998325091 0 0.47110030104475992 0.16996165837573479 0 0.47110030104475992 0.16996165837573479 0 0.5 0.16664978928033439 0 0.47708776678725973 0.1399902442952396 0 0.47219941651237751 0.1990296634595381 0 0.47110030104475992 0.16996165837573479 0 0.5 0.16664978928033439 0 0.47708776678725973 0.1399902442952396 0 0.5 0.099852863980634976 0 0.47853915913306883 0.11168397482486871 0 0.47853915913306883 0.11168397482486871 0 0.47298253592174749 0.092916564184562733 0 0.46391225405719888 0.10771546899658239 0 0.5 0.099852863980634976 0 0.47853915913306883 0.11168397482486871 0 0.47298253592174749 0.092916564184562733 0 0.46936089041210249 0.1221853510985368 0 0.47853915913306883 0.11168397482486871 0 0.46391225405719888 0.10771546899658239 0 0.47708776678725973 0.1399902442952396 0 0.46936089041210249 0.1221853510985368 0 0.47853915913306883 0.11168397482486871 0 0.5 0.099852863980634976 0 0.47298253592174749 0.092916564184562733 0 0.47248854090512171 0.060553780411631737 0 0.47298253592174749 0.092916564184562733 0 0.45623957877728288 0.084401393897323568 0 0.47248854090512171 0.060553780411631737 0 0.45623957877728288 0.084401393897323568 0 0.45157595275477752 0.064774329777220321 0 0.47248854090512171 0.060553780411631737 0 0.47298253592174749 0.092916564184562733 0 0.45623957877728288 0.084401393897323568 0 0.46203950841429581 0.095412212211941322 0 0.45623957877728288 0.084401393897323568 0 0.44121616222427251 0.090416110156936472 0 0.45488375760998961 0.1055941832479686 0 0.45623957877728288 0.084401393897323568 0 0.44121616222427251 0.090416110156936472 0 0.44089431655172068 0.078218327657909245 0 0.45157595275477752 0.064774329777220321 0 0.43171127920263308 0.0682908334839121 0 0.43824574380051939 0.054966478936651762 0 0.45623957877728288 0.084401393897323568 0 0.44089431655172068 0.078218327657909245 0 0.45157595275477752 0.064774329777220321 0 0.44089431655172068 0.078218327657909245 0 0.45157595275477752 0.064774329777220321 0 0.43171127920263308 0.0682908334839121 0 0.45322820742736508 0.13147202549306269 0 0.46391225405719888 0.10771546899658239 0 0.45488375760998961 0.1055941832479686 0 0.45322820742736508 0.13147202549306269 0 0.46936089041210249 0.1221853510985368 0 0.46391225405719888 0.10771546899658239 0 0.45322820742736508 0.13147202549306269 0 0.45488375760998961 0.1055941832479686 0 0.45623957877728288 0.084401393897323568 0 0.45488375760998961 0.1055941832479686 0 0.45623957877728288 0.084401393897323568 0 0.46203950841429581 0.095412212211941322 0 0.45488375760998961 0.1055941832479686 0 0.47298253592174749 0.092916564184562733 0 0.46391225405719888 0.10771546899658239 0 0.46203950841429581 0.095412212211941322 0 0.46391225405719888 0.10771546899658239 0 0.45488375760998961 0.1055941832479686 0 0.46391225405719888 0.10771546899658239 0 0.46203950841429581 0.095412212211941322 0 0.45488375760998961 0.1055941832479686 0 0.45488375760998961 0.1055941832479686 0 0.43664584731353728 0.1179709525992557 0 0.42890784885929578 0.099491026940342925 0 0.44121616222427251 0.090416110156936472 0 0.45488375760998961 0.1055941832479686 0 0.42890784885929578 0.099491026940342925 0 0.45488375760998961 0.1055941832479686 0 0.42890784885929578 0.099491026940342925 0 0.45322820742736508 0.13147202549306269 0 0.45488375760998961 0.1055941832479686 0 0.43664584731353728 0.1179709525992557 0 0.43664584731353728 0.1179709525992557 0 0.41258026710620949 0.1106533819799335 0 0.42096846394234871 0.1241744890470986 0 0.4053344918857581 0.12905682832534071 0 0.41258026710620949 0.1106533819799335 0 0.42096846394234871 0.1241744890470986 0 0.42890784885929578 0.099491026940342925 0 0.40293194010860178 0.093387870632717862 0 0.41258026710620949 0.1106533819799335 0 0.42890784885929578 0.099491026940342925 0 0.40293194010860178 0.093387870632717862 0 0.43664584731353728 0.1179709525992557 0 0.41258026710620949 0.1106533819799335 0 0.42890784885929578 0.099491026940342925 0 0.44121616222427251 0.090416110156936472 0 0.42890784885929578 0.099491026940342925 0 0.42372860979963772 0.083208970974153765 0 0.44121616222427251 0.090416110156936472 0 0.44089431655172068 0.078218327657909245 0 0.42372860979963772 0.083208970974153765 0 0.42372860979963772 0.083208970974153765 0 0.43171127920263308 0.0682908334839121 0 0.41274664263908228 0.069495082441851611 0 0.43171127920263308 0.0682908334839121 0 0.41274664263908228 0.069495082441851611 0 0.42327485565786382 0.0565768406339687 0 0.44089431655172068 0.078218327657909245 0 0.42372860979963772 0.083208970974153765 0 0.43171127920263308 0.0682908334839121 0 0.42372860979963772 0.083208970974153765 0 0.41274664263908228 0.069495082441851611 0 0.40123452056631698 0.079832544550679632 0 0.42372860979963772 0.083208970974153765 0 0.40293194010860178 0.093387870632717862 0 0.40123452056631698 0.079832544550679632 0 0.42890784885929578 0.099491026940342925 0 0.42372860979963772 0.083208970974153765 0 0.40293194010860178 0.093387870632717862 0 0.40293194010860178 0.093387870632717862 0 0.40123452056631698 0.079832544550679632 0 0.37695603135790751 0.087284714325094465 0 0.41274664263908228 0.069495082441851611 0 0.3921195400351975 0.069656826973514746 0 0.40728304871248677 0.052028939621934542 0 0.41274664263908228 0.069495082441851611 0 0.40123452056631698 0.079832544550679632 0 0.3921195400351975 0.069656826973514746 0 0.37378819741023128 0.073130933118814218 0 0.3921195400351975 0.069656826973514746 0 0.37945979803925978 0.062804002402409617 0 0.37378819741023128 0.073130933118814218 0 0.3921195400351975 0.069656826973514746 0 0.37695603135790751 0.087284714325094465 0 0.3921195400351975 0.069656826973514746 0 0.37945979803925978 0.062804002402409617 0 0.38883185093619699 0.056509125252545978 0 0.3921195400351975 0.069656826973514746 0 0.37695603135790751 0.087284714325094465 0 0.40123452056631698 0.079832544550679632 0 0.3921195400351975 0.069656826973514746 0 0.37695603135790751 0.087284714325094465 0 0.40293194010860178 0.093387870632717862 0 0.37695603135790751 0.087284714325094465 0 0.40293194010860178 0.093387870632717862 0 0.37695603135790751 0.087284714325094465 0 0.38344366927837692 0.104630423762824 0 0.3653231397043421 0.1008081875532487 0 0.37695603135790751 0.087284714325094465 0 0.38344366927837692 0.104630423762824 0 0.38344366927837692 0.104630423762824 0 0.3755744492651602 0.1220069314386624 0 0.39028271812011561 0.1234526525397753 0 0.3661226552269391 0.1132609741116027 0 0.38344366927837692 0.104630423762824 0 0.3755744492651602 0.1220069314386624 0 0.41258026710620949 0.1106533819799335 0 0.38344366927837692 0.104630423762824 0 0.39028271812011561 0.1234526525397753 0 0.4053344918857581 0.12905682832534071 0 0.41258026710620949 0.1106533819799335 0 0.39028271812011561 0.1234526525397753 0 0.41258026710620949 0.1106533819799335 0 0.40293194010860178 0.093387870632717862 0 0.38344366927837692 0.104630423762824 0 0.39326281193208878 0.02619603852721461 0 0.40074515694732471 0.014380313782692189 0 0.40683659035525332 0.032034081892029803 0 0.39326281193208878 0.02619603852721461 0 0.40074515694732471 0.014380313782692189 0 0.38539757577925232 0.01378990342660707 0 0.40074515694732471 0.014380313782692189 0 0.39287145964134401 0.002736824854638028 0 0.40496237143005592 -0.0059669412926891558 0 0.40074515694732471 0.014380313782692189 0 0.39287145964134401 0.002736824854638028 0 0.38539757577925232 0.01378990342660707 0 0.36786468483882317 0.003358404526962146 0 0.38539757577925232 0.01378990342660707 0 0.37966710007346699 0.0032473966475972948 0 0.39287145964134401 0.002736824854638028 0 0.38539757577925232 0.01378990342660707 0 0.37966710007346699 0.0032473966475972948 0 0.36786468483882317 0.003358404526962146 0 0.38539757577925232 0.01378990342660707 0 0.37834826788751008 0.029933764889754182 0 0.39326281193208878 0.02619603852721461 0 0.38539757577925232 0.01378990342660707 0 0.37834826788751008 0.029933764889754182 0 0.37834826788751008 0.029933764889754182 0 0.38883185093619699 0.056509125252545978 0 0.39498646869110371 0.040842128644989782 0 0.37834826788751008 0.029933764889754182 0 0.38883185093619699 0.056509125252545978 0 0.37350668529943409 0.051089696320389899 0 0.37834826788751008 0.029933764889754182 0 0.38883185093619699 0.056509125252545978 0 0.39326281193208878 0.02619603852721461 0 0.37834826788751008 0.029933764889754182 0 0.39498646869110371 0.040842128644989782 0 0.37350668529943409 0.051089696320389899 0 0.37945979803925978 0.062804002402409617 0 0.38883185093619699 0.056509125252545978 0 0.38883185093619699 0.056509125252545978 0 0.39498646869110371 0.040842128644989782 0 0.40728304871248677 0.052028939621934542 0 0.3921195400351975 0.069656826973514746 0 0.38883185093619699 0.056509125252545978 0 0.40728304871248677 0.052028939621934542 0 0.3921195400351975 0.069656826973514746 0 0.40728304871248677 0.052028939621934542 0 0.39498646869110371 0.040842128644989782 0 0.40683659035525332 0.032034081892029803 0 0.40728304871248677 0.052028939621934542 0 0.39326281193208878 0.02619603852721461 0 0.39498646869110371 0.040842128644989782 0 0.40683659035525332 0.032034081892029803 0 0.40683659035525332 0.032034081892029803 0 0.40728304871248677 0.052028939621934542 0 0.42573484648874482 0.037616776970221602 0 0.40728304871248677 0.052028939621934542 0 0.42327485565786382 0.0565768406339687 0 0.42573484648874482 0.037616776970221602 0 0.41274664263908228 0.069495082441851611 0 0.40728304871248677 0.052028939621934542 0 0.42327485565786382 0.0565768406339687 0 0.42327485565786382 0.0565768406339687 0 0.42573484648874482 0.037616776970221602 0 0.43824574380051939 0.054966478936651762 0 0.43171127920263308 0.0682908334839121 0 0.42327485565786382 0.0565768406339687 0 0.43824574380051939 0.054966478936651762 0 0.42573484648874482 0.037616776970221602 0 0.43632342603517732 0.02181109354623853 0 0.44965797542790809 0.040667222727352757 0 0.42573484648874482 0.037616776970221602 0 0.43632342603517732 0.02181109354623853 0 0.41975722195785292 0.01280684181536317 0 0.40074515694732471 0.014380313782692189 0 0.40683659035525332 0.032034081892029803 0 0.41975722195785292 0.01280684181536317 0 0.40683659035525332 0.032034081892029803 0 0.42573484648874482 0.037616776970221602 0 0.41975722195785292 0.01280684181536317 0 0.40074515694732471 0.014380313782692189 0 0.41975722195785292 0.01280684181536317 0 0.40496237143005592 -0.0059669412926891558 0 0.41975722195785292 0.01280684181536317 0 0.43915810654696391 0.002174407518869863 0 0.42575764272527139 -0.0089030791311993981 0 0.43632342603517732 0.02181109354623853 0 0.41975722195785292 0.01280684181536317 0 0.43915810654696391 0.002174407518869863 0 0.43915810654696391 0.002174407518869863 0 0.45554583874389032 0.01428982191808047 0 0.45740449297818381 -0.013572496999180729 0 0.43632342603517732 0.02181109354623853 0 0.43915810654696391 0.002174407518869863 0 0.45554583874389032 0.01428982191808047 0 0.5 0.099852863980634976 0 0.47248854090512171 0.060553780411631737 0 0.50000000000000466 0.017427621101551952 0 0.43632342603517732 0.02181109354623853 0 0.45554583874389032 0.01428982191808047 0 0.44965797542790809 0.040667222727352757 0 0.45554583874389032 0.01428982191808047 0 0.44965797542790809 0.040667222727352757 0 0.47102467996061598 0.02689672486662105 0 0.45554583874389032 0.01428982191808047 0 0.47870224648909498 0.001927562051184425 0 0.47102467996061598 0.02689672486662105 0 0.45554583874389032 0.01428982191808047 0 0.47870224648909498 0.001927562051184425 0 0.45740449297818381 -0.013572496999180729 0 0.44965797542790809 0.040667222727352757 0 0.47248854090512171 0.060553780411631737 0 0.47102467996061598 0.02689672486662105 0 0.45157595275477752 0.064774329777220321 0 0.43824574380051939 0.054966478936651762 0 0.44965797542790809 0.040667222727352757 0 0.42573484648874482 0.037616776970221602 0 0.43824574380051939 0.054966478936651762 0 0.44965797542790809 0.040667222727352757 0 0.45157595275477752 0.064774329777220321 0 0.44965797542790809 0.040667222727352757 0 0.47248854090512171 0.060553780411631737 0 0.47248854090512171 0.060553780411631737 0 0.47102467996061598 0.02689672486662105 0 0.50000000000000466 0.017427621101551952 0 0.47870224648909498 0.001927562051184425 0 0.47102467996061598 0.02689672486662105 0 0.50000000000000466 0.017427621101551952 0 0.47870224648909498 0.001927562051184425 0 0.50000000000000466 0.017427621101551952 0 0.47870224648909498 0.001927562051184425 0 0.50000000000000466 0.017427621101551952 0 0.5 -0.0093130428657792752 0 0.47870224648909498 0.001927562051184425 0 0.5 -0.0093130428657792752 0 0.47778360928751212 -0.018993686915719371 0 0.47870224648909498 0.001927562051184425 0 0.47778360928751212 -0.018993686915719371 0 0.45740449297818381 -0.013572496999180729 0 0.47778360928751212 -0.018993686915719371 0 0.47799406965343649 -0.035919428971678102 0 0.4658172057026454 -0.026512419875745871 0 0.47778360928751212 -0.018993686915719371 0 0.48897246391034849 -0.026056658922953831 0 0.47799406965343649 -0.035919428971678102 0 0.5 -0.0093130428657792752 0 0.47778360928751212 -0.018993686915719371 0 0.48897246391034849 -0.026056658922953831 0 0.5 -0.0093130428657792752 0 0.48897246391034849 -0.026056658922953831 0 0.49999999999999972 -0.036053706833110467 0 0.49999999999999972 -0.036053706833110467 0 0.47426299863508559 -0.048777014379724377 0 0.49999999999999972 -0.036053706833110467 0 0.48943050089603451 -0.052101807712194359 0 0.47426299863508559 -0.048777014379724377 0 0.48897246391034849 -0.026056658922953831 0 0.49999999999999972 -0.036053706833110467 0 0.47799406965343649 -0.035919428971678102 0 0.49999999999999972 -0.036053706833110467 0 0.48943050089603451 -0.052101807712194359 0 0.5 -0.058017328748252828 0 0.48943050089603451 -0.052101807712194359 0 0.5 -0.058017328748252828 0 0.48345900494905231 -0.06555918088768975 0 0.48943050089603451 -0.052101807712194359 0 0.47426299863508559 -0.048777014379724377 0 0.48345900494905231 -0.06555918088768975 0 0.47426299863508559 -0.048777014379724377 0 0.48345900494905231 -0.06555918088768975 0 0.46615501564571532 -0.065589069098963892 0 0.49999999999999972 -0.036053706833110467 0 0.47426299863508559 -0.048777014379724377 0 0.47799406965343649 -0.035919428971678102 0 0.47799406965343649 -0.035919428971678102 0 0.45008665089144922 -0.03756406661640526 0 0.47799406965343649 -0.035919428971678102 0 0.45008665089144922 -0.03756406661640526 0 0.4658172057026454 -0.026512419875745871 0 0.47426299863508559 -0.048777014379724377 0 0.47799406965343649 -0.035919428971678102 0 0.45008665089144922 -0.03756406661640526 0 0.47426299863508559 -0.048777014379724377 0 0.44852599727017128 -0.061500321926338447 0 0.47426299863508559 -0.048777014379724377 0 0.44852599727017128 -0.061500321926338447 0 0.46615501564571532 -0.065589069098963892 0 0.47426299863508559 -0.048777014379724377 0 0.44852599727017128 -0.061500321926338447 0 0.45008665089144922 -0.03756406661640526 0 0.44852599727017128 -0.061500321926338447 0 0.45008665089144922 -0.03756406661640526 0 0.43406482520089279 -0.050171843242561708 0 0.45008665089144922 -0.03756406661640526 0 0.43823748418071579 -0.02846908911563982 0 0.43610673946727219 -0.029072556049545398 0 0.44034039375569062 -0.012938224008636571 0 0.45740449297818381 -0.013572496999180729 0 0.43610673946727219 -0.029072556049545398 0 0.45008665089144922 -0.03756406661640526 0 0.43823748418071579 -0.02846908911563982 0 0.45740449297818381 -0.013572496999180729 0 0.43823748418071579 -0.02846908911563982 0 0.45740449297818381 -0.013572496999180729 0 0.43610673946727219 -0.029072556049545398 0 0.45740449297818381 -0.013572496999180729 0 0.43610673946727219 -0.029072556049545398 0 0.43915810654696391 0.002174407518869863 0 0.44034039375569062 -0.012938224008636571 0 0.45740449297818381 -0.013572496999180729 0 0.47870224648909498 0.001927562051184425 0 0.45740449297818381 -0.013572496999180729 0 0.47778360928751212 -0.018993686915719371 0 0.45740449297818381 -0.013572496999180729 0 0.4658172057026454 -0.026512419875745871 0 0.45008665089144922 -0.03756406661640526 0 0.45740449297818381 -0.013572496999180729 0 0.4658172057026454 -0.026512419875745871 0 0.47636818702569528 -0.11975902893781409 0 0.50000000000000089 -0.1185176535949273 0 0.47636818702569528 -0.11975902893781409 0 0.50000000000000089 -0.1185176535949273 0 0.499999999999999 -0.1019445725785376 0 0.47636818702569528 -0.11975902893781409 0 0.50000000000000089 -0.1185176535949273 0 0.48416620376830172 -0.13469818200497929 0 0.47636818702569528 -0.11975902893781409 0 0.499999999999999 -0.1019445725785376 0 0.499999999999999 -0.1019445725785376 0 0.48172451681235717 -0.1046776172112641 0 0.48474853248841249 -0.0872382414423718 0 0.47636818702569528 -0.11975902893781409 0 0.499999999999999 -0.1019445725785376 0 0.48172451681235717 -0.1046776172112641 0 0.48172451681235717 -0.1046776172112641 0 0.47049420796171948 -0.090559781048242319 0 0.48474853248841249 -0.0872382414423718 0 0.48172451681235717 -0.1046776172112641 0 0.47049420796171948 -0.090559781048242319 0 0.45886692036097398 -0.1018653704942248 0 0.47636818702569528 -0.11975902893781409 0 0.48172451681235717 -0.1046776172112641 0 0.45886692036097398 -0.1018653704942248 0 0.48172451681235717 -0.1046776172112641 0 0.45886692036097398 -0.1018653704942248 0 0.47049420796171948 -0.090559781048242319 0 0.48474853248841249 -0.0872382414423718 0 0.4718737477157377 -0.077246839294968311 0 0.499999999999999 -0.1019445725785376 0 0.5 -0.079980950663395223 0 0.48474853248841249 -0.0872382414423718 0 0.5 -0.079980950663395223 0 0.48474853248841249 -0.0872382414423718 0 0.48345900494905231 -0.06555918088768975 0 0.5 -0.058017328748252828 0 0.5 -0.079980950663395223 0 0.48345900494905231 -0.06555918088768975 0 0.48345900494905231 -0.06555918088768975 0 0.4718737477157377 -0.077246839294968311 0 0.46615501564571532 -0.065589069098963892 0 0.48474853248841249 -0.0872382414423718 0 0.48345900494905231 -0.06555918088768975 0 0.4718737477157377 -0.077246839294968311 0 0.4718737477157377 -0.077246839294968311 0 0.46615501564571532 -0.065589069098963892 0 0.45525732243111577 -0.081770836798382582 0 0.44852599727017128 -0.061500321926338447 0 0.46615501564571532 -0.065589069098963892 0 0.45525732243111577 -0.081770836798382582 0 0.44852599727017128 -0.061500321926338447 0 0.45525732243111577 -0.081770836798382582 0 0.43523832304858617 -0.07657526887476343 0 0.44852599727017128 -0.061500321926338447 0 0.43523832304858617 -0.07657526887476343 0 0.42959549598413987 -0.061489661351604948 0 0.45525732243111577 -0.081770836798382582 0 0.4360093239095908 -0.099053123777185476 0 0.43523832304858617 -0.07657526887476343 0 0.47049420796171948 -0.090559781048242319 0 0.4718737477157377 -0.077246839294968311 0 0.45525732243111577 -0.081770836798382582 0 0.47049420796171948 -0.090559781048242319 0 0.45525732243111577 -0.081770836798382582 0 0.45886692036097398 -0.1018653704942248 0 0.45525732243111577 -0.081770836798382582 0 0.45886692036097398 -0.1018653704942248 0 0.4360093239095908 -0.099053123777185476 0 0.45886692036097398 -0.1018653704942248 0 0.4360093239095908 -0.099053123777185476 0 0.45886692036097398 -0.1018653704942248 0 0.4493779550794611 -0.1211768214903037 0 0.4360093239095908 -0.099053123777185476 0 0.47636818702569528 -0.11975902893781409 0 0.4493779550794611 -0.1211768214903037 0 0.47636818702569528 -0.11975902893781409 0 0.45886692036097398 -0.1018653704942248 0 0.4493779550794611 -0.1211768214903037 0 0.42238772313322698 -0.1225946140427944 0 0.41315172745820772 -0.096240877060146168 0 0.40500045553859643 -0.121101259466904 0 0.4493779550794611 -0.1211768214903037 0 0.42238772313322698 -0.1225946140427944 0 0.4493779550794611 -0.1211768214903037 0 0.42238772313322698 -0.1225946140427944 0 0.4360093239095908 -0.099053123777185476 0 0.42238772313322698 -0.1225946140427944 0 0.4360093239095908 -0.099053123777185476 0 0.41315172745820772 -0.096240877060146168 0 0.4360093239095908 -0.099053123777185476 0 0.41315172745820772 -0.096240877060146168 0 0.42078252661405108 -0.083374574068716373 0 0.41261023023916787 -0.073497160756829064 0 0.40458697025909568 -0.083755322060937526 0 0.41315172745820772 -0.096240877060146168 0 0.42078252661405108 -0.083374574068716373 0 0.40458697025909568 -0.083755322060937526 0 0.4360093239095908 -0.099053123777185476 0 0.42078252661405108 -0.083374574068716373 0 0.43523832304858617 -0.07657526887476343 0 0.4360093239095908 -0.099053123777185476 0 0.41315172745820772 -0.096240877060146168 0 0.42078252661405108 -0.083374574068716373 0 0.42078252661405108 -0.083374574068716373 0 0.42309858476965861 -0.071125691882436601 0 0.43523832304858617 -0.07657526887476343 0 0.42309858476965861 -0.071125691882436601 0 0.43523832304858617 -0.07657526887476343 0 0.42959549598413987 -0.061489661351604948 0 0.42309858476965861 -0.071125691882436601 0 0.42959549598413987 -0.061489661351604948 0 0.41584673952210532 -0.061708389094493658 0 0.42309858476965861 -0.071125691882436601 0 0.41261023023916787 -0.073497160756829064 0 0.41584673952210532 -0.061708389094493658 0 0.42078252661405108 -0.083374574068716373 0 0.42309858476965861 -0.071125691882436601 0 0.41261023023916787 -0.073497160756829064 0 0.41261023023916787 -0.073497160756829064 0 0.403757433423998 -0.062883368517371738 0 0.41584673952210532 -0.061708389094493658 0 0.403757433423998 -0.062883368517371738 0 0.40134305371143708 -0.072855503358228962 0 0.3908827080777254 -0.061985659146284823 0 0.41261023023916787 -0.073497160756829064 0 0.403757433423998 -0.062883368517371738 0 0.40134305371143708 -0.072855503358228962 0 0.40134305371143708 -0.072855503358228962 0 0.39099106392210409 -0.077473980541278548 0 0.40458697025909568 -0.083755322060937526 0 0.41261023023916787 -0.073497160756829064 0 0.40134305371143708 -0.072855503358228962 0 0.40458697025909568 -0.083755322060937526 0 0.40134305371143708 -0.072855503358228962 0 0.39099106392210409 -0.077473980541278548 0 0.3908827080777254 -0.061985659146284823 0 0.39099106392210409 -0.077473980541278548 0 0.3908827080777254 -0.061985659146284823 0 0.38348726410702361 -0.066268229296740366 0 0.3908827080777254 -0.061985659146284823 0 0.39099106392210409 -0.077473980541278548 0 0.38348726410702361 -0.066268229296740366 0 0.3908827080777254 -0.061985659146284823 0 0.38348726410702361 -0.066268229296740366 0 0.37054196756093633 -0.076789224178477417 0 0.38348726410702361 -0.066268229296740366 0 0.38403344018274987 -0.076207009790560581 0 0.37054196756093633 -0.076789224178477417 0 0.38403344018274987 -0.076207009790560581 0 0.37843564336374469 -0.080913028530937792 0 0.37054196756093633 -0.076789224178477417 0 0.38348726410702361 -0.066268229296740366 0 0.38403344018274987 -0.076207009790560581 0 0.39099106392210409 -0.077473980541278548 0 0.38348726410702361 -0.066268229296740366 0 0.38403344018274987 -0.076207009790560581 0 0.39099106392210409 -0.077473980541278548 0 0.38416810456284722 -0.083965253795070416 0 0.39029413100682631 -0.093428630343094315 0 0.39099106392210409 -0.077473980541278548 0 0.38403344018274987 -0.076207009790560581 0 0.38416810456284722 -0.083965253795070416 0 0.38416810456284722 -0.083965253795070416 0 0.37843564336374469 -0.080913028530937792 0 0.37708624433880999 -0.091803619769480732 0 0.38403344018274987 -0.076207009790560581 0 0.38416810456284722 -0.083965253795070416 0 0.37843564336374469 -0.080913028530937792 0 0.37843564336374469 -0.080913028530937792 0 0.37708624433880999 -0.091803619769480732 0 0.37159021003057452 -0.084272596369491443 0 0.37843564336374469 -0.080913028530937792 0 0.37708624433880999 -0.091803619769480732 0 0.37708624433880999 -0.091803619769480732 0 0.39029413100682631 -0.093428630343094315 0 0.38416810456284722 -0.083965253795070416 0 0.37708624433880999 -0.091803619769480732 0 0.39029413100682631 -0.093428630343094315 0 0.41315172745820772 -0.096240877060146168 0 0.39029413100682631 -0.093428630343094315 0 0.40458697025909568 -0.083755322060937526 0 0.39099106392210409 -0.077473980541278548 0 0.39029413100682631 -0.093428630343094315 0 0.39099106392210409 -0.077473980541278548 0 0.39029413100682631 -0.093428630343094315 0 0.40458697025909568 -0.083755322060937526 0 0.41315172745820772 -0.096240877060146168 0 0.39029413100682631 -0.093428630343094315 0 0.39029413100682631 -0.093428630343094315 0 0.39976824316942461 -0.10574558284209649 0 0.38937822960677482 -0.1143960516981674 0 0.41315172745820772 -0.096240877060146168 0 0.39029413100682631 -0.093428630343094315 0 0.39976824316942461 -0.10574558284209649 0 0.41315172745820772 -0.096240877060146168 0 0.39976824316942461 -0.10574558284209649 0 0.40500045553859643 -0.121101259466904 0 0.39029413100682631 -0.093428630343094315 0 0.38937822960677482 -0.1143960516981674 0 0.37708624433880999 -0.091803619769480732 0 0.39029413100682631 -0.093428630343094315 0 0.38297952764455612 -0.1017455116884306 0 0.39029413100682631 -0.093428630343094315 0 0.38297952764455612 -0.1017455116884306 0 0.38937822960677482 -0.1143960516981674 0 0.37708624433880999 -0.091803619769480732 0 0.37515950562581257 -0.10735374494298 0 0.37708624433880999 -0.091803619769480732 0 0.37515950562581257 -0.10735374494298 0 0.38297952764455612 -0.1017455116884306 0 0.37515950562581257 -0.10735374494298 0 0.38297952764455612 -0.1017455116884306 0 0.38937822960677482 -0.1143960516981674 0 0.38937822960677482 -0.1143960516981674 0 0.37323276691281448 -0.1229038701164792 0 0.38846232820672222 -0.1353634730532404 0 0.38937822960677482 -0.1143960516981674 0 0.38846232820672222 -0.1353634730532404 0 0.37515950562581257 -0.10735374494298 0 0.38937822960677482 -0.1143960516981674 0 0.37323276691281448 -0.1229038701164792 0 0.38937822960677482 -0.1143960516981674 0 0.40500045553859643 -0.121101259466904 0 0.38846232820672222 -0.1353634730532404 0 0.39976824316942461 -0.10574558284209649 0 0.38937822960677482 -0.1143960516981674 0 0.40500045553859643 -0.121101259466904 0 0.41638473038314988 -0.02082658978010056 0 0.41534009037765462 -0.034954061222136602 0 0.39975680791549573 -0.02523631120493287 0 0.41638473038314988 -0.02082658978010056 0 0.39975680791549573 -0.02523631120493287 0 0.40496237143005592 -0.0059669412926891558 0 0.41975722195785292 0.01280684181536317 0 0.42575764272527139 -0.0089030791311993981 0 0.40496237143005592 -0.0059669412926891558 0 0.41638473038314988 -0.02082658978010056 0 0.42575764272527139 -0.0089030791311993981 0 0.40496237143005592 -0.0059669412926891558 0 0.43915810654696391 0.002174407518869863 0 0.44034039375569062 -0.012938224008636571 0 0.42575764272527139 -0.0089030791311993981 0 0.41638473038314988 -0.02082658978010056 0 0.42575764272527139 -0.0089030791311993981 0 0.43610673946727219 -0.029072556049545398 0 0.41638473038314988 -0.02082658978010056 0 0.43610673946727219 -0.029072556049545398 0 0.41534009037765462 -0.034954061222136602 0 0.44034039375569062 -0.012938224008636571 0 0.42575764272527139 -0.0089030791311993981 0 0.43610673946727219 -0.029072556049545398 0 0.43823748418071579 -0.02846908911563982 0 0.43610673946727219 -0.029072556049545398 0 0.43610673946727219 -0.029072556049545398 0 0.42217923212946179 -0.039208704261133071 0 0.41534009037765462 -0.034954061222136602 0 0.45008665089144922 -0.03756406661640526 0 0.42217923212946179 -0.039208704261133071 0 0.45008665089144922 -0.03756406661640526 0 0.42217923212946179 -0.039208704261133071 0 0.43406482520089279 -0.050171843242561708 0 0.43610673946727219 -0.029072556049545398 0 0.41534009037765462 -0.034954061222136602 0 0.45008665089144922 -0.03756406661640526 0 0.43610673946727219 -0.029072556049545398 0 0.42217923212946179 -0.039208704261133071 0 0.42217923212946179 -0.039208704261133071 0 0.43406482520089279 -0.050171843242561708 0 0.41993674972924172 -0.051096462057326403 0 0.43610673946727219 -0.029072556049545398 0 0.42217923212946179 -0.039208704261133071 0 0.44852599727017128 -0.061500321926338447 0 0.43406482520089279 -0.050171843242561708 0 0.42959549598413987 -0.061489661351604948 0 0.43406482520089279 -0.050171843242561708 0 0.42959549598413987 -0.061489661351604948 0 0.41993674972924172 -0.051096462057326403 0 0.42959549598413987 -0.061489661351604948 0 0.41584673952210532 -0.061708389094493658 0 0.41993674972924172 -0.051096462057326403 0 0.41584673952210532 -0.061708389094493658 0 0.41446591784424142 -0.055082055914974948 0 0.41993674972924172 -0.051096462057326403 0 0.41446591784424142 -0.055082055914974948 0 0.41993674972924172 -0.051096462057326403 0 0.40858193913704988 -0.051736349041177049 0 0.41993674972924172 -0.051096462057326403 0 0.40693631569076988 -0.050302179672916641 0 0.40858193913704988 -0.051736349041177049 0 0.403757433423998 -0.062883368517371738 0 0.40858193913704988 -0.051736349041177049 0 0.41066300748184859 -0.057852540642004353 0 0.403757433423998 -0.062883368517371738 0 0.41584673952210532 -0.061708389094493658 0 0.41066300748184859 -0.057852540642004353 0 0.41584673952210532 -0.061708389094493658 0 0.41446591784424142 -0.055082055914974948 0 0.41066300748184859 -0.057852540642004353 0 0.41446591784424142 -0.055082055914974948 0 0.40858193913704988 -0.051736349041177049 0 0.41066300748184859 -0.057852540642004353 0 0.42217923212946179 -0.039208704261133071 0 0.40693631569076988 -0.050302179672916641 0 0.39457344128803712 -0.040835566394728233 0 0.42217923212946179 -0.039208704261133071 0 0.41534009037765462 -0.034954061222136602 0 0.39457344128803712 -0.040835566394728233 0 0.42217923212946179 -0.039208704261133071 0 0.39457344128803712 -0.040835566394728233 0 0.42217923212946179 -0.039208704261133071 0 0.40693631569076988 -0.050302179672916641 0 0.42217923212946179 -0.039208704261133071 0 0.41993674972924172 -0.051096462057326403 0 0.40693631569076988 -0.050302179672916641 0 0.41534009037765462 -0.034954061222136602 0 0.39457344128803712 -0.040835566394728233 0 0.39975680791549573 -0.02523631120493287 0 0.41534009037765462 -0.034954061222136602 0 0.39457344128803712 -0.040835566394728233 0 0.40693631569076988 -0.050302179672916641 0 0.39457344128803712 -0.040835566394728233 0 0.39241272834215069 -0.044928297218900633 0 0.39457344128803712 -0.040835566394728233 0 0.38933967564900068 -0.031700377077360523 0 0.39975680791549573 -0.02523631120493287 0 0.40693631569076988 -0.050302179672916641 0 0.3908827080777254 -0.061985659146284823 0 0.39241272834215069 -0.044928297218900633 0 0.3908827080777254 -0.061985659146284823 0 0.40858193913704988 -0.051736349041177049 0 0.3908827080777254 -0.061985659146284823 0 0.40693631569076988 -0.050302179672916641 0 0.40858193913704988 -0.051736349041177049 0 0.3908827080777254 -0.061985659146284823 0 0.403757433423998 -0.062883368517371738 0 0.40858193913704988 -0.051736349041177049 0 0.3908827080777254 -0.061985659146284823 0 0.40693631569076988 -0.050302179672916641 0 0.39241272834215069 -0.044928297218900633 0 0.3908827080777254 -0.061985659146284823 0 0.38348726410702361 -0.066268229296740366 0 0.38228095710386267 -0.044317028858949593 0 0.38348726410702361 -0.066268229296740366 0 0.38228095710386267 -0.044317028858949593 0 0.36240503185989742 -0.049946264304110831 0 0.38348726410702361 -0.066268229296740366 0 0.3908827080777254 -0.061985659146284823 0 0.38228095710386267 -0.044317028858949593 0 0.39241272834215069 -0.044928297218900633 0 0.3908827080777254 -0.061985659146284823 0 0.38228095710386267 -0.044317028858949593 0 0.38212993557049107 -0.041568886022386599 0 0.38228095710386267 -0.044317028858949593 0 0.36240503185989742 -0.049946264304110831 0 0.39457344128803712 -0.040835566394728233 0 0.38933967564900068 -0.031700377077360523 0 0.38212993557049107 -0.041568886022386599 0 0.39457344128803712 -0.040835566394728233 0 0.38212993557049107 -0.041568886022386599 0 0.38228095710386267 -0.044317028858949593 0 0.39457344128803712 -0.040835566394728233 0 0.38228095710386267 -0.044317028858949593 0 0.39457344128803712 -0.040835566394728233 0 0.39241272834215069 -0.044928297218900633 0 0.38228095710386267 -0.044317028858949593 0 0.39457344128803712 -0.040835566394728233 0 0.38212993557049107 -0.041568886022386599 0 0.38212993557049107 -0.041568886022386599 0 0.38228095710386267 -0.044317028858949593 0 0.38933967564900068 -0.031700377077360523 0 0.38212993557049107 -0.041568886022386599 0 0.38089851782197931 -0.019160744687394621 0 0.38212993557049107 -0.041568886022386599 0 0.38089851782197931 -0.019160744687394621 0 0.38933967564900068 -0.031700377077360523 0 0.38089851782197931 -0.019160744687394621 0 0.39975680791549573 -0.02523631120493287 0 0.38212993557049107 -0.041568886022386599 0 0.38089851782197931 -0.019160744687394621 0 0.37002119260428562 -0.03203464146110023 0 0.38089851782197931 -0.019160744687394621 0 0.39975680791549573 -0.02523631120493287 0 0.40496237143005592 -0.0059669412926891558 0 0.39287145964134401 0.002736824854638028 0 0.38089851782197931 -0.019160744687394621 0 0.40496237143005592 -0.0059669412926891558 0 0.37966710007346699 0.0032473966475972948 0 0.38089851782197931 -0.019160744687394621 0 0.36786468483882317 0.003358404526962146 0 0.37966710007346699 0.0032473966475972948 0 0.38089851782197931 -0.019160744687394621 0 0.39287145964134401 0.002736824854638028 0 0.37966710007346699 0.0032473966475972948 0 0.38089851782197931 -0.019160744687394621 0 0.36786468483882317 0.003358404526962146 0 0.38089851782197931 -0.019160744687394621 0 0.35738110179013632 -0.023216955835829899 0 0.36786468483882317 0.003358404526962146 0 0.35738110179013632 -0.023216955835829899 0 0.38089851782197931 -0.019160744687394621 0 0.35738110179013632 -0.023216955835829899 0 0.37002119260428562 -0.03203464146110023 0 0.35738110179013632 -0.023216955835829899 0 0.36001078182454033 -0.032915911658874197 0 0.37002119260428562 -0.03203464146110023 0 0.35738110179013632 -0.023216955835829899 0 0.3350307053396443 -0.02026338807412487 0 0.34706876770432149 -0.033690635670560208 0 0.35738110179013632 -0.023216955835829899 0 0.34706876770432149 -0.033690635670560208 0 0.36001078182454033 -0.032915911658874197 0 0.36786468483882317 0.003358404526962146 0 0.35738110179013632 -0.023216955835829899 0 0.34577970100824962 -0.003284887659809175 0 0.35738110179013632 -0.023216955835829899 0 0.34577970100824962 -0.003284887659809175 0 0.3350307053396443 -0.02026338807412487 0 0.34577970100824962 -0.003284887659809175 0 0.3350307053396443 -0.02026338807412487 0 0.32294653159101888 -0.006529300740715227 0 0.3350307053396443 -0.02026338807412487 0 0.33517525561610167 -0.032482239829251802 0 0.34706876770432149 -0.033690635670560208 0 0.3350307053396443 -0.02026338807412487 0 0.32279985648148551 -0.033867017967559837 0 0.33517525561610167 -0.032482239829251802 0 0.3350307053396443 -0.02026338807412487 0 0.32294653159101888 -0.006529300740715227 0 0.32279985648148551 -0.033867017967559837 0 0.32294653159101888 -0.006529300740715227 0 0.32279985648148551 -0.033867017967559837 0 0.32294653159101888 -0.006529300740715227 0 0.32279985648148551 -0.033867017967559837 0 0.30371573231025428 -0.021142248587437771 0 0.32265318137195859 -0.061204735194404523 0 0.32279985648148551 -0.033867017967559837 0 0.32265318137195859 -0.061204735194404523 0 0.32279985648148551 -0.033867017967559837 0 0.31085758706834371 -0.05136697486140706 0 0.32265318137195859 -0.061204735194404523 0 0.30891311383799902 -0.065096180459575118 0 0.31085758706834371 -0.05136697486140706 0 0.32265318137195859 -0.061204735194404523 0 0.32279985648148551 -0.033867017967559837 0 0.33610230150855008 -0.044281382664286828 0 0.32279985648148551 -0.033867017967559837 0 0.33517525561610167 -0.032482239829251802 0 0.33610230150855008 -0.044281382664286828 0 0.33517525561610167 -0.032482239829251802 0 0.33610230150855008 -0.044281382664286828 0 0.34706876770432149 -0.033690635670560208 0 0.32265318137195859 -0.061204735194404523 0 0.33610230150855008 -0.044281382664286828 0 0.34252910661593122 -0.055575499749268981 0 0.32265318137195859 -0.061204735194404523 0 0.34252910661593122 -0.055575499749268981 0 0.34252910661593122 -0.055575499749268981 0 0.35911611853952052 -0.04292513434333671 0 0.36240503185989742 -0.049946264304110831 0 0.34252910661593122 -0.055575499749268981 0 0.36240503185989742 -0.049946264304110831 0 0.34252910661593122 -0.055575499749268981 0 0.36240503185989742 -0.049946264304110831 0 0.35570219114590829 -0.064183577315393633 0 0.33610230150855008 -0.044281382664286828 0 0.34252910661593122 -0.055575499749268981 0 0.35911611853952052 -0.04292513434333671 0 0.33610230150855008 -0.044281382664286828 0 0.35911611853952052 -0.04292513434333671 0 0.33610230150855008 -0.044281382664286828 0 0.34706876770432149 -0.033690635670560208 0 0.35911611853952052 -0.04292513434333671 0 0.34706876770432149 -0.033690635670560208 0 0.35911611853952052 -0.04292513434333671 0 0.36001078182454033 -0.032915911658874197 0 0.38212993557049107 -0.041568886022386599 0 0.35911611853952052 -0.04292513434333671 0 0.36240503185989742 -0.049946264304110831 0 0.38212993557049107 -0.041568886022386599 0 0.35911611853952052 -0.04292513434333671 0 0.37002119260428562 -0.03203464146110023 0 0.38212993557049107 -0.041568886022386599 0 0.35911611853952052 -0.04292513434333671 0 0.35911611853952052 -0.04292513434333671 0 0.36001078182454033 -0.032915911658874197 0 0.37002119260428562 -0.03203464146110023 0 0.38348726410702361 -0.066268229296740366 0 0.36240503185989742 -0.049946264304110831 0 0.35570219114590829 -0.064183577315393633 0 0.38228095710386267 -0.044317028858949593 0 0.36240503185989742 -0.049946264304110831 0 0.38348726410702361 -0.066268229296740366 0 0.36313695338467561 -0.07805273251213618 0 0.35570219114590829 -0.064183577315393633 0 0.38348726410702361 -0.066268229296740366 0 0.36313695338467561 -0.07805273251213618 0 0.37054196756093633 -0.076789224178477417 0 0.38348726410702361 -0.066268229296740366 0 0.36313695338467561 -0.07805273251213618 0 0.37843564336374469 -0.080913028530937792 0 0.37054196756093633 -0.076789224178477417 0 0.37159021003057452 -0.084272596369491443 0 0.37708624433880999 -0.091803619769480732 0 0.37058556781633722 -0.091003819744674225 0 0.37708624433880999 -0.091803619769480732 0 0.37159021003057452 -0.084272596369491443 0 0.37058556781633722 -0.091003819744674225 0 0.37159021003057452 -0.084272596369491443 0 0.37058556781633722 -0.091003819744674225 0 0.35753856319875588 -0.086252829594249569 0 0.36313695338467561 -0.07805273251213618 0 0.37054196756093633 -0.076789224178477417 0 0.35753856319875588 -0.086252829594249569 0 0.37054196756093633 -0.076789224178477417 0 0.37159021003057452 -0.084272596369491443 0 0.35753856319875588 -0.086252829594249569 0 0.37054196756093633 -0.076789224178477417 0 0.35753856319875588 -0.086252829594249569 0 0.36313695338467561 -0.07805273251213618 0 0.35647142688510119 -0.083760721234556829 0 0.34278664266232778 -0.089837235727532105 0 0.35753856319875588 -0.086252829594249569 0 0.33996003716149348 -0.099046112766406305 0 0.34278664266232778 -0.089837235727532105 0 0.36313695338467561 -0.07805273251213618 0 0.35647142688510119 -0.083760721234556829 0 0.35753856319875588 -0.086252829594249569 0 0.36313695338467561 -0.07805273251213618 0 0.34155880530612959 -0.071711169594570939 0 0.34278664266232778 -0.089837235727532105 0 0.36313695338467561 -0.07805273251213618 0 0.34278664266232778 -0.089837235727532105 0 0.35753856319875588 -0.086252829594249569 0 0.33996003716149348 -0.099046112766406305 0 0.35647142688510119 -0.083760721234556829 0 0.35753856319875588 -0.086252829594249569 0 0.35647142688510119 -0.083760721234556829 0 0.35753856319875588 -0.086252829594249569 0 0.34278664266232778 -0.089837235727532105 0 0.36313695338467561 -0.07805273251213618 0 0.35570219114590829 -0.064183577315393633 0 0.34155880530612959 -0.071711169594570939 0 0.34252910661593122 -0.055575499749268981 0 0.35570219114590829 -0.064183577315393633 0 0.34155880530612959 -0.071711169594570939 0 0.37323276691281448 -0.1229038701164792 0 0.36538566505578518 -0.10457834985536441 0 0.35092966274274451 -0.10982375685258031 0 0.37323276691281448 -0.1229038701164792 0 0.36538566505578518 -0.10457834985536441 0 0.37515950562581257 -0.10735374494298 0 0.37323276691281448 -0.1229038701164792 0 0.36538566505578518 -0.10457834985536441 0 0.37515950562581257 -0.10735374494298 0 0.37323276691281448 -0.1229038701164792 0 0.37058556781633722 -0.091003819744674225 0 0.35753856319875588 -0.086252829594249569 0 0.36538566505578518 -0.10457834985536441 0 0.35753856319875588 -0.086252829594249569 0 0.36538566505578518 -0.10457834985536441 0 0.37515950562581257 -0.10735374494298 0 0.36538566505578518 -0.10457834985536441 0 0.37209716069263737 -0.099026911291512684 0 0.37708624433880999 -0.091803619769480732 0 0.37515950562581257 -0.10735374494298 0 0.37209716069263737 -0.099026911291512684 0 0.37058556781633722 -0.091003819744674225 0 0.36538566505578518 -0.10457834985536441 0 0.37209716069263737 -0.099026911291512684 0 0.37708624433880999 -0.091803619769480732 0 0.37058556781633722 -0.091003819744674225 0 0.37209716069263737 -0.099026911291512684 0 0.35753856319875588 -0.086252829594249569 0 0.36538566505578518 -0.10457834985536441 0 0.35092966274274451 -0.10982375685258031 0 0.35753856319875588 -0.086252829594249569 0 0.35092966274274451 -0.10982375685258031 0 0.33996003716149348 -0.099046112766406305 0 0.37323276691281448 -0.1229038701164792 0 0.35092966274274451 -0.10982375685258031 0 0.34610269782774172 -0.1264067858853018 0 0.32238151112423508 -0.11183939593856849 0 0.32225934484546148 -0.13460908872821109 0 0.34610269782774172 -0.1264067858853018 0 0.35092966274274451 -0.10982375685258031 0 0.32238151112423508 -0.11183939593856849 0 0.34610269782774172 -0.1264067858853018 0 0.32243633193998172 -0.101621738942931 0 0.34278664266232778 -0.089837235727532105 0 0.33996003716149348 -0.099046112766406305 0 0.32238151112423508 -0.11183939593856849 0 0.33996003716149348 -0.099046112766406305 0 0.32243633193998172 -0.101621738942931 0 0.32238151112423508 -0.11183939593856849 0 0.33996003716149348 -0.099046112766406305 0 0.32243633193998172 -0.101621738942931 0 0.34278664266232778 -0.089837235727532105 0 0.35092966274274451 -0.10982375685258031 0 0.33996003716149348 -0.099046112766406305 0 0.32238151112423508 -0.11183939593856849 0 0.32243633193998172 -0.101621738942931 0 0.32238151112423508 -0.11183939593856849 0 0.30190904986532702 -0.113508723122803 0 0.32243633193998172 -0.101621738942931 0 0.32238151112423508 -0.11183939593856849 0 0.32238151112423508 -0.11183939593856849 0 0.32225934484546148 -0.13460908872821109 0 0.32238151112423508 -0.11183939593856849 0 0.3004582052603022 -0.12779471889298119 0 0.32225934484546148 -0.13460908872821109 0 0.32265318137195859 -0.061204735194404523 0 0.34252910661593122 -0.055575499749268981 0 0.34155880530612959 -0.071711169594570939 0 0.32265318137195859 -0.061204735194404523 0 0.34155880530612959 -0.071711169594570939 0 0.32254475665597021 -0.081413237068667738 0 0.34155880530612959 -0.071711169594570939 0 0.34278664266232778 -0.089837235727532105 0 0.32254475665597021 -0.081413237068667738 0 0.32243633193998172 -0.101621738942931 0 0.34278664266232778 -0.089837235727532105 0 0.32254475665597021 -0.081413237068667738 0 0.32243633193998172 -0.101621738942931 0 0.32254475665597021 -0.081413237068667738 0 0.305992328584346 -0.096886749835988648 0 0.32243633193998172 -0.101621738942931 0 0.32254475665597021 -0.081413237068667738 0 0.32265318137195859 -0.061204735194404523 0 0.32254475665597021 -0.081413237068667738 0 0.30891311383799902 -0.065096180459575118 0 0.32254475665597021 -0.081413237068667738 0 0.30891311383799902 -0.065096180459575118 0 0.30649410813737821 -0.08096969484645937 0 0.32265318137195859 -0.061204735194404523 0 0.32254475665597021 -0.081413237068667738 0 0.32265318137195859 -0.061204735194404523 0 0.30891311383799902 -0.065096180459575118 0 0.30891311383799902 -0.065096180459575118 0 0.29769968922383799 -0.071702956490309971 0 0.30649410813737821 -0.08096969484645937 0 0.30891311383799902 -0.065096180459575118 0 0.29769968922383799 -0.071702956490309971 0 0.29868537725126237 -0.056749605608095152 0 0.30649410813737821 -0.08096969484645937 0 0.29174898041811098 -0.087325893090123077 0 0.305992328584346 -0.096886749835988648 0 0.32254475665597021 -0.081413237068667738 0 0.30649410813737821 -0.08096969484645937 0 0.305992328584346 -0.096886749835988648 0 0.29769968922383799 -0.071702956490309971 0 0.30649410813737821 -0.08096969484645937 0 0.29174898041811098 -0.087325893090123077 0 0.29174898041811098 -0.087325893090123077 0 0.28052249046147659 -0.076694912312946631 0 0.27272884575793482 -0.091586189983399804 0 0.29769968922383799 -0.071702956490309971 0 0.29174898041811098 -0.087325893090123077 0 0.28052249046147659 -0.076694912312946631 0 0.29769968922383799 -0.071702956490309971 0 0.28718379601338118 -0.064770512503504976 0 0.28052249046147659 -0.076694912312946631 0 0.29769968922383799 -0.071702956490309971 0 0.28718379601338118 -0.064770512503504976 0 0.29868537725126237 -0.056749605608095152 0 0.32238151112423508 -0.11183939593856849 0 0.3004582052603022 -0.12779471889298119 0 0.32238151112423508 -0.11183939593856849 0 0.30190904986532702 -0.113508723122803 0 0.3004582052603022 -0.12779471889298119 0 0.32243633193998172 -0.101621738942931 0 0.30190904986532702 -0.113508723122803 0 0.305992328584346 -0.096886749835988648 0 0.30190904986532702 -0.113508723122803 0 0.305992328584346 -0.096886749835988648 0 0.28438133240479319 -0.1052623626006699 0 0.32243633193998172 -0.101621738942931 0 0.30190904986532702 -0.113508723122803 0 0.29174898041811098 -0.087325893090123077 0 0.28438133240479319 -0.1052623626006699 0 0.27272884575793482 -0.091586189983399804 0 0.29174898041811098 -0.087325893090123077 0 0.305992328584346 -0.096886749835988648 0 0.28438133240479319 -0.1052623626006699 0 0.30190904986532702 -0.113508723122803 0 0.28138176779067409 -0.12539570730267791 0 0.3004582052603022 -0.12779471889298119 0 0.30190904986532702 -0.113508723122803 0 0.28438133240479319 -0.1052623626006699 0 0.28138176779067409 -0.12539570730267791 0 0.30190904986532702 -0.113508723122803 0 0.28138176779067409 -0.12539570730267791 0 0.28438133240479319 -0.1052623626006699 0 0.26300755725892189 -0.1099242941472343 0 0.28138176779067409 -0.12539570730267791 0 0.26300755725892189 -0.1099242941472343 0 0.26085448571602132 -0.1372826914825527 0 0.28138176779067409 -0.12539570730267791 0 0.28438133240479319 -0.1052623626006699 0 0.26300755725892189 -0.1099242941472343 0 0.27272884575793482 -0.091586189983399804 0 0.25550817011095572 -0.094099133434442817 0 0.26300755725892189 -0.1099242941472343 0 0.2382325232178539 -0.10771656498859369 0 0.25550817011095572 -0.094099133434442817 0 0.26300755725892189 -0.1099242941472343 0 0.27272884575793482 -0.091586189983399804 0 0.26300755725892189 -0.1099242941472343 0 0.26085448571602132 -0.1372826914825527 0 0.24306885048121241 -0.1274535872766269 0 0.28052249046147659 -0.076694912312946631 0 0.26214929559281619 -0.076527887009200171 0 0.2728225114631101 -0.061148357957275447 0 0.28718379601338118 -0.064770512503504976 0 0.28052249046147659 -0.076694912312946631 0 0.2728225114631101 -0.061148357957275447 0 0.28052249046147659 -0.076694912312946631 0 0.27272884575793482 -0.091586189983399804 0 0.26214929559281619 -0.076527887009200171 0 0.25550817011095572 -0.094099133434442817 0 0.26214929559281619 -0.076527887009200171 0 0.2414226287272514 -0.084740731043786183 0 0.25550817011095572 -0.094099133434442817 0 0.27272884575793482 -0.091586189983399804 0 0.26214929559281619 -0.076527887009200171 0 0.26214929559281619 -0.076527887009200171 0 0.25769157925344888 -0.056710040104492661 0 0.2479296535701859 -0.068937373060213525 0 0.26214929559281619 -0.076527887009200171 0 0.2479296535701859 -0.068937373060213525 0 0.2414226287272514 -0.084740731043786183 0 0.26214929559281619 -0.076527887009200171 0 0.25769157925344888 -0.056710040104492661 0 0.2728225114631101 -0.061148357957275447 0 0.2728225114631101 -0.061148357957275447 0 0.26722278416998629 -0.043844628727869719 0 0.2834411236591074 -0.046135131928309828 0 0.28718379601338118 -0.064770512503504976 0 0.2728225114631101 -0.061148357957275447 0 0.2834411236591074 -0.046135131928309828 0 0.25769157925344888 -0.056710040104492661 0 0.2728225114631101 -0.061148357957275447 0 0.26722278416998629 -0.043844628727869719 0 0.27085659376239513 -0.027341353725463039 0 0.28809270511293222 -0.02894019483402175 0 0.2834411236591074 -0.046135131928309828 0 0.26722278416998629 -0.043844628727869719 0 0.27085659376239513 -0.027341353725463039 0 0.2834411236591074 -0.046135131928309828 0 0.25769157925344888 -0.056710040104492661 0 0.26722278416998629 -0.043844628727869719 0 0.25097640050212638 -0.038723783444953051 0 0.26722278416998629 -0.043844628727869719 0 0.25097640050212638 -0.038723783444953051 0 0.27085659376239513 -0.027341353725463039 0 0.25620512930613332 -0.020027017818556939 0 0.26694629184387419 -0.0057623965805192346 0 0.27085659376239513 -0.027341353725463039 0 0.25097640050212638 -0.038723783444953051 0 0.25620512930613332 -0.020027017818556939 0 0.27085659376239513 -0.027341353725463039 0 0.25999108388868258 0.01144962762614974 0 0.25219536379736601 -0.0066985404507094526 0 0.26694629184387419 -0.0057623965805192346 0 0.25620512930613332 -0.020027017818556939 0 0.25219536379736601 -0.0066985404507094526 0 0.26694629184387419 -0.0057623965805192346 0 0.27639549678227437 0.010939631611838819 0 0.26694629184387419 -0.0057623965805192346 0 0.2836309234320703 -0.01068997771329596 0 0.26694629184387419 -0.0057623965805192346 0 0.27085659376239513 -0.027341353725463039 0 0.2836309234320703 -0.01068997771329596 0 0.27085659376239513 -0.027341353725463039 0 0.28809270511293222 -0.02894019483402175 0 0.2836309234320703 -0.01068997771329596 0 0.28809270511293222 -0.02894019483402175 0 0.2836309234320703 -0.01068997771329596 0 0.30371573231025428 -0.021142248587437771 0 0.2836309234320703 -0.01068997771329596 0 0.30018189393820832 -0.0038561980378313812 0 0.30371573231025428 -0.021142248587437771 0 0.29319248535186038 0.011293265119685829 0 0.2836309234320703 -0.01068997771329596 0 0.30018189393820832 -0.0038561980378313812 0 0.32294653159101888 -0.006529300740715227 0 0.30018189393820832 -0.0038561980378313812 0 0.30371573231025428 -0.021142248587437771 0 0.3088696369995102 0.00959182426317437 0 0.32294653159101888 -0.006529300740715227 0 0.30018189393820832 -0.0038561980378313812 0 0.28809270511293222 -0.02894019483402175 0 0.30371573231025428 -0.021142248587437771 0 0.30123640639901972 -0.039917335077400681 0 0.32279985648148551 -0.033867017967559837 0 0.30123640639901972 -0.039917335077400681 0 0.31085758706834371 -0.05136697486140706 0 0.32279985648148551 -0.033867017967559837 0 0.30371573231025428 -0.021142248587437771 0 0.30123640639901972 -0.039917335077400681 0 0.30123640639901972 -0.039917335077400681 0 0.31085758706834371 -0.05136697486140706 0 0.29868537725126237 -0.056749605608095152 0 0.30891311383799902 -0.065096180459575118 0 0.31085758706834371 -0.05136697486140706 0 0.29868537725126237 -0.056749605608095152 0 0.28718379601338118 -0.064770512503504976 0 0.29868537725126237 -0.056749605608095152 0 0.2834411236591074 -0.046135131928309828 0 0.30123640639901972 -0.039917335077400681 0 0.29868537725126237 -0.056749605608095152 0 0.2834411236591074 -0.046135131928309828 0 0.28809270511293222 -0.02894019483402175 0 0.30123640639901972 -0.039917335077400681 0 0.2834411236591074 -0.046135131928309828 0 0.28942265667802058 -0.20672441999798841 0 0.30762292406753622 -0.2187614554733279 0 0.29148470160546158 -0.2233846856759005 0 0.28942265667802058 -0.20672441999798841 0 0.29148470160546158 -0.2233846856759005 0 0.27803688130953758 -0.22398620582355031 0 0.28942265667802058 -0.20672441999798841 0 0.28581274911590648 -0.1923343762002343 0 0.27244847407590211 -0.21261796390767521 0 0.30589802954737311 -0.19353615421971879 0 0.27788027370478069 -0.18725856370257621 0 0.30589802954737311 -0.19353615421971879 0 0.27788027370478069 -0.18725856370257621 0 0.28849532140765821 -0.18496832816610451 0 0.28581274911590648 -0.1923343762002343 0 0.30589802954737311 -0.19353615421971879 0 0.27788027370478069 -0.18725856370257621 0 0.28581274911590648 -0.1923343762002343 0 0.29586436195461607 -0.1978866669283694 0 0.30589802954737311 -0.19353615421971879 0 0.28942265667802058 -0.20672441999798841 0 0.28581274911590648 -0.1923343762002343 0 0.29586436195461607 -0.1978866669283694 0 0.28942265667802058 -0.20672441999798841 0 0.29586436195461607 -0.1978866669283694 0 0.30639683928013839 -0.2008308760882998 0 0.30563301783390828 -0.18966055473828439 0 0.30589802954737311 -0.19353615421971879 0 0.28849532140765821 -0.18496832816610451 0 0.29586436195461607 -0.1978866669283694 0 0.30589802954737311 -0.19353615421971879 0 0.30639683928013839 -0.2008308760882998 0 0.30958911957945789 -0.19006872471161521 0 0.31427538141911637 -0.1856818714040431 0 0.31277577857559691 -0.195077166009579 0 0.30563301783390828 -0.18966055473828439 0 0.30958911957945789 -0.19006872471161521 0 0.3088810911632735 -0.18681967064090421 0 0.30563301783390828 -0.18966055473828439 0 0.30589802954737311 -0.19353615421971879 0 0.30958911957945789 -0.19006872471161521 0 0.30563301783390828 -0.18966055473828439 0 0.30589802954737311 -0.19353615421971879 0 0.30589802954737311 -0.19353615421971879 0 0.31277577857559691 -0.195077166009579 0 0.30589802954737311 -0.19353615421971879 0 0.30958911957945789 -0.19006872471161521 0 0.31277577857559691 -0.195077166009579 0 0.30958911957945789 -0.19006872471161521 0 0.3088810911632735 -0.18681967064090421 0 0.31427538141911637 -0.1856818714040431 0 0.30589802954737311 -0.19353615421971879 0 0.30639683928013839 -0.2008308760882998 0 0.30589802954737311 -0.19353615421971879 0 0.30639683928013839 -0.2008308760882998 0 0.31277577857559691 -0.195077166009579 0 0.28942265667802058 -0.20672441999798841 0 0.30639683928013839 -0.2008308760882998 0 0.30762292406753622 -0.2187614554733279 0 0.28942265667802058 -0.20672441999798841 0 0.30639683928013839 -0.2008308760882998 0 0.30639683928013839 -0.2008308760882998 0 0.30762292406753622 -0.2187614554733279 0 0.30639683928013839 -0.2008308760882998 0 0.30762292406753622 -0.2187614554733279 0 0.32179792188284989 -0.2206103912939591 0 0.30762292406753622 -0.2187614554733279 0 0.30884900885493471 -0.23669203485835591 0 0.30762292406753622 -0.2187614554733279 0 0.30884900885493471 -0.23669203485835591 0 0.29148470160546158 -0.2233846856759005 0 0.30762292406753622 -0.2187614554733279 0 0.30884900885493471 -0.23669203485835591 0 0.31411210564942199 -0.23169850104071041 0 0.30884900885493471 -0.23669203485835591 0 0.30363445916338661 -0.2483473566469335 0 0.29087292417619548 -0.2469181302430509 0 0.30958811349786658 -0.24750089131769429 0 0.30884900885493471 -0.23669203485835591 0 0.30363445916338661 -0.2483473566469335 0 0.30958811349786658 -0.24750089131769429 0 0.30363445916338661 -0.2483473566469335 0 0.30958811349786658 -0.24750089131769429 0 0.30884900885493471 -0.23669203485835591 0 0.30958811349786658 -0.24750089131769429 0 0.30884900885493471 -0.23669203485835591 0 0.31062781640684101 -0.23664446809830431 0 0.30884900885493471 -0.23669203485835591 0 0.31062781640684101 -0.23664446809830431 0 0.31411210564942199 -0.23169850104071041 0 0.30884900885493471 -0.23669203485835591 0 0.31062781640684101 -0.23664446809830431 0 0.30884900885493471 -0.23669203485835591 0 0.29087292417619548 -0.2469181302430509 0 0.2822492284829719 -0.23740333461027241 0 0.30884900885493471 -0.23669203485835591 0 0.2822492284829719 -0.23740333461027241 0 0.29087292417619548 -0.2469181302430509 0 0.2822492284829719 -0.23740333461027241 0 0.28233489974863007 -0.24795706515532359 0 0.30884900885493471 -0.23669203485835591 0 0.2822492284829719 -0.23740333461027241 0 0.29148470160546158 -0.2233846856759005 0 0.2822492284829719 -0.23740333461027241 0 0.29148470160546158 -0.2233846856759005 0 0.27803688130953758 -0.22398620582355031 0 0.2822492284829719 -0.23740333461027241 0 0.25564944811100898 -0.23811463436218661 0 0.26404896109345438 -0.22536629913493009 0 0.2822492284829719 -0.23740333461027241 0 0.27803688130953758 -0.22398620582355031 0 0.26404896109345438 -0.22536629913493009 0 0.26404896109345438 -0.22536629913493009 0 0.27244847407590211 -0.21261796390767521 0 0.27803688130953758 -0.22398620582355031 0 0.26404896109345438 -0.22536629913493009 0 0.27244847407590211 -0.21261796390767521 0 0.2822492284829719 -0.23740333461027241 0 0.27143476782747877 -0.249283429081468 0 0.25564944811100898 -0.23811463436218661 0 0.2822492284829719 -0.23740333461027241 0 0.25564944811100898 -0.23811463436218661 0 0.2822492284829719 -0.23740333461027241 0 0.28233489974863007 -0.24795706515532359 0 0.27143476782747877 -0.249283429081468 0 0.27143476782747877 -0.249283429081468 0 0.25564944811100898 -0.23811463436218661 0 0.25876930672602322 -0.25020190785496188 0 0.25564944811100898 -0.23811463436218661 0 0.25876930672602322 -0.25020190785496188 0 0.24671319788358659 -0.25167760090701791 0 0.25564944811100898 -0.23811463436218661 0 0.24671319788358659 -0.25167760090701791 0 0.25564944811100898 -0.23811463436218661 0 0.26404896109345438 -0.22536629913493009 0 0.24869176150819269 -0.22086644526018551 0 0.26404896109345438 -0.22536629913493009 0 0.27244847407590211 -0.21261796390767521 0 0.24869176150819269 -0.22086644526018551 0 0.25564944811100898 -0.23811463436218661 0 0.26404896109345438 -0.22536629913493009 0 0.27244847407590211 -0.21261796390767521 0 0.24869176150819269 -0.22086644526018551 0 0.25871493364087211 -0.20809097980072541 0 0.27244847407590211 -0.21261796390767521 0 0.24869176150819269 -0.22086644526018551 0 0.25871493364087211 -0.20809097980072541 0 0.24815738005926219 -0.2014534501685166 0 0.24869176150819269 -0.22086644526018551 0 0.25871493364087211 -0.20809097980072541 0 0.27244847407590211 -0.21261796390767521 0 0.26556211892013282 -0.19742605986652509 0 0.28942265667802058 -0.20672441999798841 0 0.27244847407590211 -0.21261796390767521 0 0.28942265667802058 -0.20672441999798841 0 0.27803688130953758 -0.22398620582355031 0 0.27244847407590211 -0.21261796390767521 0 0.28581274911590648 -0.1923343762002343 0 0.27244847407590211 -0.21261796390767521 0 0.26556211892013282 -0.19742605986652509 0 0.28581274911590648 -0.1923343762002343 0 0.26556211892013282 -0.19742605986652509 0 0.27788027370478069 -0.18725856370257621 0 0.28581274911590648 -0.1923343762002343 0 0.27244847407590211 -0.21261796390767521 0 0.25871493364087211 -0.20809097980072541 0 0.26556211892013282 -0.19742605986652509 0 0.24815738005926219 -0.2014534501685166 0 0.26556211892013282 -0.19742605986652509 0 0.27788027370478069 -0.18725856370257621 0 0.2498625178621883 -0.18098097318543371 0 0.26556211892013282 -0.19742605986652509 0 0.2498625178621883 -0.18098097318543371 0 0.24815738005926219 -0.2014534501685166 0 0.25710958069656281 -0.1669600250278008 0 0.27788027370478069 -0.18725856370257621 0 0.2498625178621883 -0.18098097318543371 0 0.27788027370478069 -0.18725856370257621 0 0.2498625178621883 -0.18098097318543371 0 0.25710958069656281 -0.1669600250278008 0 0.25673043119197247 -0.15030899611676679 0 0.26766755194881681 -0.15518918158750031 0 0.25710958069656281 -0.1669600250278008 0 0.25673043119197247 -0.15030899611676679 0 0.2479887591674346 -0.15796132492300161 0 0.25710958069656281 -0.1669600250278008 0 0.27283556796555541 -0.16561829801387959 0 0.26766755194881681 -0.15518918158750031 0 0.27283556796555541 -0.16561829801387959 0 0.28012163203937029 -0.1566910065325966 0 0.26766755194881681 -0.15518918158750031 0 0.27283556796555541 -0.16561829801387959 0 0.28012163203937029 -0.1566910065325966 0 0.28513276614223249 -0.16701093858110869 0 0.27283556796555541 -0.16561829801387959 0 0.28275106482659268 -0.17587578731922421 0 0.28513276614223249 -0.16701093858110869 0 0.25710958069656281 -0.1669600250278008 0 0.27283556796555541 -0.16561829801387959 0 0.27788027370478069 -0.18725856370257621 0 0.27283556796555541 -0.16561829801387959 0 0.27788027370478069 -0.18725856370257621 0 0.28275106482659268 -0.17587578731922421 0 0.26085448571602132 -0.1372826914825527 0 0.24032720364136839 -0.14916967566242739 0 0.26085448571602132 -0.1372826914825527 0 0.25673043119197247 -0.15030899611676679 0 0.24032720364136839 -0.14916967566242739 0 0.26085448571602132 -0.1372826914825527 0 0.25673043119197247 -0.15030899611676679 0 0.26833422515961258 -0.14536007014890021 0 0.25673043119197247 -0.15030899611676679 0 0.26766755194881681 -0.15518918158750031 0 0.26833422515961258 -0.14536007014890021 0 0.26085448571602132 -0.1372826914825527 0 0.26833422515961258 -0.14536007014890021 0 0.27815089140652499 -0.13957497365774951 0 0.26766755194881681 -0.15518918158750031 0 0.27644833385031869 -0.14738994954613949 0 0.26833422515961258 -0.14536007014890021 0 0.28012163203937029 -0.1566910065325966 0 0.26766755194881681 -0.15518918158750031 0 0.27644833385031869 -0.14738994954613949 0 0.28012163203937029 -0.1566910065325966 0 0.27644833385031869 -0.14738994954613949 0 0.28373251063967841 -0.14794453880223121 0 0.27644833385031869 -0.14738994954613949 0 0.27815089140652499 -0.13957497365774951 0 0.28373251063967841 -0.14794453880223121 0 0.27644833385031869 -0.14738994954613949 0 0.26833422515961258 -0.14536007014890021 0 0.27815089140652499 -0.13957497365774951 0 0.26085448571602132 -0.1372826914825527 0 0.27815089140652499 -0.13957497365774951 0 0.28138176779067409 -0.12539570730267791 0 0.26085448571602132 -0.1372826914825527 0 0.28138176779067409 -0.12539570730267791 0 0.28138176779067409 -0.12539570730267791 0 0.29140801172641112 -0.14010978811242261 0 0.3004582052603022 -0.12779471889298119 0 0.27815089140652499 -0.13957497365774951 0 0.28138176779067409 -0.12539570730267791 0 0.29140801172641112 -0.14010978811242261 0 0.29140801172641112 -0.14010978811242261 0 0.29253368417576647 -0.15595697616224771 0 0.30576102635191571 -0.14945152431560191 0 0.29140801172641112 -0.14010978811242261 0 0.28373251063967841 -0.14794453880223121 0 0.29253368417576647 -0.15595697616224771 0 0.27815089140652499 -0.13957497365774951 0 0.29140801172641112 -0.14010978811242261 0 0.28373251063967841 -0.14794453880223121 0 0.28012163203937029 -0.1566910065325966 0 0.28373251063967841 -0.14794453880223121 0 0.29253368417576647 -0.15595697616224771 0 0.29253368417576647 -0.15595697616224771 0 0.30576102635191571 -0.14945152431560191 0 0.30116787418039798 -0.16257757212375931 0 0.30576102635191571 -0.14945152431560191 0 0.3004582052603022 -0.12779471889298119 0 0.32225934484546148 -0.13460908872821109 0 0.29140801172641112 -0.14010978811242261 0 0.30576102635191571 -0.14945152431560191 0 0.3004582052603022 -0.12779471889298119 0 0.29646159122697718 -0.17749914702348801 0 0.28849532140765821 -0.18496832816610451 0 0.30525516684777709 -0.1825584012368002 0 0.28970131675383393 -0.17560613486154331 0 0.29646159122697718 -0.17749914702348801 0 0.28849532140765821 -0.18496832816610451 0 0.28970131675383393 -0.17560613486154331 0 0.29646159122697718 -0.17749914702348801 0 0.29501341370311751 -0.1705833515389639 0 0.27788027370478069 -0.18725856370257621 0 0.28849532140765821 -0.18496832816610451 0 0.28275106482659268 -0.17587578731922421 0 0.28970131675383393 -0.17560613486154331 0 0.28275106482659268 -0.17587578731922421 0 0.28513276614223249 -0.16701093858110869 0 0.28970131675383393 -0.17560613486154331 0 0.28849532140765821 -0.18496832816610451 0 0.28275106482659268 -0.17587578731922421 0 0.28012163203937029 -0.1566910065325966 0 0.29253368417576647 -0.15595697616224771 0 0.28513276614223249 -0.16701093858110869 0 0.29253368417576647 -0.15595697616224771 0 0.29501341370311751 -0.1705833515389639 0 0.30116787418039798 -0.16257757212375931 0 0.29253368417576647 -0.15595697616224771 0 0.28513276614223249 -0.16701093858110869 0 0.29501341370311751 -0.1705833515389639 0 0.28970131675383393 -0.17560613486154331 0 0.28513276614223249 -0.16701093858110869 0 0.29501341370311751 -0.1705833515389639 0 0.30116787418039798 -0.16257757212375931 0 0.31036288570838999 -0.16773374467173791 0 0.30165218633333202 -0.17219044331894981 0 0.30576102635191571 -0.14945152431560191 0 0.30116787418039798 -0.16257757212375931 0 0.31036288570838999 -0.16773374467173791 0 0.29501341370311751 -0.1705833515389639 0 0.30116787418039798 -0.16257757212375931 0 0.30165218633333202 -0.17219044331894981 0 0.30563301783390828 -0.18966055473828439 0 0.28849532140765821 -0.18496832816610451 0 0.30525516684777709 -0.1825584012368002 0 0.31036288570838999 -0.16773374467173791 0 0.30165218633333202 -0.17219044331894981 0 0.30525516684777709 -0.1825584012368002 0 0.28849532140765821 -0.18496832816610451 0 0.30525516684777709 -0.1825584012368002 0 0.29646159122697718 -0.17749914702348801 0 0.30165218633333202 -0.17219044331894981 0 0.30525516684777709 -0.1825584012368002 0 0.29646159122697718 -0.17749914702348801 0 0.29501341370311751 -0.1705833515389639 0 0.30165218633333202 -0.17219044331894981 0 0.30525516684777709 -0.1825584012368002 0 0.3088810911632735 -0.18681967064090421 0 0.31427538141911637 -0.1856818714040431 0 0.30563301783390828 -0.18966055473828439 0 0.30525516684777709 -0.1825584012368002 0 0.3088810911632735 -0.18681967064090421 0 0.31427538141911637 -0.1856818714040431 0 0.3220150122878962 -0.18014847430749639 0 0.32193298673075249 -0.1954366271083135 0 0.30525516684777709 -0.1825584012368002 0 0.31427538141911637 -0.1856818714040431 0 0.3220150122878962 -0.18014847430749639 0 0.31036288570838999 -0.16773374467173791 0 0.30525516684777709 -0.1825584012368002 0 0.3220150122878962 -0.18014847430749639 0 0.30525516684777709 -0.1825584012368002 0 0.3220150122878962 -0.18014847430749639 0 0.30576102635191571 -0.14945152431560191 0 0.31036288570838999 -0.16773374467173791 0 0.32213717856668078 -0.15737878151785381 0 0.31036288570838999 -0.16773374467173791 0 0.3220150122878962 -0.18014847430749639 0 0.32213717856668078 -0.15737878151785381 0 0.3220150122878962 -0.18014847430749639 0 0.32213717856668078 -0.15737878151785381 0 0.3220150122878962 -0.18014847430749639 0 0.32213717856668078 -0.15737878151785381 0 0.34447764835569128 -0.17691853333003549 0 0.32213717856668078 -0.15737878151785381 0 0.34543594435679659 -0.1492691984878215 0 0.34447764835569128 -0.17691853333003549 0 0.3220150122878962 -0.18014847430749639 0 0.34447764835569128 -0.17691853333003549 0 0.3440403630018698 -0.18776080578389881 0 0.3220150122878962 -0.18014847430749639 0 0.34447764835569128 -0.17691853333003549 0 0.30576102635191571 -0.14945152431560191 0 0.32213717856668078 -0.15737878151785381 0 0.32225934484546148 -0.13460908872821109 0 0.32213717856668078 -0.15737878151785381 0 0.32225934484546148 -0.13460908872821109 0 0.32213717856668078 -0.15737878151785381 0 0.32225934484546148 -0.13460908872821109 0 0.34543594435679659 -0.1492691984878215 0 0.32225934484546148 -0.13460908872821109 0 0.34610269782774172 -0.1264067858853018 0 0.34543594435679659 -0.1492691984878215 0 0.37323276691281448 -0.1229038701164792 0 0.34610269782774172 -0.1264067858853018 0 0.3587144836913761 -0.13671902143103251 0 0.34610269782774172 -0.1264067858853018 0 0.3587144836913761 -0.13671902143103251 0 0.34543594435679659 -0.1492691984878215 0 0.3587144836913761 -0.13671902143103251 0 0.34543594435679659 -0.1492691984878215 0 0.37008652566815092 -0.1482962312345272 0 0.34543594435679659 -0.1492691984878215 0 0.37008652566815092 -0.1482962312345272 0 0.3567351007010312 -0.1620431388512398 0 0.37323276691281448 -0.1229038701164792 0 0.37008652566815092 -0.1482962312345272 0 0.38038959685973761 -0.1396173822623972 0 0.37323276691281448 -0.1229038701164792 0 0.3587144836913761 -0.13671902143103251 0 0.37008652566815092 -0.1482962312345272 0 0.37323276691281448 -0.1229038701164792 0 0.37008652566815092 -0.1482962312345272 0 0.34447764835569128 -0.17691853333003549 0 0.3669402844234862 -0.17368859235257531 0 0.36614773927298783 -0.1800849844594862 0 0.34447764835569128 -0.17691853333003549 0 0.36614773927298783 -0.1800849844594862 0 0.3440403630018698 -0.18776080578389881 0 0.34447764835569128 -0.17691853333003549 0 0.3669402844234862 -0.17368859235257531 0 0.36614773927298783 -0.1800849844594862 0 0.3440403630018698 -0.18776080578389881 0 0.36614773927298783 -0.1800849844594862 0 0.35749649223975738 -0.1919049615494772 0 0.3440403630018698 -0.18776080578389881 0 0.34447764835569128 -0.17691853333003549 0 0.3567351007010312 -0.1620431388512398 0 0.3669402844234862 -0.17368859235257531 0 0.34543594435679659 -0.1492691984878215 0 0.34447764835569128 -0.17691853333003549 0 0.3567351007010312 -0.1620431388512398 0 0.37008652566815092 -0.1482962312345272 0 0.3567351007010312 -0.1620431388512398 0 0.3669402844234862 -0.17368859235257531 0 0.37008652566815092 -0.1482962312345272 0 0.3669402844234862 -0.17368859235257531 0 0.37787172449656481 -0.16228307606268749 0 0.37008652566815092 -0.1482962312345272 0 0.3669402844234862 -0.17368859235257531 0 0.3669402844234862 -0.17368859235257531 0 0.36614773927298783 -0.1800849844594862 0 0.38682236382641472 -0.17290662362302239 0 0.3669402844234862 -0.17368859235257531 0 0.36614773927298783 -0.1800849844594862 0 0.36614773927298783 -0.1800849844594862 0 0.36553406985947168 -0.18503772461618809 0 0.35749649223975738 -0.1919049615494772 0 0.36614773927298783 -0.1800849844594862 0 0.36553406985947168 -0.18503772461618809 0 0.36614773927298783 -0.1800849844594862 0 0.36553406985947168 -0.18503772461618809 0 0.37535459253074072 -0.18471760151362171 0 0.36553406985947168 -0.18503772461618809 0 0.37225308480047398 -0.19253627742039189 0 0.37535459253074072 -0.18471760151362171 0 0.36553406985947168 -0.18503772461618809 0 0.37225308480047398 -0.19253627742039189 0 0.3646266585355199 -0.19362049761287231 0 0.37225308480047398 -0.19253627742039189 0 0.36735980300520349 -0.19837524447346691 0 0.3646266585355199 -0.19362049761287231 0 0.37225308480047398 -0.19253627742039189 0 0.36735980300520349 -0.19837524447346691 0 0.37583650175530031 -0.2016574832531676 0 0.36735980300520349 -0.19837524447346691 0 0.36551984137861598 -0.20614003634951861 0 0.37583650175530031 -0.2016574832531676 0 0.36735980300520349 -0.19837524447346691 0 0.36048984277269303 -0.20024828000483719 0 0.3646266585355199 -0.19362049761287231 0 0.36735980300520349 -0.19837524447346691 0 0.36048984277269303 -0.20024828000483719 0 0.36551984137861598 -0.20614003634951861 0 0.36553406985947168 -0.18503772461618809 0 0.3646266585355199 -0.19362049761287231 0 0.35749649223975738 -0.1919049615494772 0 0.36048984277269303 -0.20024828000483719 0 0.3646266585355199 -0.19362049761287231 0 0.35749649223975738 -0.1919049615494772 0 0.37110175638545978 -0.21821900236535349 0 0.37206112151037052 -0.21044755686250821 0 0.36462374727687658 -0.21397145087137431 0 0.37206112151037052 -0.21044755686250821 0 0.36551984137861598 -0.20614003634951861 0 0.36462374727687658 -0.21397145087137431 0 0.37206112151037052 -0.21044755686250821 0 0.36551984137861598 -0.20614003634951861 0 0.37583650175530031 -0.2016574832531676 0 0.36048984277269303 -0.20024828000483719 0 0.36551984137861598 -0.20614003634951861 0 0.35812996561030352 -0.2091351789061513 0 0.36551984137861598 -0.20614003634951861 0 0.36462374727687658 -0.21397145087137431 0 0.35812996561030352 -0.2091351789061513 0 0.36462374727687658 -0.21397145087137431 0 0.35686095970929671 -0.21770817757982069 0 0.36406883906721321 -0.22217875316489391 0 0.36462374727687658 -0.21397145087137431 0 0.35686095970929671 -0.21770817757982069 0 0.35812996561030352 -0.2091351789061513 0 0.37110175638545978 -0.21821900236535349 0 0.36462374727687658 -0.21397145087137431 0 0.36406883906721321 -0.22217875316489391 0 0.35686095970929671 -0.21770817757982069 0 0.34955554723973131 -0.21263834545166069 0 0.34887122032821261 -0.22341776746958669 0 0.35686095970929671 -0.21770817757982069 0 0.35812996561030352 -0.2091351789061513 0 0.34955554723973131 -0.21263834545166069 0 0.36048984277269303 -0.20024828000483719 0 0.35812996561030352 -0.2091351789061513 0 0.3514740742477831 -0.2013102826355862 0 0.35812996561030352 -0.2091351789061513 0 0.34955554723973131 -0.21263834545166069 0 0.3514740742477831 -0.2013102826355862 0 0.34955554723973131 -0.21263834545166069 0 0.3514740742477831 -0.2013102826355862 0 0.33913223462234388 -0.2061741241174922 0 0.3514740742477831 -0.2013102826355862 0 0.3440403630018698 -0.18776080578389881 0 0.33913223462234388 -0.2061741241174922 0 0.36048984277269303 -0.20024828000483719 0 0.35749649223975738 -0.1919049615494772 0 0.3514740742477831 -0.2013102826355862 0 0.35749649223975738 -0.1919049615494772 0 0.3514740742477831 -0.2013102826355862 0 0.3440403630018698 -0.18776080578389881 0 0.3440403630018698 -0.18776080578389881 0 0.32193298673075249 -0.1954366271083135 0 0.3440403630018698 -0.18776080578389881 0 0.33913223462234388 -0.2061741241174922 0 0.32193298673075249 -0.1954366271083135 0 0.3220150122878962 -0.18014847430749639 0 0.3440403630018698 -0.18776080578389881 0 0.32193298673075249 -0.1954366271083135 0 0.33913223462234388 -0.2061741241174922 0 0.32179792188284989 -0.2206103912939591 0 0.33735605735224222 -0.22189159994192009 0 0.34955554723973131 -0.21263834545166069 0 0.33913223462234388 -0.2061741241174922 0 0.33735605735224222 -0.22189159994192009 0 0.30639683928013839 -0.2008308760882998 0 0.32193298673075249 -0.1954366271083135 0 0.32179792188284989 -0.2206103912939591 0 0.33913223462234388 -0.2061741241174922 0 0.32193298673075249 -0.1954366271083135 0 0.32179792188284989 -0.2206103912939591 0 0.32193298673075249 -0.1954366271083135 0 0.32179792188284989 -0.2206103912939591 0 0.30639683928013839 -0.2008308760882998 0 0.32193298673075249 -0.1954366271083135 0 0.30639683928013839 -0.2008308760882998 0 0.31277577857559691 -0.195077166009579 0 0.32193298673075249 -0.1954366271083135 0 0.31427538141911637 -0.1856818714040431 0 0.31277577857559691 -0.195077166009579 0 0.32193298673075249 -0.1954366271083135 0 0.3220150122878962 -0.18014847430749639 0 0.32193298673075249 -0.1954366271083135 0 0.32166285703494812 -0.24578415547960469 0 0.33566905551399651 -0.2437928135674137 0 0.32163889775409388 -0.25024975326929549 0 0.32166285703494812 -0.24578415547960469 0 0.32163889775409388 -0.25024975326929549 0 0.30958811349786658 -0.24750089131769429 0 0.32166285703494812 -0.24578415547960469 0 0.32163889775409388 -0.25024975326929549 0 0.30958811349786658 -0.24750089131769429 0 0.32166285703494812 -0.24578415547960469 0 0.30958811349786658 -0.24750089131769429 0 0.31062781640684101 -0.23664446809830431 0 0.32166285703494812 -0.24578415547960469 0 0.31062781640684101 -0.23664446809830431 0 0.32166285703494812 -0.24578415547960469 0 0.31411210564942199 -0.23169850104071041 0 0.32166285703494812 -0.24578415547960469 0 0.31411210564942199 -0.23169850104071041 0 0.32179792188284989 -0.2206103912939591 0 0.32166285703494812 -0.24578415547960469 0 0.32179792188284989 -0.2206103912939591 0 0.33247327263370469 -0.23307694105595009 0 0.32166285703494812 -0.24578415547960469 0 0.32179792188284989 -0.2206103912939591 0 0.30762292406753622 -0.2187614554733279 0 0.31411210564942199 -0.23169850104071041 0 0.32179792188284989 -0.2206103912939591 0 0.32179792188284989 -0.2206103912939591 0 0.33247327263370469 -0.23307694105595009 0 0.33735605735224222 -0.22189159994192009 0 0.33735605735224222 -0.22189159994192009 0 0.34365494949616421 -0.2331911970991413 0 0.34887122032821261 -0.22341776746958669 0 0.33247327263370469 -0.23307694105595009 0 0.33735605735224222 -0.22189159994192009 0 0.34365494949616421 -0.2331911970991413 0 0.33247327263370469 -0.23307694105595009 0 0.34365494949616421 -0.2331911970991413 0 0.33566905551399651 -0.2437928135674137 0 0.32166285703494812 -0.24578415547960469 0 0.33247327263370469 -0.23307694105595009 0 0.33566905551399651 -0.2437928135674137 0 0.32166285703494812 -0.24578415547960469 0 0.33566905551399651 -0.2437928135674137 0 0.33566905551399651 -0.2437928135674137 0 0.32163889775409388 -0.25024975326929549 0 0.33566905551399651 -0.2437928135674137 0 0.35690183776595641 -0.23402109203368479 0 0.33566905551399651 -0.2437928135674137 0 0.35690183776595641 -0.23402109203368479 0 0.35984764221249332 -0.24035520463003121 0 0.33566905551399651 -0.2437928135674137 0 0.35984764221249332 -0.24035520463003121 0 0.35035288977420698 -0.25825046555468528 0 0.34365494949616421 -0.2331911970991413 0 0.33566905551399651 -0.2437928135674137 0 0.35690183776595641 -0.23402109203368479 0 0.33566905551399651 -0.2437928135674137 0 0.35984764221249332 -0.24035520463003121 0 0.34955554723973131 -0.21263834545166069 0 0.33735605735224222 -0.22189159994192009 0 0.34887122032821261 -0.22341776746958669 0 0.34365494949616421 -0.2331911970991413 0 0.3512398747449833 -0.22900565090410421 0 0.35690183776595641 -0.23402109203368479 0 0.34365494949616421 -0.2331911970991413 0 0.34887122032821261 -0.22341776746958669 0 0.3512398747449833 -0.22900565090410421 0 0.3512398747449833 -0.22900565090410421 0 0.35690183776595641 -0.23402109203368479 0 0.35553149138960022 -0.22539254701400391 0 0.35690183776595641 -0.23402109203368479 0 0.35553149138960022 -0.22539254701400391 0 0.36406883906721321 -0.22217875316489391 0 0.35686095970929671 -0.21770817757982069 0 0.35553149138960022 -0.22539254701400391 0 0.36406883906721321 -0.22217875316489391 0 0.35686095970929671 -0.21770817757982069 0 0.34887122032821261 -0.22341776746958669 0 0.35553149138960022 -0.22539254701400391 0 0.34887122032821261 -0.22341776746958669 0 0.3512398747449833 -0.22900565090410421 0 0.35553149138960022 -0.22539254701400391 0 0.35984764221249332 -0.24035520463003121 0 0.38402622891099059 -0.23691759569265219 0 0.37813462001791542 -0.22424937049995461 0 0.35690183776595641 -0.23402109203368479 0 0.36406883906721321 -0.22217875316489391 0 0.37813462001791542 -0.22424937049995461 0 0.35690183776595641 -0.23402109203368479 0 0.37813462001791542 -0.22424937049995461 0 0.35690183776595641 -0.23402109203368479 0 0.35984764221249332 -0.24035520463003121 0 0.37813462001791542 -0.22424937049995461 0 0.37110175638545978 -0.21821900236535349 0 0.36406883906721321 -0.22217875316489391 0 0.37813462001791542 -0.22424937049995461 0 0.35984764221249332 -0.24035520463003121 0 0.38402622891099059 -0.23691759569265219 0 0.38402622891099059 -0.23691759569265219 0 0.39571010137100998 -0.24906745777905009 0 0.38300280269200088 -0.26034654640521032 0 0.35984764221249332 -0.24035520463003121 0 0.38402622891099059 -0.23691759569265219 0 0.38300280269200088 -0.26034654640521032 0 0.38402622891099059 -0.23691759569265219 0 0.38300280269200088 -0.26034654640521032 0 0.38402622891099059 -0.23691759569265219 0 0.39571010137100998 -0.24906745777905009 0 0.40198721041597718 -0.2343639794984699 0 0.39571010137100998 -0.24906745777905009 0 0.40198721041597718 -0.2343639794984699 0 0.41231227830994988 -0.24811801588271681 0 0.38402622891099059 -0.23691759569265219 0 0.40198721041597718 -0.2343639794984699 0 0.40198721041597718 -0.2343639794984699 0 0.38495827388279852 -0.21558060500277559 0 0.40054979601850688 -0.20731428422197379 0 0.38402622891099059 -0.23691759569265219 0 0.37813462001791542 -0.22424937049995461 0 0.38495827388279852 -0.21558060500277559 0 0.38402622891099059 -0.23691759569265219 0 0.40198721041597718 -0.2343639794984699 0 0.38495827388279852 -0.21558060500277559 0 0.38402622891099059 -0.23691759569265219 0 0.38495827388279852 -0.21558060500277559 0 0.37110175638545978 -0.21821900236535349 0 0.37813462001791542 -0.22424937049995461 0 0.38495827388279852 -0.21558060500277559 0 0.38495827388279852 -0.21558060500277559 0 0.38589031885460601 -0.1942436143128991 0 0.40054979601850688 -0.20731428422197379 0 0.38495827388279852 -0.21558060500277559 0 0.38589031885460601 -0.1942436143128991 0 0.38495827388279852 -0.21558060500277559 0 0.37583650175530031 -0.2016574832531676 0 0.38589031885460601 -0.1942436143128991 0 0.37110175638545978 -0.21821900236535349 0 0.37206112151037052 -0.21044755686250821 0 0.38495827388279852 -0.21558060500277559 0 0.37206112151037052 -0.21044755686250821 0 0.38495827388279852 -0.21558060500277559 0 0.37583650175530031 -0.2016574832531676 0 0.37225308480047398 -0.19253627742039189 0 0.38589031885460601 -0.1942436143128991 0 0.37535459253074072 -0.18471760151362171 0 0.37225308480047398 -0.19253627742039189 0 0.37583650175530031 -0.2016574832531676 0 0.38589031885460601 -0.1942436143128991 0 0.38589031885460601 -0.1942436143128991 0 0.40054979601850688 -0.20731428422197379 0 0.3974480270945111 -0.18713155452541499 0 0.40054979601850688 -0.20731428422197379 0 0.41208739392261212 -0.19366166303419699 0 0.3974480270945111 -0.18713155452541499 0 0.41208739392261212 -0.19366166303419699 0 0.3974480270945111 -0.18713155452541499 0 0.40787070639608869 -0.18345217516753551 0 0.40054979601850688 -0.20731428422197379 0 0.41629096549700229 -0.21630909592186801 0 0.41208739392261212 -0.19366166303419699 0 0.41208739392261212 -0.19366166303419699 0 0.42978781037076957 -0.19395711764867329 0 0.4218991912413671 -0.18028009737585851 0 0.41629096549700229 -0.21630909592186801 0 0.41208739392261212 -0.19366166303419699 0 0.42978781037076957 -0.19395711764867329 0 0.41629096549700229 -0.21630909592186801 0 0.42978781037076957 -0.19395711764867329 0 0.43829089151856171 -0.20948417940747011 0 0.43111678628474248 -0.2351358090820316 0 0.43829089151856171 -0.20948417940747011 0 0.41629096549700229 -0.21630909592186801 0 0.43111678628474248 -0.2351358090820316 0 0.43829089151856171 -0.20948417940747011 0 0.43111678628474248 -0.2351358090820316 0 0.42394268105092342 -0.26078743875659299 0 0.43111678628474248 -0.2351358090820316 0 0.41231227830994988 -0.24811801588271681 0 0.42394268105092342 -0.26078743875659299 0 0.40198721041597718 -0.2343639794984699 0 0.43111678628474248 -0.2351358090820316 0 0.41231227830994988 -0.24811801588271681 0 0.40198721041597718 -0.2343639794984699 0 0.41629096549700229 -0.21630909592186801 0 0.43111678628474248 -0.2351358090820316 0 0.40198721041597718 -0.2343639794984699 0 0.40054979601850688 -0.20731428422197379 0 0.41629096549700229 -0.21630909592186801 0 0.40500045553859643 -0.121101259466904 0 0.40307120678659658 -0.13971653490861449 0 0.38846232820672222 -0.1353634730532404 0 0.37323276691281448 -0.1229038701164792 0 0.38038959685973761 -0.1396173822623972 0 0.38846232820672222 -0.1353634730532404 0 0.37323276691281448 -0.1229038701164792 0 0.38038959685973761 -0.1396173822623972 0 0.37008652566815092 -0.1482962312345272 0 0.38038959685973761 -0.1396173822623972 0 0.38754642680666562 -0.15633089440831319 0 0.37008652566815092 -0.1482962312345272 0 0.38754642680666562 -0.15633089440831319 0 0.37787172449656481 -0.16228307606268749 0 0.38038959685973761 -0.1396173822623972 0 0.38846232820672222 -0.1353634730532404 0 0.38754642680666562 -0.15633089440831319 0 0.38038959685973761 -0.1396173822623972 0 0.38754642680666562 -0.15633089440831319 0 0.38846232820672222 -0.1353634730532404 0 0.38754642680666562 -0.15633089440831319 0 0.40307120678659658 -0.13971653490861449 0 0.40267533758379859 -0.15449518211271529 0 0.38754642680666562 -0.15633089440831319 0 0.40307120678659658 -0.13971653490861449 0 0.38846232820672222 -0.1353634730532404 0 0.38754642680666562 -0.15633089440831319 0 0.40467331999419909 -0.1615839825819726 0 0.39703259098007943 -0.16936156796594121 0 0.41682641956882732 -0.1624890250775389 0 0.40267533758379859 -0.15449518211271529 0 0.40467331999419909 -0.1615839825819726 0 0.39690107991496992 -0.16277095826981339 0 0.40267533758379859 -0.15449518211271529 0 0.40467331999419909 -0.1615839825819726 0 0.40983315879785748 -0.15716535685812441 0 0.39703259098007943 -0.16936156796594121 0 0.4077137793781716 -0.16782570156135471 0 0.39703259098007943 -0.16936156796594121 0 0.40327658847043418 -0.1748763561807683 0 0.4077137793781716 -0.16782570156135471 0 0.40467331999419909 -0.1615839825819726 0 0.39703259098007943 -0.16936156796594121 0 0.39690107991496992 -0.16277095826981339 0 0.39703259098007943 -0.16936156796594121 0 0.39335281535659322 -0.16989068921592559 0 0.39690107991496992 -0.16277095826981339 0 0.39703259098007943 -0.16936156796594121 0 0.39335281535659322 -0.16989068921592559 0 0.39501832943761128 -0.17378020315277931 0 0.39703259098007943 -0.16936156796594121 0 0.39335281535659322 -0.16989068921592559 0 0.39335281535659322 -0.16989068921592559 0 0.39501832943761128 -0.17378020315277931 0 0.39335281535659322 -0.16989068921592559 0 0.39690107991496992 -0.16277095826981339 0 0.38754642680666562 -0.15633089440831319 0 0.40267533758379859 -0.15449518211271529 0 0.39690107991496992 -0.16277095826981339 0 0.38754642680666562 -0.15633089440831319 0 0.3669402844234862 -0.17368859235257531 0 0.37787172449656481 -0.16228307606268749 0 0.38691366108795228 -0.17081658625533411 0 0.38754642680666562 -0.15633089440831319 0 0.37787172449656481 -0.16228307606268749 0 0.38691366108795228 -0.17081658625533411 0 0.39335281535659322 -0.16989068921592559 0 0.38754642680666562 -0.15633089440831319 0 0.38754642680666562 -0.15633089440831319 0 0.38691366108795228 -0.17081658625533411 0 0.39335281535659322 -0.16989068921592559 0 0.38754642680666562 -0.15633089440831319 0 0.38691366108795228 -0.17081658625533411 0 0.39335281535659322 -0.16989068921592559 0 0.38682236382641472 -0.17290662362302239 0 0.39335281535659322 -0.16989068921592559 0 0.38691366108795228 -0.17081658625533411 0 0.39335281535659322 -0.16989068921592559 0 0.38691366108795228 -0.17081658625533411 0 0.38682236382641472 -0.17290662362302239 0 0.38691366108795228 -0.17081658625533411 0 0.38682236382641472 -0.17290662362302239 0 0.38589031885460601 -0.1942436143128991 0 0.38682236382641472 -0.17290662362302239 0 0.37535459253074072 -0.18471760151362171 0 0.3669402844234862 -0.17368859235257531 0 0.38691366108795228 -0.17081658625533411 0 0.38682236382641472 -0.17290662362302239 0 0.36614773927298783 -0.1800849844594862 0 0.38682236382641472 -0.17290662362302239 0 0.38589031885460601 -0.1942436143128991 0 0.38682236382641472 -0.17290662362302239 0 0.3974480270945111 -0.18713155452541499 0 0.36614773927298783 -0.1800849844594862 0 0.38682236382641472 -0.17290662362302239 0 0.37535459253074072 -0.18471760151362171 0 0.3669402844234862 -0.17368859235257531 0 0.38691366108795228 -0.17081658625533411 0 0.38589031885460601 -0.1942436143128991 0 0.38682236382641472 -0.17290662362302239 0 0.39335281535659322 -0.16989068921592559 0 0.38682236382641472 -0.17290662362302239 0 0.39501832943761128 -0.17378020315277931 0 0.38682236382641472 -0.17290662362302239 0 0.3974480270945111 -0.18713155452541499 0 0.39501832943761128 -0.17378020315277931 0 0.3974480270945111 -0.18713155452541499 0 0.39501832943761128 -0.17378020315277931 0 0.40327658847043418 -0.1748763561807683 0 0.39703259098007943 -0.16936156796594121 0 0.39501832943761128 -0.17378020315277931 0 0.40327658847043418 -0.1748763561807683 0 0.3974480270945111 -0.18713155452541499 0 0.40327658847043418 -0.1748763561807683 0 0.40787070639608869 -0.18345217516753551 0 0.41185966391840267 -0.1749532260044456 0 0.4218991912413671 -0.18028009737585851 0 0.41682641956882732 -0.1624890250775389 0 0.41208739392261212 -0.19366166303419699 0 0.40787070639608869 -0.18345217516753551 0 0.4218991912413671 -0.18028009737585851 0 0.40327658847043418 -0.1748763561807683 0 0.41185966391840267 -0.1749532260044456 0 0.4077137793781716 -0.16782570156135471 0 0.40327658847043418 -0.1748763561807683 0 0.40787070639608869 -0.18345217516753551 0 0.41185966391840267 -0.1749532260044456 0 0.40787070639608869 -0.18345217516753551 0 0.41185966391840267 -0.1749532260044456 0 0.4218991912413671 -0.18028009737585851 0 0.42978781037076957 -0.19395711764867329 0 0.4218991912413671 -0.18028009737585851 0 0.44546499675238088 -0.18383254973290861 0 0.4218991912413671 -0.18028009737585851 0 0.43468999154127008 -0.16807981488675791 0 0.44546499675238088 -0.18383254973290861 0 0.42761904608943557 -0.15650777287488191 0 0.41682641956882732 -0.1624890250775389 0 0.43662024815757511 -0.15561648218913629 0 0.43468999154127008 -0.16807981488675791 0 0.41682641956882732 -0.1624890250775389 0 0.43662024815757511 -0.15561648218913629 0 0.4218991912413671 -0.18028009737585851 0 0.43468999154127008 -0.16807981488675791 0 0.41682641956882732 -0.1624890250775389 0 0.41682641956882732 -0.1624890250775389 0 0.43662024815757511 -0.15561648218913629 0 0.39703259098007943 -0.16936156796594121 0 0.41682641956882732 -0.1624890250775389 0 0.42761904608943557 -0.15650777287488191 0 0.41682641956882732 -0.1624890250775389 0 0.41515755804460519 -0.15009323766027069 0 0.39703259098007943 -0.16936156796594121 0 0.41682641956882732 -0.1624890250775389 0 0.4077137793781716 -0.16782570156135471 0 0.41185966391840267 -0.1749532260044456 0 0.41682641956882732 -0.1624890250775389 0 0.4077137793781716 -0.16782570156135471 0 0.41682641956882732 -0.1624890250775389 0 0.40983315879785748 -0.15716535685812441 0 0.41515755804460519 -0.15009323766027069 0 0.40467331999419909 -0.1615839825819726 0 0.41682641956882732 -0.1624890250775389 0 0.40983315879785748 -0.15716535685812441 0 0.40267533758379859 -0.15449518211271529 0 0.40983315879785748 -0.15716535685812441 0 0.41515755804460519 -0.15009323766027069 0 0.40307120678659658 -0.13971653490861449 0 0.41515755804460519 -0.15009323766027069 0 0.418003462242164 -0.13501698716322261 0 0.40307120678659658 -0.13971653490861449 0 0.40267533758379859 -0.15449518211271529 0 0.41515755804460519 -0.15009323766027069 0 0.41515755804460519 -0.15009323766027069 0 0.42748637237971171 -0.14519653383788569 0 0.418003462242164 -0.13501698716322261 0 0.42761904608943557 -0.15650777287488191 0 0.41515755804460519 -0.15009323766027069 0 0.42748637237971171 -0.14519653383788569 0 0.42761904608943557 -0.15650777287488191 0 0.43662024815757511 -0.15561648218913629 0 0.44046056215595042 -0.14682740565960931 0 0.42761904608943557 -0.15650777287488191 0 0.44046056215595042 -0.14682740565960931 0 0.42761904608943557 -0.15650777287488191 0 0.42748637237971171 -0.14519653383788569 0 0.44046056215595042 -0.14682740565960931 0 0.42748637237971171 -0.14519653383788569 0 0.43071662478582839 -0.13648454860546011 0 0.44046056215595042 -0.14682740565960931 0 0.42748637237971171 -0.14519653383788569 0 0.43071662478582839 -0.13648454860546011 0 0.418003462242164 -0.13501698716322261 0 0.42238772313322698 -0.1225946140427944 0 0.43071662478582839 -0.13648454860546011 0 0.44524500401808909 -0.1327872023237886 0 0.42238772313322698 -0.1225946140427944 0 0.43071662478582839 -0.13648454860546011 0 0.418003462242164 -0.13501698716322261 0 0.42238772313322698 -0.1225946140427944 0 0.40500045553859643 -0.121101259466904 0 0.418003462242164 -0.13501698716322261 0 0.40500045553859643 -0.121101259466904 0 0.40307120678659658 -0.13971653490861449 0 0.418003462242164 -0.13501698716322261 0 0.47636818702569528 -0.11975902893781409 0 0.45330207822246532 -0.13714703844433701 0 0.47636818702569528 -0.11975902893781409 0 0.4493779550794611 -0.1211768214903037 0 0.45330207822246532 -0.13714703844433701 0 0.4493779550794611 -0.1211768214903037 0 0.42238772313322698 -0.1225946140427944 0 0.44524500401808909 -0.1327872023237886 0 0.4493779550794611 -0.1211768214903037 0 0.45330207822246532 -0.13714703844433701 0 0.44524500401808909 -0.1327872023237886 0 0.43071662478582839 -0.13648454860546011 0 0.44524500401808909 -0.1327872023237886 0 0.44046056215595042 -0.14682740565960931 0 0.45330207822246532 -0.13714703844433701 0 0.44524500401808909 -0.1327872023237886 0 0.45330207822246532 -0.13714703844433701 0 0.44524500401808909 -0.1327872023237886 0 0.44046056215595042 -0.14682740565960931 0 0.43662024815757511 -0.15561648218913629 0 0.45641407674632289 -0.14874393930073371 0 0.45263910198620011 -0.15818092005834719 0 0.43662024815757511 -0.15561648218913629 0 0.44046056215595042 -0.14682740565960931 0 0.45641407674632289 -0.14874393930073371 0 0.43662024815757511 -0.15561648218913629 0 0.45641407674632289 -0.14874393930073371 0 0.45330207822246532 -0.13714703844433701 0 0.44046056215595042 -0.14682740565960931 0 0.45641407674632289 -0.14874393930073371 0 0.45330207822246532 -0.13714703844433701 0 0.44046056215595042 -0.14682740565960931 0 0.45330207822246532 -0.13714703844433701 0 0.47665103911123291 -0.14978160534516799 0 0.45641407674632289 -0.14874393930073371 0 0.46618729380645563 -0.15919422320173429 0 0.47665103911123291 -0.14978160534516799 0 0.45641407674632289 -0.14874393930073371 0 0.46618729380645563 -0.15919422320173429 0 0.45263910198620011 -0.15818092005834719 0 0.45330207822246532 -0.13714703844433701 0 0.45641407674632289 -0.14874393930073371 0 0.47665103911123291 -0.14978160534516799 0 0.46618729380645563 -0.15919422320173429 0 0.45945524213552419 -0.1714021397878043 0 0.47022713667333721 -0.18108252826219781 0 0.46618729380645563 -0.15919422320173429 0 0.45945524213552419 -0.1714021397878043 0 0.45263910198620011 -0.15818092005834719 0 0.45945524213552419 -0.1714021397878043 0 0.45263910198620011 -0.15818092005834719 0 0.44546499675238088 -0.18383254973290861 0 0.45263910198620011 -0.15818092005834719 0 0.44546499675238088 -0.18383254973290861 0 0.43468999154127008 -0.16807981488675791 0 0.45263910198620011 -0.15818092005834719 0 0.44546499675238088 -0.18383254973290861 0 0.43468999154127008 -0.16807981488675791 0 0.43662024815757511 -0.15561648218913629 0 0.45263910198620011 -0.15818092005834719 0 0.45945524213552419 -0.1714021397878043 0 0.44546499675238088 -0.18383254973290861 0 0.47022713667333721 -0.18108252826219781 0 0.47022713667333721 -0.18108252826219781 0 0.5 -0.18589887007449901 0 0.48307808196729418 -0.1663162199084125 0 0.5 -0.18589887007449901 0 0.50000000000000067 -0.1624161722459985 0 0.48307808196729418 -0.1663162199084125 0 0.50000000000000067 -0.1624161722459985 0 0.48307808196729418 -0.1663162199084125 0 0.47665103911123291 -0.14978160534516799 0 0.46618729380645563 -0.15919422320173429 0 0.48307808196729418 -0.1663162199084125 0 0.47665103911123291 -0.14978160534516799 0 0.46618729380645563 -0.15919422320173429 0 0.47022713667333721 -0.18108252826219781 0 0.48307808196729418 -0.1663162199084125 0 0.50000000000000067 -0.1624161722459985 0 0.47665103911123291 -0.14978160534516799 0 0.5 -0.1404669129204629 0 0.47665103911123291 -0.14978160534516799 0 0.5 -0.1404669129204629 0 0.48416620376830172 -0.13469818200497929 0 0.50000000000000067 -0.1624161722459985 0 0.47665103911123291 -0.14978160534516799 0 0.50000000000000089 -0.1185176535949273 0 0.5 -0.1404669129204629 0 0.48416620376830172 -0.13469818200497929 0 0.45330207822246532 -0.13714703844433701 0 0.47665103911123291 -0.14978160534516799 0 0.48416620376830172 -0.13469818200497929 0 0.47636818702569528 -0.11975902893781409 0 0.45330207822246532 -0.13714703844433701 0 0.48416620376830172 -0.13469818200497929 0 0.45316815662547361 -0.23372198042994741 0 0.45853346896462249 -0.2038839215385779 0 0.4691648842659405 -0.2211229168172496 0 0.45316815662547361 -0.23372198042994741 0 0.4691648842659405 -0.2211229168172496 0 0.47946273666750749 -0.24181348798170341 0 0.45316815662547361 -0.23372198042994741 0 0.47946273666750749 -0.24181348798170341 0 0.4620025300712774 -0.25690470115678388 0 0.45316815662547361 -0.23372198042994741 0 0.4620025300712774 -0.25690470115678388 0 0.44279147430472882 -0.25666400499660602 0 0.43111678628474248 -0.2351358090820316 0 0.45316815662547361 -0.23372198042994741 0 0.44279147430472882 -0.25666400499660602 0 0.43111678628474248 -0.2351358090820316 0 0.45316815662547361 -0.23372198042994741 0 0.43829089151856171 -0.20948417940747011 0 0.45316815662547361 -0.23372198042994741 0 0.43829089151856171 -0.20948417940747011 0 0.45853346896462249 -0.2038839215385779 0 0.44546499675238088 -0.18383254973290861 0 0.43829089151856171 -0.20948417940747011 0 0.45853346896462249 -0.2038839215385779 0 0.42978781037076957 -0.19395711764867329 0 0.44546499675238088 -0.18383254973290861 0 0.43829089151856171 -0.20948417940747011 0 0.44546499675238088 -0.18383254973290861 0 0.43829089151856171 -0.20948417940747011 0 0.44546499675238088 -0.18383254973290861 0 0.47022713667333721 -0.18108252826219781 0 0.45853346896462249 -0.2038839215385779 0 0.48018609909203142 -0.2026401416940897 0 0.48681786870822841 -0.22112291681724969 0 0.4691648842659405 -0.2211229168172496 0 0.45853346896462249 -0.2038839215385779 0 0.48018609909203142 -0.2026401416940897 0 0.4691648842659405 -0.2211229168172496 0 0.47022713667333721 -0.18108252826219781 0 0.45853346896462249 -0.2038839215385779 0 0.48018609909203142 -0.2026401416940897 0 0.47022713667333721 -0.18108252826219781 0 0.5 -0.18589887007449901 0 0.48018609909203142 -0.2026401416940897 0 0.5 -0.18589887007449901 0 0.48018609909203142 -0.2026401416940897 0 0.5 -0.2093815679029995 0 0.48018609909203142 -0.2026401416940897 0 0.5 -0.2093815679029995 0 0.48681786870822841 -0.22112291681724969 0 0.5 -0.2093815679029995 0 0.48681786870822841 -0.22112291681724969 0 0.5 -0.2328642657314999 0 0.48681786870822841 -0.22112291681724969 0 0.5 -0.2328642657314999 0 0.47946273666750749 -0.24181348798170341 0 0.48681786870822841 -0.22112291681724969 0 0.4691648842659405 -0.2211229168172496 0 0.47946273666750749 -0.24181348798170341 0 0.5 -0.2328642657314999 0 0.47946273666750749 -0.24181348798170341 0 0.50000000000000655 -0.25634696356000042 0 0.47946273666750749 -0.24181348798170341 0 0.50000000000000655 -0.25634696356000042 0 0.47880994824413708 -0.26128754621861572 0 0.50000000000000655 -0.25634696356000042 0 0.5 -0.28054630503034261 0 0.48450793659401431 -0.27944507822713788 0 0.50000000000000655 -0.25634696356000042 0 0.48450793659401431 -0.27944507822713788 0 0.50000000000000655 -0.25634696356000042 0 0.48450793659401431 -0.27944507822713788 0 0.47880994824413708 -0.26128754621861572 0 0.48450793659401431 -0.27944507822713788 0 0.47880994824413708 -0.26128754621861572 0 0.46807653788788661 -0.2719275001674531 0 0.48450793659401431 -0.27944507822713788 0 0.46807653788788661 -0.2719275001674531 0 0.46281973196571752 -0.28921538132217611 0 0.47946273666750749 -0.24181348798170341 0 0.47880994824413708 -0.26128754621861572 0 0.4620025300712774 -0.25690470115678388 0 0.47880994824413708 -0.26128754621861572 0 0.4620025300712774 -0.25690470115678388 0 0.46807653788788661 -0.2719275001674531 0 0.4620025300712774 -0.25690470115678388 0 0.46807653788788661 -0.2719275001674531 0 0.45235910624224879 -0.27478970606509973 0 0.46807653788788661 -0.2719275001674531 0 0.45235910624224879 -0.27478970606509973 0 0.46281973196571752 -0.28921538132217611 0 0.45235910624224879 -0.27478970606509973 0 0.44279147430472882 -0.25666400499660602 0 0.43415958555370721 -0.27864439448918082 0 0.4620025300712774 -0.25690470115678388 0 0.45235910624224879 -0.27478970606509973 0 0.44279147430472882 -0.25666400499660602 0 0.44015885588384551 -0.31138657259819708 0 0.44480681697569868 -0.29317360947857918 0 0.45406501755905992 -0.30439201277092642 0 0.45235910624224879 -0.27478970606509973 0 0.44480681697569868 -0.29317360947857918 0 0.43415958555370721 -0.27864439448918082 0 0.44480681697569868 -0.29317360947857918 0 0.46281973196571752 -0.28921538132217611 0 0.45406501755905992 -0.30439201277092642 0 0.44480681697569868 -0.29317360947857918 0 0.46281973196571752 -0.28921538132217611 0 0.45235910624224879 -0.27478970606509973 0 0.44480681697569868 -0.29317360947857918 0 0.46281973196571752 -0.28921538132217611 0 0.46281973196571752 -0.28921538132217611 0 0.45406501755905992 -0.30439201277092642 0 0.46901587318801741 -0.30254319289427251 0 0.45406501755905992 -0.30439201277092642 0 0.46901587318801741 -0.30254319289427251 0 0.45352380978201851 -0.32564130756140558 0 0.46901587318801741 -0.30254319289427251 0 0.48560696871105957 -0.31328641856266992 0 0.47214638950999599 -0.32087628825264319 0 0.46901587318801741 -0.30254319289427251 0 0.4878261556986182 -0.29611332824302161 0 0.48560696871105957 -0.31328641856266992 0 0.48450793659401431 -0.27944507822713788 0 0.46901587318801741 -0.30254319289427251 0 0.48450793659401431 -0.27944507822713788 0 0.46281973196571752 -0.28921538132217611 0 0.46901587318801741 -0.30254319289427251 0 0.48450793659401431 -0.27944507822713788 0 0.46901587318801741 -0.30254319289427251 0 0.4878261556986182 -0.29611332824302161 0 0.5 -0.28054630503034261 0 0.4878261556986182 -0.29611332824302161 0 0.5 -0.30474564650068492 0 0.5 -0.28054630503034261 0 0.48450793659401431 -0.27944507822713788 0 0.4878261556986182 -0.29611332824302161 0 0.4878261556986182 -0.29611332824302161 0 0.5 -0.30474564650068492 0 0.48560696871105957 -0.31328641856266992 0 0.48560696871105957 -0.31328641856266992 0 0.5 -0.32894498797102711 0 0.48112480506060862 -0.32996241999187848 0 0.5 -0.30474564650068492 0 0.48560696871105957 -0.31328641856266992 0 0.5 -0.32894498797102711 0 0.5 -0.32894498797102711 0 0.48666199103325519 -0.34270609766842819 0 0.48112480506060862 -0.32996241999187848 0 0.5 -0.32894498797102711 0 0.48666199103325519 -0.34270609766842819 0 0.5 -0.35314432944136942 0 0.48666199103325519 -0.34270609766842819 0 0.48112480506060862 -0.32996241999187848 0 0.47566259341262168 -0.33827643674834301 0 0.48666199103325519 -0.34270609766842819 0 0.47566259341262168 -0.33827643674834301 0 0.47595204247363021 -0.34956271538282319 0 0.47566259341262168 -0.33827643674834301 0 0.47595204247363021 -0.34956271538282319 0 0.4647379261278205 -0.33760201147211788 0 0.47595204247363021 -0.34956271538282319 0 0.4647379261278205 -0.33760201147211788 0 0.48112480506060862 -0.32996241999187848 0 0.47566259341262168 -0.33827643674834301 0 0.47114698923246762 -0.33093694109060839 0 0.47566259341262168 -0.33827643674834301 0 0.47114698923246762 -0.33093694109060839 0 0.4647379261278205 -0.33760201147211788 0 0.48112480506060862 -0.32996241999187848 0 0.47114698923246762 -0.33093694109060839 0 0.47214638950999599 -0.32087628825264319 0 0.48560696871105957 -0.31328641856266992 0 0.48112480506060862 -0.32996241999187848 0 0.47214638950999599 -0.32087628825264319 0 0.487395322998739 -0.356960436074439 0 0.47514410666793511 -0.36499611704455298 0 0.49999999999999772 -0.37734367091171173 0 0.487395322998739 -0.356960436074439 0 0.5 -0.35314432944136942 0 0.49999999999999772 -0.37734367091171173 0 0.48666199103325519 -0.34270609766842819 0 0.487395322998739 -0.356960436074439 0 0.5 -0.35314432944136942 0 0.48666199103325519 -0.34270609766842819 0 0.487395322998739 -0.356960436074439 0 0.47595204247363021 -0.34956271538282319 0 0.47595204247363021 -0.34956271538282319 0 0.46678137551905857 -0.35390347024822189 0 0.46381135638926368 -0.34202379795142612 0 0.47595204247363021 -0.34956271538282319 0 0.47514410666793511 -0.36499611704455298 0 0.46678137551905857 -0.35390347024822189 0 0.487395322998739 -0.356960436074439 0 0.47595204247363021 -0.34956271538282319 0 0.47514410666793511 -0.36499611704455298 0 0.4604955118433347 -0.36097859641582758 0 0.44688499677283677 -0.36567516209363887 0 0.46078093701406542 -0.37526767427794788 0 0.47514410666793511 -0.36499611704455298 0 0.4604955118433347 -0.36097859641582758 0 0.46678137551905857 -0.35390347024822189 0 0.47514410666793511 -0.36499611704455298 0 0.4604955118433347 -0.36097859641582758 0 0.46078093701406542 -0.37526767427794788 0 0.4604955118433347 -0.36097859641582758 0 0.45360130187118219 -0.35689271755348551 0 0.44688499677283677 -0.36567516209363887 0 0.4604955118433347 -0.36097859641582758 0 0.45850386022112882 -0.3519561244464795 0 0.45360130187118219 -0.35689271755348551 0 0.45850386022112882 -0.3519561244464795 0 0.45360130187118219 -0.35689271755348551 0 0.4485208386474287 -0.34896098725799568 0 0.4604955118433347 -0.36097859641582758 0 0.45850386022112882 -0.3519561244464795 0 0.46678137551905857 -0.35390347024822189 0 0.45850386022112882 -0.3519561244464795 0 0.46678137551905857 -0.35390347024822189 0 0.46381135638926368 -0.34202379795142612 0 0.45850386022112882 -0.3519561244464795 0 0.4485208386474287 -0.34896098725799568 0 0.46381135638926368 -0.34202379795142612 0 0.4485208386474287 -0.34896098725799568 0 0.46381135638926368 -0.34202379795142612 0 0.45360130187118219 -0.35689271755348551 0 0.4485208386474287 -0.34896098725799568 0 0.44688499677283677 -0.36567516209363887 0 0.4485208386474287 -0.34896098725799568 0 0.44688499677283677 -0.36567516209363887 0 0.43323032090559399 -0.35589817656456652 0 0.44337706534380772 -0.34076974206298699 0 0.43323032090559399 -0.35589817656456652 0 0.4485208386474287 -0.34896098725799568 0 0.44337706534380772 -0.34076974206298699 0 0.43323032090559399 -0.35589817656456652 0 0.4485208386474287 -0.34896098725799568 0 0.43323032090559399 -0.35589817656456652 0 0.46901587318801741 -0.30254319289427251 0 0.45352380978201851 -0.32564130756140558 0 0.46901587318801741 -0.30254319289427251 0 0.47214638950999599 -0.32087628825264319 0 0.45352380978201851 -0.32564130756140558 0 0.47114698923246762 -0.33093694109060839 0 0.47214638950999599 -0.32087628825264319 0 0.45352380978201851 -0.32564130756140558 0 0.47114698923246762 -0.33093694109060839 0 0.45352380978201851 -0.32564130756140558 0 0.4647379261278205 -0.33760201147211788 0 0.47595204247363021 -0.34956271538282319 0 0.4647379261278205 -0.33760201147211788 0 0.46381135638926368 -0.34202379795142612 0 0.4647379261278205 -0.33760201147211788 0 0.46381135638926368 -0.34202379795142612 0 0.45786643847056802 -0.33863110777401229 0 0.4485208386474287 -0.34896098725799568 0 0.46381135638926368 -0.34202379795142612 0 0.45786643847056802 -0.33863110777401229 0 0.45352380978201851 -0.32564130756140558 0 0.4647379261278205 -0.33760201147211788 0 0.45352380978201851 -0.32564130756140558 0 0.4647379261278205 -0.33760201147211788 0 0.45786643847056802 -0.33863110777401229 0 0.45352380978201851 -0.32564130756140558 0 0.45786643847056802 -0.33863110777401229 0 0.45193340799950982 -0.33827439437703821 0 0.45352380978201851 -0.32564130756140558 0 0.44337706534380772 -0.34076974206298699 0 0.45352380978201851 -0.32564130756140558 0 0.45193340799950982 -0.33827439437703821 0 0.44337706534380772 -0.34076974206298699 0 0.45352380978201851 -0.32564130756140558 0 0.44337706534380772 -0.34076974206298699 0 0.43382567322054272 -0.32694804117526838 0 0.4485208386474287 -0.34896098725799568 0 0.45786643847056802 -0.33863110777401229 0 0.45193340799950982 -0.33827439437703821 0 0.4485208386474287 -0.34896098725799568 0 0.45193340799950982 -0.33827439437703821 0 0.44337706534380772 -0.34076974206298699 0 0.44015885588384551 -0.31138657259819708 0 0.45406501755905992 -0.30439201277092642 0 0.45352380978201851 -0.32564130756140558 0 0.44015885588384551 -0.31138657259819708 0 0.45352380978201851 -0.32564130756140558 0 0.43382567322054272 -0.32694804117526838 0 0.44015885588384551 -0.31138657259819708 0 0.45352380978201851 -0.32564130756140558 0 0.44015885588384551 -0.31138657259819708 0 0.43382567322054272 -0.32694804117526838 0 0.41941727890581482 -0.3151739859670375 0 0.43382567322054272 -0.32694804117526838 0 0.41514621567989668 -0.33250620501908079 0 0.41941727890581482 -0.3151739859670375 0 0.43382567322054272 -0.32694804117526838 0 0.42907131682449873 -0.3405772123220786 0 0.41514621567989668 -0.33250620501908079 0 0.44337706534380772 -0.34076974206298699 0 0.43382567322054272 -0.32694804117526838 0 0.42907131682449873 -0.3405772123220786 0 0.41514621567989668 -0.33250620501908079 0 0.41855565726377009 -0.34787339677875578 0 0.39998973782194369 -0.34664845198360111 0 0.42907131682449873 -0.3405772123220786 0 0.41514621567989668 -0.33250620501908079 0 0.41855565726377009 -0.34787339677875578 0 0.41514621567989668 -0.33250620501908079 0 0.41941727890581482 -0.3151739859670375 0 0.39832313067340619 -0.32176295812650108 0 0.41941727890581482 -0.3151739859670375 0 0.39832313067340619 -0.32176295812650108 0 0.40387492611984771 -0.30216814273264853 0 0.44688499677283677 -0.36567516209363887 0 0.43323032090559399 -0.35589817656456652 0 0.42152401487988789 -0.37335186183709701 0 0.43323032090559399 -0.35589817656456652 0 0.42152401487988789 -0.37335186183709701 0 0.43323032090559399 -0.35589817656456652 0 0.41472986923247579 -0.36429168799958472 0 0.43323032090559399 -0.35589817656456652 0 0.41472986923247579 -0.36429168799958472 0 0.42152401487988789 -0.37335186183709701 0 0.43323032090559399 -0.35589817656456652 0 0.41855565726377009 -0.34787339677875578 0 0.41472986923247579 -0.36429168799958472 0 0.44337706534380772 -0.34076974206298699 0 0.42907131682449873 -0.3405772123220786 0 0.43323032090559399 -0.35589817656456652 0 0.42907131682449873 -0.3405772123220786 0 0.43323032090559399 -0.35589817656456652 0 0.41855565726377009 -0.34787339677875578 0 0.41855565726377009 -0.34787339677875578 0 0.41472986923247579 -0.36429168799958472 0 0.39998973782194369 -0.34664845198360111 0 0.41472986923247579 -0.36429168799958472 0 0.39622941755935809 -0.37268519943460399 0 0.40843337186809892 -0.37632582157284 0 0.41472986923247579 -0.36429168799958472 0 0.42152401487988789 -0.37335186183709701 0 0.40843337186809892 -0.37632582157284 0 0.41472986923247579 -0.36429168799958472 0 0.39622941755935809 -0.37268519943460399 0 0.41472986923247579 -0.36429168799958472 0 0.39622941755935809 -0.37268519943460399 0 0.39998973782194369 -0.34664845198360111 0 0.39622941755935809 -0.37268519943460399 0 0.39998973782194369 -0.34664845198360111 0 0.37880462734216569 -0.35645395652318917 0 0.39998973782194369 -0.34664845198360111 0 0.37880462734216569 -0.35645395652318917 0 0.37988028879809332 -0.33182920217675782 0 0.37880462734216569 -0.35645395652318917 0 0.37988028879809332 -0.33182920217675782 0 0.37880462734216569 -0.35645395652318917 0 0.37772896588623939 -0.38107871086962092 0 0.39622941755935809 -0.37268519943460399 0 0.37880462734216569 -0.35645395652318917 0 0.37772896588623939 -0.38107871086962092 0 0.39998973782194369 -0.34664845198360111 0 0.39832313067340619 -0.32176295812650108 0 0.37988028879809332 -0.33182920217675782 0 0.41514621567989668 -0.33250620501908079 0 0.39998973782194369 -0.34664845198360111 0 0.39832313067340619 -0.32176295812650108 0 0.39832313067340619 -0.32176295812650108 0 0.37988028879809332 -0.33182920217675782 0 0.38095595025401802 -0.30720444783032619 0 0.37988028879809332 -0.33182920217675782 0 0.38095595025401802 -0.30720444783032619 0 0.39832313067340619 -0.32176295812650108 0 0.38095595025401802 -0.30720444783032619 0 0.40387492611984771 -0.30216814273264853 0 0.38095595025401802 -0.30720444783032619 0 0.40387492611984771 -0.30216814273264853 0 0.38095595025401802 -0.30720444783032619 0 0.40387492611984771 -0.30216814273264853 0 0.3907385834974334 -0.29585879105464069 0 0.40387492611984771 -0.30216814273264853 0 0.40575365411369718 -0.2873112167757142 0 0.39651815671053869 -0.28739463329971637 0 0.40387492611984771 -0.30216814273264853 0 0.3907385834974334 -0.29585879105464069 0 0.39651815671053869 -0.28739463329971637 0 0.38095595025401802 -0.30720444783032619 0 0.38197937647301089 -0.28377549711776828 0 0.36533471551490548 -0.2920779418598613 0 0.38095595025401802 -0.30720444783032619 0 0.3907385834974334 -0.29585879105464069 0 0.38197937647301089 -0.28377549711776828 0 0.3907385834974334 -0.29585879105464069 0 0.39651815671053869 -0.28739463329971637 0 0.38197937647301089 -0.28377549711776828 0 0.38095595025401802 -0.30720444783032619 0 0.38197937647301089 -0.28377549711776828 0 0.38197937647301089 -0.28377549711776828 0 0.38300280269200088 -0.26034654640521032 0 0.36523559088286278 -0.26805760339192458 0 0.38197937647301089 -0.28377549711776828 0 0.38300280269200088 -0.26034654640521032 0 0.38197937647301089 -0.28377549711776828 0 0.38300280269200088 -0.26034654640521032 0 0.39722198652613089 -0.26559115141620171 0 0.39571010137100998 -0.24906745777905009 0 0.38300280269200088 -0.26034654640521032 0 0.39722198652613089 -0.26559115141620171 0 0.39571010137100998 -0.24906745777905009 0 0.41231227830994988 -0.24811801588271681 0 0.39722198652613089 -0.26559115141620171 0 0.39651815671053869 -0.28739463329971637 0 0.38197937647301089 -0.28377549711776828 0 0.39722198652613089 -0.26559115141620171 0 0.40575365411369718 -0.2873112167757142 0 0.39651815671053869 -0.28739463329971637 0 0.39722198652613089 -0.26559115141620171 0 0.39722198652613089 -0.26559115141620171 0 0.41676857581710358 -0.2864390684311543 0 0.39722198652613089 -0.26559115141620171 0 0.42394268105092342 -0.26078743875659299 0 0.41676857581710358 -0.2864390684311543 0 0.42394268105092342 -0.26078743875659299 0 0.41676857581710358 -0.2864390684311543 0 0.40575365411369718 -0.2873112167757142 0 0.39722198652613089 -0.26559115141620171 0 0.41676857581710358 -0.2864390684311543 0 0.41231227830994988 -0.24811801588271681 0 0.39722198652613089 -0.26559115141620171 0 0.42394268105092342 -0.26078743875659299 0 0.44279147430472882 -0.25666400499660602 0 0.42394268105092342 -0.26078743875659299 0 0.43415958555370721 -0.27864439448918082 0 0.43111678628474248 -0.2351358090820316 0 0.44279147430472882 -0.25666400499660602 0 0.42394268105092342 -0.26078743875659299 0 0.42394268105092342 -0.26078743875659299 0 0.43415958555370721 -0.27864439448918082 0 0.41676857581710358 -0.2864390684311543 0 0.44480681697569868 -0.29317360947857918 0 0.43415958555370721 -0.27864439448918082 0 0.42679390198567968 -0.29713183763498158 0 0.43415958555370721 -0.27864439448918082 0 0.42679390198567968 -0.29713183763498158 0 0.41676857581710358 -0.2864390684311543 0 0.44480681697569868 -0.29317360947857918 0 0.42679390198567968 -0.29713183763498158 0 0.44015885588384551 -0.31138657259819708 0 0.41941727890581482 -0.3151739859670375 0 0.42679390198567968 -0.29713183763498158 0 0.44015885588384551 -0.31138657259819708 0 0.44480681697569868 -0.29317360947857918 0 0.42679390198567968 -0.29713183763498158 0 0.44015885588384551 -0.31138657259819708 0 0.42679390198567968 -0.29713183763498158 0 0.41941727890581482 -0.3151739859670375 0 0.40387492611984771 -0.30216814273264853 0 0.42679390198567968 -0.29713183763498158 0 0.40387492611984771 -0.30216814273264853 0 0.42679390198567968 -0.29713183763498158 0 0.40387492611984771 -0.30216814273264853 0 0.42679390198567968 -0.29713183763498158 0 0.41438462539486542 -0.29496308799885013 0 0.40575365411369718 -0.2873112167757142 0 0.41676857581710358 -0.2864390684311543 0 0.41438462539486542 -0.29496308799885013 0 0.40387492611984771 -0.30216814273264853 0 0.40575365411369718 -0.2873112167757142 0 0.41438462539486542 -0.29496308799885013 0 0.42679390198567968 -0.29713183763498158 0 0.41676857581710358 -0.2864390684311543 0 0.41438462539486542 -0.29496308799885013 0 0.41676857581710358 -0.2864390684311543 0 0.41438462539486542 -0.29496308799885013 0 0.42679390198567968 -0.29713183763498158 0 0.41676857581710358 -0.2864390684311543 0 0.44194090288379839 -0.5 0 0.44877725711580868 -0.48094108727100893 0 0.5 -0.5 0 0.44194090288379839 -0.5 0 0.44877725711580868 -0.48094108727100893 0 0.42248199878004838 -0.4818135454874673 0 0.5 -0.5 0 0.47513805940741199 -0.46547896434196412 0 0.5 -0.44680091766572688 0 0.44877725711580868 -0.48094108727100893 0 0.5 -0.5 0 0.47513805940741199 -0.46547896434196412 0 0.47513805940741199 -0.46547896434196412 0 0.5 -0.44680091766572688 0 0.47282432427461291 -0.44372393212577899 0 0.47282432427461291 -0.44372393212577899 0 0.45198507551005318 -0.45499409178708422 0 0.45519289390429768 -0.42904709630315951 0 0.45198507551005318 -0.45499409178708422 0 0.45519289390429768 -0.42904709630315951 0 0.44877725711580868 -0.48094108727100893 0 0.47513805940741199 -0.46547896434196412 0 0.45198507551005318 -0.45499409178708422 0 0.47513805940741199 -0.46547896434196412 0 0.47282432427461291 -0.44372393212577899 0 0.45198507551005318 -0.45499409178708422 0 0.44877725711580868 -0.48094108727100893 0 0.45198507551005318 -0.45499409178708422 0 0.44877725711580868 -0.48094108727100893 0 0.45198507551005318 -0.45499409178708422 0 0.43499473837353458 -0.46733452720941898 0 0.45198507551005318 -0.45499409178708422 0 0.4277392730210412 -0.44972378384213568 0 0.43499473837353458 -0.46733452720941898 0 0.45198507551005318 -0.45499409178708422 0 0.45519289390429768 -0.42904709630315951 0 0.43528345841662708 -0.43154076362487892 0 0.45198507551005318 -0.45499409178708422 0 0.43528345841662708 -0.43154076362487892 0 0.4277392730210412 -0.44972378384213568 0 0.44038363254761598 -0.41005966450333659 0 0.45519289390429768 -0.42904709630315951 0 0.43528345841662708 -0.43154076362487892 0 0.44038363254761598 -0.41005966450333659 0 0.45519289390429768 -0.42904709630315951 0 0.45840071229854218 -0.40310010081923481 0 0.45519289390429768 -0.42904709630315951 0 0.47759831227813088 -0.42042900481051748 0 0.45840071229854218 -0.40310010081923481 0 0.45519289390429768 -0.42904709630315951 0 0.45840071229854218 -0.40310010081923481 0 0.47282432427461291 -0.44372393212577899 0 0.45519289390429768 -0.42904709630315951 0 0.47759831227813088 -0.42042900481051748 0 0.5 -0.44680091766572688 0 0.47282432427461291 -0.44372393212577899 0 0.47759831227813088 -0.42042900481051748 0 0.5 -0.44680091766572688 0 0.5 -0.40704779001779912 0 0.47759831227813088 -0.42042900481051748 0 0.5 -0.40704779001779912 0 0.47759831227813088 -0.42042900481051748 0 0.47763171882094729 -0.40391236423171828 0 0.47759831227813088 -0.42042900481051748 0 0.47763171882094729 -0.40391236423171828 0 0.45840071229854218 -0.40310010081923481 0 0.47763171882094729 -0.40391236423171828 0 0.47452785070711628 -0.38507256127932199 0 0.45840071229854218 -0.40310010081923481 0 0.5 -0.40704779001779912 0 0.47763171882094729 -0.40391236423171828 0 0.47452785070711628 -0.38507256127932199 0 0.5 -0.40704779001779912 0 0.49999999999999772 -0.37734367091171173 0 0.47452785070711628 -0.38507256127932199 0 0.49999999999999772 -0.37734367091171173 0 0.47452785070711628 -0.38507256127932199 0 0.47514410666793511 -0.36499611704455298 0 0.47452785070711628 -0.38507256127932199 0 0.46078093701406542 -0.37526767427794788 0 0.47514410666793511 -0.36499611704455298 0 0.49999999999999772 -0.37734367091171173 0 0.47452785070711628 -0.38507256127932199 0 0.47452785070711628 -0.38507256127932199 0 0.44905570141423512 -0.39280145164693309 0 0.47452785070711628 -0.38507256127932199 0 0.46078093701406542 -0.37526767427794788 0 0.44905570141423512 -0.39280145164693309 0 0.47452785070711628 -0.38507256127932199 0 0.45840071229854218 -0.40310010081923481 0 0.44905570141423512 -0.39280145164693309 0 0.44038363254761598 -0.41005966450333659 0 0.45840071229854218 -0.40310010081923481 0 0.44905570141423512 -0.39280145164693309 0 0.44038363254761598 -0.41005966450333659 0 0.44905570141423512 -0.39280145164693309 0 0.42358355212135379 -0.40053034201454418 0 0.44688499677283677 -0.36567516209363887 0 0.44905570141423512 -0.39280145164693309 0 0.43312579701977583 -0.3861399734073086 0 0.44688499677283677 -0.36567516209363887 0 0.46078093701406542 -0.37526767427794788 0 0.44905570141423512 -0.39280145164693309 0 0.44688499677283677 -0.36567516209363887 0 0.42152401487988789 -0.37335186183709701 0 0.43312579701977583 -0.3861399734073086 0 0.44905570141423512 -0.39280145164693309 0 0.43312579701977583 -0.3861399734073086 0 0.42358355212135379 -0.40053034201454418 0 0.44905570141423512 -0.39280145164693309 0 0.42358355212135379 -0.40053034201454418 0 0.43312579701977583 -0.3861399734073086 0 0.42358355212135379 -0.40053034201454418 0 0.4098177088541809 -0.39080554710962689 0 0.42358355212135379 -0.40053034201454418 0 0.39811140282847268 -0.40825923238215622 0 0.42358355212135379 -0.40053034201454418 0 0.4098177088541809 -0.39080554710962689 0 0.39811140282847268 -0.40825923238215622 0 0.42152401487988789 -0.37335186183709701 0 0.4098177088541809 -0.39080554710962689 0 0.42152401487988789 -0.37335186183709701 0 0.4098177088541809 -0.39080554710962689 0 0.40843337186809892 -0.37632582157284 0 0.42152401487988789 -0.37335186183709701 0 0.43312579701977583 -0.3861399734073086 0 0.4098177088541809 -0.39080554710962689 0 0.39622941755935809 -0.37268519943460399 0 0.40843337186809892 -0.37632582157284 0 0.39461349859412792 -0.38777128339301781 0 0.4098177088541809 -0.39080554710962689 0 0.40843337186809892 -0.37632582157284 0 0.39461349859412792 -0.38777128339301781 0 0.39622941755935809 -0.37268519943460399 0 0.37772896588623939 -0.38107871086962092 0 0.39461349859412792 -0.38777128339301781 0 0.37772896588623939 -0.38107871086962092 0 0.376990449017992 -0.39798532805948278 0 0.37772896588623939 -0.38107871086962092 0 0.376990449017992 -0.39798532805948278 0 0.39622941755935809 -0.37268519943460399 0 0.39461349859412792 -0.38777128339301781 0 0.37772896588623939 -0.38107871086962092 0 0.39461349859412792 -0.38777128339301781 0 0.376990449017992 -0.39798532805948278 0 0.39811140282847268 -0.40825923238215622 0 0.4098177088541809 -0.39080554710962689 0 0.39811140282847268 -0.40825923238215622 0 0.4098177088541809 -0.39080554710962689 0 0.39461349859412792 -0.38777128339301781 0 0.39811140282847268 -0.40825923238215622 0 0.39811140282847268 -0.40825923238215622 0 0.38657519739875229 -0.42545930372553797 0 0.40299954633373558 -0.42404674167960549 0 0.39811140282847268 -0.40825923238215622 0 0.38657519739875229 -0.42545930372553797 0 0.39811140282847268 -0.40825923238215622 0 0.37625193214974612 -0.41489194524934481 0 0.38657519739875229 -0.42545930372553797 0 0.376990449017992 -0.39798532805948278 0 0.39811140282847268 -0.40825923238215622 0 0.37625193214974612 -0.41489194524934481 0 0.376990449017992 -0.39798532805948278 0 0.37625193214974612 -0.41489194524934481 0 0.39811140282847268 -0.40825923238215622 0 0.37625193214974612 -0.41489194524934481 0 0.38657519739875229 -0.42545930372553797 0 0.3982801577320757 -0.43883537944665219 0 0.37503899196902951 -0.44265937506891812 0 0.38657519739875229 -0.42545930372553797 0 0.37503899196902951 -0.44265937506891812 0 0.37625193214974612 -0.41489194524934481 0 0.38657519739875229 -0.42545930372553797 0 0.37503899196902951 -0.44265937506891812 0 0.37625193214974612 -0.41489194524934481 0 0.37503899196902951 -0.44265937506891812 0 0.38657519739875229 -0.42545930372553797 0 0.40299954633373558 -0.42404674167960549 0 0.3982801577320757 -0.43883537944665219 0 0.40299954633373558 -0.42404674167960549 0 0.41627147336112308 -0.43290805742398042 0 0.3982801577320757 -0.43883537944665219 0 0.40299954633373558 -0.42404674167960549 0 0.41627147336112308 -0.43290805742398042 0 0.41943884426815448 -0.41789080027141667 0 0.39811140282847268 -0.40825923238215622 0 0.40299954633373558 -0.42404674167960549 0 0.41943884426815448 -0.41789080027141667 0 0.42358355212135379 -0.40053034201454418 0 0.39811140282847268 -0.40825923238215622 0 0.41943884426815448 -0.41789080027141667 0 0.44038363254761598 -0.41005966450333659 0 0.41943884426815448 -0.41789080027141667 0 0.43528345841662708 -0.43154076362487892 0 0.44038363254761598 -0.41005966450333659 0 0.42358355212135379 -0.40053034201454418 0 0.41943884426815448 -0.41789080027141667 0 0.41627147336112308 -0.43290805742398042 0 0.41943884426815448 -0.41789080027141667 0 0.43528345841662708 -0.43154076362487892 0 0.41627147336112308 -0.43290805742398042 0 0.43528345841662708 -0.43154076362487892 0 0.4277392730210412 -0.44972378384213568 0 0.4277392730210412 -0.44972378384213568 0 0.43499473837353458 -0.46733452720941898 0 0.41487859470019139 -0.4639843317981856 0 0.4277392730210412 -0.44972378384213568 0 0.41487859470019139 -0.4639843317981856 0 0.41022374012828539 -0.44847094498489792 0 0.41487859470019139 -0.4639843317981856 0 0.41022374012828539 -0.44847094498489792 0 0.39394920182699561 -0.45690317241353551 0 0.41627147336112308 -0.43290805742398042 0 0.4277392730210412 -0.44972378384213568 0 0.41022374012828539 -0.44847094498489792 0 0.41627147336112308 -0.43290805742398042 0 0.41022374012828539 -0.44847094498489792 0 0.3982801577320757 -0.43883537944665219 0 0.41022374012828539 -0.44847094498489792 0 0.3982801577320757 -0.43883537944665219 0 0.39394920182699561 -0.45690317241353551 0 0.3982801577320757 -0.43883537944665219 0 0.37503899196902951 -0.44265937506891812 0 0.39394920182699561 -0.45690317241353551 0 0.37503899196902951 -0.44265937506891812 0 0.39394920182699561 -0.45690317241353551 0 0.37387428455617361 -0.46932262842708411 0 0.39394920182699561 -0.45690317241353551 0 0.39636015980598821 -0.4782542238969496 0 0.37387428455617361 -0.46932262842708411 0 0.41487859470019139 -0.4639843317981856 0 0.39394920182699561 -0.45690317241353551 0 0.39636015980598821 -0.4782542238969496 0 0.39636015980598821 -0.4782542238969496 0 0.37270957714331898 -0.4959858817852501 0 0.37387428455617361 -0.46932262842708411 0 0.39636015980598821 -0.4782542238969496 0 0.39729904667452443 -0.5 0 0.37270957714331898 -0.4959858817852501 0 0.39636015980598821 -0.4782542238969496 0 0.39729904667452443 -0.5 0 0.42248199878004838 -0.4818135454874673 0 0.44194090288379839 -0.5 0 0.39729904667452443 -0.5 0 0.42248199878004838 -0.4818135454874673 0 0.41487859470019139 -0.4639843317981856 0 0.39636015980598821 -0.4782542238969496 0 0.42248199878004838 -0.4818135454874673 0 0.44877725711580868 -0.48094108727100893 0 0.43499473837353458 -0.46733452720941898 0 0.42248199878004838 -0.4818135454874673 0 0.43499473837353458 -0.46733452720941898 0 0.41487859470019139 -0.4639843317981856 0 0.42248199878004838 -0.4818135454874673 0 0.32029891225013601 -0.49999999999998768 0 0.32042377935893718 -0.47672691895574021 0 0.3056527711734694 -0.48571633671129572 0 0.32029891225013601 -0.49999999999998768 0 0.32042377935893718 -0.47672691895574021 0 0.32029891225013601 -0.49999999999998768 0 0.32042377935893718 -0.47672691895574021 0 0.33275776391274559 -0.48500812525317599 0 0.32042377935893718 -0.47672691895574021 0 0.33275776391274559 -0.48500812525317599 0 0.33708605921975637 -0.46742724895382182 0 0.33275776391274559 -0.48500812525317599 0 0.34939982588776802 -0.48088645835631832 0 0.33708605921975637 -0.46742724895382182 0 0.32029891225013601 -0.49999999999998768 0 0.33658024284713017 -0.50000000000001377 0 0.33275776391274559 -0.48500812525317599 0 0.33658024284713017 -0.50000000000001377 0 0.34939982588776802 -0.48088645835631832 0 0.33658024284713017 -0.50000000000001377 0 0.33275776391274559 -0.48500812525317599 0 0.34939982588776802 -0.48088645835631832 0 0.39729904667452443 -0.5 0 0.33658024284713017 -0.50000000000001377 0 0.37270957714331898 -0.4959858817852501 0 0.33658024284713017 -0.50000000000001377 0 0.37270957714331898 -0.4959858817852501 0 0.34939982588776802 -0.48088645835631832 0 0.37270957714331898 -0.4959858817852501 0 0.37387428455617361 -0.46932262842708411 0 0.37270957714331898 -0.4959858817852501 0 0.37387428455617361 -0.46932262842708411 0 0.34939982588776802 -0.48088645835631832 0 0.37387428455617361 -0.46932262842708411 0 0.34939982588776802 -0.48088645835631832 0 0.36221940892839938 -0.46177291671261872 0 0.34939982588776802 -0.48088645835631832 0 0.36221940892839938 -0.46177291671261872 0 0.34939982588776802 -0.48088645835631832 0 0.36221940892839938 -0.46177291671261872 0 0.33708605921975637 -0.46742724895382182 0 0.36221940892839938 -0.46177291671261872 0 0.34148511712706281 -0.44331656015577492 0 0.33708605921975637 -0.46742724895382182 0 0.37503899196902951 -0.44265937506891812 0 0.37387428455617361 -0.46932262842708411 0 0.36221940892839938 -0.46177291671261872 0 0.37503899196902951 -0.44265937506891812 0 0.37387428455617361 -0.46932262842708411 0 0.37503899196902951 -0.44265937506891812 0 0.36221940892839938 -0.46177291671261872 0 0.35994042372342411 -0.43632434766319761 0 0.37503899196902951 -0.44265937506891812 0 0.36221940892839938 -0.46177291671261872 0 0.36221940892839938 -0.46177291671261872 0 0.34148511712706281 -0.44331656015577492 0 0.35994042372342411 -0.43632434766319761 0 0.34148511712706281 -0.44331656015577492 0 0.33708605921975637 -0.46742724895382182 0 0.32054864646773862 -0.45345383791149269 0 0.32042377935893718 -0.47672691895574021 0 0.33708605921975637 -0.46742724895382182 0 0.32054864646773862 -0.45345383791149269 0 0.32042377935893718 -0.47672691895574021 0 0.32054864646773862 -0.45345383791149269 0 0.32042377935893718 -0.47672691895574021 0 0.32054864646773862 -0.45345383791149269 0 0.30554579031705481 -0.46836954762766758 0 0.34148511712706281 -0.44331656015577492 0 0.32054864646773862 -0.45345383791149269 0 0.32067351357653989 -0.43018075686724538 0 0.32054864646773862 -0.45345383791149269 0 0.32067351357653989 -0.43018075686724538 0 0.32054864646773862 -0.45345383791149269 0 0.32067351357653989 -0.43018075686724538 0 0.30757331831114498 -0.43651346741138908 0 0.32067351357653989 -0.43018075686724538 0 0.32079838068533317 -0.40690767582299803 0 0.30419184177318542 -0.41444193372748728 0 0.32067351357653989 -0.43018075686724538 0 0.32079838068533317 -0.40690767582299803 0 0.34084878951997333 -0.42017233008412741 0 0.32067351357653989 -0.43018075686724538 0 0.32079838068533317 -0.40690767582299803 0 0.32079838068533317 -0.40690767582299803 0 0.34084878951997333 -0.42017233008412741 0 0.33977524241896362 -0.39829802083852789 0 0.34148511712706281 -0.44331656015577492 0 0.32067351357653989 -0.43018075686724538 0 0.34084878951997333 -0.42017233008412741 0 0.34084878951997333 -0.42017233008412741 0 0.35994042372342411 -0.43632434766319761 0 0.35956595160377802 -0.4199548911685545 0 0.34148511712706281 -0.44331656015577492 0 0.34084878951997333 -0.42017233008412741 0 0.35994042372342411 -0.43632434766319761 0 0.37625193214974612 -0.41489194524934481 0 0.37503899196902951 -0.44265937506891812 0 0.35994042372342411 -0.43632434766319761 0 0.37625193214974612 -0.41489194524934481 0 0.35994042372342411 -0.43632434766319761 0 0.35956595160377802 -0.4199548911685545 0 0.37625193214974612 -0.41489194524934481 0 0.35956595160377802 -0.4199548911685545 0 0.36441408699873462 -0.40590540449987872 0 0.376990449017992 -0.39798532805948278 0 0.37625193214974612 -0.41489194524934481 0 0.36441408699873462 -0.40590540449987872 0 0.37625193214974612 -0.41489194524934481 0 0.35956595160377802 -0.4199548911685545 0 0.34084878951997333 -0.42017233008412741 0 0.35956595160377802 -0.4199548911685545 0 0.35071458899652208 -0.40828160299195382 0 0.34084878951997333 -0.42017233008412741 0 0.35071458899652208 -0.40828160299195382 0 0.33977524241896362 -0.39829802083852789 0 0.35956595160377802 -0.4199548911685545 0 0.35071458899652208 -0.40828160299195382 0 0.36441408699873462 -0.40590540449987872 0 0.35875210415260211 -0.38968836585407562 0 0.33977524241896362 -0.39829802083852789 0 0.35071458899652208 -0.40828160299195382 0 0.36441408699873462 -0.40590540449987872 0 0.35875210415260211 -0.38968836585407562 0 0.35071458899652208 -0.40828160299195382 0 0.35875210415260211 -0.38968836585407562 0 0.33977524241896362 -0.39829802083852789 0 0.376990449017992 -0.39798532805948278 0 0.36441408699873462 -0.40590540449987872 0 0.35875210415260211 -0.38968836585407562 0 0.37772896588623939 -0.38107871086962092 0 0.35875210415260211 -0.38968836585407562 0 0.35900796852403288 -0.37033940571324769 0 0.37772896588623939 -0.38107871086962092 0 0.35875210415260211 -0.38968836585407562 0 0.37772896588623939 -0.38107871086962092 0 0.376990449017992 -0.39798532805948278 0 0.35875210415260211 -0.38968836585407562 0 0.35875210415260211 -0.38968836585407562 0 0.34402242926406229 -0.38116530563769141 0 0.33977524241896362 -0.39829802083852789 0 0.35875210415260211 -0.38968836585407562 0 0.34402242926406229 -0.38116530563769141 0 0.35900796852403288 -0.37033940571324769 0 0.34402242926406229 -0.38116530563769141 0 0.33977524241896362 -0.39829802083852789 0 0.32095323412791538 -0.37804565800580142 0 0.32079838068533317 -0.40690767582299803 0 0.33977524241896362 -0.39829802083852789 0 0.32079838068533317 -0.40690767582299803 0 0.33977524241896362 -0.39829802083852789 0 0.32095323412791538 -0.37804565800580142 0 0.32079838068533317 -0.40690767582299803 0 0.32095323412791538 -0.37804565800580142 0 0.32079838068533317 -0.40690767582299803 0 0.32095323412791538 -0.37804565800580142 0 0.31167247242735258 -0.39824682135688189 0 0.32095323412791538 -0.37804565800580142 0 0.30744999261133032 -0.38338389481114482 0 0.31167247242735258 -0.39824682135688189 0 0.30744999261133032 -0.38338389481114482 0 0.29395744024246723 -0.38781438031013432 0 0.30321682364758629 -0.36942871957176182 0 0.32095323412791538 -0.37804565800580142 0 0.30744999261133032 -0.38338389481114482 0 0.30321682364758629 -0.36942871957176182 0 0.30744999261133032 -0.38338389481114482 0 0.31167247242735258 -0.39824682135688189 0 0.29395744024246723 -0.38781438031013432 0 0.31167247242735258 -0.39824682135688189 0 0.29864045708349479 -0.40081872392189261 0 0.29395744024246723 -0.38781438031013432 0 0.31167247242735258 -0.39824682135688189 0 0.29864045708349479 -0.40081872392189261 0 0.30419184177318542 -0.41444193372748728 0 0.31167247242735258 -0.39824682135688189 0 0.29395744024246723 -0.38781438031013432 0 0.29864045708349479 -0.40081872392189261 0 0.28474007389097428 -0.40277176029306699 0 0.29395744024246723 -0.38781438031013432 0 0.29864045708349479 -0.40081872392189261 0 0.28474007389097428 -0.40277176029306699 0 0.30419184177318542 -0.41444193372748728 0 0.29395744024246723 -0.38781438031013432 0 0.27624240805758049 -0.37738193926338848 0 0.29001039229390518 -0.37408404713851168 0 0.29395744024246723 -0.38781438031013432 0 0.27624240805758049 -0.37738193926338848 0 0.28474007389097428 -0.40277176029306699 0 0.29395744024246723 -0.38781438031013432 0 0.27624240805758049 -0.37738193926338848 0 0.29395744024246723 -0.38781438031013432 0 0.30321682364758629 -0.36942871957176182 0 0.29001039229390518 -0.37408404713851168 0 0.28474007389097428 -0.40277176029306699 0 0.27624240805758049 -0.37738193926338848 0 0.27624240805758049 -0.37738193926338848 0 0.26129897821711828 -0.38319186016514362 0 0.27010856453709098 -0.39372612558550563 0 0.27624240805758049 -0.37738193926338848 0 0.26129897821711828 -0.38319186016514362 0 0.26088705448734401 -0.36833912075752179 0 0.26129897821711828 -0.38319186016514362 0 0.25786767707114061 -0.39764868282835308 0 0.2438786147361609 -0.3812386896238138 0 0.26129897821711828 -0.38319186016514362 0 0.26088705448734401 -0.36833912075752179 0 0.2438786147361609 -0.3812386896238138 0 0.25786767707114061 -0.39764868282835308 0 0.253663526944372 -0.41388231582759583 0 0.24020326752661841 -0.39879031070265469 0 0.26129897821711828 -0.38319186016514362 0 0.25786767707114061 -0.39764868282835308 0 0.27010856453709098 -0.39372612558550563 0 0.25786767707114061 -0.39764868282835308 0 0.27010856453709098 -0.39372612558550563 0 0.2700876383071642 -0.40769563877143589 0 0.28474007389097428 -0.40277176029306699 0 0.27624240805758049 -0.37738193926338848 0 0.27010856453709098 -0.39372612558550563 0 0.28474007389097428 -0.40277176029306699 0 0.27010856453709098 -0.39372612558550563 0 0.2700876383071642 -0.40769563877143589 0 0.28474007389097428 -0.40277176029306699 0 0.27881672194522111 -0.41846757263208029 0 0.2700876383071642 -0.40769563877143589 0 0.27881672194522111 -0.41846757263208029 0 0.2700876383071642 -0.40769563877143589 0 0.26686666380389051 -0.42215024055243988 0 0.2700876383071642 -0.40769563877143589 0 0.253663526944372 -0.41388231582759583 0 0.26686666380389051 -0.42215024055243988 0 0.25786767707114061 -0.39764868282835308 0 0.2700876383071642 -0.40769563877143589 0 0.253663526944372 -0.41388231582759583 0 0.253663526944372 -0.41388231582759583 0 0.26686666380389051 -0.42215024055243988 0 0.2490632703745437 -0.44066890513070589 0 0.26686666380389051 -0.42215024055243988 0 0.27915149399970662 -0.4315586422207135 0 0.2490632703745437 -0.44066890513070589 0 0.27881672194522111 -0.41846757263208029 0 0.26686666380389051 -0.42215024055243988 0 0.27915149399970662 -0.4315586422207135 0 0.27915149399970662 -0.4315586422207135 0 0.29323773972436962 -0.42816158132274501 0 0.27785940345191862 -0.4489293485633592 0 0.27881672194522111 -0.41846757263208029 0 0.27915149399970662 -0.4315586422207135 0 0.29323773972436962 -0.42816158132274501 0 0.28474007389097428 -0.40277176029306699 0 0.29323773972436962 -0.42816158132274501 0 0.28474007389097428 -0.40277176029306699 0 0.29323773972436962 -0.42816158132274501 0 0.30419184177318542 -0.41444193372748728 0 0.28474007389097428 -0.40277176029306699 0 0.27881672194522111 -0.41846757263208029 0 0.29323773972436962 -0.42816158132274501 0 0.32079838068533317 -0.40690767582299803 0 0.30419184177318542 -0.41444193372748728 0 0.32079838068533317 -0.40690767582299803 0 0.31167247242735258 -0.39824682135688189 0 0.30419184177318542 -0.41444193372748728 0 0.29323773972436962 -0.42816158132274501 0 0.30419184177318542 -0.41444193372748728 0 0.30757331831114498 -0.43651346741138908 0 0.32067351357653989 -0.43018075686724538 0 0.30419184177318542 -0.41444193372748728 0 0.30757331831114498 -0.43651346741138908 0 0.29323773972436962 -0.42816158132274501 0 0.30173540555776501 -0.45355140235242308 0 0.32054864646773862 -0.45345383791149269 0 0.30757331831114498 -0.43651346741138908 0 0.30173540555776501 -0.45355140235242308 0 0.29323773972436962 -0.42816158132274501 0 0.30757331831114498 -0.43651346741138908 0 0.30173540555776501 -0.45355140235242308 0 0.30173540555776501 -0.45355140235242308 0 0.30554579031705481 -0.46836954762766758 0 0.28821862924113889 -0.46144654158044701 0 0.32054864646773862 -0.45345383791149269 0 0.30173540555776501 -0.45355140235242308 0 0.30554579031705481 -0.46836954762766758 0 0.28821862924113889 -0.46144654158044701 0 0.27785940345191862 -0.4489293485633592 0 0.2778987959515325 -0.47226676989271732 0 0.30173540555776501 -0.45355140235242308 0 0.28821862924113889 -0.46144654158044701 0 0.27785940345191862 -0.4489293485633592 0 0.30554579031705481 -0.46836954762766758 0 0.28821862924113889 -0.46144654158044701 0 0.29191302912243589 -0.47608253563568698 0 0.29323773972436962 -0.42816158132274501 0 0.30173540555776501 -0.45355140235242308 0 0.27785940345191862 -0.4489293485633592 0 0.27915149399970662 -0.4315586422207135 0 0.27785940345191862 -0.4489293485633592 0 0.2490632703745437 -0.44066890513070589 0 0.27785940345191862 -0.4489293485633592 0 0.26023389616621251 -0.46499769328142643 0 0.2490632703745437 -0.44066890513070589 0 0.26023389616621251 -0.46499769328142643 0 0.2490632703745437 -0.44066890513070589 0 0.27785940345191862 -0.4489293485633592 0 0.26023389616621251 -0.46499769328142643 0 0.2778987959515325 -0.47226676989271732 0 0.26023389616621251 -0.46499769328142643 0 0.27140452195788117 -0.48932648143214702 0 0.26023389616621251 -0.46499769328142643 0 0.2778987959515325 -0.47226676989271732 0 0.27140452195788117 -0.48932648143214702 0 0.2778987959515325 -0.47226676989271732 0 0.27140452195788117 -0.48932648143214702 0 0.28562626327581392 -0.48975594661227251 0 0.26023389616621251 -0.46499769328142643 0 0.25452438507146669 -0.48234813490670558 0 0.27140452195788117 -0.48932648143214702 0 0.26023389616621251 -0.46499769328142643 0 0.25452438507146669 -0.48234813490670558 0 0.24007822817638241 -0.46263859107105682 0 0.27331887425309082 -0.5 0 0.27140452195788117 -0.48932648143214702 0 0.24982885525456799 -0.5 0 0.25452438507146669 -0.48234813490670558 0 0.27140452195788117 -0.48932648143214702 0 0.24982885525456799 -0.5 0 0.27331887425309082 -0.5 0 0.27140452195788117 -0.48932648143214702 0 0.28562626327581392 -0.48975594661227251 0 0.29680889325161341 -0.5 0 0.28562626327581392 -0.48975594661227251 0 0.3056527711734694 -0.48571633671129572 0 0.27331887425309082 -0.5 0 0.29680889325161341 -0.5 0 0.28562626327581392 -0.48975594661227251 0 0.28562626327581392 -0.48975594661227251 0 0.29191302912243589 -0.47608253563568698 0 0.3056527711734694 -0.48571633671129572 0 0.2778987959515325 -0.47226676989271732 0 0.28562626327581392 -0.48975594661227251 0 0.29191302912243589 -0.47608253563568698 0 0.28821862924113889 -0.46144654158044701 0 0.2778987959515325 -0.47226676989271732 0 0.29191302912243589 -0.47608253563568698 0 0.30554579031705481 -0.46836954762766758 0 0.29191302912243589 -0.47608253563568698 0 0.3056527711734694 -0.48571633671129572 0 0.32042377935893718 -0.47672691895574021 0 0.30554579031705481 -0.46836954762766758 0 0.3056527711734694 -0.48571633671129572 0 0.32029891225013601 -0.49999999999998768 0 0.29680889325161341 -0.5 0 0.3056527711734694 -0.48571633671129572 0 0.32138825992673958 -0.29696433267070371 0 0.33747322392903423 -0.27833476231422832 0 0.34637262791152029 -0.29389208521760801 0 0.32138825992673958 -0.29696433267070371 0 0.34637262791152029 -0.29389208521760801 0 0.34116061076004872 -0.31594923085771037 0 0.32138825992673958 -0.29696433267070371 0 0.32126294101306518 -0.32032162237140788 0 0.32138825992673958 -0.29696433267070371 0 0.34116061076004872 -0.31594923085771037 0 0.32126294101306518 -0.32032162237140788 0 0.32138825992673958 -0.29696433267070371 0 0.32126294101306518 -0.32032162237140788 0 0.31166009674239092 -0.30851387947249043 0 0.32138825992673958 -0.29696433267070371 0 0.30634932085498839 -0.29381695141951653 0 0.31166009674239092 -0.30851387947249043 0 0.32138825992673958 -0.29696433267070371 0 0.31035617002330362 -0.28135196462220058 0 0.30634932085498839 -0.29381695141951653 0 0.32138825992673958 -0.29696433267070371 0 0.32151357884041581 -0.27360704296999971 0 0.31035617002330362 -0.28135196462220058 0 0.32138825992673958 -0.29696433267070371 0 0.32151357884041581 -0.27360704296999971 0 0.33747322392903423 -0.27833476231422832 0 0.32138825992673958 -0.29696433267070371 0 0.32151357884041581 -0.27360704296999971 0 0.32151357884041581 -0.27360704296999971 0 0.31035617002330362 -0.28135196462220058 0 0.31095174682163168 -0.26744301588779867 0 0.32163889775409388 -0.25024975326929549 0 0.31013800712283468 -0.25554267716899842 0 0.31095174682163168 -0.26744301588779867 0 0.32151357884041581 -0.27360704296999971 0 0.32163889775409388 -0.25024975326929549 0 0.31095174682163168 -0.26744301588779867 0 0.32151357884041581 -0.27360704296999971 0 0.32163889775409388 -0.25024975326929549 0 0.33608284998687871 -0.26208090142408802 0 0.32151357884041581 -0.27360704296999971 0 0.32163889775409388 -0.25024975326929549 0 0.30958811349786658 -0.24750089131769429 0 0.32163889775409388 -0.25024975326929549 0 0.31013800712283468 -0.25554267716899842 0 0.32163889775409388 -0.25024975326929549 0 0.31013800712283468 -0.25554267716899842 0 0.33566905551399651 -0.2437928135674137 0 0.33608284998687871 -0.26208090142408802 0 0.35035288977420698 -0.25825046555468528 0 0.33566905551399651 -0.2437928135674137 0 0.32163889775409388 -0.25024975326929549 0 0.33608284998687871 -0.26208090142408802 0 0.32151357884041581 -0.27360704296999971 0 0.33608284998687871 -0.26208090142408802 0 0.33747322392903423 -0.27833476231422832 0 0.33608284998687871 -0.26208090142408802 0 0.33747322392903423 -0.27833476231422832 0 0.35089611863056003 -0.27353996478399151 0 0.35089611863056003 -0.27353996478399151 0 0.35035288977420698 -0.25825046555468528 0 0.36523559088286278 -0.26805760339192458 0 0.35984764221249332 -0.24035520463003121 0 0.35035288977420698 -0.25825046555468528 0 0.36523559088286278 -0.26805760339192458 0 0.33608284998687871 -0.26208090142408802 0 0.35089611863056003 -0.27353996478399151 0 0.35035288977420698 -0.25825046555468528 0 0.35984764221249332 -0.24035520463003121 0 0.38300280269200088 -0.26034654640521032 0 0.36523559088286278 -0.26805760339192458 0 0.35089611863056003 -0.27353996478399151 0 0.36523559088286278 -0.26805760339192458 0 0.36533471551490548 -0.2920779418598613 0 0.38197937647301089 -0.28377549711776828 0 0.36523559088286278 -0.26805760339192458 0 0.36533471551490548 -0.2920779418598613 0 0.35089611863056003 -0.27353996478399151 0 0.36533471551490548 -0.2920779418598613 0 0.34637262791152029 -0.29389208521760801 0 0.33747322392903423 -0.27833476231422832 0 0.35089611863056003 -0.27353996478399151 0 0.34637262791152029 -0.29389208521760801 0 0.36533471551490548 -0.2920779418598613 0 0.34637262791152029 -0.29389208521760801 0 0.36105828050703198 -0.31157683934401248 0 0.34637262791152029 -0.29389208521760801 0 0.36105828050703198 -0.31157683934401248 0 0.34116061076004872 -0.31594923085771037 0 0.38095595025401802 -0.30720444783032619 0 0.36533471551490548 -0.2920779418598613 0 0.36105828050703198 -0.31157683934401248 0 0.38095595025401802 -0.30720444783032619 0 0.36105828050703198 -0.31157683934401248 0 0.37988028879809332 -0.33182920217675782 0 0.36105828050703198 -0.31157683934401248 0 0.35443796587411408 -0.32777570898132591 0 0.37988028879809332 -0.33182920217675782 0 0.38095595025401802 -0.30720444783032619 0 0.36105828050703198 -0.31157683934401248 0 0.37988028879809332 -0.33182920217675782 0 0.35443796587411408 -0.32777570898132591 0 0.35354123730431808 -0.34640757261344951 0 0.35443796587411408 -0.32777570898132591 0 0.35354123730431808 -0.34640757261344951 0 0.33654941200107841 -0.3331156999146993 0 0.36105828050703198 -0.31157683934401248 0 0.35443796587411408 -0.32777570898132591 0 0.34116061076004872 -0.31594923085771037 0 0.35443796587411408 -0.32777570898132591 0 0.34116061076004872 -0.31594923085771037 0 0.33654941200107841 -0.3331156999146993 0 0.36105828050703198 -0.31157683934401248 0 0.34116061076004872 -0.31594923085771037 0 0.37880462734216569 -0.35645395652318917 0 0.37772896588623939 -0.38107871086962092 0 0.35900796852403288 -0.37033940571324769 0 0.37880462734216569 -0.35645395652318917 0 0.35354123730431808 -0.34640757261344951 0 0.35900796852403288 -0.37033940571324769 0 0.37880462734216569 -0.35645395652318917 0 0.37988028879809332 -0.33182920217675782 0 0.35354123730431808 -0.34640757261344951 0 0.34402242926406229 -0.38116530563769141 0 0.35900796852403288 -0.37033940571324769 0 0.34077329729282441 -0.36502996778611557 0 0.35354123730431808 -0.34640757261344951 0 0.35900796852403288 -0.37033940571324769 0 0.34077329729282441 -0.36502996778611557 0 0.35354123730431808 -0.34640757261344951 0 0.34077329729282441 -0.36502996778611557 0 0.32110808757048942 -0.34918364018860459 0 0.34402242926406229 -0.38116530563769141 0 0.32095323412791538 -0.37804565800580142 0 0.34077329729282441 -0.36502996778611557 0 0.32095323412791538 -0.37804565800580142 0 0.32110808757048942 -0.34918364018860459 0 0.32095323412791538 -0.37804565800580142 0 0.32110808757048942 -0.34918364018860459 0 0.30321682364758629 -0.36942871957176182 0 0.32095323412791538 -0.37804565800580142 0 0.34077329729282441 -0.36502996778611557 0 0.32110808757048942 -0.34918364018860459 0 0.35354123730431808 -0.34640757261344951 0 0.32110808757048942 -0.34918364018860459 0 0.33654941200107841 -0.3331156999146993 0 0.34116061076004872 -0.31594923085771037 0 0.33654941200107841 -0.3331156999146993 0 0.32126294101306518 -0.32032162237140788 0 0.34116061076004872 -0.31594923085771037 0 0.32126294101306518 -0.32032162237140788 0 0.32110808757048942 -0.34918364018860459 0 0.33654941200107841 -0.3331156999146993 0 0.32126294101306518 -0.32032162237140788 0 0.32110808757048942 -0.34918364018860459 0 0.32126294101306518 -0.32032162237140788 0 0.30957493574814549 -0.33411361000495671 0 0.32110808757048942 -0.34918364018860459 0 0.32126294101306518 -0.32032162237140788 0 0.32126294101306518 -0.32032162237140788 0 0.31055088931486791 -0.3226755303684285 0 0.32126294101306518 -0.32032162237140788 0 0.31055088931486791 -0.3226755303684285 0 0.30957493574814549 -0.33411361000495671 0 0.32126294101306518 -0.32032162237140788 0 0.31055088931486791 -0.3226755303684285 0 0.31166009674239092 -0.30851387947249043 0 0.30200869478429632 -0.3141686813430809 0 0.31055088931486791 -0.3226755303684285 0 0.31166009674239092 -0.30851387947249043 0 0.30200869478429632 -0.3141686813430809 0 0.30222358504358948 -0.32482539357051449 0 0.29326629714153207 -0.31988939934130828 0 0.30222358504358948 -0.32482539357051449 0 0.29571710822910591 -0.33327974679479849 0 0.29326629714153207 -0.31988939934130828 0 0.30222358504358948 -0.32482539357051449 0 0.31055088931486791 -0.3226755303684285 0 0.30957493574814549 -0.33411361000495671 0 0.30200869478429632 -0.3141686813430809 0 0.30222358504358948 -0.32482539357051449 0 0.31055088931486791 -0.3226755303684285 0 0.32110808757048942 -0.34918364018860459 0 0.30957493574814549 -0.33411361000495671 0 0.30007519863576709 -0.34782787639499302 0 0.30957493574814549 -0.33411361000495671 0 0.29571710822910591 -0.33327974679479849 0 0.30007519863576709 -0.34782787639499302 0 0.30222358504358948 -0.32482539357051449 0 0.30957493574814549 -0.33411361000495671 0 0.29571710822910591 -0.33327974679479849 0 0.29571710822910591 -0.33327974679479849 0 0.28337027269925541 -0.34135020597810978 0 0.28002551445962592 -0.32600565084533312 0 0.29571710822910591 -0.33327974679479849 0 0.28337027269925541 -0.34135020597810978 0 0.30007519863576709 -0.34782787639499302 0 0.29571710822910591 -0.33327974679479849 0 0.29326629714153207 -0.31988939934130828 0 0.28002551445962592 -0.32600565084533312 0 0.2832968653081977 -0.3131803159436426 0 0.29326629714153207 -0.31988939934130828 0 0.28002551445962592 -0.32600565084533312 0 0.30200869478429632 -0.3141686813430809 0 0.29326629714153207 -0.31988939934130828 0 0.29338032224763311 -0.30731935264594817 0 0.2832968653081977 -0.3131803159436426 0 0.29326629714153207 -0.31988939934130828 0 0.29338032224763311 -0.30731935264594817 0 0.32110808757048942 -0.34918364018860459 0 0.30321682364758629 -0.36942871957176182 0 0.30007519863576709 -0.34782787639499302 0 0.30321682364758629 -0.36942871957176182 0 0.30007519863576709 -0.34782787639499302 0 0.2874639639200206 -0.35961133583172672 0 0.28337027269925541 -0.34135020597810978 0 0.30007519863576709 -0.34782787639499302 0 0.2874639639200206 -0.35961133583172672 0 0.27624240805758049 -0.37738193926338848 0 0.29001039229390518 -0.37408404713851168 0 0.2874639639200206 -0.35961133583172672 0 0.30321682364758629 -0.36942871957176182 0 0.29001039229390518 -0.37408404713851168 0 0.2874639639200206 -0.35961133583172672 0 0.27624240805758049 -0.37738193926338848 0 0.2874639639200206 -0.35961133583172672 0 0.26673809899779449 -0.34898441095740063 0 0.27624240805758049 -0.37738193926338848 0 0.26673809899779449 -0.34898441095740063 0 0.26088705448734401 -0.36833912075752179 0 0.27624240805758049 -0.37738193926338848 0 0.26673809899779449 -0.34898441095740063 0 0.27624240805758049 -0.37738193926338848 0 0.26088705448734401 -0.36833912075752179 0 0.28337027269925541 -0.34135020597810978 0 0.2874639639200206 -0.35961133583172672 0 0.26673809899779449 -0.34898441095740063 0 0.26673809899779449 -0.34898441095740063 0 0.24835330241543899 -0.33954557021477388 0 0.24553170091710619 -0.3592963022516571 0 0.26673809899779449 -0.34898441095740063 0 0.26088705448734401 -0.36833912075752179 0 0.24553170091710619 -0.3592963022516571 0 0.26088705448734401 -0.36833912075752179 0 0.24553170091710619 -0.3592963022516571 0 0.2438786147361609 -0.3812386896238138 0 0.26088705448734401 -0.36833912075752179 0 0.24553170091710619 -0.3592963022516571 0 0.26701533848260112 -0.3223369709667811 0 0.28002551445962592 -0.32600565084533312 0 0.26862101955830442 -0.33215826087075567 0 0.26701533848260112 -0.3223369709667811 0 0.27335679995169881 -0.31695377936740232 0 0.26424944763230312 -0.31091896818708659 0 0.2832968653081977 -0.3131803159436426 0 0.27335679995169881 -0.31695377936740232 0 0.28002551445962592 -0.32600565084533312 0 0.26701533848260112 -0.3223369709667811 0 0.27335679995169881 -0.31695377936740232 0 0.28002551445962592 -0.32600565084533312 0 0.28337027269925541 -0.34135020597810978 0 0.28002551445962592 -0.32600565084533312 0 0.26862101955830442 -0.33215826087075567 0 0.28337027269925541 -0.34135020597810978 0 0.26673809899779449 -0.34898441095740063 0 0.26862101955830442 -0.33215826087075567 0 0.26673809899779449 -0.34898441095740063 0 0.26862101955830442 -0.33215826087075567 0 0.25721177259810513 -0.32059425158862659 0 0.26673809899779449 -0.34898441095740063 0 0.25721177259810513 -0.32059425158862659 0 0.24835330241543899 -0.33954557021477388 0 0.26673809899779449 -0.34898441095740063 0 0.25721177259810513 -0.32059425158862659 0 0.25721177259810513 -0.32059425158862659 0 0.24975606327553079 -0.32369151453664169 0 0.24835330241543899 -0.33954557021477388 0 0.26701533848260112 -0.3223369709667811 0 0.26862101955830442 -0.33215826087075567 0 0.25721177259810513 -0.32059425158862659 0 0.26701533848260112 -0.3223369709667811 0 0.25721177259810513 -0.32059425158862659 0 0.26424944763230312 -0.31091896818708659 0 0.25721177259810513 -0.32059425158862659 0 0.26424944763230312 -0.31091896818708659 0 0.24903482967329299 -0.2960895515216671 0 0.26511946247912721 -0.30088318790798979 0 0.26424944763230312 -0.31091896818708659 0 0.24903482967329299 -0.2960895515216671 0 0.25721177259810513 -0.32059425158862659 0 0.24903482967329299 -0.2960895515216671 0 0.26511946247912721 -0.30088318790798979 0 0.2618367625745015 -0.29185692050832818 0 0.24903482967329299 -0.2960895515216671 0 0.25515196849201688 -0.28084827543526891 0 0.2493740464808949 -0.2796169659219509 0 0.24903482967329299 -0.2960895515216671 0 0.2618367625745015 -0.29185692050832818 0 0.27447420082311058 -0.28937259106511809 0 0.25515196849201688 -0.28084827543526891 0 0.2618367625745015 -0.29185692050832818 0 0.25515196849201688 -0.28084827543526891 0 0.24903482967329299 -0.2960895515216671 0 0.26511946247912721 -0.30088318790798979 0 0.2618367625745015 -0.29185692050832818 0 0.27447420082311058 -0.28937259106511809 0 0.27447420082311058 -0.28937259106511809 0 0.27451873447423908 -0.30605559331173288 0 0.2842463042340716 -0.30131055068653989 0 0.26511946247912721 -0.30088318790798979 0 0.27447420082311058 -0.28937259106511809 0 0.27451873447423908 -0.30605559331173288 0 0.26511946247912721 -0.30088318790798979 0 0.26424944763230312 -0.31091896818708659 0 0.27451873447423908 -0.30605559331173288 0 0.27335679995169881 -0.31695377936740232 0 0.26424944763230312 -0.31091896818708659 0 0.27451873447423908 -0.30605559331173288 0 0.2832968653081977 -0.3131803159436426 0 0.27335679995169881 -0.31695377936740232 0 0.27451873447423908 -0.30605559331173288 0 0.2832968653081977 -0.3131803159436426 0 0.27451873447423908 -0.30605559331173288 0 0.2842463042340716 -0.30131055068653989 0 0.2832968653081977 -0.3131803159436426 0 0.29338032224763311 -0.30731935264594817 0 0.2842463042340716 -0.30131055068653989 0 0.29338032224763311 -0.30731935264594817 0 0.29503141197115801 -0.2969728430314581 0 0.2842463042340716 -0.30131055068653989 0 0.29338032224763311 -0.30731935264594817 0 0.29503141197115801 -0.2969728430314581 0 0.30186696461399992 -0.30347057150714618 0 0.27447420082311058 -0.28937259106511809 0 0.2842463042340716 -0.30131055068653989 0 0.28710759523124108 -0.29054291269951349 0 0.29503141197115801 -0.2969728430314581 0 0.2842463042340716 -0.30131055068653989 0 0.28710759523124108 -0.29054291269951349 0 0.27447420082311058 -0.28937259106511809 0 0.28710759523124108 -0.29054291269951349 0 0.28711993875172742 -0.27854142286004507 0 0.28710759523124108 -0.29054291269951349 0 0.29723796464501429 -0.28537671923008429 0 0.28711993875172742 -0.27854142286004507 0 0.29503141197115801 -0.2969728430314581 0 0.28710759523124108 -0.29054291269951349 0 0.29723796464501429 -0.28537671923008429 0 0.29503141197115801 -0.2969728430314581 0 0.29723796464501429 -0.28537671923008429 0 0.30634932085498839 -0.29381695141951653 0 0.29723796464501429 -0.28537671923008429 0 0.31035617002330362 -0.28135196462220058 0 0.30634932085498839 -0.29381695141951653 0 0.30634932085498839 -0.29381695141951653 0 0.31166009674239092 -0.30851387947249043 0 0.30186696461399992 -0.30347057150714618 0 0.30200869478429632 -0.3141686813430809 0 0.31166009674239092 -0.30851387947249043 0 0.30186696461399992 -0.30347057150714618 0 0.30200869478429632 -0.3141686813430809 0 0.29338032224763311 -0.30731935264594817 0 0.30186696461399992 -0.30347057150714618 0 0.29503141197115801 -0.2969728430314581 0 0.30634932085498839 -0.29381695141951653 0 0.30186696461399992 -0.30347057150714618 0 0.31013800712283468 -0.25554267716899842 0 0.30828554393372931 -0.25471476630383011 0 0.29180932757922867 -0.26397787659108829 0 0.30363445916338661 -0.2483473566469335 0 0.30828554393372931 -0.25471476630383011 0 0.28478267850787442 -0.25822336668650309 0 0.30320582409217089 -0.26507135898278861 0 0.31013800712283468 -0.25554267716899842 0 0.29180932757922867 -0.26397787659108829 0 0.31013800712283468 -0.25554267716899842 0 0.29180932757922867 -0.26397787659108829 0 0.30958811349786658 -0.24750089131769429 0 0.31013800712283468 -0.25554267716899842 0 0.30958811349786658 -0.24750089131769429 0 0.31013800712283468 -0.25554267716899842 0 0.30828554393372931 -0.25471476630383011 0 0.30958811349786658 -0.24750089131769429 0 0.30363445916338661 -0.2483473566469335 0 0.30828554393372931 -0.25471476630383011 0 0.30320582409217089 -0.26507135898278861 0 0.31013800712283468 -0.25554267716899842 0 0.31095174682163168 -0.26744301588779867 0 0.31013800712283468 -0.25554267716899842 0 0.31095174682163168 -0.26744301588779867 0 0.30320582409217089 -0.26507135898278861 0 0.31095174682163168 -0.26744301588779867 0 0.29992421484498738 -0.27332186628326932 0 0.31035617002330362 -0.28135196462220058 0 0.31095174682163168 -0.26744301588779867 0 0.29992421484498738 -0.27332186628326932 0 0.29723796464501429 -0.28537671923008429 0 0.31035617002330362 -0.28135196462220058 0 0.29992421484498738 -0.27332186628326932 0 0.30320582409217089 -0.26507135898278861 0 0.29992421484498738 -0.27332186628326932 0 0.29180932757922867 -0.26397787659108829 0 0.29180932757922867 -0.26397787659108829 0 0.27348064803562278 -0.27241307601317849 0 0.29992421484498738 -0.27332186628326932 0 0.28711993875172742 -0.27854142286004507 0 0.29180932757922867 -0.26397787659108829 0 0.28711993875172742 -0.27854142286004507 0 0.29180932757922867 -0.26397787659108829 0 0.27348064803562278 -0.27241307601317849 0 0.29723796464501429 -0.28537671923008429 0 0.29992421484498738 -0.27332186628326932 0 0.28711993875172742 -0.27854142286004507 0 0.28478267850787442 -0.25822336668650309 0 0.29180932757922867 -0.26397787659108829 0 0.27348064803562278 -0.27241307601317849 0 0.30828554393372931 -0.25471476630383011 0 0.28478267850787442 -0.25822336668650309 0 0.30363445916338661 -0.2483473566469335 0 0.29087292417619548 -0.2469181302430509 0 0.28478267850787442 -0.25822336668650309 0 0.30828554393372931 -0.25471476630383011 0 0.28478267850787442 -0.25822336668650309 0 0.29180932757922867 -0.26397787659108829 0 0.29087292417619548 -0.2469181302430509 0 0.28233489974863007 -0.24795706515532359 0 0.28478267850787442 -0.25822336668650309 0 0.28478267850787442 -0.25822336668650309 0 0.26127981308201959 -0.26173196706917612 0 0.27143476782747877 -0.249283429081468 0 0.28478267850787442 -0.25822336668650309 0 0.26127981308201959 -0.26173196706917612 0 0.28478267850787442 -0.25822336668650309 0 0.27348064803562278 -0.27241307601317849 0 0.26127981308201959 -0.26173196706917612 0 0.28233489974863007 -0.24795706515532359 0 0.27143476782747877 -0.249283429081468 0 0.28478267850787442 -0.25822336668650309 0 0.27447420082311058 -0.28937259106511809 0 0.27348064803562278 -0.27241307601317849 0 0.25515196849201688 -0.28084827543526891 0 0.27447420082311058 -0.28937259106511809 0 0.28711993875172742 -0.27854142286004507 0 0.27348064803562278 -0.27241307601317849 0 0.27348064803562278 -0.27241307601317849 0 0.25247351834969373 -0.26993781633894559 0 0.26127981308201959 -0.26173196706917612 0 0.27348064803562278 -0.27241307601317849 0 0.25515196849201688 -0.28084827543526891 0 0.27348064803562278 -0.27241307601317849 0 0.25247351834969373 -0.26993781633894559 0 0.25515196849201688 -0.28084827543526891 0 0.25247351834969373 -0.26993781633894559 0 0.26127981308201959 -0.26173196706917612 0 0.237776947656165 -0.26524056745184982 0 0.25247351834969373 -0.26993781633894559 0 0.25515196849201688 -0.28084827543526891 0 0.2493740464808949 -0.2796169659219509 0 0.27143476782747877 -0.249283429081468 0 0.25876930672602322 -0.25020190785496188 0 0.26127981308201959 -0.26173196706917612 0 0.25876930672602322 -0.25020190785496188 0 0.26127981308201959 -0.26173196706917612 0 0.24671319788358659 -0.25167760090701791 0 0.26127981308201959 -0.26173196706917612 0 0.24671319788358659 -0.25167760090701791 0 0.237776947656165 -0.26524056745184982 0 0.26127981308201959 -0.26173196706917612 0 0.237776947656165 -0.26524056745184982 0 0.24671319788358659 -0.25167760090701791 0 0.237776947656165 -0.26524056745184982 0 0.24671319788358659 -0.25167760090701791 0 0.237776947656165 -0.26524056745184982 0 0.23408256765874441 -0.253081043327193 0 0.25247351834969373 -0.26993781633894559 0 0.2493740464808949 -0.2796169659219509 0 0.24083586940857599 -0.27159222039192199 0 0.25247351834969373 -0.26993781633894559 0 0.237776947656165 -0.26524056745184982 0 0.24083586940857599 -0.27159222039192199 0 0.237776947656165 -0.26524056745184982 0 0.23518490728234159 -0.26917462882863957 0 0.237776947656165 -0.26524056745184982 0 0.23518490728234159 -0.26917462882863957 0 0.24083586940857599 -0.27159222039192199 0 0.23518490728234159 -0.26917462882863957 0 0.24083586940857599 -0.27159222039192199 0 0.23587563465162381 -0.27423280171377218 0 0.24083586940857599 -0.27159222039192199 0 0.23587563465162381 -0.27423280171377218 0 0.23595907042416361 -0.28073182267687802 0 0.23587563465162381 -0.27423280171377218 0 0.23595907042416361 -0.28073182267687802 0 0.23152269149141411 -0.27543253495764941 0 0.237776947656165 -0.26524056745184982 0 0.2092712195517662 -0.26949601489297031 0 0.237776947656165 -0.26524056745184982 0 0.22227302927155229 -0.27296096479102272 0 0.2092712195517662 -0.26949601489297031 0 0.23595907042416361 -0.28073182267687802 0 0.22768011787170919 -0.28041957633096692 0 0.23152269149141411 -0.27543253495764941 0 0.22768011787170919 -0.28041957633096692 0 0.23152269149141411 -0.27543253495764941 0 0.22227302927155229 -0.27296096479102272 0 0.23518490728234159 -0.26917462882863957 0 0.23152269149141411 -0.27543253495764941 0 0.22227302927155229 -0.27296096479102272 0 0.237776947656165 -0.26524056745184982 0 0.23518490728234159 -0.26917462882863957 0 0.22227302927155229 -0.27296096479102272 0 0.23518490728234159 -0.26917462882863957 0 0.23587563465162381 -0.27423280171377218 0 0.23152269149141411 -0.27543253495764941 0 0.22768011787170919 -0.28041957633096692 0 0.22227302927155229 -0.27296096479102272 0 0.2216367189590828 -0.28607241665675948 0 0.237776947656165 -0.26524056745184982 0 0.22539355833710381 -0.26104146648284399 0 0.2092712195517662 -0.26949601489297031 0 0.23408256765874441 -0.253081043327193 0 0.22044349848173991 -0.25634824025936293 0 0.22580199700545239 -0.2479410651385793 0 0.23408256765874441 -0.253081043327193 0 0.22539355833710381 -0.26104146648284399 0 0.22044349848173991 -0.25634824025936293 0 0.237776947656165 -0.26524056745184982 0 0.23408256765874441 -0.253081043327193 0 0.22539355833710381 -0.26104146648284399 0 0.22044349848173991 -0.25634824025936293 0 0.22580199700545239 -0.2479410651385793 0 0.21266089262083121 -0.2487761011242596 0 0.22044349848173991 -0.25634824025936293 0 0.21069663454611939 -0.2585020864776284 0 0.21266089262083121 -0.2487761011242596 0 0.22539355833710381 -0.26104146648284399 0 0.22044349848173991 -0.25634824025936293 0 0.2092712195517662 -0.26949601489297031 0 0.21069663454611939 -0.2585020864776284 0 0.20041092753014031 -0.25938798963392079 0 0.21266089262083121 -0.2487761011242596 0 0.20041092753014031 -0.25938798963392079 0 0.21266089262083121 -0.2487761011242596 0 0.19877340454872899 -0.24568153919586691 0 0.21069663454611939 -0.2585020864776284 0 0.2092712195517662 -0.26949601489297031 0 0.20041092753014031 -0.25938798963392079 0 0.22044349848173991 -0.25634824025936293 0 0.21069663454611939 -0.2585020864776284 0 0.2092712195517662 -0.26949601489297031 0 0.22227302927155229 -0.27296096479102272 0 0.20962132897354771 -0.27971420520174012 0 0.2216367189590828 -0.28607241665675948 0 0.22227302927155229 -0.27296096479102272 0 0.20962132897354771 -0.27971420520174012 0 0.2092712195517662 -0.26949601489297031 0 0.20962132897354771 -0.27971420520174012 0 0.20624758516428091 -0.28936572541893307 0 0.18076549144736709 -0.27375146233408898 0 0.2092712195517662 -0.26949601489297031 0 0.20041092753014031 -0.25938798963392079 0 0.18076549144736709 -0.27375146233408898 0 0.20962132897354771 -0.27971420520174012 0 0.2092712195517662 -0.26949601489297031 0 0.18076549144736709 -0.27375146233408898 0 0.2092712195517662 -0.26949601489297031 0 0.18076549144736709 -0.27375146233408898 0 0.1881327098362445 -0.25891566209999028 0 0.20041092753014031 -0.25938798963392079 0 0.18076549144736709 -0.27375146233408898 0 0.1881327098362445 -0.25891566209999028 0 0.20041092753014031 -0.25938798963392079 0 0.19877340454872899 -0.24568153919586691 0 0.20146853012223531 -0.29741927470700052 0 0.19481116075037341 -0.30783257725988722 0 0.20400776906330309 -0.31810260942777502 0 0.19481116075037341 -0.30783257725988722 0 0.18794642376701429 -0.29899939636490619 0 0.18582192004894121 -0.31680902853986709 0 0.20146853012223531 -0.29741927470700052 0 0.20400776906330309 -0.31810260942777502 0 0.20146853012223531 -0.29741927470700052 0 0.19481116075037341 -0.30783257725988722 0 0.18794642376701429 -0.29899939636490619 0 0.20624758516428091 -0.28936572541893307 0 0.18076549144736709 -0.27375146233408898 0 0.1909491324518908 -0.28573221739547178 0 0.20624758516428091 -0.28936572541893307 0 0.18076549144736709 -0.27375146233408898 0 0.18794642376701429 -0.29899939636490619 0 0.1909491324518908 -0.28573221739547178 0 0.19704684007025741 -0.29203798106623169 0 0.1909491324518908 -0.28573221739547178 0 0.19704684007025741 -0.29203798106623169 0 0.20624758516428091 -0.28936572541893307 0 0.20146853012223531 -0.29741927470700052 0 0.19704684007025741 -0.29203798106623169 0 0.20624758516428091 -0.28936572541893307 0 0.20146853012223531 -0.29741927470700052 0 0.18794642376701429 -0.29899939636490619 0 0.19704684007025741 -0.29203798106623169 0 0.20962132897354771 -0.27971420520174012 0 0.20624758516428091 -0.28936572541893307 0 0.2216367189590828 -0.28607241665675948 0 0.20146853012223531 -0.29741927470700052 0 0.20624758516428091 -0.28936572541893307 0 0.21307444558070451 -0.3057013368303178 0 0.20624758516428091 -0.28936572541893307 0 0.21307444558070451 -0.3057013368303178 0 0.23172967888119311 -0.30497998850377989 0 0.20146853012223531 -0.29741927470700052 0 0.21307444558070451 -0.3057013368303178 0 0.20400776906330309 -0.31810260942777502 0 0.21307444558070451 -0.3057013368303178 0 0.23172967888119311 -0.30497998850377989 0 0.2202106633638303 -0.31977288704436141 0 0.20624758516428091 -0.28936572541893307 0 0.23172967888119311 -0.30497998850377989 0 0.20624758516428091 -0.28936572541893307 0 0.23172967888119311 -0.30497998850377989 0 0.2216367189590828 -0.28607241665675948 0 0.23172967888119311 -0.30497998850377989 0 0.2216367189590828 -0.28607241665675948 0 0.23226857359221401 -0.28899403969411441 0 0.22768011787170919 -0.28041957633096692 0 0.2216367189590828 -0.28607241665675948 0 0.23226857359221401 -0.28899403969411441 0 0.23595907042416361 -0.28073182267687802 0 0.22768011787170919 -0.28041957633096692 0 0.23226857359221401 -0.28899403969411441 0 0.2493740464808949 -0.2796169659219509 0 0.24083586940857599 -0.27159222039192199 0 0.24903482967329299 -0.2960895515216671 0 0.23172967888119311 -0.30497998850377989 0 0.23226857359221401 -0.28899403969411441 0 0.24903482967329299 -0.2960895515216671 0 0.24083586940857599 -0.27159222039192199 0 0.23595907042416361 -0.28073182267687802 0 0.24903482967329299 -0.2960895515216671 0 0.23595907042416361 -0.28073182267687802 0 0.23226857359221401 -0.28899403969411441 0 0.24903482967329299 -0.2960895515216671 0 0.24083586940857599 -0.27159222039192199 0 0.24903482967329299 -0.2960895515216671 0 0.25721177259810513 -0.32059425158862659 0 0.23172967888119311 -0.30497998850377989 0 0.24903482967329299 -0.2960895515216671 0 0.25721177259810513 -0.32059425158862659 0 0.23172967888119311 -0.30497998850377989 0 0.23775354301345811 -0.31982871401314911 0 0.24975606327553079 -0.32369151453664169 0 0.22815153563995169 -0.3312387293425969 0 0.25721177259810513 -0.32059425158862659 0 0.23172967888119311 -0.30497998850377989 0 0.23775354301345811 -0.31982871401314911 0 0.25721177259810513 -0.32059425158862659 0 0.23775354301345811 -0.31982871401314911 0 0.24975606327553079 -0.32369151453664169 0 0.24975606327553079 -0.32369151453664169 0 0.22815153563995169 -0.3312387293425969 0 0.24835330241543899 -0.33954557021477388 0 0.22815153563995169 -0.3312387293425969 0 0.23846955043586979 -0.34808463221580399 0 0.24975606327553079 -0.32369151453664169 0 0.24835330241543899 -0.33954557021477388 0 0.22815153563995169 -0.3312387293425969 0 0.22815153563995169 -0.3312387293425969 0 0.22583710135289661 -0.35208422526742389 0 0.20654700800437151 -0.33878594414854951 0 0.23775354301345811 -0.31982871401314911 0 0.22815153563995169 -0.3312387293425969 0 0.2202106633638303 -0.31977288704436141 0 0.23172967888119311 -0.30497998850377989 0 0.23775354301345811 -0.31982871401314911 0 0.2202106633638303 -0.31977288704436141 0 0.24553170091710619 -0.3592963022516571 0 0.22764746942814859 -0.3701596266731435 0 0.2438786147361609 -0.3812386896238138 0 0.23846955043586979 -0.34808463221580399 0 0.24553170091710619 -0.3592963022516571 0 0.22583710135289661 -0.35208422526742389 0 0.24835330241543899 -0.33954557021477388 0 0.23846955043586979 -0.34808463221580399 0 0.24553170091710619 -0.3592963022516571 0 0.22815153563995169 -0.3312387293425969 0 0.23846955043586979 -0.34808463221580399 0 0.22583710135289661 -0.35208422526742389 0 0.24553170091710619 -0.3592963022516571 0 0.22583710135289661 -0.35208422526742389 0 0.22764746942814859 -0.3701596266731435 0 0.22583710135289661 -0.35208422526742389 0 0.22764746942814859 -0.3701596266731435 0 0.2098456460463167 -0.36565495345712412 0 0.2098456460463167 -0.36565495345712412 0 0.20654700800437151 -0.33878594414854951 0 0.22583710135289661 -0.35208422526742389 0 0.2098456460463167 -0.36565495345712412 0 0.20654700800437151 -0.33878594414854951 0 0.2098456460463167 -0.36565495345712412 0 0.19048344013873869 -0.34439750850566042 0 0.18886912457299529 -0.3670978456091068 0 0.2098456460463167 -0.36565495345712412 0 0.19048344013873869 -0.34439750850566042 0 0.20654700800437151 -0.33878594414854951 0 0.2098456460463167 -0.36565495345712412 0 0.18886912457299529 -0.3670978456091068 0 0.19476546448666471 -0.38601078125256882 0 0.21307444558070451 -0.3057013368303178 0 0.2202106633638303 -0.31977288704436141 0 0.20400776906330309 -0.31810260942777502 0 0.2202106633638303 -0.31977288704436141 0 0.20400776906330309 -0.31810260942777502 0 0.20654700800437151 -0.33878594414854951 0 0.22815153563995169 -0.3312387293425969 0 0.2202106633638303 -0.31977288704436141 0 0.20654700800437151 -0.33878594414854951 0 0.20400776906330309 -0.31810260942777502 0 0.20654700800437151 -0.33878594414854951 0 0.22815153563995169 -0.3312387293425969 0 0.20654700800437151 -0.33878594414854951 0 0.20400776906330309 -0.31810260942777502 0 0.20654700800437151 -0.33878594414854951 0 0.19308144081519391 -0.33082423414251583 0 0.19048344013873869 -0.34439750850566042 0 0.20654700800437151 -0.33878594414854951 0 0.19048344013873869 -0.34439750850566042 0 0.20654700800437151 -0.33878594414854951 0 0.19308144081519391 -0.33082423414251583 0 0.20400776906330309 -0.31810260942777502 0 0.19308144081519391 -0.33082423414251583 0 0.18582192004894121 -0.31680902853986709 0 0.19481116075037341 -0.30783257725988722 0 0.20400776906330309 -0.31810260942777502 0 0.18582192004894121 -0.31680902853986709 0 0.18582192004894121 -0.31680902853986709 0 0.16923380074726541 -0.32480908866062641 0 0.1703487314968756 -0.29997458235957303 0 0.18582192004894121 -0.31680902853986709 0 0.17854706682061511 -0.33602608009072732 0 0.16923380074726541 -0.32480908866062641 0 0.19308144081519391 -0.33082423414251583 0 0.18582192004894121 -0.31680902853986709 0 0.17854706682061511 -0.33602608009072732 0 0.17854706682061511 -0.33602608009072732 0 0.16923380074726541 -0.32480908866062641 0 0.16811886999765521 -0.34964359496167979 0 0.19048344013873869 -0.34439750850566042 0 0.17854706682061511 -0.33602608009072732 0 0.17441987227310499 -0.35000907286276872 0 0.19048344013873869 -0.34439750850566042 0 0.19308144081519391 -0.33082423414251583 0 0.17854706682061511 -0.33602608009072732 0 0.1590271570517624 -0.33999982182963973 0 0.16923380074726541 -0.32480908866062641 0 0.15071477917943629 -0.32768898805600272 0 0.16923380074726541 -0.32480908866062641 0 0.16811886999765521 -0.34964359496167979 0 0.1590271570517624 -0.33999982182963973 0 0.16923380074726541 -0.32480908866062641 0 0.16811886999765521 -0.34964359496167979 0 0.15895449013967389 -0.31363474422274801 0 0.16923380074726541 -0.32480908866062641 0 0.15071477917943629 -0.32768898805600272 0 0.15895449013967389 -0.31363474422274801 0 0.16923380074726541 -0.32480908866062641 0 0.1703487314968756 -0.29997458235957303 0 0.18886912457299529 -0.3670978456091068 0 0.17295003090982419 -0.36913658375422298 0 0.17997321651733539 -0.35724833470235051 0 0.18886912457299529 -0.3670978456091068 0 0.17295003090982419 -0.36913658375422298 0 0.18175969424394481 -0.38235014552923402 0 0.17295003090982419 -0.36913658375422298 0 0.17191292209309639 -0.35705452890750411 0 0.17997321651733539 -0.35724833470235051 0 0.19048344013873869 -0.34439750850566042 0 0.18886912457299529 -0.3670978456091068 0 0.17997321651733539 -0.35724833470235051 0 0.19048344013873869 -0.34439750850566042 0 0.17441987227310499 -0.35000907286276872 0 0.19048344013873869 -0.34439750850566042 0 0.17997321651733539 -0.35724833470235051 0 0.17441987227310499 -0.35000907286276872 0 0.17191292209309639 -0.35705452890750411 0 0.17997321651733539 -0.35724833470235051 0 0.17441987227310499 -0.35000907286276872 0 0.17854706682061511 -0.33602608009072732 0 0.17441987227310499 -0.35000907286276872 0 0.16811886999765521 -0.34964359496167979 0 0.1590271570517624 -0.33999982182963973 0 0.16811886999765521 -0.34964359496167979 0 0.16107385347266481 -0.34968069597951662 0 0.1590271570517624 -0.33999982182963973 0 0.16107385347266481 -0.34968069597951662 0 0.15439216761442279 -0.35324879305372692 0 0.16107385347266481 -0.34968069597951662 0 0.16410262076756221 -0.35923505825649832 0 0.15439216761442279 -0.35324879305372692 0 0.16811886999765521 -0.34964359496167979 0 0.16107385347266481 -0.34968069597951662 0 0.16410262076756221 -0.35923505825649832 0 0.17191292209309639 -0.35705452890750411 0 0.16811886999765521 -0.34964359496167979 0 0.16410262076756221 -0.35923505825649832 0 0.17191292209309639 -0.35705452890750411 0 0.17441987227310499 -0.35000907286276872 0 0.16811886999765521 -0.34964359496167979 0 0.17295003090982419 -0.36913658375422298 0 0.16410262076756221 -0.35923505825649832 0 0.15806955604940931 -0.37880859805145112 0 0.16410262076756221 -0.35923505825649832 0 0.15439216761442279 -0.35324879305372692 0 0.15806955604940931 -0.37880859805145112 0 0.17295003090982419 -0.36913658375422298 0 0.17191292209309639 -0.35705452890750411 0 0.16410262076756221 -0.35923505825649832 0 0.15439216761442279 -0.35324879305372692 0 0.15806955604940931 -0.37880859805145112 0 0.14731648432597719 -0.35998894843757367 0 0.15806955604940931 -0.37880859805145112 0 0.14025769090768389 -0.37569440421369688 0 0.14731648432597719 -0.35998894843757367 0 0.15439216761442279 -0.35324879305372692 0 0.15806955604940931 -0.37880859805145112 0 0.14731648432597719 -0.35998894843757367 0 0.15439216761442279 -0.35324879305372692 0 0.1375292645062233 -0.34263048185121547 0 0.14731648432597719 -0.35998894843757367 0 0.1375292645062233 -0.34263048185121547 0 0.1203306127079752 -0.36114443512201883 0 0.12829781359690359 -0.38613580246572621 0 0.14025769090768389 -0.37569440421369688 0 0.1203306127079752 -0.36114443512201883 0 0.14731648432597719 -0.35998894843757367 0 0.14025769090768389 -0.37569440421369688 0 0.1203306127079752 -0.36114443512201883 0 0.14731648432597719 -0.35998894843757367 0 0.1203306127079752 -0.36114443512201883 0 0.15895449013967389 -0.31363474422274801 0 0.15071477917943629 -0.32768898805600272 0 0.14703739074444991 -0.30212918305827863 0 0.15071477917943629 -0.32768898805600272 0 0.14703739074444991 -0.30212918305827863 0 0.15071477917943629 -0.32768898805600272 0 0.1272211643458015 -0.31892958502659691 0 0.14703739074444991 -0.30212918305827863 0 0.15439216761442279 -0.35324879305372692 0 0.15071477917943629 -0.32768898805600272 0 0.1375292645062233 -0.34263048185121547 0 0.1590271570517624 -0.33999982182963973 0 0.15439216761442279 -0.35324879305372692 0 0.15071477917943629 -0.32768898805600272 0 0.15439216761442279 -0.35324879305372692 0 0.15071477917943629 -0.32768898805600272 0 0.1375292645062233 -0.34263048185121547 0 0.1272211643458015 -0.31892958502659691 0 0.1168788902922535 -0.33675301688074799 0 0.15071477917943629 -0.32768898805600272 0 0.1375292645062233 -0.34263048185121547 0 0.1272211643458015 -0.31892958502659691 0 0.1272211643458015 -0.31892958502659691 0 0.14703739074444991 -0.30212918305827863 0 0.1226056405059622 -0.2978344963624962 0 0.14703739074444991 -0.30212918305827863 0 0.1414014161470398 -0.27921354874116072 0 0.15761818451050499 -0.28156672609083261 0 0.14703739074444991 -0.30212918305827863 0 0.1414014161470398 -0.27921354874116072 0 0.1226056405059622 -0.2978344963624962 0 0.1414014161470398 -0.27921354874116072 0 0.11721898134679461 -0.27548996727300712 0 0.1226056405059622 -0.2978344963624962 0 0.1370080842745047 -0.25456789474629432 0 0.1414014161470398 -0.27921354874116072 0 0.11721898134679461 -0.27548996727300712 0 0.1370080842745047 -0.25456789474629432 0 0.11721898134679461 -0.27548996727300712 0 0.1370080842745047 -0.25456789474629432 0 0.15186004490039981 -0.25722655760707358 0 0.15381135867525381 -0.26895061339235921 0 0.1370080842745047 -0.25456789474629432 0 0.15186004490039981 -0.25722655760707358 0 0.1585669930438042 -0.2477099734886139 0 0.15186004490039981 -0.25722655760707358 0 0.15381135867525381 -0.26895061339235921 0 0.16248616182192729 -0.26255072408404029 0 0.1414014161470398 -0.27921354874116072 0 0.15381135867525381 -0.26895061339235921 0 0.15761818451050499 -0.28156672609083261 0 0.1370080842745047 -0.25456789474629432 0 0.1414014161470398 -0.27921354874116072 0 0.15381135867525381 -0.26895061339235921 0 0.16457381236295371 -0.26956736570276008 0 0.16881283494984661 -0.27553580200507582 0 0.15761818451050499 -0.28156672609083261 0 0.15381135867525381 -0.26895061339235921 0 0.16457381236295371 -0.26956736570276008 0 0.16248616182192729 -0.26255072408404029 0 0.15381135867525381 -0.26895061339235921 0 0.16457381236295371 -0.26956736570276008 0 0.15761818451050499 -0.28156672609083261 0 0.16457381236295371 -0.26956736570276008 0 0.17177336977490329 -0.26824150090609078 0 0.16248616182192729 -0.26255072408404029 0 0.16457381236295371 -0.26956736570276008 0 0.16859633834369639 -0.27119998657884881 0 0.16881283494984661 -0.27553580200507582 0 0.16457381236295371 -0.26956736570276008 0 0.17177336977490329 -0.26824150090609078 0 0.16859633834369639 -0.27119998657884881 0 0.17177336977490329 -0.26824150090609078 0 0.1714636622464861 -0.27514007605851959 0 0.17177336977490329 -0.26824150090609078 0 0.16859633834369639 -0.27119998657884881 0 0.1714636622464861 -0.27514007605851959 0 0.1714636622464861 -0.27514007605851959 0 0.16881283494984661 -0.27553580200507582 0 0.16859633834369639 -0.27119998657884881 0 0.1714636622464861 -0.27514007605851959 0 0.16881283494984661 -0.27553580200507582 0 0.15186004490039981 -0.25722655760707358 0 0.1653251521408747 -0.25444287942776028 0 0.1585669930438042 -0.2477099734886139 0 0.15186004490039981 -0.25722655760707358 0 0.16248616182192729 -0.26255072408404029 0 0.1653251521408747 -0.25444287942776028 0 0.17177336977490329 -0.26824150090609078 0 0.16248616182192729 -0.26255072408404029 0 0.16248616182192729 -0.26255072408404029 0 0.1653251521408747 -0.25444287942776028 0 0.17215917032966679 -0.25964799291323709 0 0.17177336977490329 -0.26824150090609078 0 0.16248616182192729 -0.26255072408404029 0 0.17215917032966679 -0.25964799291323709 0 0.1653251521408747 -0.25444287942776028 0 0.17215917032966679 -0.25964799291323709 0 0.17419127104495349 -0.24699961279592511 0 0.17215917032966679 -0.25964799291323709 0 0.17972082580271539 -0.25471993168431117 0 0.17419127104495349 -0.24699961279592511 0 0.1786004992021909 -0.26313295264091952 0 0.17215917032966679 -0.25964799291323709 0 0.17972082580271539 -0.25471993168431117 0 0.17177336977490329 -0.26824150090609078 0 0.1786004992021909 -0.26313295264091952 0 0.17215917032966679 -0.25964799291323709 0 0.17177336977490329 -0.26824150090609078 0 0.17215917032966679 -0.25964799291323709 0 0.1881327098362445 -0.25891566209999028 0 0.1786004992021909 -0.26313295264091952 0 0.17972082580271539 -0.25471993168431117 0 0.1881327098362445 -0.25891566209999028 0 0.1786004992021909 -0.26313295264091952 0 0.18076549144736709 -0.27375146233408898 0 0.1881327098362445 -0.25891566209999028 0 0.17972082580271539 -0.25471993168431117 0 0.18552047860052109 -0.24490343797148409 0 0.1714636622464861 -0.27514007605851959 0 0.18076549144736709 -0.27375146233408898 0 0.1714636622464861 -0.27514007605851959 0 0.1787337256281297 -0.27900819033522212 0 0.17791323031478179 -0.28649430872550391 0 0.1714636622464861 -0.27514007605851959 0 0.1787337256281297 -0.27900819033522212 0 0.18076549144736709 -0.27375146233408898 0 0.17177336977490329 -0.26824150090609078 0 0.1786004992021909 -0.26313295264091952 0 0.18076549144736709 -0.27375146233408898 0 0.17177336977490329 -0.26824150090609078 0 0.18076549144736709 -0.27375146233408898 0 0.17177336977490329 -0.26824150090609078 0 0.1714636622464861 -0.27514007605851959 0 0.18076549144736709 -0.27375146233408898 0 0.1909491324518908 -0.28573221739547178 0 0.18076549144736709 -0.27375146233408898 0 0.18209039496054241 -0.28124654469757232 0 0.1787337256281297 -0.27900819033522212 0 0.18076549144736709 -0.27375146233408898 0 0.18209039496054241 -0.28124654469757232 0 0.1714636622464861 -0.27514007605851959 0 0.17791323031478179 -0.28649430872550391 0 0.1703487314968756 -0.29997458235957303 0 0.18794642376701429 -0.29899939636490619 0 0.17791323031478179 -0.28649430872550391 0 0.1703487314968756 -0.29997458235957303 0 0.1909491324518908 -0.28573221739547178 0 0.18209039496054241 -0.28124654469757232 0 0.17791323031478179 -0.28649430872550391 0 0.1787337256281297 -0.27900819033522212 0 0.18209039496054241 -0.28124654469757232 0 0.17791323031478179 -0.28649430872550391 0 0.18794642376701429 -0.29899939636490619 0 0.1909491324518908 -0.28573221739547178 0 0.17791323031478179 -0.28649430872550391 0 0.18794642376701429 -0.29899939636490619 0 0.18582192004894121 -0.31680902853986709 0 0.1703487314968756 -0.29997458235957303 0 0.16923380074726541 -0.32480908866062641 0 0.1703487314968756 -0.29997458235957303 0 0.15895449013967389 -0.31363474422274801 0 0.14703739074444991 -0.30212918305827863 0 0.1703487314968756 -0.29997458235957303 0 0.16881283494984661 -0.27553580200507582 0 0.1703487314968756 -0.29997458235957303 0 0.15761818451050499 -0.28156672609083261 0 0.1714636622464861 -0.27514007605851959 0 0.16881283494984661 -0.27553580200507582 0 0.1703487314968756 -0.29997458235957303 0 0.14703739074444991 -0.30212918305827863 0 0.1703487314968756 -0.29997458235957303 0 0.15761818451050499 -0.28156672609083261 0 0.1714636622464861 -0.27514007605851959 0 0.1703487314968756 -0.29997458235957303 0 0.1948805449119555 -0.48895773402937232 0 0.2051722098113431 -0.5 0 0.18400558336664091 -0.50000000000000133 0 0.1948805449119555 -0.48895773402937232 0 0.18386745803808641 -0.4838409949385577 0 0.18400558336664091 -0.50000000000000133 0 0.1948805449119555 -0.48895773402937232 0 0.20828418682267799 -0.4838173141355312 0 0.2051722098113431 -0.5 0 0.19307328652102901 -0.47713036107277218 0 0.19970371748480231 -0.46294939675949393 0 0.18013616600575619 -0.47035126124250132 0 0.19307328652102901 -0.47713036107277218 0 0.20828418682267799 -0.4838173141355312 0 0.19970371748480231 -0.46294939675949393 0 0.1948805449119555 -0.48895773402937232 0 0.19307328652102901 -0.47713036107277218 0 0.18386745803808641 -0.4838409949385577 0 0.1948805449119555 -0.48895773402937232 0 0.19307328652102901 -0.47713036107277218 0 0.20828418682267799 -0.4838173141355312 0 0.20828418682267799 -0.4838173141355312 0 0.2230401982140999 -0.47313099069142223 0 0.19970371748480231 -0.46294939675949393 0 0.20828418682267799 -0.4838173141355312 0 0.2051722098113431 -0.5 0 0.22633883625604531 -0.49999999999999672 0 0.22633883625604531 -0.49999999999999672 0 0.2374054275941993 -0.48456186793859518 0 0.2230401982140999 -0.47313099069142223 0 0.22633883625604531 -0.49999999999999672 0 0.2230401982140999 -0.47313099069142223 0 0.20828418682267799 -0.4838173141355312 0 0.22633883625604531 -0.49999999999999672 0 0.2230401982140999 -0.47313099069142223 0 0.22633883625604531 -0.49999999999999672 0 0.2374054275941993 -0.48456186793859518 0 0.24982885525456799 -0.5 0 0.25452438507146669 -0.48234813490670558 0 0.2374054275941993 -0.48456186793859518 0 0.24982885525456799 -0.5 0 0.25452438507146669 -0.48234813490670558 0 0.2374054275941993 -0.48456186793859518 0 0.24007822817638241 -0.46263859107105682 0 0.2374054275941993 -0.48456186793859518 0 0.2230401982140999 -0.47313099069142223 0 0.24007822817638241 -0.46263859107105682 0 0.2230401982140999 -0.47313099069142223 0 0.2197415601721541 -0.44626198138284767 0 0.2230401982140999 -0.47313099069142223 0 0.24007822817638241 -0.46263859107105682 0 0.2197415601721541 -0.44626198138284767 0 0.26023389616621251 -0.46499769328142643 0 0.24007822817638241 -0.46263859107105682 0 0.2490632703745437 -0.44066890513070589 0 0.24007822817638241 -0.46263859107105682 0 0.2490632703745437 -0.44066890513070589 0 0.2197415601721541 -0.44626198138284767 0 0.2490632703745437 -0.44066890513070589 0 0.2197415601721541 -0.44626198138284767 0 0.23030498342831929 -0.43089728326919913 0 0.2197415601721541 -0.44626198138284767 0 0.19970371748480231 -0.46294939675949393 0 0.19355788624318629 -0.43645926783221439 0 0.2230401982140999 -0.47313099069142223 0 0.2197415601721541 -0.44626198138284767 0 0.19970371748480231 -0.46294939675949393 0 0.19970371748480231 -0.46294939675949393 0 0.19355788624318629 -0.43645926783221439 0 0.17933321044545369 -0.45397290221782188 0 0.19355788624318629 -0.43645926783221439 0 0.19330269500044009 -0.41122576123070492 0 0.2164429221302083 -0.41939297207427312 0 0.19330269500044009 -0.41122576123070492 0 0.2164429221302083 -0.41939297207427312 0 0.2131442840882625 -0.39252396276569862 0 0.2197415601721541 -0.44626198138284767 0 0.19355788624318629 -0.43645926783221439 0 0.2164429221302083 -0.41939297207427312 0 0.2197415601721541 -0.44626198138284767 0 0.2164429221302083 -0.41939297207427312 0 0.2197415601721541 -0.44626198138284767 0 0.2164429221302083 -0.41939297207427312 0 0.23030498342831929 -0.43089728326919913 0 0.2164429221302083 -0.41939297207427312 0 0.23030498342831929 -0.43089728326919913 0 0.23789264458287501 -0.41634011697998541 0 0.2490632703745437 -0.44066890513070589 0 0.23030498342831929 -0.43089728326919913 0 0.23789264458287501 -0.41634011697998541 0 0.253663526944372 -0.41388231582759583 0 0.2490632703745437 -0.44066890513070589 0 0.23789264458287501 -0.41634011697998541 0 0.2490632703745437 -0.44066890513070589 0 0.23789264458287501 -0.41634011697998541 0 0.23789264458287501 -0.41634011697998541 0 0.2254467655641666 -0.4057744691280662 0 0.24020326752661841 -0.39879031070265469 0 0.253663526944372 -0.41388231582759583 0 0.23789264458287501 -0.41634011697998541 0 0.24020326752661841 -0.39879031070265469 0 0.2164429221302083 -0.41939297207427312 0 0.23789264458287501 -0.41634011697998541 0 0.2254467655641666 -0.4057744691280662 0 0.2254467655641666 -0.4057744691280662 0 0.24020326752661841 -0.39879031070265469 0 0.2131442840882625 -0.39252396276569862 0 0.24020326752661841 -0.39879031070265469 0 0.2438786147361609 -0.3812386896238138 0 0.2131442840882625 -0.39252396276569862 0 0.25786767707114061 -0.39764868282835308 0 0.24020326752661841 -0.39879031070265469 0 0.2438786147361609 -0.3812386896238138 0 0.22764746942814859 -0.3701596266731435 0 0.2438786147361609 -0.3812386896238138 0 0.2131442840882625 -0.39252396276569862 0 0.22764746942814859 -0.3701596266731435 0 0.2098456460463167 -0.36565495345712412 0 0.2131442840882625 -0.39252396276569862 0 0.2098456460463167 -0.36565495345712412 0 0.2131442840882625 -0.39252396276569862 0 0.19476546448666471 -0.38601078125256882 0 0.2098456460463167 -0.36565495345712412 0 0.2131442840882625 -0.39252396276569862 0 0.2164429221302083 -0.41939297207427312 0 0.2254467655641666 -0.4057744691280662 0 0.2131442840882625 -0.39252396276569862 0 0.2164429221302083 -0.41939297207427312 0 0.2131442840882625 -0.39252396276569862 0 0.19330269500044009 -0.41122576123070492 0 0.2131442840882625 -0.39252396276569862 0 0.19476546448666471 -0.38601078125256882 0 0.19330269500044009 -0.41122576123070492 0 0.19476546448666471 -0.38601078125256882 0 0.18167134296802889 -0.39721201892354491 0 0.18886912457299529 -0.3670978456091068 0 0.19476546448666471 -0.38601078125256882 0 0.18175969424394481 -0.38235014552923402 0 0.17295003090982419 -0.36913658375422298 0 0.18175969424394481 -0.38235014552923402 0 0.16793626430340269 -0.39020606924241008 0 0.18175969424394481 -0.38235014552923402 0 0.18167134296802889 -0.39721201892354491 0 0.16793626430340269 -0.39020606924241008 0 0.19476546448666471 -0.38601078125256882 0 0.18175969424394481 -0.38235014552923402 0 0.18167134296802889 -0.39721201892354491 0 0.18167134296802889 -0.39721201892354491 0 0.16304391555531419 -0.40820470137103249 0 0.17823113251994421 -0.4103425047967959 0 0.16793626430340269 -0.39020606924241008 0 0.14727398785815421 -0.392394236991715 0 0.16304391555531419 -0.40820470137103249 0 0.18167134296802889 -0.39721201892354491 0 0.16793626430340269 -0.39020606924241008 0 0.16304391555531419 -0.40820470137103249 0 0.17295003090982419 -0.36913658375422298 0 0.15806955604940931 -0.37880859805145112 0 0.16793626430340269 -0.39020606924241008 0 0.15806955604940931 -0.37880859805145112 0 0.16793626430340269 -0.39020606924241008 0 0.14727398785815421 -0.392394236991715 0 0.15806955604940931 -0.37880859805145112 0 0.14025769090768389 -0.37569440421369688 0 0.14727398785815421 -0.392394236991715 0 0.12829781359690359 -0.38613580246572621 0 0.14025769090768389 -0.37569440421369688 0 0.14727398785815421 -0.392394236991715 0 0.1258629913065297 -0.40496457850398432 0 0.14727398785815421 -0.392394236991715 0 0.1445752708802959 -0.40797338237401498 0 0.12829781359690359 -0.38613580246572621 0 0.1258629913065297 -0.40496457850398432 0 0.14727398785815421 -0.392394236991715 0 0.14727398785815421 -0.392394236991715 0 0.1445752708802959 -0.40797338237401498 0 0.16304391555531419 -0.40820470137103249 0 0.1500780341077054 -0.41795022138219129 0 0.1445752708802959 -0.40797338237401498 0 0.16304391555531419 -0.40820470137103249 0 0.1500780341077054 -0.41795022138219129 0 0.1445752708802959 -0.40797338237401498 0 0.13608591530794339 -0.41885564501365891 0 0.1500780341077054 -0.41795022138219129 0 0.13608591530794339 -0.41885564501365891 0 0.14655167745716949 -0.42863553413039712 0 0.1258629913065297 -0.40496457850398432 0 0.1445752708802959 -0.40797338237401498 0 0.13608591530794339 -0.41885564501365891 0 0.1258629913065297 -0.40496457850398432 0 0.13608591530794339 -0.41885564501365891 0 0.12255441240707329 -0.42321875771046541 0 0.13460598974857149 -0.43185249036580697 0 0.12255441240707329 -0.42321875771046541 0 0.122611716272482 -0.43694545993270673 0 0.13460598974857149 -0.43185249036580697 0 0.1345889063907609 -0.4422139884233357 0 0.122611716272482 -0.43694545993270673 0 0.13608591530794339 -0.41885564501365891 0 0.13460598974857149 -0.43185249036580697 0 0.12255441240707329 -0.42321875771046541 0 0.13608591530794339 -0.41885564501365891 0 0.13460598974857149 -0.43185249036580697 0 0.14655167745716949 -0.42863553413039712 0 0.13460598974857149 -0.43185249036580697 0 0.14655167745716949 -0.42863553413039712 0 0.1457196686484788 -0.44128773411005512 0 0.1500780341077054 -0.41795022138219129 0 0.14655167745716949 -0.42863553413039712 0 0.16013339133780391 -0.42608184402185301 0 0.14655167745716949 -0.42863553413039712 0 0.16013339133780391 -0.42608184402185301 0 0.15573669432427881 -0.43859173592656681 0 0.14655167745716949 -0.42863553413039712 0 0.15573669432427881 -0.43859173592656681 0 0.1457196686484788 -0.44128773411005512 0 0.16013339133780391 -0.42608184402185301 0 0.1698872684491661 -0.43973052528816498 0 0.15573669432427881 -0.43859173592656681 0 0.16013339133780391 -0.42608184402185301 0 0.1750939289643044 -0.42412033729402648 0 0.1698872684491661 -0.43973052528816498 0 0.1500780341077054 -0.41795022138219129 0 0.16013339133780391 -0.42608184402185301 0 0.16304391555531419 -0.40820470137103249 0 0.16013339133780391 -0.42608184402185301 0 0.16304391555531419 -0.40820470137103249 0 0.1750939289643044 -0.42412033729402648 0 0.16304391555531419 -0.40820470137103249 0 0.17823113251994421 -0.4103425047967959 0 0.1750939289643044 -0.42412033729402648 0 0.19330269500044009 -0.41122576123070492 0 0.17823113251994421 -0.4103425047967959 0 0.1750939289643044 -0.42412033729402648 0 0.19330269500044009 -0.41122576123070492 0 0.18167134296802889 -0.39721201892354491 0 0.17823113251994421 -0.4103425047967959 0 0.19355788624318629 -0.43645926783221439 0 0.19330269500044009 -0.41122576123070492 0 0.1750939289643044 -0.42412033729402648 0 0.19355788624318629 -0.43645926783221439 0 0.1750939289643044 -0.42412033729402648 0 0.1698872684491661 -0.43973052528816498 0 0.19355788624318629 -0.43645926783221439 0 0.17933321044545369 -0.45397290221782188 0 0.1698872684491661 -0.43973052528816498 0 0.17933321044545369 -0.45397290221782188 0 0.16649348074849149 -0.45309247012823411 0 0.1698872684491661 -0.43973052528816498 0 0.19970371748480231 -0.46294939675949393 0 0.17933321044545369 -0.45397290221782188 0 0.18013616600575619 -0.47035126124250132 0 0.17933321044545369 -0.45397290221782188 0 0.16533727952257349 -0.46496476569462308 0 0.18013616600575619 -0.47035126124250132 0 0.17933321044545369 -0.45397290221782188 0 0.16533727952257349 -0.46496476569462308 0 0.16649348074849149 -0.45309247012823411 0 0.1506137039230071 -0.46329933166241122 0 0.15106113204938729 -0.46147599228222452 0 0.16753335770801381 -0.48073799614111318 0 0.16533727952257349 -0.46496476569462308 0 0.15786239124637039 -0.45558358094008439 0 0.16649348074849149 -0.45309247012823411 0 0.16533727952257349 -0.46496476569462308 0 0.15786239124637039 -0.45558358094008439 0 0.15106113204938729 -0.46147599228222452 0 0.15786239124637039 -0.45558358094008439 0 0.16039801602846479 -0.44692670477217622 0 0.15409758502310339 -0.44802381204930158 0 0.15786239124637039 -0.45558358094008439 0 0.16039801602846479 -0.44692670477217622 0 0.16649348074849149 -0.45309247012823411 0 0.16039801602846479 -0.44692670477217622 0 0.16649348074849149 -0.45309247012823411 0 0.1698872684491661 -0.43973052528816498 0 0.16039801602846479 -0.44692670477217622 0 0.15573669432427881 -0.43859173592656681 0 0.15409758502310339 -0.44802381204930158 0 0.16039801602846479 -0.44692670477217622 0 0.1698872684491661 -0.43973052528816498 0 0.15573669432427881 -0.43859173592656681 0 0.14868996748668781 -0.44983595978853153 0 0.1345889063907609 -0.4422139884233357 0 0.15106113204938729 -0.46147599228222452 0 0.1345889063907609 -0.4422139884233357 0 0.15106113204938729 -0.46147599228222452 0 0.15573669432427881 -0.43859173592656681 0 0.15409758502310339 -0.44802381204930158 0 0.1457196686484788 -0.44128773411005512 0 0.15786239124637039 -0.45558358094008439 0 0.14868996748668781 -0.44983595978853153 0 0.15409758502310339 -0.44802381204930158 0 0.14868996748668781 -0.44983595978853153 0 0.15409758502310339 -0.44802381204930158 0 0.1457196686484788 -0.44128773411005512 0 0.14868996748668781 -0.44983595978853153 0 0.1457196686484788 -0.44128773411005512 0 0.1345889063907609 -0.4422139884233357 0 0.1345889063907609 -0.4422139884233357 0 0.13182877137211699 -0.45509235535415032 0 0.15106113204938729 -0.46147599228222452 0 0.13460598974857149 -0.43185249036580697 0 0.1457196686484788 -0.44128773411005512 0 0.1345889063907609 -0.4422139884233357 0 0.1345889063907609 -0.4422139884233357 0 0.13182877137211699 -0.45509235535415032 0 0.122611716272482 -0.43694545993270673 0 0.13182877137211699 -0.45509235535415032 0 0.13488396632845009 -0.47049681629448142 0 0.1227408422432371 -0.46611366956090639 0 0.13182877137211699 -0.45509235535415032 0 0.1412418678052812 -0.4656358350200982 0 0.13488396632845009 -0.47049681629448142 0 0.13182877137211699 -0.45509235535415032 0 0.1506137039230071 -0.46329933166241122 0 0.15106113204938729 -0.46147599228222452 0 0.13182877137211699 -0.45509235535415032 0 0.1412418678052812 -0.4656358350200982 0 0.1506137039230071 -0.46329933166241122 0 0.13182877137211699 -0.45509235535415032 0 0.1506137039230071 -0.46329933166241122 0 0.1412418678052812 -0.4656358350200982 0 0.1506137039230071 -0.46329933166241122 0 0.14764102959755071 -0.47365483676935011 0 0.15786239124637039 -0.45558358094008439 0 0.14868996748668781 -0.44983595978853153 0 0.15106113204938729 -0.46147599228222452 0 0.1506137039230071 -0.46329933166241122 0 0.14764102959755071 -0.47365483676935011 0 0.16753335770801381 -0.48073799614111318 0 0.15089871483371101 -0.4838711093327579 0 0.14764102959755071 -0.47365483676935011 0 0.16753335770801381 -0.48073799614111318 0 0.15089871483371101 -0.4838711093327579 0 0.14764102959755071 -0.47365483676935011 0 0.140351249376404 -0.47932731869442807 0 0.14764102959755071 -0.47365483676935011 0 0.13488396632845009 -0.47049681629448142 0 0.140351249376404 -0.47932731869442807 0 0.1412418678052812 -0.4656358350200982 0 0.14764102959755071 -0.47365483676935011 0 0.13488396632845009 -0.47049681629448142 0 0.13488396632845009 -0.47049681629448142 0 0.12773928275054919 -0.48591629350791771 0 0.1227408422432371 -0.46611366956090639 0 0.13488396632845009 -0.47049681629448142 0 0.140351249376404 -0.47932731869442807 0 0.12773928275054919 -0.48591629350791771 0 0.12773928275054919 -0.48591629350791771 0 0.14752754437917701 -0.50000000000000588 0 0.12018797226630901 -0.5 0 0.140351249376404 -0.47932731869442807 0 0.12773928275054919 -0.48591629350791771 0 0.14752754437917701 -0.50000000000000588 0 0.12773928275054919 -0.48591629350791771 0 0.14752754437917701 -0.50000000000000588 0 0.15089871483371101 -0.4838711093327579 0 0.14752754437917701 -0.50000000000000588 0 0.15793154519845271 -0.49115227636846781 0 0.15089871483371101 -0.4838711093327579 0 0.140351249376404 -0.47932731869442807 0 0.14752754437917701 -0.50000000000000588 0 0.14752754437917701 -0.50000000000000588 0 0.15793154519845271 -0.49115227636846781 0 0.16576656387290889 -0.5 0 0.15089871483371101 -0.4838711093327579 0 0.15793154519845271 -0.49115227636846781 0 0.16753335770801381 -0.48073799614111318 0 0.15793154519845271 -0.49115227636846781 0 0.16576656387290889 -0.5 0 0.16753335770801381 -0.48073799614111318 0 0.16533727952257349 -0.46496476569462308 0 0.16753335770801381 -0.48073799614111318 0 0.18013616600575619 -0.47035126124250132 0 0.16533727952257349 -0.46496476569462308 0 0.15106113204938729 -0.46147599228222452 0 0.16753335770801381 -0.48073799614111318 0 0.15106113204938729 -0.46147599228222452 0 0.16753335770801381 -0.48073799614111318 0 0.16753335770801381 -0.48073799614111318 0 0.18013616600575619 -0.47035126124250132 0 0.18386745803808641 -0.4838409949385577 0 0.19307328652102901 -0.47713036107277218 0 0.18013616600575619 -0.47035126124250132 0 0.18386745803808641 -0.4838409949385577 0 0.16753335770801381 -0.48073799614111318 0 0.18386745803808641 -0.4838409949385577 0 0.18400558336664091 -0.50000000000000133 0 0.16753335770801381 -0.48073799614111318 0 0.18400558336664091 -0.50000000000000133 0 0.16576656387290889 -0.5 0 0.16753335770801381 -0.48073799614111318 0 0.18400558336664091 -0.50000000000000133 0 0.065508828040572897 -0.5 0 0.066380049751026765 -0.48202315336317259 0 0.078407491039147542 -0.48826612972338701 0 0.066380049751026765 -0.48202315336317259 0 0.083285125266224308 -0.47300750512356021 0 0.070079040030538747 -0.46550709722478811 0 0.066380049751026765 -0.48202315336317259 0 0.083285125266224308 -0.47300750512356021 0 0.078407491039147542 -0.48826612972338701 0 0.066380049751026765 -0.48202315336317259 0 0.070079040030538747 -0.46550709722478811 0 0.05658074014836971 -0.47432535706764473 0 0.083285125266224308 -0.47300750512356021 0 0.078407491039147542 -0.48826612972338701 0 0.093802044758122399 -0.48517166393287481 0 0.083285125266224308 -0.47300750512356021 0 0.078407491039147542 -0.48826612972338701 0 0.065508828040572897 -0.5 0 0.078407491039147542 -0.48826612972338701 0 0.09284840015344098 -0.5 0 0.078407491039147542 -0.48826612972338701 0 0.09284840015344098 -0.5 0 0.093802044758122399 -0.48517166393287481 0 0.09284840015344098 -0.5 0 0.1085057442100692 -0.48858410889132359 0 0.093802044758122399 -0.48517166393287481 0 0.09284840015344098 -0.5 0 0.1085057442100692 -0.48858410889132359 0 0.12018797226630901 -0.5 0 0.12773928275054919 -0.48591629350791771 0 0.1085057442100692 -0.48858410889132359 0 0.12018797226630901 -0.5 0 0.12773928275054919 -0.48591629350791771 0 0.1079510211219242 -0.47183258701582548 0 0.1227408422432371 -0.46611366956090639 0 0.12773928275054919 -0.48591629350791771 0 0.1085057442100692 -0.48858410889132359 0 0.1079510211219242 -0.47183258701582548 0 0.12773928275054919 -0.48591629350791771 0 0.1079510211219242 -0.47183258701582548 0 0.083285125266224308 -0.47300750512356021 0 0.093802044758122399 -0.48517166393287481 0 0.1079510211219242 -0.47183258701582548 0 0.1085057442100692 -0.48858410889132359 0 0.093802044758122399 -0.48517166393287481 0 0.1079510211219242 -0.47183258701582548 0 0.1079510211219242 -0.47183258701582548 0 0.088162759493299533 -0.45774888052373292 0 0.1079510211219242 -0.47183258701582548 0 0.1130438388212269 -0.44688537904588932 0 0.088162759493299533 -0.45774888052373292 0 0.1079510211219242 -0.47183258701582548 0 0.1227408422432371 -0.46611366956090639 0 0.1130438388212269 -0.44688537904588932 0 0.13182877137211699 -0.45509235535415032 0 0.1227408422432371 -0.46611366956090639 0 0.1130438388212269 -0.44688537904588932 0 0.13182877137211699 -0.45509235535415032 0 0.1130438388212269 -0.44688537904588932 0 0.122611716272482 -0.43694545993270673 0 0.13182877137211699 -0.45509235535415032 0 0.1130438388212269 -0.44688537904588932 0 0.1130438388212269 -0.44688537904588932 0 0.1092270329274774 -0.43187128420393428 0 0.122611716272482 -0.43694545993270673 0 0.1130438388212269 -0.44688537904588932 0 0.094258906270336673 -0.43867840273762848 0 0.088162759493299533 -0.45774888052373292 0 0.1130438388212269 -0.44688537904588932 0 0.094258906270336673 -0.43867840273762848 0 0.1092270329274774 -0.43187128420393428 0 0.1130438388212269 -0.44688537904588932 0 0.094258906270336673 -0.43867840273762848 0 0.082191660011445025 -0.4415093986149648 0 0.088162759493299533 -0.45774888052373292 0 0.070709984274383741 -0.44532738700051749 0 0.088162759493299533 -0.45774888052373292 0 0.070709984274383741 -0.44532738700051749 0 0.094258906270336673 -0.43867840273762848 0 0.082191660011445025 -0.4415093986149648 0 0.088162759493299533 -0.45774888052373292 0 0.094258906270336673 -0.43867840273762848 0 0.088162759493299533 -0.45774888052373292 0 0.083285125266224308 -0.47300750512356021 0 0.088162759493299533 -0.45774888052373292 0 0.070079040030538747 -0.46550709722478811 0 0.083285125266224308 -0.47300750512356021 0 0.1079510211219242 -0.47183258701582548 0 0.088162759493299533 -0.45774888052373292 0 0.083285125266224308 -0.47300750512356021 0 0.088162759493299533 -0.45774888052373292 0 0.070079040030538747 -0.46550709722478811 0 0.070709984274383741 -0.44532738700051749 0 0.055355581249928773 -0.46061030027010019 0 0.088162759493299533 -0.45774888052373292 0 0.070079040030538747 -0.46550709722478811 0 0.070709984274383741 -0.44532738700051749 0 0.082191660011445025 -0.4415093986149648 0 0.070709984274383741 -0.44532738700051749 0 0.075661253181172422 -0.43055324722383898 0 0.075661253181172422 -0.43055324722383898 0 0.057063600092008143 -0.42242809171004958 0 0.070709984274383741 -0.44532738700051749 0 0.075661253181172422 -0.43055324722383898 0 0.053257209055468137 -0.43290589347730157 0 0.075661253181172422 -0.43055324722383898 0 0.074244877091640016 -0.41304090750817618 0 0.057063600092008143 -0.42242809171004958 0 0.074244877091640016 -0.41304090750817618 0 0.057725530977793711 -0.40710168830443649 0 0.057063600092008143 -0.42242809171004958 0 0.074244877091640016 -0.41304090750817618 0 0.086063463280410729 -0.42062135970524761 0 0.090092981328419586 -0.40494282554660932 0 0.075661253181172422 -0.43055324722383898 0 0.074244877091640016 -0.41304090750817618 0 0.086063463280410729 -0.42062135970524761 0 0.086063463280410729 -0.42062135970524761 0 0.099823431789676953 -0.42127098717037442 0 0.090092981328419586 -0.40494282554660932 0 0.094258906270336673 -0.43867840273762848 0 0.075661253181172422 -0.43055324722383898 0 0.094258906270336673 -0.43867840273762848 0 0.075661253181172422 -0.43055324722383898 0 0.086063463280410729 -0.42062135970524761 0 0.094258906270336673 -0.43867840273762848 0 0.082191660011445025 -0.4415093986149648 0 0.075661253181172422 -0.43055324722383898 0 0.094258906270336673 -0.43867840273762848 0 0.086063463280410729 -0.42062135970524761 0 0.099823431789676953 -0.42127098717037442 0 0.1092270329274774 -0.43187128420393428 0 0.1119808981653083 -0.41603247273796629 0 0.099823431789676953 -0.42127098717037442 0 0.094258906270336673 -0.43867840273762848 0 0.099823431789676953 -0.42127098717037442 0 0.094258906270336673 -0.43867840273762848 0 0.1092270329274774 -0.43187128420393428 0 0.099823431789676953 -0.42127098717037442 0 0.1092270329274774 -0.43187128420393428 0 0.12255441240707329 -0.42321875771046541 0 0.1119808981653083 -0.41603247273796629 0 0.1092270329274774 -0.43187128420393428 0 0.12255441240707329 -0.42321875771046541 0 0.122611716272482 -0.43694545993270673 0 0.1258629913065297 -0.40496457850398432 0 0.1119808981653083 -0.41603247273796629 0 0.1053879573090183 -0.40386357160312047 0 0.1258629913065297 -0.40496457850398432 0 0.12255441240707329 -0.42321875771046541 0 0.1119808981653083 -0.41603247273796629 0 0.1119808981653083 -0.41603247273796629 0 0.099823431789676953 -0.42127098717037442 0 0.1053879573090183 -0.40386357160312047 0 0.099823431789676953 -0.42127098717037442 0 0.1053879573090183 -0.40386357160312047 0 0.099823431789676953 -0.42127098717037442 0 0.1053879573090183 -0.40386357160312047 0 0.090092981328419586 -0.40494282554660932 0 0.1053879573090183 -0.40386357160312047 0 0.10156772526027399 -0.38033626500514411 0 0.090092981328419586 -0.40494282554660932 0 0.1053879573090183 -0.40386357160312047 0 0.1134973419778256 -0.38947784929047979 0 0.10156772526027399 -0.38033626500514411 0 0.1258629913065297 -0.40496457850398432 0 0.1053879573090183 -0.40386357160312047 0 0.1134973419778256 -0.38947784929047979 0 0.12829781359690359 -0.38613580246572621 0 0.1258629913065297 -0.40496457850398432 0 0.1134973419778256 -0.38947784929047979 0 0.12829781359690359 -0.38613580246572621 0 0.1134973419778256 -0.38947784929047979 0 0.1203306127079752 -0.36114443512201883 0 0.1134973419778256 -0.38947784929047979 0 0.10156772526027399 -0.38033626500514411 0 0.1203306127079752 -0.36114443512201883 0 0.10156772526027399 -0.38033626500514411 0 0.081252615572596318 -0.37568403098212549 0 0.079646628119033863 -0.39371897665479028 0 0.10156772526027399 -0.38033626500514411 0 0.079646628119033863 -0.39371897665479028 0 0.074244877091640016 -0.41304090750817618 0 0.090092981328419586 -0.40494282554660932 0 0.079646628119033863 -0.39371897665479028 0 0.10156772526027399 -0.38033626500514411 0 0.090092981328419586 -0.40494282554660932 0 0.079646628119033863 -0.39371897665479028 0 0.074244877091640016 -0.41304090750817618 0 0.079646628119033863 -0.39371897665479028 0 0.057725530977793711 -0.40710168830443649 0 0.079646628119033863 -0.39371897665479028 0 0.057725530977793711 -0.40710168830443649 0 0.079646628119033863 -0.39371897665479028 0 0.057967083654891921 -0.39090627561230418 0 0.057725530977793711 -0.40710168830443649 0 0.079646628119033863 -0.39371897665479028 0 0.065345113921729425 -0.37860958295332031 0 0.057967083654891921 -0.39090627561230418 0 0.081252615572596318 -0.37568403098212549 0 0.079646628119033863 -0.39371897665479028 0 0.065345113921729425 -0.37860958295332031 0 0.052590316018551943 -0.3803368105639523 0 0.057967083654891921 -0.39090627561230418 0 0.04635127497378156 -0.38781961663255521 0 0.065345113921729425 -0.37860958295332031 0 0.052590316018551943 -0.3803368105639523 0 0.052356002756588568 -0.36766611635921498 0 0.065345113921729425 -0.37860958295332031 0 0.052590316018551943 -0.3803368105639523 0 0.057967083654891921 -0.39090627561230418 0 0.057967083654891921 -0.39090627561230418 0 0.045527893609937899 -0.39951571330153679 0 0.057725530977793711 -0.40710168830443649 0 0.045527893609937899 -0.39951571330153679 0 0.040178466906792887 -0.4091958530571953 0 0.057725530977793711 -0.40710168830443649 0 0.057967083654891921 -0.39090627561230418 0 0.045527893609937899 -0.39951571330153679 0 0.04635127497378156 -0.38781961663255521 0 0.045527893609937899 -0.39951571330153679 0 0.034388280840181272 -0.38978252366196747 0 0.04635127497378156 -0.38781961663255521 0 0.045527893609937899 -0.39951571330153679 0 0.032918815781718153 -0.4032959433681394 0 0.040178466906792887 -0.4091958530571953 0 0.045527893609937899 -0.39951571330153679 0 0.032918815781718153 -0.4032959433681394 0 0.034388280840181272 -0.38978252366196747 0 0.034388280840181272 -0.38978252366196747 0 0.040932104785768232 -0.37668246126236682 0 0.021228440181028669 -0.37697617771341918 0 0.034388280840181272 -0.38978252366196747 0 0.04635127497378156 -0.38781961663255521 0 0.040932104785768232 -0.37668246126236682 0 0.052590316018551943 -0.3803368105639523 0 0.04635127497378156 -0.38781961663255521 0 0.040932104785768232 -0.37668246126236682 0 0.034388280840181272 -0.38978252366196747 0 0.021228440181028669 -0.37697617771341918 0 0.023075004285539141 -0.39688287840136022 0 0.021228440181028669 -0.37697617771341918 0 0.0043943107260996693 -0.39477409804697688 0 0.023075004285539141 -0.39688287840136022 0 0.021228440181028669 -0.37697617771341918 0 0.0043943107260996693 -0.39477409804697688 0 -0.0057633599520367524 -0.36768834396071098 0 0.021228440181028669 -0.37697617771341918 0 0.0043943107260996693 -0.39477409804697688 0 0.0043943107260996693 -0.39477409804697688 0 0.018839840391362741 -0.40841035528438602 0 0.011242899075775459 -0.41303607815597798 0 0.0043943107260996693 -0.39477409804697688 0 0.011242899075775459 -0.41303607815597798 0 0.0012401442745701111 -0.41039122975193348 0 0.0043943107260996693 -0.39477409804697688 0 0.023075004285539141 -0.39688287840136022 0 0.018839840391362741 -0.40841035528438602 0 0.0043943107260996693 -0.39477409804697688 0 0.011242899075775459 -0.41303607815597798 0 0.023075004285539141 -0.39688287840136022 0 0.025937330196645549 -0.40604267435291591 0 0.018839840391362741 -0.40841035528438602 0 0.032918815781718153 -0.4032959433681394 0 0.034388280840181272 -0.38978252366196747 0 0.023075004285539141 -0.39688287840136022 0 0.032918815781718153 -0.4032959433681394 0 0.023075004285539141 -0.39688287840136022 0 0.025937330196645549 -0.40604267435291591 0 0.032918815781718153 -0.4032959433681394 0 0.025937330196645549 -0.40604267435291591 0 0.028915660327968631 -0.4155815203577799 0 0.025937330196645549 -0.40604267435291591 0 0.028915660327968631 -0.4155815203577799 0 0.018839840391362741 -0.40841035528438602 0 0.028915660327968631 -0.4155815203577799 0 0.018839840391362741 -0.40841035528438602 0 0.032918815781718153 -0.4032959433681394 0 0.028915660327968631 -0.4155815203577799 0 0.02046012778572686 -0.41905555957130158 0 0.011242899075775459 -0.41303607815597798 0 0.018091487425464362 -0.43129805826497403 0 0.028915660327968631 -0.4155815203577799 0 0.02046012778572686 -0.41905555957130158 0 0.025210751708075341 -0.42695178579339188 0 0.028915660327968631 -0.4155815203577799 0 0.025210751708075341 -0.42695178579339188 0 0.028915660327968631 -0.4155815203577799 0 0.025210751708075341 -0.42695178579339188 0 0.035804433836554093 -0.4204843999540836 0 0.028915660327968631 -0.4155815203577799 0 0.02046012778572686 -0.41905555957130158 0 0.018839840391362741 -0.40841035528438602 0 0.02046012778572686 -0.41905555957130158 0 0.018839840391362741 -0.40841035528438602 0 0.011242899075775459 -0.41303607815597798 0 0.011242899075775459 -0.41303607815597798 0 0.003046948381176199 -0.421264379777051 0 0.018091487425464362 -0.43129805826497403 0 0.011242899075775459 -0.41303607815597798 0 0.003046948381176199 -0.421264379777051 0 0.0012401442745701111 -0.41039122975193348 0 0.011242899075775459 -0.41303607815597798 0 0.018091487425464362 -0.43129805826497403 0 -0.0057167061612168526 -0.44268888938763429 0 0.001065975389985023 -0.43277259632701881 0 0.01378721508609689 -0.43301802344847062 0 0.003046948381176199 -0.421264379777051 0 0.001065975389985023 -0.43277259632701881 0 0.01378721508609689 -0.43301802344847062 0 0.003046948381176199 -0.421264379777051 0 0.01378721508609689 -0.43301802344847062 0 0.016135682923844229 -0.4324920663713957 0 0.003046948381176199 -0.421264379777051 0 0.016135682923844229 -0.4324920663713957 0 0.003046948381176199 -0.421264379777051 0 0.016135682923844229 -0.4324920663713957 0 0.018091487425464362 -0.43129805826497403 0 0.016135682923844229 -0.4324920663713957 0 0.0027657136627727771 -0.44065436054092061 0 0.01378721508609689 -0.43301802344847062 0 0.016135682923844229 -0.4324920663713957 0 0.0027657136627727771 -0.44065436054092061 0 0.016135682923844229 -0.4324920663713957 0 0.021817393450587572 -0.43736591150181509 0 0.01910701914751314 -0.43400600611659551 0 0.016135682923844229 -0.4324920663713957 0 0.021817393450587572 -0.43736591150181509 0 0.01910701914751314 -0.43400600611659551 0 0.021817393450587572 -0.43736591150181509 0 0.025210751708075341 -0.42695178579339188 0 0.016135682923844229 -0.4324920663713957 0 0.018091487425464362 -0.43129805826497403 0 0.01910701914751314 -0.43400600611659551 0 0.018091487425464362 -0.43129805826497403 0 0.01910701914751314 -0.43400600611659551 0 0.016135682923844229 -0.4324920663713957 0 0.018091487425464362 -0.43129805826497403 0 0.01910701914751314 -0.43400600611659551 0 0.018091487425464362 -0.43129805826497403 0 0.025210751708075341 -0.42695178579339188 0 0.02046012778572686 -0.41905555957130158 0 0.018091487425464362 -0.43129805826497403 0 0.025210751708075341 -0.42695178579339188 0 0.018091487425464362 -0.43129805826497403 0 0.025210751708075341 -0.42695178579339188 0 0.025210751708075341 -0.42695178579339188 0 0.035804433836554093 -0.4204843999540836 0 0.025210751708075341 -0.42695178579339188 0 0.028877085570337999 -0.43447354875602368 0 0.036655686775177117 -0.43378876983358428 0 0.021817393450587572 -0.43736591150181509 0 0.025210751708075341 -0.42695178579339188 0 0.021817393450587572 -0.43736591150181509 0 0.025210751708075341 -0.42695178579339188 0 0.028877085570337999 -0.43447354875602368 0 0.036655686775177117 -0.43378876983358428 0 0.035804433836554093 -0.4204843999540836 0 0.053257209055468137 -0.43290589347730157 0 0.035804433836554093 -0.4204843999540836 0 0.053257209055468137 -0.43290589347730157 0 0.025210751708075341 -0.42695178579339188 0 0.036655686775177117 -0.43378876983358428 0 0.035804433836554093 -0.4204843999540836 0 0.035804433836554093 -0.4204843999540836 0 0.040178466906792887 -0.4091958530571953 0 0.057725530977793711 -0.40710168830443649 0 0.028915660327968631 -0.4155815203577799 0 0.035804433836554093 -0.4204843999540836 0 0.035804433836554093 -0.4204843999540836 0 0.057725530977793711 -0.40710168830443649 0 0.028915660327968631 -0.4155815203577799 0 0.035804433836554093 -0.4204843999540836 0 0.040178466906792887 -0.4091958530571953 0 0.032918815781718153 -0.4032959433681394 0 0.028915660327968631 -0.4155815203577799 0 0.040178466906792887 -0.4091958530571953 0 0.035804433836554093 -0.4204843999540836 0 0.057725530977793711 -0.40710168830443649 0 0.057063600092008143 -0.42242809171004958 0 0.035804433836554093 -0.4204843999540836 0 0.053257209055468137 -0.43290589347730157 0 0.057063600092008143 -0.42242809171004958 0 0.075661253181172422 -0.43055324722383898 0 0.053257209055468137 -0.43290589347730157 0 0.057063600092008143 -0.42242809171004958 0 0.070709984274383741 -0.44532738700051749 0 0.053257209055468137 -0.43290589347730157 0 0.070709984274383741 -0.44532738700051749 0 0.053257209055468137 -0.43290589347730157 0 0.047216797940535092 -0.44647990332166237 0 0.070709984274383741 -0.44532738700051749 0 0.047216797940535092 -0.44647990332166237 0 0.055355581249928773 -0.46061030027010019 0 0.070079040030538747 -0.46550709722478811 0 0.055355581249928773 -0.46061030027010019 0 0.05658074014836971 -0.47432535706764473 0 0.055355581249928773 -0.46061030027010019 0 0.046315996756496773 -0.46949719058446471 0 0.05658074014836971 -0.47432535706764473 0 0.055355581249928773 -0.46061030027010019 0 0.041221419358805501 -0.4589009227859131 0 0.046315996756496773 -0.46949719058446471 0 0.047216797940535092 -0.44647990332166237 0 0.055355581249928773 -0.46061030027010019 0 0.041221419358805501 -0.4589009227859131 0 0.041221419358805501 -0.4589009227859131 0 0.032913760531879353 -0.47356093399596749 0 0.046315996756496773 -0.46949719058446471 0 0.041221419358805501 -0.4589009227859131 0 0.029133004895443831 -0.46025147014051748 0 0.032913760531879353 -0.47356093399596749 0 0.041221419358805501 -0.4589009227859131 0 0.032359634405716667 -0.44640918280206338 0 0.029133004895443831 -0.46025147014051748 0 0.036655686775177117 -0.43378876983358428 0 0.053257209055468137 -0.43290589347730157 0 0.047216797940535092 -0.44647990332166237 0 0.047216797940535092 -0.44647990332166237 0 0.041221419358805501 -0.4589009227859131 0 0.032359634405716667 -0.44640918280206338 0 0.028877085570337999 -0.43447354875602368 0 0.036655686775177117 -0.43378876983358428 0 0.032359634405716667 -0.44640918280206338 0 0.036655686775177117 -0.43378876983358428 0 0.047216797940535092 -0.44647990332166237 0 0.032359634405716667 -0.44640918280206338 0 0.021817393450587572 -0.43736591150181509 0 0.028877085570337999 -0.43447354875602368 0 0.032359634405716667 -0.44640918280206338 0 0.021817393450587572 -0.43736591150181509 0 0.032359634405716667 -0.44640918280206338 0 0.021817393450587572 -0.43736591150181509 0 0.012528443613133371 -0.44328543127586167 0 0.01504716270940998 -0.45814356851992832 0 0.021817393450587572 -0.43736591150181509 0 0.032359634405716667 -0.44640918280206338 0 0.01504716270940998 -0.45814356851992832 0 0.021817393450587572 -0.43736591150181509 0 0.01504716270940998 -0.45814356851992832 0 0.016135682923844229 -0.4324920663713957 0 0.021817393450587572 -0.43736591150181509 0 0.012528443613133371 -0.44328543127586167 0 -0.0057167061612168526 -0.44268888938763429 0 0.01378721508609689 -0.43301802344847062 0 0.0027657136627727771 -0.44065436054092061 0 -0.0057167061612168526 -0.44268888938763429 0 0.01378721508609689 -0.43301802344847062 0 0.016135682923844229 -0.4324920663713957 0 0.012528443613133371 -0.44328543127586167 0 0.0027657136627727771 -0.44065436054092061 0 0.012528443613133371 -0.44328543127586167 0 0.0068762653190555132 -0.44777124944524749 0 0.01504716270940998 -0.45814356851992832 0 0.0068762653190555132 -0.44777124944524749 0 0.0027657136627727771 -0.44065436054092061 0 0.001472854377528484 -0.45396397847149073 0 0.012528443613133371 -0.44328543127586167 0 0.0068762653190555132 -0.44777124944524749 0 0.0027657136627727771 -0.44065436054092061 0 0.002710617743064444 -0.46593022637184228 0 0.01504716270940998 -0.45814356851992832 0 0.008276931968233989 -0.47892122553804212 0 0.01504716270940998 -0.45814356851992832 0 0.021612188392324289 -0.46867028648280512 0 0.008276931968233989 -0.47892122553804212 0 0.01504716270940998 -0.45814356851992832 0 0.008276931968233989 -0.47892122553804212 0 0.0068762653190555132 -0.44777124944524749 0 0.001472854377528484 -0.45396397847149073 0 0.01504716270940998 -0.45814356851992832 0 0.002710617743064444 -0.46593022637184228 0 0.001472854377528484 -0.45396397847149073 0 0.01504716270940998 -0.45814356851992832 0 0.032359634405716667 -0.44640918280206338 0 0.01504716270940998 -0.45814356851992832 0 0.029133004895443831 -0.46025147014051748 0 0.01504716270940998 -0.45814356851992832 0 0.021612188392324289 -0.46867028648280512 0 0.029133004895443831 -0.46025147014051748 0 0.021612188392324289 -0.46867028648280512 0 0.029133004895443831 -0.46025147014051748 0 0.032913760531879353 -0.47356093399596749 0 0.021612188392324289 -0.46867028648280512 0 0.020149063534449001 -0.47823949898791918 0 0.032913760531879353 -0.47356093399596749 0 0.030233808346815869 -0.48335450746177422 0 0.020149063534449001 -0.47823949898791918 0 0.032913760531879353 -0.47356093399596749 0 0.030233808346815869 -0.48335450746177422 0 0.020149063534449001 -0.47823949898791918 0 0.025851561111960051 -0.48567200399839028 0 0.020149063534449001 -0.47823949898791918 0 0.013512639030859291 -0.48739600636257868 0 0.025851561111960051 -0.48567200399839028 0 0.021612188392324289 -0.46867028648280512 0 0.020149063534449001 -0.47823949898791918 0 0.008276931968233989 -0.47892122553804212 0 0.020149063534449001 -0.47823949898791918 0 0.008276931968233989 -0.47892122553804212 0 0.013512639030859291 -0.48739600636257868 0 -0.0018263063229271811 -0.48556017921041428 0 -0.0019559089577449651 -0.47409726781104972 0 0.008276931968233989 -0.47892122553804212 0 -0.0019559089577449651 -0.47409726781104972 0 0.002710617743064444 -0.46593022637184228 0 0.008276931968233989 -0.47892122553804212 0 -0.0018263063229271811 -0.48556017921041428 0 0.008276931968233989 -0.47892122553804212 0 0.0015067012270580161 -0.5 0 0.008276931968233989 -0.47892122553804212 0 0.0015067012270580161 -0.5 0 0.013512639030859291 -0.48739600636257868 0 0.008276931968233989 -0.47892122553804212 0 0.0015067012270580161 -0.5 0 0.0015067012270580161 -0.5 0 0.013512639030859291 -0.48739600636257868 0 0.01213485210515752 -0.5 0 0.013512639030859291 -0.48739600636257868 0 0.025851561111960051 -0.48567200399839028 0 0.039510733535716061 -0.49369800318128931 0 0.01213485210515752 -0.5 0 0.02541425577274779 -0.4950743161854867 0 0.038821840072865273 -0.5 0 0.013512639030859291 -0.48739600636257868 0 0.02541425577274779 -0.4950743161854867 0 0.039510733535716061 -0.49369800318128931 0 0.013512639030859291 -0.48739600636257868 0 0.01213485210515752 -0.5 0 0.02541425577274779 -0.4950743161854867 0 0.013512639030859291 -0.48739600636257868 0 0.039510733535716061 -0.49369800318128931 0 0.02541425577274779 -0.4950743161854867 0 0.038821840072865273 -0.5 0 0.039510733535716061 -0.49369800318128931 0 0.039510733535716061 -0.49369800318128931 0 0.044456788380473358 -0.48666685529099951 0 0.054516215889980763 -0.48857170617206852 0 0.039510733535716061 -0.49369800318128931 0 0.044456788380473358 -0.48666685529099951 0 0.038291721602696102 -0.48430927300794241 0 0.030233808346815869 -0.48335450746177422 0 0.025851561111960051 -0.48567200399839028 0 0.039510733535716061 -0.49369800318128931 0 0.030233808346815869 -0.48335450746177422 0 0.039510733535716061 -0.49369800318128931 0 0.038291721602696102 -0.48430927300794241 0 0.030233808346815869 -0.48335450746177422 0 0.038291721602696102 -0.48430927300794241 0 0.032913760531879353 -0.47356093399596749 0 0.038291721602696102 -0.48430927300794241 0 0.032913760531879353 -0.47356093399596749 0 0.045508482493500528 -0.48008843880269769 0 0.032913760531879353 -0.47356093399596749 0 0.046315996756496773 -0.46949719058446471 0 0.045508482493500528 -0.48008843880269769 0 0.044456788380473358 -0.48666685529099951 0 0.038291721602696102 -0.48430927300794241 0 0.045508482493500528 -0.48008843880269769 0 0.045508482493500528 -0.48008843880269769 0 0.05658074014836971 -0.47432535706764473 0 0.054516215889980763 -0.48857170617206852 0 0.046315996756496773 -0.46949719058446471 0 0.045508482493500528 -0.48008843880269769 0 0.05658074014836971 -0.47432535706764473 0 0.066380049751026765 -0.48202315336317259 0 0.05658074014836971 -0.47432535706764473 0 0.054516215889980763 -0.48857170617206852 0 0.065508828040572897 -0.5 0 0.039510733535716061 -0.49369800318128931 0 0.065508828040572897 -0.5 0 0.066380049751026765 -0.48202315336317259 0 0.054516215889980763 -0.48857170617206852 0 0.065508828040572897 -0.5 0 0.039510733535716061 -0.49369800318128931 0 0.054516215889980763 -0.48857170617206852 0 0.065508828040572897 -0.5 0 0.038821840072865273 -0.5 0 0.039510733535716061 -0.49369800318128931 0 0.044456788380473358 -0.48666685529099951 0 0.045508482493500528 -0.48008843880269769 0 0.054516215889980763 -0.48857170617206852 0 0.074333427864781282 -0.28959454365080678 0 0.093798774982119512 -0.27819255621478889 0 0.097429878419084542 -0.29641203979971981 0 0.074333427864781282 -0.28959454365080678 0 0.097429878419084542 -0.29641203979971981 0 0.077640775491374478 -0.31733411232643249 0 0.097429878419084542 -0.29641203979971981 0 0.1056486560901167 -0.31531782901434369 0 0.077640775491374478 -0.31733411232643249 0 0.097429878419084542 -0.29641203979971981 0 0.077640775491374478 -0.31733411232643249 0 0.074333427864781282 -0.28959454365080678 0 0.077640775491374478 -0.31733411232643249 0 0.051238953040322263 -0.3086950407465055 0 0.074333427864781282 -0.28959454365080678 0 0.065954749703151794 -0.27408445833988931 0 0.054556993244360558 -0.28350236233768039 0 0.074333427864781282 -0.28959454365080678 0 0.065954749703151794 -0.27408445833988931 0 0.080226382098897195 -0.26816396446633839 0 0.065954749703151794 -0.27408445833988931 0 0.06956000742121847 -0.26025405135897839 0 0.055520238295047819 -0.26444944587304331 0 0.065954749703151794 -0.27408445833988931 0 0.06956000742121847 -0.26025405135897839 0 0.080226382098897195 -0.26816396446633839 0 0.06956000742121847 -0.26025405135897839 0 0.080146140456085896 -0.25251658095371399 0 0.080226382098897195 -0.26816396446633839 0 0.06956000742121847 -0.26025405135897839 0 0.058005039471788339 -0.25437265066704162 0 0.067463235471016098 -0.24962726845213279 0 0.06956000742121847 -0.26025405135897839 0 0.080146140456085896 -0.25251658095371399 0 0.067463235471016098 -0.24962726845213279 0 0.080146140456085896 -0.25251658095371399 0 0.080226382098897195 -0.26816396446633839 0 0.099785205181039921 -0.26130226588407279 0 0.080146140456085896 -0.25251658095371399 0 0.099785205181039921 -0.26130226588407279 0 0.09436961083822365 -0.24060637403792509 0 0.074333427864781282 -0.28959454365080678 0 0.080226382098897195 -0.26816396446633839 0 0.093798774982119512 -0.27819255621478889 0 0.080226382098897195 -0.26816396446633839 0 0.093798774982119512 -0.27819255621478889 0 0.099785205181039921 -0.26130226588407279 0 0.099785205181039921 -0.26130226588407279 0 0.11721898134679461 -0.27548996727300712 0 0.11975065958300481 -0.2429171875098404 0 0.093798774982119512 -0.27819255621478889 0 0.099785205181039921 -0.26130226588407279 0 0.11721898134679461 -0.27548996727300712 0 0.1370080842745047 -0.25456789474629432 0 0.11721898134679461 -0.27548996727300712 0 0.11975065958300481 -0.2429171875098404 0 0.11721898134679461 -0.27548996727300712 0 0.097429878419084542 -0.29641203979971981 0 0.1226056405059622 -0.2978344963624962 0 0.093798774982119512 -0.27819255621478889 0 0.11721898134679461 -0.27548996727300712 0 0.097429878419084542 -0.29641203979971981 0 0.11721898134679461 -0.27548996727300712 0 0.097429878419084542 -0.29641203979971981 0 0.097429878419084542 -0.29641203979971981 0 0.1226056405059622 -0.2978344963624962 0 0.1056486560901167 -0.31531782901434369 0 0.1272211643458015 -0.31892958502659691 0 0.1226056405059622 -0.2978344963624962 0 0.1056486560901167 -0.31531782901434369 0 0.1272211643458015 -0.31892958502659691 0 0.1168788902922535 -0.33675301688074799 0 0.1056486560901167 -0.31531782901434369 0 0.097633589209210545 -0.33291575890527908 0 0.1050932012710024 -0.35003488444677627 0 0.079091508841710914 -0.34512128389590252 0 0.1168788902922535 -0.33675301688074799 0 0.097633589209210545 -0.33291575890527908 0 0.1050932012710024 -0.35003488444677627 0 0.1168788902922535 -0.33675301688074799 0 0.097633589209210545 -0.33291575890527908 0 0.1056486560901167 -0.31531782901434369 0 0.1168788902922535 -0.33675301688074799 0 0.1203306127079752 -0.36114443512201883 0 0.1050932012710024 -0.35003488444677627 0 0.1375292645062233 -0.34263048185121547 0 0.1168788902922535 -0.33675301688074799 0 0.1203306127079752 -0.36114443512201883 0 0.1203306127079752 -0.36114443512201883 0 0.1050932012710024 -0.35003488444677627 0 0.093344741089973149 -0.36229992180646392 0 0.1203306127079752 -0.36114443512201883 0 0.093344741089973149 -0.36229992180646392 0 0.10156772526027399 -0.38033626500514411 0 0.1203306127079752 -0.36114443512201883 0 0.093344741089973149 -0.36229992180646392 0 0.093344741089973149 -0.36229992180646392 0 0.066358869471971116 -0.36345540849090902 0 0.10156772526027399 -0.38033626500514411 0 0.081252615572596318 -0.37568403098212549 0 0.093344741089973149 -0.36229992180646392 0 0.081252615572596318 -0.37568403098212549 0 0.093344741089973149 -0.36229992180646392 0 0.066358869471971116 -0.36345540849090902 0 0.093344741089973149 -0.36229992180646392 0 0.079091508841710914 -0.34512128389590252 0 0.066358869471971116 -0.36345540849090902 0 0.1050932012710024 -0.35003488444677627 0 0.093344741089973149 -0.36229992180646392 0 0.079091508841710914 -0.34512128389590252 0 0.079091508841710914 -0.34512128389590252 0 0.066358869471971116 -0.36345540849090902 0 0.057844765377958622 -0.35425480352584893 0 0.079091508841710914 -0.34512128389590252 0 0.057851672563664358 -0.33825618485314529 0 0.057844765377958622 -0.35425480352584893 0 0.081252615572596318 -0.37568403098212549 0 0.065345113921729425 -0.37860958295332031 0 0.066358869471971116 -0.36345540849090902 0 0.097633589209210545 -0.33291575890527908 0 0.1056486560901167 -0.31531782901434369 0 0.077640775491374478 -0.31733411232643249 0 0.097633589209210545 -0.33291575890527908 0 0.079091508841710914 -0.34512128389590252 0 0.077640775491374478 -0.31733411232643249 0 0.079091508841710914 -0.34512128389590252 0 0.077640775491374478 -0.31733411232643249 0 0.057851672563664358 -0.33825618485314529 0 0.077640775491374478 -0.31733411232643249 0 0.057851672563664358 -0.33825618485314529 0 0.077640775491374478 -0.31733411232643249 0 0.047017393728490627 -0.32623007353741579 0 0.057851672563664358 -0.33825618485314529 0 0.077640775491374478 -0.31733411232643249 0 0.047017393728490627 -0.32623007353741579 0 0.051238953040322263 -0.3086950407465055 0 0.047017393728490627 -0.32623007353741579 0 0.057851672563664358 -0.33825618485314529 0 0.041646016077629702 -0.3416447657896497 0 0.041646016077629702 -0.3416447657896497 0 0.034414026181837809 -0.35701164547792869 0 0.030884418278202479 -0.3275476676998979 0 0.034414026181837809 -0.35701164547792869 0 0.030884418278202479 -0.3275476676998979 0 0.047017393728490627 -0.32623007353741579 0 0.041646016077629702 -0.3416447657896497 0 0.030884418278202479 -0.3275476676998979 0 0.047017393728490627 -0.32623007353741579 0 0.030884418278202479 -0.3275476676998979 0 0.051238953040322263 -0.3086950407465055 0 0.052356002756588568 -0.36766611635921498 0 0.057844765377958622 -0.35425480352584893 0 0.038062569635954439 -0.35917825737985831 0 0.052590316018551943 -0.3803368105639523 0 0.040932104785768232 -0.37668246126236682 0 0.052356002756588568 -0.36766611635921498 0 0.065345113921729425 -0.37860958295332031 0 0.066358869471971116 -0.36345540849090902 0 0.052356002756588568 -0.36766611635921498 0 0.066358869471971116 -0.36345540849090902 0 0.052356002756588568 -0.36766611635921498 0 0.057844765377958622 -0.35425480352584893 0 0.057851672563664358 -0.33825618485314529 0 0.057844765377958622 -0.35425480352584893 0 0.038062569635954439 -0.35917825737985831 0 0.057851672563664358 -0.33825618485314529 0 0.038062569635954439 -0.35917825737985831 0 0.041646016077629702 -0.3416447657896497 0 0.034414026181837809 -0.35701164547792869 0 0.038062569635954439 -0.35917825737985831 0 0.057851672563664358 -0.33825618485314529 0 0.041646016077629702 -0.3416447657896497 0 0.038062569635954439 -0.35917825737985831 0 0.031429999068729689 -0.35856563090148441 0 0.034414026181837809 -0.35701164547792869 0 0.034713698280177542 -0.35951320720580687 0 0.034414026181837809 -0.35701164547792869 0 0.034713698280177542 -0.35951320720580687 0 0.034414026181837809 -0.35701164547792869 0 0.038062569635954439 -0.35917825737985831 0 0.034713698280177542 -0.35951320720580687 0 0.034414026181837809 -0.35701164547792869 0 0.038062569635954439 -0.35917825737985831 0 0.040932104785768232 -0.37668246126236682 0 0.021228440181028669 -0.37697617771341918 0 0.038062569635954439 -0.35917825737985831 0 0.040932104785768232 -0.37668246126236682 0 0.052356002756588568 -0.36766611635921498 0 0.038062569635954439 -0.35917825737985831 0 0.021228440181028669 -0.37697617771341918 0 0.038062569635954439 -0.35917825737985831 0 0.034713698280177542 -0.35951320720580687 0 0.052356002756588568 -0.36766611635921498 0 0.038062569635954439 -0.35917825737985831 0 0.021228440181028669 -0.37697617771341918 0 0.038062569635954439 -0.35917825737985831 0 0.021228440181028669 -0.37697617771341918 0 0.031429999068729689 -0.35856563090148441 0 0.01868667354441092 -0.36353605540870387 0 0.021228440181028669 -0.37697617771341918 0 0.031429999068729689 -0.35856563090148441 0 0.034713698280177542 -0.35951320720580687 0 0.034414026181837809 -0.35701164547792869 0 0.024771727629676679 -0.35128576635170172 0 0.02489699569630276 -0.34114307788320541 0 0.01868667354441092 -0.36353605540870387 0 0.024771727629676679 -0.35128576635170172 0 0.0094825812531559896 -0.35455575193118749 0 0.031429999068729689 -0.35856563090148441 0 0.01868667354441092 -0.36353605540870387 0 0.024771727629676679 -0.35128576635170172 0 0.031429999068729689 -0.35856563090148441 0 0.034414026181837809 -0.35701164547792869 0 0.024771727629676679 -0.35128576635170172 0 0.034414026181837809 -0.35701164547792869 0 0.024771727629676679 -0.35128576635170172 0 0.031429999068729689 -0.35856563090148441 0 0.024771727629676679 -0.35128576635170172 0 0.024771727629676679 -0.35128576635170172 0 0.01017486762395042 -0.34261772360617382 0 0.024771727629676679 -0.35128576635170172 0 0.02489699569630276 -0.34114307788320541 0 0.014536042161021979 -0.3400945128156968 0 0.024771727629676679 -0.35128576635170172 0 0.014536042161021979 -0.3400945128156968 0 0.024771727629676679 -0.35128576635170172 0 0.01017486762395042 -0.34261772360617382 0 0.014536042161021979 -0.3400945128156968 0 -0.00045700258022138111 -0.347650870328647 0 -0.0057633599520367524 -0.36768834396071098 0 0.0094825812531559896 -0.35455575193118749 0 0.024771727629676679 -0.35128576635170172 0 0.0094825812531559896 -0.35455575193118749 0 0.01017486762395042 -0.34261772360617382 0 -0.00045700258022138111 -0.347650870328647 0 0.0094825812531559896 -0.35455575193118749 0 0.01017486762395042 -0.34261772360617382 0 -0.0057633599520367524 -0.36768834396071098 0 0.021228440181028669 -0.37697617771341918 0 0.01868667354441092 -0.36353605540870387 0 -0.0057633599520367524 -0.36768834396071098 0 0.01868667354441092 -0.36353605540870387 0 0.0094825812531559896 -0.35455575193118749 0 0.030884418278202479 -0.3275476676998979 0 0.027354810374566298 -0.29808368992186712 0 0.018448070767746089 -0.31545273357003312 0 0.030884418278202479 -0.3275476676998979 0 0.027354810374566298 -0.29808368992186712 0 0.018448070767746089 -0.31545273357003312 0 0.019878764230775489 -0.32977579707080062 0 0.0095784714578695113 -0.32584954152167001 0 0.018448070767746089 -0.31545273357003312 0 0.030884418278202479 -0.3275476676998979 0 0.019878764230775489 -0.32977579707080062 0 0.034414026181837809 -0.35701164547792869 0 0.030884418278202479 -0.3275476676998979 0 0.02489699569630276 -0.34114307788320541 0 0.030884418278202479 -0.3275476676998979 0 0.02489699569630276 -0.34114307788320541 0 0.019878764230775489 -0.32977579707080062 0 0.02489699569630276 -0.34114307788320541 0 0.019878764230775489 -0.32977579707080062 0 0.014536042161021979 -0.3400945128156968 0 0.019878764230775489 -0.32977579707080062 0 0.014536042161021979 -0.3400945128156968 0 0.0095784714578695113 -0.32584954152167001 0 0.014536042161021979 -0.3400945128156968 0 0.0043003566923673908 -0.32890325927969177 0 0.014536042161021979 -0.3400945128156968 0 0.0043003566923673908 -0.32890325927969177 0 0.0095784714578695113 -0.32584954152167001 0 0.01017486762395042 -0.34261772360617382 0 0.014536042161021979 -0.3400945128156968 0 0.0043003566923673908 -0.32890325927969177 0 -0.0044219923817750287 -0.33394968086064442 0 -0.00045700258022138111 -0.347650870328647 0 0.01017486762395042 -0.34261772360617382 0 -0.0044219923817750287 -0.33394968086064442 0 0.01017486762395042 -0.34261772360617382 0 -0.0044219923817750287 -0.33394968086064442 0 0.01017486762395042 -0.34261772360617382 0 0.0043003566923673908 -0.32890325927969177 0 -0.0079363146907776363 -0.31552421472962983 0 0.0043003566923673908 -0.32890325927969177 0 0.0049121291117916709 -0.31918054323918033 0 0.0043003566923673908 -0.32890325927969177 0 0.0095784714578695113 -0.32584954152167001 0 0.0049121291117916709 -0.31918054323918033 0 -0.0079363146907776363 -0.31552421472962983 0 0.0049121291117916709 -0.31918054323918033 0 0.0079546546982776217 -0.30858623800606599 0 0.0043003566923673908 -0.32890325927969177 0 0.0095784714578695113 -0.32584954152167001 0 0.0095784714578695113 -0.32584954152167001 0 0.01066347740122159 -0.31703946265884431 0 0.0049121291117916709 -0.31918054323918033 0 0.01066347740122159 -0.31703946265884431 0 0.0049121291117916709 -0.31918054323918033 0 0.0079546546982776217 -0.30858623800606599 0 0.018448070767746089 -0.31545273357003312 0 0.0095784714578695113 -0.32584954152167001 0 0.01066347740122159 -0.31703946265884431 0 0.018448070767746089 -0.31545273357003312 0 0.01066347740122159 -0.31703946265884431 0 0.0079546546982776217 -0.30858623800606599 0 -0.0055278170408027639 -0.30103592497543102 0 0.0079546546982776217 -0.30858623800606599 0 0.0062447098493534289 -0.29133125270458748 0 0.01513456593156538 -0.29867128028276402 0 0.0079546546982776217 -0.30858623800606599 0 0.0062447098493534289 -0.29133125270458748 0 0.018448070767746089 -0.31545273357003312 0 0.01513456593156538 -0.29867128028276402 0 0.0079546546982776217 -0.30858623800606599 0 0.01513456593156538 -0.29867128028276402 0 0.0062447098493534289 -0.29133125270458748 0 0.01214646934032841 -0.27327247724369491 0 0.0062447098493534289 -0.29133125270458748 0 0.01214646934032841 -0.27327247724369491 0 -0.0094123067770376725 -0.2868718104453718 0 0.0062447098493534289 -0.29133125270458748 0 0.01214646934032841 -0.27327247724369491 0 0.027354810374566298 -0.29808368992186712 0 0.039788060335701529 -0.28633076645775007 0 0.023825202470930139 -0.26861971214383662 0 0.01513456593156538 -0.29867128028276402 0 0.027354810374566298 -0.29808368992186712 0 0.01214646934032841 -0.27327247724369491 0 0.027354810374566298 -0.29808368992186712 0 0.023825202470930139 -0.26861971214383662 0 0.018448070767746089 -0.31545273357003312 0 0.01513456593156538 -0.29867128028276402 0 0.027354810374566298 -0.29808368992186712 0 0.030884418278202479 -0.3275476676998979 0 0.027354810374566298 -0.29808368992186712 0 0.051238953040322263 -0.3086950407465055 0 0.027354810374566298 -0.29808368992186712 0 0.039788060335701529 -0.28633076645775007 0 0.051238953040322263 -0.3086950407465055 0 0.039788060335701529 -0.28633076645775007 0 0.054556993244360558 -0.28350236233768039 0 0.051238953040322263 -0.3086950407465055 0 0.074333427864781282 -0.28959454365080678 0 0.054556993244360558 -0.28350236233768039 0 0.051238953040322263 -0.3086950407465055 0 0.036381448626436518 -0.25798498797930702 0 0.06061642791254513 -0.24269749871492 0 0.058005039471788339 -0.25437265066704162 0 0.036381448626436518 -0.25798498797930702 0 0.06061642791254513 -0.24269749871492 0 0.058005039471788339 -0.25437265066704162 0 0.055520238295047819 -0.26444944587304331 0 0.036381448626436518 -0.25798498797930702 0 0.06956000742121847 -0.26025405135897839 0 0.058005039471788339 -0.25437265066704162 0 0.055520238295047819 -0.26444944587304331 0 0.065954749703151794 -0.27408445833988931 0 0.054556993244360558 -0.28350236233768039 0 0.055520238295047819 -0.26444944587304331 0 0.054556993244360558 -0.28350236233768039 0 0.055520238295047819 -0.26444944587304331 0 0.041964342548328377 -0.2727530271388609 0 0.039788060335701529 -0.28633076645775007 0 0.041964342548328377 -0.2727530271388609 0 0.023825202470930139 -0.26861971214383662 0 0.041964342548328377 -0.2727530271388609 0 0.036381448626436518 -0.25798498797930702 0 0.023825202470930139 -0.26861971214383662 0 0.039788060335701529 -0.28633076645775007 0 0.054556993244360558 -0.28350236233768039 0 0.041964342548328377 -0.2727530271388609 0 0.055520238295047819 -0.26444944587304331 0 0.041964342548328377 -0.2727530271388609 0 0.036381448626436518 -0.25798498797930702 0 0.036381448626436518 -0.25798498797930702 0 0.01214646934032841 -0.27327247724369491 0 0.021119853635957659 -0.2458148466223796 0 0.01214646934032841 -0.27327247724369491 0 0.021119853635957659 -0.2458148466223796 0 0.027354810374566298 -0.29808368992186712 0 0.023825202470930139 -0.26861971214383662 0 0.01214646934032841 -0.27327247724369491 0 0.036381448626436518 -0.25798498797930702 0 0.023825202470930139 -0.26861971214383662 0 0.01214646934032841 -0.27327247724369491 0 0.036381448626436518 -0.25798498797930702 0 0.01214646934032841 -0.27327247724369491 0 -0.0094123067770376725 -0.2868718104453718 0 0.01214646934032841 -0.27327247724369491 0 -0.0045707769250290598 -0.27065896499260461 0 0.01214646934032841 -0.27327247724369491 0 0.0067134631757178789 -0.26012693418325361 0 0.01214646934032841 -0.27327247724369491 0 0.0067134631757178789 -0.26012693418325361 0 0.021119853635957659 -0.2458148466223796 0 -0.0045707769250290598 -0.27065896499260461 0 -0.001841693348385491 -0.25076144787433541 0 0.0067134631757178789 -0.26012693418325361 0 -0.001841693348385491 -0.25076144787433541 0 0.0067134631757178789 -0.26012693418325361 0 0.021119853635957659 -0.2458148466223796 0 -0.001841693348385491 -0.25076144787433541 0 -0.0071347165563972817 -0.23085298077664149 0 0.01117854559965461 -0.2304289515857445 0 -0.001841693348385491 -0.25076144787433541 0 0.01117854559965461 -0.2304289515857445 0 0.021119853635957659 -0.2458148466223796 0 -0.0071347165563972817 -0.23085298077664149 0 0.01117854559965461 -0.2304289515857445 0 0.0074165366967401903 -0.21250124507974069 0 0.021119853635957659 -0.2458148466223796 0 0.030093237931586189 -0.21835721600106409 0 0.01117854559965461 -0.2304289515857445 0 0.0074165366967401903 -0.21250124507974069 0 0.030093237931586189 -0.21835721600106409 0 0.01117854559965461 -0.2304289515857445 0 0.021119853635957659 -0.2458148466223796 0 0.030093237931586189 -0.21835721600106409 0 -0.0020810285990212089 -0.1910928021709582 0 0.0074165366967401903 -0.21250124507974069 0 0.01696641525581135 -0.19513412270225089 0 -0.0020810285990212089 -0.1910928021709582 0 0.01696641525581135 -0.19513412270225089 0 0.0068873562046781866 -0.17989815760727279 0 0.0074165366967401903 -0.21250124507974069 0 0.030093237931586189 -0.21835721600106409 0 0.01696641525581135 -0.19513412270225089 0 0.01696641525581135 -0.19513412270225089 0 0.039066622227214687 -0.1908995853797486 0 0.02073935902216616 -0.17793293274624331 0 0.030093237931586189 -0.21835721600106409 0 0.01696641525581135 -0.19513412270225089 0 0.039066622227214687 -0.1908995853797486 0 0.030093237931586189 -0.21835721600106409 0 0.039066622227214687 -0.1908995853797486 0 0.030093237931586189 -0.21835721600106409 0 0.039066622227214687 -0.1908995853797486 0 0.044840723117296671 -0.2189688623407656 0 0.039066622227214687 -0.1908995853797486 0 0.057382537981819338 -0.21112771658370541 0 0.044840723117296671 -0.2189688623407656 0 0.039066622227214687 -0.1908995853797486 0 0.057382537981819338 -0.21112771658370541 0 0.061620483300017868 -0.19127173420614749 0 0.036381448626436518 -0.25798498797930702 0 0.043607513348661447 -0.2359847470940945 0 0.06061642791254513 -0.24269749871492 0 0.036381448626436518 -0.25798498797930702 0 0.021119853635957659 -0.2458148466223796 0 0.043607513348661447 -0.2359847470940945 0 0.030093237931586189 -0.21835721600106409 0 0.043607513348661447 -0.2359847470940945 0 0.044840723117296671 -0.2189688623407656 0 0.021119853635957659 -0.2458148466223796 0 0.030093237931586189 -0.21835721600106409 0 0.043607513348661447 -0.2359847470940945 0 0.043607513348661447 -0.2359847470940945 0 0.056916900746681653 -0.22631390335739121 0 0.068988562093442549 -0.23829556056600981 0 0.043607513348661447 -0.2359847470940945 0 0.044840723117296671 -0.2189688623407656 0 0.056916900746681653 -0.22631390335739121 0 0.057382537981819338 -0.21112771658370541 0 0.044840723117296671 -0.2189688623407656 0 0.056916900746681653 -0.22631390335739121 0 0.057382537981819338 -0.21112771658370541 0 0.056916900746681653 -0.22631390335739121 0 0.067873540259507245 -0.2212866453956949 0 0.043607513348661447 -0.2359847470940945 0 0.06061642791254513 -0.24269749871492 0 0.068988562093442549 -0.23829556056600981 0 0.043607513348661447 -0.2359847470940945 0 0.068988562093442549 -0.23829556056600981 0 0.058005039471788339 -0.25437265066704162 0 0.06061642791254513 -0.24269749871492 0 0.067463235471016098 -0.24962726845213279 0 0.06061642791254513 -0.24269749871492 0 0.067463235471016098 -0.24962726845213279 0 0.068988562093442549 -0.23829556056600981 0 0.080146140456085896 -0.25251658095371399 0 0.067463235471016098 -0.24962726845213279 0 0.068988562093442549 -0.23829556056600981 0 0.080146140456085896 -0.25251658095371399 0 0.068988562093442549 -0.23829556056600981 0 0.09436961083822365 -0.24060637403792509 0 0.068988562093442549 -0.23829556056600981 0 0.09436961083822365 -0.24060637403792509 0 0.068988562093442549 -0.23829556056600981 0 0.083328993349425076 -0.2202219387285449 0 0.09436961083822365 -0.24060637403792509 0 0.068988562093442549 -0.23829556056600981 0 0.083328993349425076 -0.2202219387285449 0 0.067873540259507245 -0.2212866453956949 0 0.056916900746681653 -0.22631390335739121 0 0.068988562093442549 -0.23829556056600981 0 0.067873540259507245 -0.2212866453956949 0 0.057382537981819338 -0.21112771658370541 0 0.067873540259507245 -0.2212866453956949 0 0.07215384303677827 -0.2099349269320025 0 0.057382537981819338 -0.21112771658370541 0 0.061620483300017868 -0.19127173420614749 0 0.07215384303677827 -0.2099349269320025 0 0.083328993349425076 -0.2202219387285449 0 0.067873540259507245 -0.2212866453956949 0 0.07215384303677827 -0.2099349269320025 0 0.061620483300017868 -0.19127173420614749 0 0.07215384303677827 -0.2099349269320025 0 0.082083415311077823 -0.19810591878578521 0 0.061620483300017868 -0.19127173420614749 0 0.082083415311077823 -0.19810591878578521 0 0.079782239263588545 -0.17868266626100279 0 0.082083415311077823 -0.19810591878578521 0 0.1036145640132823 -0.19164948476818289 0 0.079782239263588545 -0.17868266626100279 0 0.083328993349425076 -0.2202219387285449 0 0.07215384303677827 -0.2099349269320025 0 0.082083415311077823 -0.19810591878578521 0 0.083328993349425076 -0.2202219387285449 0 0.082083415311077823 -0.19810591878578521 0 0.10496478355871899 -0.21220967581781411 0 0.082083415311077823 -0.19810591878578521 0 0.10496478355871899 -0.21220967581781411 0 0.1036145640132823 -0.19164948476818289 0 0.10496478355871899 -0.21220967581781411 0 0.1036145640132823 -0.19164948476818289 0 0.1242128618620152 -0.19215413767176831 0 0.10496478355871899 -0.21220967581781411 0 0.1242128618620152 -0.19215413767176831 0 0.13205954414022339 -0.21842152560095321 0 0.10496478355871899 -0.21220967581781411 0 0.1165052577291141 -0.22687509986716919 0 0.13205954414022339 -0.21842152560095321 0 0.1165052577291141 -0.22687509986716919 0 0.11975065958300481 -0.2429171875098404 0 0.09436961083822365 -0.24060637403792509 0 0.1165052577291141 -0.22687509986716919 0 0.11975065958300481 -0.2429171875098404 0 0.1368633451513884 -0.23617579080099721 0 0.11975065958300481 -0.2429171875098404 0 0.09436961083822365 -0.24060637403792509 0 0.099785205181039921 -0.26130226588407279 0 0.11975065958300481 -0.2429171875098404 0 0.09436961083822365 -0.24060637403792509 0 0.10496478355871899 -0.21220967581781411 0 0.1165052577291141 -0.22687509986716919 0 0.09436961083822365 -0.24060637403792509 0 0.083328993349425076 -0.2202219387285449 0 0.10496478355871899 -0.21220967581781411 0 0.09436961083822365 -0.24060637403792509 0 0.101848928781441 -0.13955137764498929 0 0.1249033730427701 -0.1215983573115717 0 0.12954458375342651 -0.1414750372484769 0 0.101848928781441 -0.13955137764498929 0 0.12954458375342651 -0.1414750372484769 0 0.101848928781441 -0.13955137764498929 0 0.1261911563195777 -0.1667422516596444 0 0.12954458375342651 -0.1414750372484769 0 0.101848928781441 -0.13955137764498929 0 0.1016047482465207 -0.1712480940214352 0 0.08158661275016664 -0.158573786803692 0 0.101848928781441 -0.13955137764498929 0 0.1016047482465207 -0.1712480940214352 0 0.1261911563195777 -0.1667422516596444 0 0.1036145640132823 -0.19164948476818289 0 0.1242128618620152 -0.19215413767176831 0 0.1016047482465207 -0.1712480940214352 0 0.1242128618620152 -0.19215413767176831 0 0.1016047482465207 -0.1712480940214352 0 0.1261911563195777 -0.1667422516596444 0 0.1036145640132823 -0.19164948476818289 0 0.1016047482465207 -0.1712480940214352 0 0.079782239263588545 -0.17868266626100279 0 0.1016047482465207 -0.1712480940214352 0 0.08158661275016664 -0.158573786803692 0 0.079782239263588545 -0.17868266626100279 0 0.061620483300017868 -0.19127173420614749 0 0.079782239263588545 -0.17868266626100279 0 0.057073551926705948 -0.1625175341134347 0 0.08158661275016664 -0.158573786803692 0 0.079782239263588545 -0.17868266626100279 0 0.057073551926705948 -0.1625175341134347 0 0.08158661275016664 -0.158573786803692 0 0.074153273809455411 -0.13762771804150159 0 0.057073551926705948 -0.1625175341134347 0 0.101848928781441 -0.13955137764498929 0 0.08158661275016664 -0.158573786803692 0 0.074153273809455411 -0.13762771804150159 0 0.101848928781441 -0.13955137764498929 0 0.074153273809455411 -0.13762771804150159 0 0.101848928781441 -0.13955137764498929 0 0.074153273809455411 -0.13762771804150159 0 0.088837795738449854 -0.1193701514900745 0 0.074153273809455411 -0.13762771804150159 0 0.088837795738449854 -0.1193701514900745 0 0.067558659076404931 -0.1213663329468119 0 0.074153273809455411 -0.13762771804150159 0 0.055524687029678443 -0.13931725726107949 0 0.067558659076404931 -0.1213663329468119 0 0.055524687029678443 -0.13931725726107949 0 0.047193119693270558 -0.1227273108407741 0 0.067558659076404931 -0.1213663329468119 0 0.055524687029678443 -0.13931725726107949 0 0.037947952915585489 -0.14340602914994391 0 0.047193119693270558 -0.1227273108407741 0 0.055524687029678443 -0.13931725726107949 0 0.037947952915585489 -0.14340602914994391 0 0.057073551926705948 -0.1625175341134347 0 0.074153273809455411 -0.13762771804150159 0 0.055524687029678443 -0.13931725726107949 0 0.057073551926705948 -0.1625175341134347 0 0.037947952915585489 -0.14340602914994391 0 0.057073551926705948 -0.1625175341134347 0 0.031797611243465931 -0.16067239418291249 0 0.037947952915585489 -0.14340602914994391 0 0.031979119734133317 -0.1268010535245146 0 0.026877757799082191 -0.13719066689566639 0 0.037947952915585489 -0.14340602914994391 0 0.031979119734133317 -0.1268010535245146 0 0.047193119693270558 -0.1227273108407741 0 0.039066622227214687 -0.1908995853797486 0 0.061620483300017868 -0.19127173420614749 0 0.057073551926705948 -0.1625175341134347 0 0.039066622227214687 -0.1908995853797486 0 0.057073551926705948 -0.1625175341134347 0 0.031797611243465931 -0.16067239418291249 0 0.039066622227214687 -0.1908995853797486 0 0.031797611243465931 -0.16067239418291249 0 0.02073935902216616 -0.17793293274624331 0 0.031797611243465931 -0.16067239418291249 0 0.02073935902216616 -0.17793293274624331 0 0.0090882953197118903 -0.16249817002626241 0 0.031797611243465931 -0.16067239418291249 0 0.0090882953197118903 -0.16249817002626241 0 0.021652058045292012 -0.14686734515463759 0 -0.0056786655710443232 -0.17108805736843311 0 0.0090882953197118903 -0.16249817002626241 0 0.0068873562046781866 -0.17989815760727279 0 -0.0019297413353718011 -0.16049645125388881 0 0.0090882953197118903 -0.16249817002626241 0 0.00077549015458932419 -0.15111465982621389 0 -0.0019297413353718011 -0.16049645125388881 0 -0.0056786655710443232 -0.17108805736843311 0 0.0090882953197118903 -0.16249817002626241 0 0.01696641525581135 -0.19513412270225089 0 0.02073935902216616 -0.17793293274624331 0 0.0068873562046781866 -0.17989815760727279 0 0.02073935902216616 -0.17793293274624331 0 0.0090882953197118903 -0.16249817002626241 0 0.0068873562046781866 -0.17989815760727279 0 0.016834741803318509 -0.13086597871591779 0 0.026877757799082191 -0.13719066689566639 0 0.021652058045292012 -0.14686734515463759 0 0.031979119734133317 -0.1268010535245146 0 0.016834741803318509 -0.13086597871591779 0 0.026877757799082191 -0.13719066689566639 0 0.031979119734133317 -0.1268010535245146 0 0.016834741803318509 -0.13086597871591779 0 0.024686998313551631 -0.118135476616723 0 0.037947952915585489 -0.14340602914994391 0 0.031797611243465931 -0.16067239418291249 0 0.021652058045292012 -0.14686734515463759 0 0.016834741803318509 -0.13086597871591779 0 0.021652058045292012 -0.14686734515463759 0 0.0096080981127532796 -0.14528929838863591 0 0.037947952915585489 -0.14340602914994391 0 0.026877757799082191 -0.13719066689566639 0 0.021652058045292012 -0.14686734515463759 0 0.0090882953197118903 -0.16249817002626241 0 0.0096080981127532796 -0.14528929838863591 0 0.00077549015458932419 -0.15111465982621389 0 0.0090882953197118903 -0.16249817002626241 0 0.021652058045292012 -0.14686734515463759 0 0.0096080981127532796 -0.14528929838863591 0 0.0096080981127532796 -0.14528929838863591 0 0.00077549015458932419 -0.15111465982621389 0 0.0046317928176044009 -0.1356308567720941 0 0.016834741803318509 -0.13086597871591779 0 0.0096080981127532796 -0.14528929838863591 0 0.0046317928176044009 -0.1356308567720941 0 0.016834741803318509 -0.13086597871591779 0 0.0046317928176044009 -0.1356308567720941 0 0.0040948909323074321 -0.12423840619106639 0 -0.0081355370482946183 -0.12761348563775271 0 0.0046317928176044009 -0.1356308567720941 0 0.0040948909323074321 -0.12423840619106639 0 -0.001299756369630731 -0.1141944796169557 0 0.0040948909323074321 -0.12423840619106639 0 0.013063946654206829 -0.1134786106693997 0 0.016834741803318509 -0.13086597871591779 0 0.0040948909323074321 -0.12423840619106639 0 0.013063946654206829 -0.1134786106693997 0 -0.001299756369630731 -0.1141944796169557 0 0.013063946654206829 -0.1134786106693997 0 0.0015244818648049859 -0.1015295841372684 0 0.016834741803318509 -0.13086597871591779 0 0.013063946654206829 -0.1134786106693997 0 0.024686998313551631 -0.118135476616723 0 0.013063946654206829 -0.1134786106693997 0 0.024686998313551631 -0.118135476616723 0 0.028480565844947629 -0.10747010116969789 0 0.024686998313551631 -0.118135476616723 0 0.028480565844947629 -0.10747010116969789 0 0.03584244661748117 -0.11459987568660129 0 0.031979119734133317 -0.1268010535245146 0 0.024686998313551631 -0.118135476616723 0 0.03584244661748117 -0.11459987568660129 0 0.030327919434362829 -0.096792271942390692 0 0.020095527980788279 -0.098946856825245177 0 0.0075922794467472637 -0.086271804569981403 0 0.03039414875883065 -0.10176759307190431 0 0.020095527980788279 -0.098946856825245177 0 0.03541207977801291 -0.096816741138404216 0 0.020095527980788279 -0.098946856825245177 0 0.03541207977801291 -0.096816741138404216 0 0.030327919434362829 -0.096792271942390692 0 0.020095527980788279 -0.098946856825245177 0 0.03541207977801291 -0.096816741138404216 0 0.028480565844947629 -0.10747010116969789 0 0.020095527980788279 -0.098946856825245177 0 0.028480565844947629 -0.10747010116969789 0 0.03039414875883065 -0.10176759307190431 0 0.020095527980788279 -0.098946856825245177 0 0.013063946654206829 -0.1134786106693997 0 0.028480565844947629 -0.10747010116969789 0 0.020095527980788279 -0.098946856825245177 0 0.013063946654206829 -0.1134786106693997 0 0.020095527980788279 -0.098946856825245177 0 0.0015244818648049859 -0.1015295841372684 0 0.020095527980788279 -0.098946856825245177 0 0.0015244818648049859 -0.1015295841372684 0 0.0075922794467472637 -0.086271804569981403 0 0.020095527980788279 -0.098946856825245177 0 0.0015244818648049859 -0.1015295841372684 0 0.020095527980788279 -0.098946856825245177 0 0.0075922794467472637 -0.086271804569981403 0 -0.008077835380225655 -0.070309125687811821 0 0.0075922794467472637 -0.086271804569981403 0 0.0088488608190478643 -0.065407910567130981 0 0.0075922794467472637 -0.086271804569981403 0 0.0088488608190478643 -0.065407910567130981 0 0.02107276222881517 -0.073900517019713188 0 0.0088488608190478643 -0.065407910567130981 0 0.02107276222881517 -0.073900517019713188 0 0.024762723533337611 -0.059741908566463872 0 0.02107276222881517 -0.073900517019713188 0 0.03069179423126903 -0.071875123491288273 0 0.034073473446181397 -0.083928005679942616 0 0.02107276222881517 -0.073900517019713188 0 0.03069179423126903 -0.071875123491288273 0 0.024762723533337611 -0.059741908566463872 0 0.0075922794467472637 -0.086271804569981403 0 0.02107276222881517 -0.073900517019713188 0 0.034073473446181397 -0.083928005679942616 0 0.030327919434362829 -0.096792271942390692 0 0.0075922794467472637 -0.086271804569981403 0 0.032151061601918933 -0.090589416926099564 0 0.0075922794467472637 -0.086271804569981403 0 0.032151061601918933 -0.090589416926099564 0 0.034073473446181397 -0.083928005679942616 0 0.030327919434362829 -0.096792271942390692 0 0.0075922794467472637 -0.086271804569981403 0 0.0075922794467472637 -0.086271804569981403 0 0.034073473446181397 -0.083928005679942616 0 0.032151061601918933 -0.090589416926099564 0 0.034073473446181397 -0.083928005679942616 0 0.042690964902313729 -0.089519648401326313 0 0.034073473446181397 -0.083928005679942616 0 0.042690964902313729 -0.089519648401326313 0 0.060340604448294193 -0.081603111746442414 0 0.032151061601918933 -0.090589416926099564 0 0.042690964902313729 -0.089519648401326313 0 0.03541207977801291 -0.096816741138404216 0 0.042690964902313729 -0.089519648401326313 0 0.050728631575237479 -0.094686625451563075 0 0.03541207977801291 -0.096816741138404216 0 0.03069179423126903 -0.071875123491288273 0 0.040666003002907278 -0.06690508240318796 0 0.024762723533337611 -0.059741908566463872 0 0.034073473446181397 -0.083928005679942616 0 0.040666003002907278 -0.06690508240318796 0 0.052316369821300182 -0.069952870185303065 0 0.03069179423126903 -0.071875123491288273 0 0.034073473446181397 -0.083928005679942616 0 0.040666003002907278 -0.06690508240318796 0 0.052316369821300182 -0.069952870185303065 0 0.058795544305967729 -0.061156173878379967 0 0.072112594486903242 -0.068374514516065854 0 0.052316369821300182 -0.069952870185303065 0 0.060340604448294193 -0.081603111746442414 0 0.072112594486903242 -0.068374514516065854 0 0.052316369821300182 -0.069952870185303065 0 0.047909999237547241 -0.057750332887799641 0 0.058795544305967729 -0.061156173878379967 0 0.040666003002907278 -0.06690508240318796 0 0.052316369821300182 -0.069952870185303065 0 0.047909999237547241 -0.057750332887799641 0 0.034073473446181397 -0.083928005679942616 0 0.060340604448294193 -0.081603111746442414 0 0.034073473446181397 -0.083928005679942616 0 0.052316369821300182 -0.069952870185303065 0 0.060340604448294193 -0.081603111746442414 0 0.042690964902313729 -0.089519648401326313 0 0.060340604448294193 -0.081603111746442414 0 0.050728631575237479 -0.094686625451563075 0 0.060340604448294193 -0.081603111746442414 0 0.050728631575237479 -0.094686625451563075 0 0.071304559547965274 -0.094763533092506916 0 0.050728631575237479 -0.094686625451563075 0 0.058974698163159762 -0.10834646900294261 0 0.071304559547965274 -0.094763533092506916 0 0.050728631575237479 -0.094686625451563075 0 0.058974698163159762 -0.10834646900294261 0 0.0453211217120673 -0.108807287228783 0 0.058974698163159762 -0.10834646900294261 0 0.047193119693270558 -0.1227273108407741 0 0.067558659076404931 -0.1213663329468119 0 0.058974698163159762 -0.10834646900294261 0 0.047193119693270558 -0.1227273108407741 0 0.0453211217120673 -0.108807287228783 0 0.047193119693270558 -0.1227273108407741 0 0.03584244661748117 -0.11459987568660129 0 0.0453211217120673 -0.108807287228783 0 0.031979119734133317 -0.1268010535245146 0 0.047193119693270558 -0.1227273108407741 0 0.03584244661748117 -0.11459987568660129 0 0.028480565844947629 -0.10747010116969789 0 0.03039414875883065 -0.10176759307190431 0 0.037588421431573787 -0.1038366731542698 0 0.028480565844947629 -0.10747010116969789 0 0.03584244661748117 -0.11459987568660129 0 0.037588421431573787 -0.1038366731542698 0 0.03039414875883065 -0.10176759307190431 0 0.037588421431573787 -0.1038366731542698 0 0.03541207977801291 -0.096816741138404216 0 0.030327919434362829 -0.096792271942390692 0 0.032151061601918933 -0.090589416926099564 0 0.03541207977801291 -0.096816741138404216 0 0.050728631575237479 -0.094686625451563075 0 0.03541207977801291 -0.096816741138404216 0 0.050728631575237479 -0.094686625451563075 0 0.037588421431573787 -0.1038366731542698 0 0.03541207977801291 -0.096816741138404216 0 0.03584244661748117 -0.11459987568660129 0 0.037588421431573787 -0.1038366731542698 0 0.0453211217120673 -0.108807287228783 0 0.050728631575237479 -0.094686625451563075 0 0.037588421431573787 -0.1038366731542698 0 0.0453211217120673 -0.108807287228783 0 0.021499084507464909 -0.003797340117839746 0 0.0050270731372961336 -0.02007283933739697 0 0.026773662309683869 -0.020988679010260539 0 0.021499084507464909 -0.003797340117839746 0 0.026773662309683869 -0.020988679010260539 0 0.04423029963634624 -0.0055168873485637003 0 -0.001232130621416663 -0.0020777928871192441 0 0.021499084507464909 -0.003797340117839746 0 -0.001232130621416663 -0.0020777928871192441 0 0.021499084507464909 -0.003797340117839746 0 0.0048002851011445212 -0.0098149369470188989 0 0.021499084507464909 -0.003797340117839746 0 0.0048002851011445212 -0.0098149369470188989 0 0.0050270731372961336 -0.02007283933739697 0 -0.0052589533860224764 -0.01017220301341587 0 0.0048002851011445212 -0.0098149369470188989 0 0.0050270731372961336 -0.02007283933739697 0 -0.00093872168799334806 -0.037146024449572483 0 0.0050270731372961336 -0.02007283933739697 0 0.015272074817762989 -0.036464063469695759 0 0.0050270731372961336 -0.02007283933739697 0 0.027564740010026689 -0.02401059864396049 0 0.0050270731372961336 -0.02007283933739697 0 0.026773662309683869 -0.020988679010260539 0 0.027564740010026689 -0.02401059864396049 0 0.0050270731372961336 -0.02007283933739697 0 0.026773662309683869 -0.020988679010260539 0 0.0050270731372961336 -0.02007283933739697 0 0.027564740010026689 -0.02401059864396049 0 0.015272074817762989 -0.036464063469695759 0 0.027564740010026689 -0.02401059864396049 0 0.015272074817762989 -0.036464063469695759 0 0.031482871323519478 -0.035782102489822547 0 0.015272074817762989 -0.036464063469695759 0 0.031482871323519478 -0.035782102489822547 0 0.024387502083786618 -0.046134103124984421 0 0.015272074817762989 -0.036464063469695759 0 0.031482871323519478 -0.035782102489822547 0 0.024387502083786618 -0.046134103124984421 0 0.015272074817762989 -0.036464063469695759 0 0.01191200092267128 -0.048443966508019118 0 -0.00093872168799334806 -0.037146024449572483 0 0.015272074817762989 -0.036464063469695759 0 -0.00093872168799334806 -0.037146024449572483 0 0.015272074817762989 -0.036464063469695759 0 0.01191200092267128 -0.048443966508019118 0 -0.00093872168799334806 -0.037146024449572483 0 -0.0044789716013532866 -0.053407019180766097 0 0.01191200092267128 -0.048443966508019118 0 -0.00093872168799334806 -0.037146024449572483 0 0.01191200092267128 -0.048443966508019118 0 -0.0044789716013532866 -0.053407019180766097 0 0.0088488608190478643 -0.065407910567130981 0 0.01191200092267128 -0.048443966508019118 0 0.0088488608190478643 -0.065407910567130981 0 0.01191200092267128 -0.048443966508019118 0 0.024762723533337611 -0.059741908566463872 0 0.01191200092267128 -0.048443966508019118 0 0.024762723533337611 -0.059741908566463872 0 0.024387502083786618 -0.046134103124984421 0 0.01191200092267128 -0.048443966508019118 0 0.024762723533337611 -0.059741908566463872 0 0.024387502083786618 -0.046134103124984421 0 0.024762723533337611 -0.059741908566463872 0 0.038507839821641757 -0.050238474590920817 0 0.040666003002907278 -0.06690508240318796 0 0.038507839821641757 -0.050238474590920817 0 0.047909999237547241 -0.057750332887799641 0 0.040666003002907278 -0.06690508240318796 0 0.024762723533337611 -0.059741908566463872 0 0.038507839821641757 -0.050238474590920817 0 0.047909999237547241 -0.057750332887799641 0 0.058795544305967729 -0.061156173878379967 0 0.054448975594362917 -0.044552265914451508 0 0.058795544305967729 -0.061156173878379967 0 0.054448975594362917 -0.044552265914451508 0 0.06606615268325286 -0.052247842755992972 0 0.058795544305967729 -0.061156173878379967 0 0.054448975594362917 -0.044552265914451508 0 0.038507839821641757 -0.050238474590920817 0 0.047909999237547241 -0.057750332887799641 0 0.054448975594362917 -0.044552265914451508 0 0.054448975594362917 -0.044552265914451508 0 0.050102406882757439 -0.02794835795052323 0 0.054448975594362917 -0.044552265914451508 0 0.050102406882757439 -0.02794835795052323 0 0.057513327759605021 -0.02924318686151068 0 0.054448975594362917 -0.044552265914451508 0 0.043635523405570392 -0.039630300236429598 0 0.050102406882757439 -0.02794835795052323 0 0.054448975594362917 -0.044552265914451508 0 0.057513327759605021 -0.02924318686151068 0 0.068767512404417364 -0.039639879472637397 0 0.038507839821641757 -0.050238474590920817 0 0.054448975594362917 -0.044552265914451508 0 0.043635523405570392 -0.039630300236429598 0 0.043635523405570392 -0.039630300236429598 0 0.031482871323519478 -0.035782102489822547 0 0.050102406882757439 -0.02794835795052323 0 0.024387502083786618 -0.046134103124984421 0 0.038507839821641757 -0.050238474590920817 0 0.031482871323519478 -0.035782102489822547 0 0.038507839821641757 -0.050238474590920817 0 0.043635523405570392 -0.039630300236429598 0 0.031482871323519478 -0.035782102489822547 0 0.026773662309683869 -0.020988679010260539 0 0.048520251482071577 -0.021904518683125759 0 0.026773662309683869 -0.020988679010260539 0 0.048520251482071577 -0.021904518683125759 0 0.04423029963634624 -0.0055168873485637003 0 0.026773662309683869 -0.020988679010260539 0 0.027564740010026689 -0.02401059864396049 0 0.048520251482071577 -0.021904518683125759 0 0.027564740010026689 -0.02401059864396049 0 0.050102406882757439 -0.02794835795052323 0 0.048520251482071577 -0.021904518683125759 0 0.027564740010026689 -0.02401059864396049 0 0.031482871323519478 -0.035782102489822547 0 0.050102406882757439 -0.02794835795052323 0 0.027564740010026689 -0.02401059864396049 0 0.050102406882757439 -0.02794835795052323 0 0.050102406882757439 -0.02794835795052323 0 0.057513327759605021 -0.02924318686151068 0 0.048520251482071577 -0.021904518683125759 0 0.057513327759605021 -0.02924318686151068 0 0.048520251482071577 -0.021904518683125759 0 0.067608743402141555 -0.02935062244736188 0 0.048520251482071577 -0.021904518683125759 0 0.075946328860934345 -0.0230595453190485 0 0.050102406882757439 -0.02794835795052323 0 0.048520251482071577 -0.021904518683125759 0 0.050102406882757439 -0.02794835795052323 0 0.057513327759605021 -0.02924318686151068 0 0.048520251482071577 -0.021904518683125759 0 0.04423029963634624 -0.0055168873485637003 0 0.063965984480052585 -0.007009831831596214 0 0.04423029963634624 -0.0055168873485637003 0 0.063965984480052585 -0.007009831831596214 0 0.05708107628875321 0.008349605863279522 0 0.04423029963634624 -0.0055168873485637003 0 0.063965984480052585 -0.007009831831596214 0 0.033459748335975807 0.003209115068594174 0 0.021499084507464909 -0.003797340117839746 0 0.04423029963634624 -0.0055168873485637003 0 0.021499084507464909 -0.003797340117839746 0 0.04423029963634624 -0.0055168873485637003 0 0.048520251482071577 -0.021904518683125759 0 0.04423029963634624 -0.0055168873485637003 0 0.073087558780478457 0.0038355082269659261 0 0.085708057037023444 -0.0044132752837509528 0 0.063965984480052585 -0.007009831831596214 0 0.085708057037023444 -0.0044132752837509528 0 0.063965984480052585 -0.007009831831596214 0 0.075946328860934345 -0.0230595453190485 0 0.048520251482071577 -0.021904518683125759 0 0.075946328860934345 -0.0230595453190485 0 0.067608743402141555 -0.02935062244736188 0 0.075946328860934345 -0.0230595453190485 0 0.067608743402141555 -0.02935062244736188 0 0.086282486072058184 -0.038114183672179849 0 0.048520251482071577 -0.021904518683125759 0 0.063965984480052585 -0.007009831831596214 0 0.075946328860934345 -0.0230595453190485 0 0.075946328860934345 -0.0230595453190485 0 0.086282486072058184 -0.038114183672179849 0 0.103372406239797 -0.0242145719549724 0 0.075946328860934345 -0.0230595453190485 0 0.103372406239797 -0.0242145719549724 0 0.085708057037023444 -0.0044132752837509528 0 0.075946328860934345 -0.0230595453190485 0 0.103372406239797 -0.0242145719549724 0 0.067608743402141555 -0.02935062244736188 0 0.086282486072058184 -0.038114183672179849 0 0.068767512404417364 -0.039639879472637397 0 0.086282486072058184 -0.038114183672179849 0 0.068767512404417364 -0.039639879472637397 0 0.079125168040870358 -0.05048392392614335 0 0.057513327759605021 -0.02924318686151068 0 0.067608743402141555 -0.02935062244736188 0 0.068767512404417364 -0.039639879472637397 0 0.054448975594362917 -0.044552265914451508 0 0.068767512404417364 -0.039639879472637397 0 0.06606615268325286 -0.052247842755992972 0 0.06606615268325286 -0.052247842755992972 0 0.079125168040870358 -0.05048392392614335 0 0.072112594486903242 -0.068374514516065854 0 0.058795544305967729 -0.061156173878379967 0 0.06606615268325286 -0.052247842755992972 0 0.072112594486903242 -0.068374514516065854 0 0.068767512404417364 -0.039639879472637397 0 0.06606615268325286 -0.052247842755992972 0 0.079125168040870358 -0.05048392392614335 0 0.086282486072058184 -0.038114183672179849 0 0.079125168040870358 -0.05048392392614335 0 0.09670660416572821 -0.058769339315474553 0 0.079125168040870358 -0.05048392392614335 0 0.09670660416572821 -0.058769339315474553 0 0.072112594486903242 -0.068374514516065854 0 0.09670660416572821 -0.058769339315474553 0 0.1101166403931515 -0.041201521972441951 0 0.12512715615814499 -0.054065300159116848 0 0.1101166403931515 -0.041201521972441951 0 0.103372406239797 -0.0242145719549724 0 0.12823385766686379 -0.028701256908435481 0 0.1101166403931515 -0.041201521972441951 0 0.12823385766686379 -0.028701256908435481 0 0.12512715615814499 -0.054065300159116848 0 0.086282486072058184 -0.038114183672179849 0 0.09670660416572821 -0.058769339315474553 0 0.1101166403931515 -0.041201521972441951 0 0.086282486072058184 -0.038114183672179849 0 0.1101166403931515 -0.041201521972441951 0 0.103372406239797 -0.0242145719549724 0 0.11282348191201889 0.00088817969455626678 0 0.103372406239797 -0.0242145719549724 0 0.12823385766686379 -0.028701256908435481 0 0.11282348191201889 0.00088817969455626678 0 0.085708057037023444 -0.0044132752837509528 0 0.103372406239797 -0.0242145719549724 0 0.09082057939665214 -0.098520430488791347 0 0.088837795738449854 -0.1193701514900745 0 0.077483342752087084 -0.10750887844982771 0 0.09082057939665214 -0.098520430488791347 0 0.077483342752087084 -0.10750887844982771 0 0.071304559547965274 -0.094763533092506916 0 0.088837795738449854 -0.1193701514900745 0 0.067558659076404931 -0.1213663329468119 0 0.077483342752087084 -0.10750887844982771 0 0.058974698163159762 -0.10834646900294261 0 0.067558659076404931 -0.1213663329468119 0 0.077483342752087084 -0.10750887844982771 0 0.058974698163159762 -0.10834646900294261 0 0.077483342752087084 -0.10750887844982771 0 0.071304559547965274 -0.094763533092506916 0 0.060340604448294193 -0.081603111746442414 0 0.086607735450406953 -0.079278217812942239 0 0.060340604448294193 -0.081603111746442414 0 0.071304559547965274 -0.094763533092506916 0 0.086607735450406953 -0.079278217812942239 0 0.060340604448294193 -0.081603111746442414 0 0.072112594486903242 -0.068374514516065854 0 0.086607735450406953 -0.079278217812942239 0 0.09670660416572821 -0.058769339315474553 0 0.072112594486903242 -0.068374514516065854 0 0.086607735450406953 -0.079278217812942239 0 0.09082057939665214 -0.098520430488791347 0 0.071304559547965274 -0.094763533092506916 0 0.086607735450406953 -0.079278217812942239 0 0.09082057939665214 -0.098520430488791347 0 0.086607735450406953 -0.079278217812942239 0 0.1117408613557464 -0.081334784670607868 0 0.09670660416572821 -0.058769339315474553 0 0.086607735450406953 -0.079278217812942239 0 0.1117408613557464 -0.081334784670607868 0 0.09670660416572821 -0.058769339315474553 0 0.1117408613557464 -0.081334784670607868 0 0.12512715615814499 -0.054065300159116848 0 0.1117408613557464 -0.081334784670607868 0 0.1089491815352574 -0.10886701741678891 0 0.13272328407092679 -0.097156283963114459 0 0.1089491815352574 -0.10886701741678891 0 0.1249033730427701 -0.1215983573115717 0 0.13272328407092679 -0.097156283963114459 0 0.09082057939665214 -0.098520430488791347 0 0.1117408613557464 -0.081334784670607868 0 0.1089491815352574 -0.10886701741678891 0 0.09082057939665214 -0.098520430488791347 0 0.088837795738449854 -0.1193701514900745 0 0.1089491815352574 -0.10886701741678891 0 0.101848928781441 -0.13955137764498929 0 0.088837795738449854 -0.1193701514900745 0 0.1089491815352574 -0.10886701741678891 0 0.101848928781441 -0.13955137764498929 0 0.1089491815352574 -0.10886701741678891 0 0.1249033730427701 -0.1215983573115717 0 0.1249033730427701 -0.1215983573115717 0 0.14506213722061631 -0.1183971904935404 0 0.13272328407092679 -0.097156283963114459 0 0.14506213722061631 -0.1183971904935404 0 0.13272328407092679 -0.097156283963114459 0 0.15982508787839961 -0.092843116406507664 0 0.1117408613557464 -0.081334784670607868 0 0.13272328407092679 -0.097156283963114459 0 0.13908931902921731 -0.07211450629203961 0 0.1117408613557464 -0.081334784670607868 0 0.13908931902921731 -0.07211450629203961 0 0.12512715615814499 -0.054065300159116848 0 0.13908931902921731 -0.07211450629203961 0 0.15982508787839961 -0.092843116406507664 0 0.16083103992740311 -0.064213751687805035 0 0.13272328407092679 -0.097156283963114459 0 0.13908931902921731 -0.07211450629203961 0 0.15982508787839961 -0.092843116406507664 0 0.15982508787839961 -0.092843116406507664 0 0.16083103992740311 -0.064213751687805035 0 0.18370983861630791 -0.078321495692393189 0 0.16083103992740311 -0.064213751687805035 0 0.18370983861630791 -0.078321495692393189 0 0.18436816755549951 -0.052575527294383542 0 0.18370983861630791 -0.078321495692393189 0 0.18436816755549951 -0.052575527294383542 0 0.15982508787839961 -0.092843116406507664 0 0.18370983861630791 -0.078321495692393189 0 0.18350316665741459 -0.10147458041126969 0 0.1871759962789504 -0.1158771832068231 0 0.16979227032854841 -0.1167745744630317 0 0.18420382031611771 -0.12960980169191111 0 0.18350316665741459 -0.10147458041126969 0 0.1871759962789504 -0.1158771832068231 0 0.16979227032854841 -0.1167745744630317 0 0.14506213722061631 -0.1183971904935404 0 0.15982508787839961 -0.092843116406507664 0 0.16979227032854841 -0.1167745744630317 0 0.15982508787839961 -0.092843116406507664 0 0.18350316665741459 -0.10147458041126969 0 0.16979227032854841 -0.1167745744630317 0 0.13922300163102791 -0.00048177691349810328 0 0.1532733031104874 -0.025347411234015901 0 0.16559315265926189 -0.0083108592955545239 0 0.13922300163102791 -0.00048177691349810328 0 0.1532733031104874 -0.025347411234015901 0 0.11282348191201889 0.00088817969455626678 0 0.13922300163102791 -0.00048177691349810328 0 0.12823385766686379 -0.028701256908435481 0 0.13922300163102791 -0.00048177691349810328 0 0.12823385766686379 -0.028701256908435481 0 0.1532733031104874 -0.025347411234015901 0 0.12823385766686379 -0.028701256908435481 0 0.1532733031104874 -0.025347411234015901 0 0.1448773047490646 -0.046684103423313382 0 0.1532733031104874 -0.025347411234015901 0 0.1448773047490646 -0.046684103423313382 0 0.16412232051678721 -0.044327120398213543 0 0.12823385766686379 -0.028701256908435481 0 0.1448773047490646 -0.046684103423313382 0 0.12512715615814499 -0.054065300159116848 0 0.13908931902921731 -0.07211450629203961 0 0.1448773047490646 -0.046684103423313382 0 0.12512715615814499 -0.054065300159116848 0 0.13908931902921731 -0.07211450629203961 0 0.16083103992740311 -0.064213751687805035 0 0.1448773047490646 -0.046684103423313382 0 0.1532733031104874 -0.025347411234015901 0 0.16412232051678721 -0.044327120398213543 0 0.18502649649469111 -0.02682955889637376 0 0.16083103992740311 -0.064213751687805035 0 0.18436816755549951 -0.052575527294383542 0 0.16412232051678721 -0.044327120398213543 0 0.16083103992740311 -0.064213751687805035 0 0.1448773047490646 -0.046684103423313382 0 0.16412232051678721 -0.044327120398213543 0 0.18436816755549951 -0.052575527294383542 0 0.16412232051678721 -0.044327120398213543 0 0.18502649649469111 -0.02682955889637376 0 0.18436816755549951 -0.052575527294383542 0 0.18502649649469111 -0.02682955889637376 0 0.1532733031104874 -0.025347411234015901 0 0.18502649649469111 -0.02682955889637376 0 0.16559315265926189 -0.0083108592955545239 0 0.18502649649469111 -0.02682955889637376 0 0.18568482543388271 -0.001083590498363957 0 0.16559315265926189 -0.0083108592955545239 0 0.18502649649469111 -0.02682955889637376 0 0.18568482543388271 -0.001083590498363957 0 0.21771973177549209 0.0070155188345058682 0 0.20215432104622591 -0.0094436744371548895 0 0.21958268556730071 -0.016917988711827141 0 0.18502649649469111 -0.02682955889637376 0 0.18568482543388271 -0.001083590498363957 0 0.20215432104622591 -0.0094436744371548895 0 0.18502649649469111 -0.02682955889637376 0 0.20215432104622591 -0.0094436744371548895 0 0.20551399762190081 -0.033063207859574742 0 0.20551399762190081 -0.033063207859574742 0 0.22677165009059361 -0.041367903250001947 0 0.21958268556730071 -0.016917988711827141 0 0.20215432104622591 -0.0094436744371548895 0 0.20551399762190081 -0.033063207859574742 0 0.21958268556730071 -0.016917988711827141 0 0.20551399762190081 -0.033063207859574742 0 0.20959832159305419 -0.054354193489216933 0 0.22677165009059361 -0.041367903250001947 0 0.18436816755549951 -0.052575527294383542 0 0.18502649649469111 -0.02682955889637376 0 0.20551399762190081 -0.033063207859574742 0 0.18436816755549951 -0.052575527294383542 0 0.20551399762190081 -0.033063207859574742 0 0.20959832159305419 -0.054354193489216933 0 0.18436816755549951 -0.052575527294383542 0 0.20959832159305419 -0.054354193489216933 0 0.20448244787842471 -0.074816069051122897 0 0.20959832159305419 -0.054354193489216933 0 0.22677165009059361 -0.041367903250001947 0 0.22653717327195011 -0.068080603359513173 0 0.2412586978795401 -0.054227140496151897 0 0.22677165009059361 -0.041367903250001947 0 0.22653717327195011 -0.068080603359513173 0 0.25769157925344888 -0.056710040104492661 0 0.2412586978795401 -0.054227140496151897 0 0.2479296535701859 -0.068937373060213525 0 0.25769157925344888 -0.056710040104492661 0 0.25097640050212638 -0.038723783444953051 0 0.2412586978795401 -0.054227140496151897 0 0.25097640050212638 -0.038723783444953051 0 0.22677165009059361 -0.041367903250001947 0 0.24005099662490459 -0.02160901489113989 0 0.25097640050212638 -0.038723783444953051 0 0.2412586978795401 -0.054227140496151897 0 0.22677165009059361 -0.041367903250001947 0 0.22677165009059361 -0.041367903250001947 0 0.21958268556730071 -0.016917988711827141 0 0.24005099662490459 -0.02160901489113989 0 0.25097640050212638 -0.038723783444953051 0 0.25620512930613332 -0.020027017818556939 0 0.24005099662490459 -0.02160901489113989 0 0.25620512930613332 -0.020027017818556939 0 0.25219536379736601 -0.0066985404507094526 0 0.24005099662490459 -0.02160901489113989 0 0.25219536379736601 -0.0066985404507094526 0 0.24005099662490459 -0.02160901489113989 0 0.23481737798904601 -0.0036562947842957872 0 0.24630168148306139 0.0063678786522736869 0 0.25219536379736601 -0.0066985404507094526 0 0.23481737798904601 -0.0036562947842957872 0 0.21771973177549209 0.0070155188345058682 0 0.21958268556730071 -0.016917988711827141 0 0.23481737798904601 -0.0036562947842957872 0 0.21958268556730071 -0.016917988711827141 0 0.24005099662490459 -0.02160901489113989 0 0.23481737798904601 -0.0036562947842957872 0 0.21720528089449589 -0.10963415593192261 0 0.20028971112238059 -0.111805735473541 0 0.2016192173761063 -0.094506208143965403 0 0.21720528089449589 -0.10963415593192261 0 0.2016192173761063 -0.094506208143965403 0 0.22052485908761441 -0.090985212303543048 0 0.21720528089449589 -0.10963415593192261 0 0.21009028078667019 -0.1222218079562873 0 0.20028971112238059 -0.111805735473541 0 0.21720528089449589 -0.10963415593192261 0 0.21009028078667019 -0.1222218079562873 0 0.22472741782768749 -0.1282364089228796 0 0.21009028078667019 -0.1222218079562873 0 0.20028971112238059 -0.111805735473541 0 0.19947719256492349 -0.1281934933952189 0 0.1871759962789504 -0.1158771832068231 0 0.20028971112238059 -0.111805735473541 0 0.19947719256492349 -0.1281934933952189 0 0.18350316665741459 -0.10147458041126969 0 0.1871759962789504 -0.1158771832068231 0 0.20028971112238059 -0.111805735473541 0 0.1871759962789504 -0.1158771832068231 0 0.19947719256492349 -0.1281934933952189 0 0.18420382031611771 -0.12960980169191111 0 0.18350316665741459 -0.10147458041126969 0 0.20028971112238059 -0.111805735473541 0 0.2016192173761063 -0.094506208143965403 0 0.18370983861630791 -0.078321495692393189 0 0.2016192173761063 -0.094506208143965403 0 0.20448244787842471 -0.074816069051122897 0 0.18370983861630791 -0.078321495692393189 0 0.18350316665741459 -0.10147458041126969 0 0.2016192173761063 -0.094506208143965403 0 0.18370983861630791 -0.078321495692393189 0 0.18436816755549951 -0.052575527294383542 0 0.20448244787842471 -0.074816069051122897 0 0.20959832159305419 -0.054354193489216933 0 0.20448244787842471 -0.074816069051122897 0 0.22653717327195011 -0.068080603359513173 0 0.20448244787842471 -0.074816069051122897 0 0.22052485908761441 -0.090985212303543048 0 0.22653717327195011 -0.068080603359513173 0 0.2016192173761063 -0.094506208143965403 0 0.20448244787842471 -0.074816069051122897 0 0.22052485908761441 -0.090985212303543048 0 0.22052485908761441 -0.090985212303543048 0 0.22653717327195011 -0.068080603359513173 0 0.2414226287272514 -0.084740731043786183 0 0.2412586978795401 -0.054227140496151897 0 0.22653717327195011 -0.068080603359513173 0 0.2479296535701859 -0.068937373060213525 0 0.22653717327195011 -0.068080603359513173 0 0.2479296535701859 -0.068937373060213525 0 0.2414226287272514 -0.084740731043786183 0 0.25550817011095572 -0.094099133434442817 0 0.2414226287272514 -0.084740731043786183 0 0.2382325232178539 -0.10771656498859369 0 0.22052485908761441 -0.090985212303543048 0 0.2414226287272514 -0.084740731043786183 0 0.2382325232178539 -0.10771656498859369 0 0.21720528089449589 -0.10963415593192261 0 0.22052485908761441 -0.090985212303543048 0 0.2382325232178539 -0.10771656498859369 0 0.21720528089449589 -0.10963415593192261 0 0.2382325232178539 -0.10771656498859369 0 0.22472741782768749 -0.1282364089228796 0 0.2382325232178539 -0.10771656498859369 0 0.24306885048121241 -0.1274535872766269 0 0.22472741782768749 -0.1282364089228796 0 0.26300755725892189 -0.1099242941472343 0 0.2382325232178539 -0.10771656498859369 0 0.24306885048121241 -0.1274535872766269 0 0.26085448571602132 -0.1372826914825527 0 0.24306885048121241 -0.1274535872766269 0 0.24032720364136839 -0.14916967566242739 0 0.24306885048121241 -0.1274535872766269 0 0.24032720364136839 -0.14916967566242739 0 0.22472741782768749 -0.1282364089228796 0 0.25673043119197247 -0.15030899611676679 0 0.24032720364136839 -0.14916967566242739 0 0.25673043119197247 -0.15030899611676679 0 0.24032720364136839 -0.14916967566242739 0 0.2479887591674346 -0.15796132492300161 0 0.24032720364136839 -0.14916967566242739 0 0.212631548669383 -0.14724601605893969 0 0.21972695545459689 -0.16109891322086789 0 0.24032720364136839 -0.14916967566242739 0 0.212631548669383 -0.14724601605893969 0 0.24032720364136839 -0.14916967566242739 0 0.21972695545459689 -0.16109891322086789 0 0.24032720364136839 -0.14916967566242739 0 0.22472741782768749 -0.1282364089228796 0 0.212631548669383 -0.14724601605893969 0 0.2123213636855478 -0.13342920935671659 0 0.212631548669383 -0.14724601605893969 0 0.19947719256492349 -0.1281934933952189 0 0.22472741782768749 -0.1282364089228796 0 0.2123213636855478 -0.13342920935671659 0 0.212631548669383 -0.14724601605893969 0 0.21009028078667019 -0.1222218079562873 0 0.22472741782768749 -0.1282364089228796 0 0.2123213636855478 -0.13342920935671659 0 0.21009028078667019 -0.1222218079562873 0 0.2123213636855478 -0.13342920935671659 0 0.19947719256492349 -0.1281934933952189 0 0.212631548669383 -0.14724601605893969 0 0.208401582295381 -0.1581561606271096 0 0.21972695545459689 -0.16109891322086789 0 0.212631548669383 -0.14724601605893969 0 0.19933601557738789 -0.15851676992625091 0 0.208401582295381 -0.1581561606271096 0 0.212631548669383 -0.14724601605893969 0 0.1953121138119554 -0.13759291690038039 0 0.18493589369739749 -0.14532235645545211 0 0.212631548669383 -0.14724601605893969 0 0.193458476082701 -0.1530672382632042 0 0.19933601557738789 -0.15851676992625091 0 0.212631548669383 -0.14724601605893969 0 0.193458476082701 -0.1530672382632042 0 0.18493589369739749 -0.14532235645545211 0 0.212631548669383 -0.14724601605893969 0 0.18493589369739749 -0.14532235645545211 0 0.193458476082701 -0.1530672382632042 0 0.1896301626882323 -0.16124081022008591 0 0.18075875978110431 -0.15301023865529231 0 0.212631548669383 -0.14724601605893969 0 0.1953121138119554 -0.13759291690038039 0 0.19947719256492349 -0.1281934933952189 0 0.1953121138119554 -0.13759291690038039 0 0.18420382031611771 -0.12960980169191111 0 0.18493589369739749 -0.14532235645545211 0 0.1953121138119554 -0.13759291690038039 0 0.19947719256492349 -0.1281934933952189 0 0.18420382031611771 -0.12960980169191111 0 0.19912670726782519 -0.17302815077930839 0 0.17852645908105269 -0.18495738833774711 0 0.19912670726782519 -0.17302815077930839 0 0.19166319144202101 -0.18774886519000061 0 0.17852645908105269 -0.18495738833774711 0 0.19912670726782519 -0.17302815077930839 0 0.19166319144202101 -0.18774886519000061 0 0.20243009626019731 -0.1908409458479729 0 0.19912670726782519 -0.17302815077930839 0 0.1896301626882323 -0.16124081022008591 0 0.17964260943107799 -0.1689838134965197 0 0.193458476082701 -0.1530672382632042 0 0.1896301626882323 -0.16124081022008591 0 0.19933601557738789 -0.15851676992625091 0 0.19912670726782519 -0.17302815077930839 0 0.19933601557738789 -0.15851676992625091 0 0.208401582295381 -0.1581561606271096 0 0.19912670726782519 -0.17302815077930839 0 0.1896301626882323 -0.16124081022008591 0 0.19933601557738789 -0.15851676992625091 0 0.19912670726782519 -0.17302815077930839 0 0.208401582295381 -0.1581561606271096 0 0.21972695545459689 -0.16109891322086789 0 0.19912670726782519 -0.17302815077930839 0 0.21972695545459689 -0.16109891322086789 0 0.21156356807381771 -0.17805371583025839 0 0.2218447620195958 -0.17470338266829119 0 0.21972695545459689 -0.16109891322086789 0 0.19912670726782519 -0.17302815077930839 0 0.21156356807381771 -0.17805371583025839 0 0.21972695545459689 -0.16109891322086789 0 0.19912670726782519 -0.17302815077930839 0 0.21156356807381771 -0.17805371583025839 0 0.20243009626019731 -0.1908409458479729 0 0.21156356807381771 -0.17805371583025839 0 0.2175357918965489 -0.18960497221519571 0 0.20243009626019731 -0.1908409458479729 0 0.21156356807381771 -0.17805371583025839 0 0.2218447620195958 -0.17470338266829119 0 0.2175357918965489 -0.18960497221519571 0 0.2218447620195958 -0.17470338266829119 0 0.23248590306681091 -0.19199784605032619 0 0.2175357918965489 -0.18960497221519571 0 0.2218447620195958 -0.17470338266829119 0 0.21972695545459689 -0.16109891322086789 0 0.23778782113983479 -0.16540660288501141 0 0.24032720364136839 -0.14916967566242739 0 0.21972695545459689 -0.16109891322086789 0 0.23778782113983479 -0.16540660288501141 0 0.25710958069656281 -0.1669600250278008 0 0.2479887591674346 -0.15796132492300161 0 0.23778782113983479 -0.16540660288501141 0 0.25710958069656281 -0.1669600250278008 0 0.23778782113983479 -0.16540660288501141 0 0.2498625178621883 -0.18098097318543371 0 0.24032720364136839 -0.14916967566242739 0 0.2479887591674346 -0.15796132492300161 0 0.23778782113983479 -0.16540660288501141 0 0.2218447620195958 -0.17470338266829119 0 0.23778782113983479 -0.16540660288501141 0 0.2498625178621883 -0.18098097318543371 0 0.2218447620195958 -0.17470338266829119 0 0.2498625178621883 -0.18098097318543371 0 0.23248590306681091 -0.19199784605032619 0 0.2218447620195958 -0.17470338266829119 0 0.2498625178621883 -0.18098097318543371 0 0.24815738005926219 -0.2014534501685166 0 0.23347743609988381 -0.2071571509213023 0 0.23248590306681091 -0.19199784605032619 0 0.2498625178621883 -0.18098097318543371 0 0.24815738005926219 -0.2014534501685166 0 0.23248590306681091 -0.19199784605032619 0 0.24815738005926219 -0.2014534501685166 0 0.23347743609988381 -0.2071571509213023 0 0.24869176150819269 -0.22086644526018551 0 0.23347743609988381 -0.2071571509213023 0 0.2268280944793879 -0.21832655713885049 0 0.24869176150819269 -0.22086644526018551 0 0.23347743609988381 -0.2071571509213023 0 0.2268280944793879 -0.21832655713885049 0 0.22069360337525781 -0.2093682344630281 0 0.2268280944793879 -0.21832655713885049 0 0.22069360337525781 -0.2093682344630281 0 0.21495158713266241 -0.21761235905099591 0 0.22069360337525781 -0.2093682344630281 0 0.2244144724161197 -0.2001325599044409 0 0.21285170111429891 -0.20110808628208421 0 0.23347743609988381 -0.2071571509213023 0 0.22069360337525781 -0.2093682344630281 0 0.2244144724161197 -0.2001325599044409 0 0.2244144724161197 -0.2001325599044409 0 0.23248590306681091 -0.19199784605032619 0 0.2175357918965489 -0.18960497221519571 0 0.23347743609988381 -0.2071571509213023 0 0.2244144724161197 -0.2001325599044409 0 0.23248590306681091 -0.19199784605032619 0 0.25564944811100898 -0.23811463436218661 0 0.2387662212341804 -0.23856610557439861 0 0.25564944811100898 -0.23811463436218661 0 0.24671319788358659 -0.25167760090701791 0 0.2387662212341804 -0.23856610557439861 0 0.24671319788358659 -0.25167760090701791 0 0.23408256765874441 -0.253081043327193 0 0.2387662212341804 -0.23856610557439861 0 0.24869176150819269 -0.22086644526018551 0 0.22493504894048291 -0.22911492661269409 0 0.25564944811100898 -0.23811463436218661 0 0.2387662212341804 -0.23856610557439861 0 0.24869176150819269 -0.22086644526018551 0 0.2387662212341804 -0.23856610557439861 0 0.24869176150819269 -0.22086644526018551 0 0.22493504894048291 -0.22911492661269409 0 0.2268280944793879 -0.21832655713885049 0 0.24869176150819269 -0.22086644526018551 0 0.22493504894048291 -0.22911492661269409 0 0.2268280944793879 -0.21832655713885049 0 0.22493504894048291 -0.22911492661269409 0 0.21786649446809001 -0.2251661872347635 0 0.2268280944793879 -0.21832655713885049 0 0.21786649446809001 -0.2251661872347635 0 0.21495158713266241 -0.21761235905099591 0 0.22493504894048291 -0.22911492661269409 0 0.2218829943573517 -0.2390175767866082 0 0.21175172045244051 -0.23047340342986469 0 0.2387662212341804 -0.23856610557439861 0 0.2218829943573517 -0.2390175767866082 0 0.22580199700545239 -0.2479410651385793 0 0.2387662212341804 -0.23856610557439861 0 0.2218829943573517 -0.2390175767866082 0 0.2387662212341804 -0.23856610557439861 0 0.22493504894048291 -0.22911492661269409 0 0.2218829943573517 -0.2390175767866082 0 0.2218829943573517 -0.2390175767866082 0 0.22580199700545239 -0.2479410651385793 0 0.21266089262083121 -0.2487761011242596 0 0.23408256765874441 -0.253081043327193 0 0.2387662212341804 -0.23856610557439861 0 0.22580199700545239 -0.2479410651385793 0 0.21266089262083121 -0.2487761011242596 0 0.2094892512187887 -0.23957517469607009 0 0.19877340454872899 -0.24568153919586691 0 0.2218829943573517 -0.2390175767866082 0 0.21266089262083121 -0.2487761011242596 0 0.2094892512187887 -0.23957517469607009 0 0.2218829943573517 -0.2390175767866082 0 0.2094892512187887 -0.23957517469607009 0 0.21175172045244051 -0.23047340342986469 0 0.2094892512187887 -0.23957517469607009 0 0.20237724411459079 -0.2339272529437513 0 0.19877340454872899 -0.24568153919586691 0 0.2094892512187887 -0.23957517469607009 0 0.21175172045244051 -0.23047340342986469 0 0.20237724411459079 -0.2339272529437513 0 0.21175172045244051 -0.23047340342986469 0 0.2020728217322528 -0.22176273155308679 0 0.20237724411459079 -0.2339272529437513 0 0.22493504894048291 -0.22911492661269409 0 0.21175172045244051 -0.23047340342986469 0 0.21786649446809001 -0.2251661872347635 0 0.21175172045244051 -0.23047340342986469 0 0.21786649446809001 -0.2251661872347635 0 0.21495158713266241 -0.21761235905099591 0 0.21175172045244051 -0.23047340342986469 0 0.2020728217322528 -0.22176273155308679 0 0.21495158713266241 -0.21761235905099591 0 0.2020728217322528 -0.22176273155308679 0 0.1915857594667589 -0.23260092844225519 0 0.18879569494547341 -0.21764220072254539 0 0.2020728217322528 -0.22176273155308679 0 0.1915857594667589 -0.23260092844225519 0 0.20237724411459079 -0.2339272529437513 0 0.1915857594667589 -0.23260092844225519 0 0.20237724411459079 -0.2339272529437513 0 0.19877340454872899 -0.24568153919586691 0 0.1915857594667589 -0.23260092844225519 0 0.19877340454872899 -0.24568153919586691 0 0.18552047860052109 -0.24490343797148409 0 0.1881327098362445 -0.25891566209999028 0 0.19877340454872899 -0.24568153919586691 0 0.18552047860052109 -0.24490343797148409 0 0.21285170111429891 -0.20110808628208421 0 0.2005710145974571 -0.20673513760769219 0 0.20243009626019731 -0.1908409458479729 0 0.2175357918965489 -0.18960497221519571 0 0.21285170111429891 -0.20110808628208421 0 0.20243009626019731 -0.1908409458479729 0 0.2244144724161197 -0.2001325599044409 0 0.2175357918965489 -0.18960497221519571 0 0.21285170111429891 -0.20110808628208421 0 0.22069360337525781 -0.2093682344630281 0 0.21285170111429891 -0.20110808628208421 0 0.2097445194716834 -0.20995780968620101 0 0.22069360337525781 -0.2093682344630281 0 0.21495158713266241 -0.21761235905099591 0 0.2097445194716834 -0.20995780968620101 0 0.2020728217322528 -0.22176273155308679 0 0.21495158713266241 -0.21761235905099591 0 0.2097445194716834 -0.20995780968620101 0 0.2020728217322528 -0.22176273155308679 0 0.2097445194716834 -0.20995780968620101 0 0.2005710145974571 -0.20673513760769219 0 0.21285170111429891 -0.20110808628208421 0 0.2097445194716834 -0.20995780968620101 0 0.2005710145974571 -0.20673513760769219 0 0.2020728217322528 -0.22176273155308679 0 0.2005710145974571 -0.20673513760769219 0 0.18879569494547341 -0.21764220072254539 0 0.2005710145974571 -0.20673513760769219 0 0.18879569494547341 -0.21764220072254539 0 0.18656950315901 -0.20216897579497431 0 0.2005710145974571 -0.20673513760769219 0 0.20243009626019731 -0.1908409458479729 0 0.18656950315901 -0.20216897579497431 0 0.19166319144202101 -0.18774886519000061 0 0.20243009626019731 -0.1908409458479729 0 0.18656950315901 -0.20216897579497431 0 0.17658629012992411 -0.21272374969286781 0 0.1689501041267121 -0.20032877851784539 0 0.17852645908105269 -0.18495738833774711 0 0.19166319144202101 -0.18774886519000061 0 0.18656950315901 -0.20216897579497431 0 0.17852645908105269 -0.18495738833774711 0 0.18656950315901 -0.20216897579497431 0 0.17658629012992411 -0.21272374969286781 0 0.17852645908105269 -0.18495738833774711 0 0.17658629012992411 -0.21272374969286781 0 0.17852645908105269 -0.18495738833774711 0 0.1689501041267121 -0.20032877851784539 0 0.17852645908105269 -0.18495738833774711 0 0.17491524579099779 -0.18704857776521089 0 0.18879569494547341 -0.21764220072254539 0 0.18656950315901 -0.20216897579497431 0 0.17658629012992411 -0.21272374969286781 0 0.18656950315901 -0.20216897579497431 0 0.17658629012992411 -0.21272374969286781 0 0.15728768230493659 -0.21429886776769269 0 0.1689501041267121 -0.20032877851784539 0 0.14815027957739371 -0.19927816023148079 0 0.17658629012992411 -0.21272374969286781 0 0.15728768230493659 -0.21429886776769269 0 0.1689501041267121 -0.20032877851784539 0 0.1689501041267121 -0.20032877851784539 0 0.14815027957739371 -0.19927816023148079 0 0.16038840222371961 -0.18608435930316419 0 0.1689501041267121 -0.20032877851784539 0 0.17491524579099779 -0.18704857776521089 0 0.16038840222371961 -0.18608435930316419 0 0.17419127104495349 -0.24699961279592511 0 0.18552047860052109 -0.24490343797148409 0 0.1753887805874384 -0.2298616812443964 0 0.17419127104495349 -0.24699961279592511 0 0.1753887805874384 -0.2298616812443964 0 0.1915857594667589 -0.23260092844225519 0 0.18552047860052109 -0.24490343797148409 0 0.1753887805874384 -0.2298616812443964 0 0.17419127104495349 -0.24699961279592511 0 0.1753887805874384 -0.2298616812443964 0 0.1662360579696027 -0.23955427243712921 0 0.17972082580271539 -0.25471993168431117 0 0.17419127104495349 -0.24699961279592511 0 0.18552047860052109 -0.24490343797148409 0 0.18879569494547341 -0.21764220072254539 0 0.17658629012992411 -0.21272374969286781 0 0.1753887805874384 -0.2298616812443964 0 0.1915857594667589 -0.23260092844225519 0 0.18879569494547341 -0.21764220072254539 0 0.1753887805874384 -0.2298616812443964 0 0.17658629012992411 -0.21272374969286781 0 0.1753887805874384 -0.2298616812443964 0 0.17658629012992411 -0.21272374969286781 0 0.15728768230493659 -0.21429886776769269 0 0.1567971872022148 -0.23364582221958149 0 0.1753887805874384 -0.2298616812443964 0 0.1567971872022148 -0.23364582221958149 0 0.1662360579696027 -0.23955427243712921 0 0.17658629012992411 -0.21272374969286781 0 0.1753887805874384 -0.2298616812443964 0 0.1567971872022148 -0.23364582221958149 0 0.17658629012992411 -0.21272374969286781 0 0.1567971872022148 -0.23364582221958149 0 0.1567971872022148 -0.23364582221958149 0 0.1662360579696027 -0.23955427243712921 0 0.1585669930438042 -0.2477099734886139 0 0.17419127104495349 -0.24699961279592511 0 0.1662360579696027 -0.23955427243712921 0 0.1585669930438042 -0.2477099734886139 0 0.1653251521408747 -0.25444287942776028 0 0.17419127104495349 -0.24699961279592511 0 0.1585669930438042 -0.2477099734886139 0 0.1370080842745047 -0.25456789474629432 0 0.1567971872022148 -0.23364582221958149 0 0.1370080842745047 -0.25456789474629432 0 0.1567971872022148 -0.23364582221958149 0 0.1585669930438042 -0.2477099734886139 0 0.1370080842745047 -0.25456789474629432 0 0.1567971872022148 -0.23364582221958149 0 0.1368633451513884 -0.23617579080099721 0 0.15728768230493659 -0.21429886776769269 0 0.1567971872022148 -0.23364582221958149 0 0.13205954414022339 -0.21842152560095321 0 0.1567971872022148 -0.23364582221958149 0 0.1368633451513884 -0.23617579080099721 0 0.13205954414022339 -0.21842152560095321 0 0.1165052577291141 -0.22687509986716919 0 0.1368633451513884 -0.23617579080099721 0 0.13205954414022339 -0.21842152560095321 0 0.1370080842745047 -0.25456789474629432 0 0.11975065958300481 -0.2429171875098404 0 0.1368633451513884 -0.23617579080099721 0 0.14815027957739371 -0.19927816023148079 0 0.13975511391519169 -0.1842777762512689 0 0.16038840222371961 -0.18608435930316419 0 0.15728768230493659 -0.21429886776769269 0 0.14815027957739371 -0.19927816023148079 0 0.13205954414022339 -0.21842152560095321 0 0.1242128618620152 -0.19215413767176831 0 0.14815027957739371 -0.19927816023148079 0 0.13205954414022339 -0.21842152560095321 0 0.1242128618620152 -0.19215413767176831 0 0.14815027957739371 -0.19927816023148079 0 0.13975511391519169 -0.1842777762512689 0 0.13975511391519169 -0.1842777762512689 0 0.15128464602198299 -0.17121375858788229 0 0.1261911563195777 -0.1667422516596444 0 0.1242128618620152 -0.19215413767176831 0 0.13975511391519169 -0.1842777762512689 0 0.1261911563195777 -0.1667422516596444 0 0.13975511391519169 -0.1842777762512689 0 0.15128464602198299 -0.17121375858788229 0 0.16038840222371961 -0.18608435930316419 0 0.15128464602198299 -0.17121375858788229 0 0.14253405021827789 -0.15479501536285811 0 0.16466252882714211 -0.15991130054584629 0 0.15128464602198299 -0.17121375858788229 0 0.1261911563195777 -0.1667422516596444 0 0.14253405021827789 -0.15479501536285811 0 0.1261911563195777 -0.1667422516596444 0 0.12954458375342651 -0.1414750372484769 0 0.14253405021827789 -0.15479501536285811 0 0.1249033730427701 -0.1215983573115717 0 0.14506213722061631 -0.1183971904935404 0 0.12954458375342651 -0.1414750372484769 0 0.14506213722061631 -0.1183971904935404 0 0.12954458375342651 -0.1414750372484769 0 0.1572402387254119 -0.14339869685196449 0 0.14253405021827789 -0.15479501536285811 0 0.1572402387254119 -0.14339869685196449 0 0.16466252882714211 -0.15991130054584629 0 0.12954458375342651 -0.1414750372484769 0 0.14253405021827789 -0.15479501536285811 0 0.1572402387254119 -0.14339869685196449 0 0.12954458375342651 -0.1414750372484769 0 0.1572402387254119 -0.14339869685196449 0 0.1572402387254119 -0.14339869685196449 0 0.18075875978110431 -0.15301023865529231 0 0.16466252882714211 -0.15991130054584629 0 0.1572402387254119 -0.14339869685196449 0 0.18493589369739749 -0.14532235645545211 0 0.16979227032854841 -0.1167745744630317 0 0.1572402387254119 -0.14339869685196449 0 0.18420382031611771 -0.12960980169191111 0 0.14506213722061631 -0.1183971904935404 0 0.16979227032854841 -0.1167745744630317 0 0.1572402387254119 -0.14339869685196449 0 0.1572402387254119 -0.14339869685196449 0 0.18420382031611771 -0.12960980169191111 0 0.18493589369739749 -0.14532235645545211 0 0.1572402387254119 -0.14339869685196449 0 0.18493589369739749 -0.14532235645545211 0 0.18075875978110431 -0.15301023865529231 0 0.193458476082701 -0.1530672382632042 0 0.18493589369739749 -0.14532235645545211 0 0.18075875978110431 -0.15301023865529231 0 0.18075875978110431 -0.15301023865529231 0 0.17964260943107799 -0.1689838134965197 0 0.1896301626882323 -0.16124081022008591 0 0.18075875978110431 -0.15301023865529231 0 0.17964260943107799 -0.1689838134965197 0 0.18075875978110431 -0.15301023865529231 0 0.17272873791802559 -0.16423274771185309 0 0.17964260943107799 -0.1689838134965197 0 0.18075875978110431 -0.15301023865529231 0 0.17272873791802559 -0.16423274771185309 0 0.16466252882714211 -0.15991130054584629 0 0.17272873791802559 -0.16423274771185309 0 0.17964260943107799 -0.1689838134965197 0 0.16585105363277819 -0.1750256381497543 0 0.17964260943107799 -0.1689838134965197 0 0.17852645908105269 -0.18495738833774711 0 0.17964260943107799 -0.1689838134965197 0 0.17852645908105269 -0.18495738833774711 0 0.17212999153075839 -0.1800771789772862 0 0.19912670726782519 -0.17302815077930839 0 0.17964260943107799 -0.1689838134965197 0 0.17852645908105269 -0.18495738833774711 0 0.17852645908105269 -0.18495738833774711 0 0.17491524579099779 -0.18704857776521089 0 0.17852645908105269 -0.18495738833774711 0 0.17212999153075839 -0.1800771789772862 0 0.17491524579099779 -0.18704857776521089 0 0.17964260943107799 -0.1689838134965197 0 0.17212999153075839 -0.1800771789772862 0 0.16585105363277819 -0.1750256381497543 0 0.17212999153075839 -0.1800771789772862 0 0.16585105363277819 -0.1750256381497543 0 0.16038840222371961 -0.18608435930316419 0 0.17212999153075839 -0.1800771789772862 0 0.17491524579099779 -0.18704857776521089 0 0.16038840222371961 -0.18608435930316419 0 0.15128464602198299 -0.17121375858788229 0 0.16585105363277819 -0.1750256381497543 0 0.16038840222371961 -0.18608435930316419 0 0.15128464602198299 -0.17121375858788229 0 0.16585105363277819 -0.1750256381497543 0 0.16466252882714211 -0.15991130054584629 0 0.17272873791802559 -0.16423274771185309 0 0.16585105363277819 -0.1750256381497543 0 0.16466252882714211 -0.15991130054584629 0 
</DataArray>
</Points>
<Cells>
<DataArray type="UInt32" Name="connectivity" format="ascii">
0 1 2 3 4 5 6 7 8 9 10 11 12 13 14 15 16 17 18 19 20 21 22 23 24 25 26 27 28 29 30 31 32 33 34 35 36 37 38 39 40 41 42 43 44 45 46 47 48 49 50 51 52 53 54 55 56 57 58 59 60 61 62 63 64 65 66 67 68 69 70 71 72 73 74 75 76 77 78 79 80 81 82 83 84 85 86 87 88 89 90 91 92 93 94 95 96 97 98 99 100 101 102 103 104 105 106 107 108 109 110 111 112 113 114 115 116 117 118 119 120 121 122 123 124 125 126 127 128 129 130 131 132 133 134 135 136 137 138 139 140 141 142 143 144 145 146 147 148 149 150 151 152 153 154 155 156 157 158 159 160 161 162 163 164 165 166 167 168 169 170 171 172 173 174 175 176 177 178 179 180 181 182 183 184 185 186 187 188 189 190 191 192 193 194 195 196 197 198 199 200 201 202 203 204 205 206 207 208 209 210 211 212 213 214 215 216 217 218 219 220 221 222 223 224 225 226 227 228 229 230 231 232 233 234 235 236 237 238 239 240 241 242 243 244 245 246 247 248 249 250 251 252 253 254 255 256 257 258 259 260 261 262 263 264 265 266 267 268 269 270 271 272 273 274 275 276 277 278 279 280 281 282 283 284 285 286 287 288 289 290 291 292 293 294 295 296 297 298 299 300 301 302 303 304 305 306 307 308 309 310 311 312 313 314 315 316 317 318 319 320 321 322 323 324 325 326 327 328 329 330 331 332 333 334 335 336 337 338 339 340 341 342 343 344 345 346 347 348 349 350 351 352 353 354 355 356 357 358 359 360 361 362 363 364 365 366 367 368 369 370 371 372 373 374 375 376 377 378 379 380 381 382 383 384 385 386 387 388 389 390 391 392 393 394 395 396 397 398 399 400 401 402 403 404 405 406 407 408 409 410 411 412 413 414 415 416 417 418 419 420 421 422 423 424 425 426 427 428 429 430 431 432 433 434 435 436 437 438 439 440 441 442 443 444 445 446 447 448 449 450 451 452 453 454 455 456 457 458 459 460 461 462 463 464 465 466 467 468 469 470 471 472 473 474 475 476 477 478 479 480 481 482 483 484 485 486 487 488 489 490 491 492 493 494 495 496 497 498 499 500 501 502 503 504 505 506 507 508 509 510 511 512 513 514 515 516 517 518 519 520 521 522 523 524 525 526 527 528 529 530 531 532 533 534 535 536 537 538 539 540 541 542 543 544 545 546 547 548 549 550 551 552 553 554 555 556 557 558 559 560 561 562 563 564 565 566 567 568 569 570 571 572 573 574 575 576 577 578 579 580 581 582 583 584 585 586 587 588 589 590 591 592 593 594 595 596 597 598 599 600 601 602 603 604 605 606 607 608 609 610 611 612 613 614 615 616 617 618 619 620 621 622 623 624 625 626 627 628 629 630 631 632 633 634 635 636 637 638 639 640 641 642 643 644 645 646 647 648 649 650 651 652 653 654 655 656 657 658 659 660 661 662 663 664 665 666 667 668 669 670 671 672 673 674 675 676 677 678 679 680 681 682 683 684 685 686 687 688 689 690 691 692 693 694 695 696 697 698 699 700 701 702 703 704 705 706 707 708 709 710 711 712 713 714 715 716 717 718 719 720 721 722 723 724 725 726 727 728 729 730 731 732 733 734 735 736 737 738 739 740 741 742 743 744 745 746 747 748 749 750 751 752 753 754 755 756 757 758 759 760 761 762 763 764 765 766 767 768 769 770 771 772 773 774 775 776 777 778 779 780 781 782 783 784 785 786 787 788 789 790 791 792 793 794 795 796 797 798 799 800 801 802 803 804 805 806 807 808 809 810 811 812 813 814 815 816 817 818 819 820 821 822 823 824 825 826 827 828 829 830 831 832 833 834 835 836 837 838 839 840 841 842 843 844 845 846 847 848 849 850 851 852 853 854 855 856 857 858 859 860 861 862 863 864 865 866 867 868 869 870 871 872 873 874 875 876 877 878 879 880 881 882 883 884 885 886 887 888 889 890 891 892 893 894 895 896 897 898 899 900 901 902 903 904 905 906 907 908 909 910 911 912 913 914 915 916 917 918 919 920 921 922 923 924 925 926 927 928 929 930 931 932 933 934 935 936 937 938 939 940 941 942 943 944 945 946 947 948 949 950 951 952 953 954 955 956 957 958 959 960 961 962 963 964 965 966 967 968 969 970 971 972 973 974 975 976 977 978 979 980 981 982 983 984 985 986 987 988 989 990 991 992 993 994 995 996 997 998 999 1000 1001 1002 1003 1004 1005 1006 1007 1008 1009 1010 1011 1012 1013 1014 1015 1016 1017 1018 1019 1020 1021 1022 1023 1024 1025 1026 1027 1028 1029 1030 1031 1032 1033 1034 1035 1036 1037 1038 1039 1040 1041 1042 1043 1044 1045 1046 1047 1048 1049 1050 1051 1052 1053 1054 1055 1056 1057 1058 1059 1060 1061 1062 1063 1064 1065 1066 1067 1068 1069 1070 1071 1072 1073 1074 1075 1076 1077 1078 1079 1080 1081 1082 1083 1084 1085 1086 1087 1088 1089 1090 1091 1092 1093 1094 1095 1096 1097 1098 1099 1100 1101 1102 1103 1104 1105 1106 1107 1108 1109 1110 1111 1112 1113 1114 1115 1116 1117 1118 1119 1120 1121 1122 1123 1124 1125 1126 1127 1128 1129 1130 1131 1132 1133 1134 1135 1136 1137 1138 1139 1140 1141 1142 1143 1144 1145 1146 1147 1148 1149 1150 1151 1152 1153 1154 1155 1156 1157 1158 1159 1160 1161 1162 1163 1164 1165 1166 1167 1168 1169 1170 1171 1172 1173 1174 1175 1176 1177 1178 1179 1180 1181 1182 1183 1184 1185 1186 1187 1188 1189 1190 1191 1192 1193 1194 1195 1196 1197 1198 1199 1200 1201 1202 1203 1204 1205 1206 1207 1208 1209 1210 1211 1212 1213 1214 1215 1216 1217 1218 1219 1220 1221 1222 1223 1224 1225 1226 1227 1228 1229 1230 1231 1232 1233 1234 1235 1236 1237 1238 1239 1240 1241 1242 1243 1244 1245 1246 1247 1248 1249 1250 1251 1252 1253 1254 1255 1256 1257 1258 1259 1260 1261 1262 1263 1264 1265 1266 1267 1268 1269 1270 1271 1272 1273 1274 1275 1276 1277 1278 1279 1280 1281 1282 1283 1284 1285 1286 1287 1288 1289 1290 1291 1292 1293 1294 1295 1296 1297 1298 1299 1300 1301 1302 1303 1304 1305 1306 1307 1308 1309 1310 1311 1312 1313 1314 1315 1316 1317 1318 1319 1320 1321 1322 1323 1324 1325 1326 1327 1328 1329 1330 1331 1332 1333 1334 1335 1336 1337 1338 1339 1340 1341 1342 1343 1344 1345 1346 1347 1348 1349 1350 1351 1352 1353 1354 1355 1356 1357 1358 1359 1360 1361 1362 1363 1364 1365 1366 1367 1368 1369 1370 1371 1372 1373 1374 1375 1376 1377 1378 1379 1380 1381 1382 1383 1384 1385 1386 1387 1388 1389 1390 1391 1392 1393 1394 1395 1396 1397 1398 1399 1400 1401 1402 1403 1404 1405 1406 1407 1408 1409 1410 1411 1412 1413 1414 1415 1416 1417 1418 1419 1420 1421 1422 1423 1424 1425 1426 1427 1428 1429 1430 1431 1432 1433 1434 1435 1436 1437 1438 1439 1440 1441 1442 1443 1444 1445 1446 1447 1448 1449 1450 1451 1452 1453 1454 1455 1456 1457 1458 1459 1460 1461 1462 1463 1464 1465 1466 1467 1468 1469 1470 1471 1472 1473 1474 1475 1476 1477 1478 1479 1480 1481 1482 1483 1484 1485 1486 1487 1488 1489 1490 1491 1492 1493 1494 1495 1496 1497 1498 1499 1500 1501 1502 1503 1504 1505 1506 1507 1508 1509 1510 1511 1512 1513 1514 1515 1516 1517 1518 1519 1520 1521 1522 1523 1524 1525 1526 1527 1528 1529 1530 1531 1532 1533 1534 1535 1536 1537 1538 1539 1540 1541 1542 1543 1544 1545 1546 1547 1548 1549 1550 1551 1552 1553 1554 1555 1556 1557 1558 1559 1560 1561 1562 1563 1564 1565 1566 1567 1568 1569 1570 1571 1572 1573 1574 1575 1576 1577 1578 1579 1580 1581 1582 1583 1584 1585 1586 1587 1588 1589 1590 1591 1592 1593 1594 1595 1596 1597 1598 1599 1600 1601 1602 1603 1604 1605 1606 1607 1608 1609 1610 1611 1612 1613 1614 1615 1616 1617 1618 1619 1620 1621 1622 1623 1624 1625 1626 1627 1628 1629 1630 1631 1632 1633 1634 1635 1636 1637 1638 1639 1640 1641 1642 1643 1644 1645 1646 1647 1648 1649 1650 1651 1652 1653 1654 1655 1656 1657 1658 1659 1660 1661 1662 1663 1664 1665 1666 1667 1668 1669 1670 1671 1672 1673 1674 1675 1676 1677 1678 1679 1680 1681 1682 1683 1684 1685 1686 1687 1688 1689 1690 1691 1692 1693 1694 1695 1696 1697 1698 1699 1700 1701 1702 1703 1704 1705 1706 1707 1708 1709 1710 1711 1712 1713 1714 1715 1716 1717 1718 1719 1720 1721 1722 1723 1724 1725 1726 1727 1728 1729 1730 1731 1732 1733 1734 1735 1736 1737 1738 1739 1740 1741 1742 1743 1744 1745 1746 1747 1748 1749 1750 1751 1752 1753 1754 1755 1756 1757 1758 1759 1760 1761 1762 1763 1764 1765 1766 1767 1768 1769 1770 1771 1772 1773 1774 1775 1776 1777 1778 1779 1780 1781 1782 1783 1784 1785 1786 1787 1788 1789 1790 1791 1792 1793 1794 1795 1796 1797 1798 1799 1800 1801 1802 1803 1804 1805 1806 1807 1808 1809 1810 1811 1812 1813 1814 1815 1816 1817 1818 1819 1820 1821 1822 1823 1824 1825 1826 1827 1828 1829 1830 1831 1832 1833 1834 1835 1836 1837 1838 1839 1840 1841 1842 1843 1844 1845 1846 1847 1848 1849 1850 1851 1852 1853 1854 1855 1856 1857 1858 1859 1860 1861 1862 1863 1864 1865 1866 1867 1868 1869 1870 1871 1872 1873 1874 1875 1876 1877 1878 1879 1880 1881 1882 1883 1884 1885 1886 1887 1888 1889 1890 1891 1892 1893 1894 1895 1896 1897 1898 1899 1900 1901 1902 1903 1904 1905 1906 1907 1908 1909 1910 1911 1912 1913 1914 1915 1916 1917 1918 1919 1920 1921 1922 1923 1924 1925 1926 1927 1928 1929 1930 1931 1932 1933 1934 1935 1936 1937 1938 1939 1940 1941 1942 1943 1944 1945 1946 1947 1948 1949 1950 1951 1952 1953 1954 1955 1956 1957 1958 1959 1960 1961 1962 1963 1964 1965 1966 1967 1968 1969 1970 1971 1972 1973 1974 1975 1976 1977 1978 1979 1980 1981 1982 1983 1984 1985 1986 1987 1988 1989 1990 1991 1992 1993 1994 1995 1996 1997 1998 1999 2000 2001 2002 2003 2004 2005 2006 2007 2008 2009 2010 2011 2012 2013 2014 2015 2016 2017 2018 2019 2020 2021 2022 2023 2024 2025 2026 2027 2028 2029 2030 2031 2032 2033 2034 2035 2036 2037 2038 2039 2040 2041 2042 2043 2044 2045 2046 2047 2048 2049 2050 2051 2052 2053 2054 2055 2056 2057 2058 2059 2060 2061 2062 2063 2064 2065 2066 2067 2068 2069 2070 2071 2072 2073 2074 2075 2076 2077 2078 2079 2080 2081 2082 2083 2084 2085 2086 2087 2088 2089 2090 2091 2092 2093 2094 2095 2096 2097 2098 2099 2100 2101 2102 2103 2104 2105 2106 2107 2108 2109 2110 2111 2112 2113 2114 2115 2116 2117 2118 2119 2120 2121 2122 2123 2124 2125 2126 2127 2128 2129 2130 2131 2132 2133 2134 2135 2136 2137 2138 2139 2140 2141 2142 2143 2144 2145 2146 2147 2148 2149 2150 2151 2152 2153 2154 2155 2156 2157 2158 2159 2160 2161 2162 2163 2164 2165 2166 2167 2168 2169 2170 2171 2172 2173 2174 2175 2176 2177 2178 2179 2180 2181 2182 2183 2184 2185 2186 2187 2188 2189 2190 2191 2192 2193 2194 2195 2196 2197 2198 2199 2200 2201 2202 2203 2204 2205 2206 2207 2208 2209 2210 2211 2212 2213 2214 2215 2216 2217 2218 2219 2220 2221 2222 2223 2224 2225 2226 2227 2228 2229 2230 2231 2232 2233 2234 2235 2236 2237 2238 2239 2240 2241 2242 2243 2244 2245 2246 2247 2248 2249 2250 2251 2252 2253 2254 2255 2256 2257 2258 2259 2260 2261 2262 2263 2264 2265 2266 2267 2268 2269 2270 2271 2272 2273 2274 2275 2276 2277 2278 2279 2280 2281 2282 2283 2284 2285 2286 2287 2288 2289 2290 2291 2292 2293 2294 2295 2296 2297 2298 2299 2300 2301 2302 2303 2304 2305 2306 2307 2308 2309 2310 2311 2312 2313 2314 2315 2316 2317 2318 2319 2320 2321 2322 2323 2324 2325 2326 2327 2328 2329 2330 2331 2332 2333 2334 2335 2336 2337 2338 2339 2340 2341 2342 2343 2344 2345 2346 2347 2348 2349 2350 2351 2352 2353 2354 2355 2356 2357 2358 2359 2360 2361 2362 2363 2364 2365 2366 2367 2368 2369 2370 2371 2372 2373 2374 2375 2376 2377 2378 2379 2380 2381 2382 2383 2384 2385 2386 2387 2388 2389 2390 2391 2392 2393 2394 2395 2396 2397 2398 2399 2400 2401 2402 2403 2404 2405 2406 2407 2408 2409 2410 2411 2412 2413 2414 2415 2416 2417 2418 2419 2420 2421 2422 2423 2424 2425 2426 2427 2428 2429 2430 2431 2432 2433 2434 2435 2436 2437 2438 2439 2440 2441 2442 2443 2444 2445 2446 2447 2448 2449 2450 2451 2452 2453 2454 2455 2456 2457 2458 2459 2460 2461 2462 2463 2464 2465 2466 2467 2468 2469 2470 2471 2472 2473 2474 2475 2476 2477 2478 2479 2480 2481 2482 2483 2484 2485 2486 2487 2488 2489 2490 2491 2492 2493 2494 2495 2496 2497 2498 2499 2500 2501 2502 2503 2504 2505 2506 2507 2508 2509 2510 2511 2512 2513 2514 2515 2516 2517 2518 2519 2520 2521 2522 2523 2524 2525 2526 2527 2528 2529 2530 2531 2532 2533 2534 2535 2536 2537 2538 2539 2540 2541 2542 2543 2544 2545 2546 2547 2548 2549 2550 2551 2552 2553 2554 2555 2556 2557 2558 2559 2560 2561 2562 2563 2564 2565 2566 2567 2568 2569 2570 2571 2572 2573 2574 2575 2576 2577 2578 2579 2580 2581 2582 2583 2584 2585 2586 2587 2588 2589 2590 2591 2592 2593 2594 2595 2596 2597 2598 2599 2600 2601 2602 2603 2604 2605 2606 2607 2608 2609 2610 2611 2612 2613 2614 2615 2616 2617 2618 2619 2620 2621 2622 2623 2624 2625 2626 2627 2628 2629 2630 2631 2632 2633 2634 2635 2636 2637 2638 2639 2640 2641 2642 2643 2644 2645 2646 2647 2648 2649 2650 2651 2652 2653 2654 2655 2656 2657 2658 2659 2660 2661 2662 2663 2664 2665 2666 2667 2668 2669 2670 2671 2672 2673 2674 2675 2676 2677 2678 2679 2680 2681 2682 2683 2684 2685 2686 2687 2688 2689 2690 2691 2692 2693 2694 2695 2696 2697 2698 2699 2700 2701 2702 2703 2704 2705 2706 2707 2708 2709 2710 2711 2712 2713 2714 2715 2716 2717 2718 2719 2720 2721 2722 2723 2724 2725 2726 2727 2728 2729 2730 2731 2732 2733 2734 2735 2736 2737 2738 2739 2740 2741 2742 2743 2744 2745 2746 2747 2748 2749 2750 2751 2752 2753 2754 2755 2756 2757 2758 2759 2760 2761 2762 2763 2764 2765 2766 2767 2768 2769 2770 2771 2772 2773 2774 2775 2776 2777 2778 2779 2780 2781 2782 2783 2784 2785 2786 2787 2788 2789 2790 2791 2792 2793 2794 2795 2796 2797 2798 2799 2800 2801 2802 2803 2804 2805 2806 2807 2808 2809 2810 2811 2812 2813 2814 2815 2816 2817 2818 2819 2820 2821 2822 2823 2824 2825 2826 2827 2828 2829 2830 2831 2832 2833 2834 2835 2836 2837 2838 2839 2840 2841 2842 2843 2844 2845 2846 2847 2848 2849 2850 2851 2852 2853 2854 2855 2856 2857 2858 2859 2860 2861 2862 2863 2864 2865 2866 2867 2868 2869 2870 2871 2872 2873 2874 2875 2876 2877 2878 2879 2880 2881 2882 2883 2884 2885 2886 2887 2888 2889 2890 2891 2892 2893 2894 2895 2896 2897 2898 2899 2900 2901 2902 2903 2904 2905 2906 2907 2908 2909 2910 2911 2912 2913 2914 2915 2916 2917 2918 2919 2920 2921 2922 2923 2924 2925 2926 2927 2928 2929 2930 2931 2932 2933 2934 2935 2936 2937 2938 2939 2940 2941 2942 2943 2944 2945 2946 2947 2948 2949 2950 2951 2952 2953 2954 2955 2956 2957 2958 2959 2960 2961 2962 2963 2964 2965 2966 2967 2968 2969 2970 2971 2972 2973 2974 2975 2976 2977 2978 2979 2980 2981 2982 2983 2984 2985 2986 2987 2988 2989 2990 2991 2992 2993 2994 2995 2996 2997 2998 2999 3000 3001 3002 3003 3004 3005 3006 3007 3008 3009 3010 3011 3012 3013 3014 3015 3016 3017 3018 3019 3020 3021 3022 3023 3024 3025 3026 3027 3028 3029 3030 3031 3032 3033 3034 3035 3036 3037 3038 3039 3040 3041 3042 3043 3044 3045 3046 3047 3048 3049 3050 3051 3052 3053 3054 3055 3056 3057 3058 3059 3060 3061 3062 3063 3064 3065 3066 3067 3068 3069 3070 3071 3072 3073 3074 3075 3076 3077 3078 3079 3080 3081 3082 3083 3084 3085 3086 3087 3088 3089 3090 3091 3092 3093 3094 3095 3096 3097 3098 3099 3100 3101 3102 3103 3104 3105 3106 3107 3108 3109 3110 3111 3112 3113 3114 3115 3116 3117 3118 3119 3120 3121 3122 3123 3124 3125 3126 3127 3128 3129 3130 3131 3132 3133 3134 3135 3136 3137 3138 3139 3140 3141 3142 3143 3144 3145 3146 3147 3148 3149 3150 3151 3152 3153 3154 3155 3156 3157 3158 3159 3160 3161 3162 3163 3164 3165 3166 3167 3168 3169 3170 3171 3172 3173 3174 3175 3176 3177 3178 3179 3180 3181 3182 3183 3184 3185 3186 3187 3188 3189 3190 3191 3192 3193 3194 3195 3196 3197 3198 3199 3200 3201 3202 3203 3204 3205 3206 3207 3208 3209 3210 3211 3212 3213 3214 3215 3216 3217 3218 3219 3220 3221 3222 3223 3224 3225 3226 3227 3228 3229 3230 3231 3232 3233 3234 3235 3236 3237 3238 3239 3240 3241 3242 3243 3244 3245 3246 3247 3248 3249 3250 3251 3252 3253 3254 3255 3256 3257 3258 3259 3260 3261 3262 3263 3264 3265 3266 3267 3268 3269 3270 3271 3272 3273 3274 3275 3276 3277 3278 3279 3280 3281 3282 3283 3284 3285 3286 3287 3288 3289 3290 3291 3292 3293 3294 3295 3296 3297 3298 3299 3300 3301 3302 3303 3304 3305 3306 3307 3308 3309 3310 3311 3312 3313 3314 3315 3316 3317 3318 3319 3320 3321 3322 3323 3324 3325 3326 3327 3328 3329 3330 3331 3332 3333 3334 3335 3336 3337 3338 3339 3340 3341 3342 3343 3344 3345 3346 3347 3348 3349 3350 3351 3352 3353 3354 3355 3356 3357 3358 3359 3360 3361 3362 3363 3364 3365 3366 3367 3368 3369 3370 3371 3372 3373 3374 3375 3376 3377 3378 3379 3380 3381 3382 3383 3384 3385 3386 3387 3388 3389 3390 3391 3392 3393 3394 3395 3396 3397 3398 3399 3400 3401 3402 3403 3404 3405 3406 3407 3408 3409 3410 3411 3412 3413 3414 3415 3416 3417 3418 3419 3420 3421 3422 3423 3424 3425 3426 3427 3428 3429 3430 3431 3432 3433 3434 3435 3436 3437 3438 3439 3440 3441 3442 3443 3444 3445 3446 3447 3448 3449 3450 3451 3452 3453 3454 3455 3456 3457 3458 3459 3460 3461 3462 3463 3464 3465 3466 3467 3468 3469 3470 3471 3472 3473 3474 3475 3476 3477 3478 3479 3480 3481 3482 3483 3484 3485 3486 3487 3488 3489 3490 3491 3492 3493 3494 3495 3496 3497 3498 3499 3500 3501 3502 3503 3504 3505 3506 3507 3508 3509 3510 3511 3512 3513 3514 3515 3516 3517 3518 3519 3520 3521 3522 3523 3524 3525 3526 3527 3528 3529 3530 3531 3532 3533 3534 3535 3536 3537 3538 3539 3540 3541 3542 3543 3544 3545 3546 3547 3548 3549 3550 3551 3552 3553 3554 3555 3556 3557 3558 3559 3560 3561 3562 3563 3564 3565 3566 3567 3568 3569 3570 3571 3572 3573 3574 3575 3576 3577 3578 3579 3580 3581 3582 3583 3584 3585 3586 3587 3588 3589 3590 3591 3592 3593 3594 3595 3596 3597 3598 3599 3600 3601 3602 3603 3604 3605 3606 3607 3608 3609 3610 3611 3612 3613 3614 3615 3616 3617 3618 3619 3620 3621 3622 3623 3624 3625 3626 3627 3628 3629 3630 3631 3632 3633 3634 3635 3636 3637 3638 3639 3640 3641 3642 3643 3644 3645 3646 3647 3648 3649 3650 3651 3652 3653 3654 3655 3656 3657 3658 3659 3660 3661 3662 3663 3664 3665 3666 3667 3668 3669 3670 3671 3672 3673 3674 3675 3676 3677 3678 3679 3680 3681 3682 3683 3684 3685 3686 3687 3688 3689 3690 3691 3692 3693 3694 3695 3696 3697 3698 3699 3700 3701 3702 3703 3704 3705 3706 3707 3708 3709 3710 3711 3712 3713 3714 3715 3716 3717 3718 3719 3720 3721 3722 3723 3724 3725 3726 3727 3728 3729 3730 3731 3732 3733 3734 3735 3736 3737 3738 3739 3740 3741 3742 3743 3744 3745 3746 3747 3748 3749 3750 3751 3752 3753 3754 3755 3756 3757 3758 3759 3760 3761 3762 3763 3764 3765 3766 3767 3768 3769 3770 3771 3772 3773 3774 3775 3776 3777 3778 3779 3780 3781 3782 3783 3784 3785 3786 3787 3788 3789 3790 3791 3792 3793 3794 3795 3796 3797 3798 3799 3800 3801 3802 3803 3804 3805 3806 3807 3808 3809 3810 3811 3812 3813 3814 3815 3816 3817 3818 3819 3820 3821 3822 3823 3824 3825 3826 3827 3828 3829 3830 3831 3832 3833 3834 3835 3836 3837 3838 3839 3840 3841 3842 3843 3844 3845 3846 3847 3848 3849 3850 3851 3852 3853 3854 3855 3856 3857 3858 3859 3860 3861 3862 3863 3864 3865 3866 3867 3868 3869 3870 3871 3872 3873 3874 3875 3876 3877 3878 3879 3880 3881 3882 3883 3884 3885 3886 3887 3888 3889 3890 3891 3892 3893 3894 3895 3896 3897 3898 3899 3900 3901 3902 3903 3904 3905 3906 3907 3908 3909 3910 3911 3912 3913 3914 3915 3916 3917 3918 3919 3920 3921 3922 3923 3924 3925 3926 3927 3928 3929 3930 3931 3932 3933 3934 3935 3936 3937 3938 3939 3940 3941 3942 3943 3944 3945 3946 3947 3948 3949 3950 3951 3952 3953 3954 3955 3956 3957 3958 3959 3960 3961 3962 3963 3964 3965 3966 3967 3968 3969 3970 3971 3972 3973 3974 3975 3976 3977 3978 3979 3980 3981 3982 3983 3984 3985 3986 3987 3988 3989 3990 3991 3992 3993 3994 3995 3996 3997 3998 3999 4000 4001 4002 4003 4004 4005 4006 4007 4008 4009 4010 4011 4012 4013 4014 4015 4016 4017 4018 4019 4020 4021 4022 4023 4024 4025 4026 4027 4028 4029 4030 4031 4032 4033 4034 4035 4036 4037 4038 4039 4040 4041 4042 4043 4044 4045 4046 4047 4048 4049 4050 4051 4052 4053 4054 4055 4056 4057 4058 4059 4060 4061 4062 4063 4064 4065 4066 4067 4068 4069 4070 4071 4072 4073 4074 4075 4076 4077 4078 4079 4080 4081 4082 4083 4084 4085 4086 4087 4088 4089 4090 4091 4092 4093 4094 4095 4096 4097 4098 4099 4100 4101 4102 4103 4104 4105 4106 4107 4108 4109 4110 4111 4112 4113 4114 4115 4116 4117 4118 4119 4120 4121 4122 4123 4124 4125 4126 4127 4128 4129 4130 4131 4132 4133 4134 4135 4136 4137 4138 4139 4140 4141 4142 4143 4144 4145 4146 4147 4148 4149 4150 4151 4152 4153 4154 4155 4156 4157 4158 4159 4160 4161 4162 4163 4164 4165 4166 4167 4168 4169 4170 4171 4172 4173 4174 4175 4176 4177 4178 4179 4180 4181 4182 4183 4184 4185 4186 4187 4188 4189 4190 4191 4192 4193 4194 4195 4196 4197 4198 4199 4200 4201 4202 4203 4204 4205 4206 4207 4208 4209 4210 4211 4212 4213 4214 4215 4216 4217 4218 4219 4220 4221 4222 4223 4224 4225 4226 4227 4228 4229 4230 4231 4232 4233 4234 4235 4236 4237 4238 4239 4240 4241 4242 4243 4244 4245 4246 4247 4248 4249 4250 4251 4252 4253 4254 4255 4256 4257 4258 4259 4260 4261 4262 4263 4264 4265 4266 4267 4268 4269 4270 4271 4272 4273 4274 4275 4276 4277 4278 4279 4280 4281 4282 4283 4284 4285 4286 4287 4288 4289 4290 4291 4292 4293 4294 4295 4296 4297 4298 4299 4300 4301 4302 4303 4304 4305 4306 4307 4308 4309 4310 4311 4312 4313 4314 4315 4316 4317 4318 4319 4320 4321 4322 4323 4324 4325 4326 4327 4328 4329 4330 4331 4332 4333 4334 4335 4336 4337 4338 4339 4340 4341 4342 4343 4344 4345 4346 4347 4348 4349 4350 4351 4352 4353 4354 4355 4356 4357 4358 4359 4360 4361 4362 4363 4364 4365 4366 4367 4368 4369 4370 4371 4372 4373 4374 4375 4376 4377 4378 4379 4380 4381 4382 4383 4384 4385 4386 4387 4388 4389 4390 4391 4392 4393 4394 4395 4396 4397 4398 4399 4400 4401 4402 4403 4404 4405 4406 4407 4408 4409 4410 4411 4412 4413 4414 4415 4416 4417 4418 4419 4420 4421 4422 4423 4424 4425 4426 4427 4428 4429 4430 4431 4432 4433 4434 4435 4436 4437 4438 4439 4440 4441 4442 4443 4444 4445 4446 4447 4448 4449 4450 4451 4452 4453 4454 4455 4456 4457 4458 4459 4460 4461 4462 4463 4464 4465 4466 4467 4468 4469 4470 4471 4472 4473 4474 4475 4476 4477 4478 4479 4480 4481 4482 4483 4484 4485 4486 4487 4488 4489 4490 4491 4492 4493 4494 4495 4496 4497 4498 4499 4500 4501 4502 4503 4504 4505 4506 4507 4508 4509 4510 4511 4512 4513 4514 4515 4516 4517 4518 4519 4520 4521 4522 4523 4524 4525 4526 4527 4528 4529 4530 4531 4532 4533 4534 4535 4536 4537 4538 4539 4540 4541 4542 4543 4544 4545 4546 4547 4548 4549 4550 4551 4552 4553 4554 4555 4556 4557 4558 4559 4560 4561 4562 4563 4564 4565 4566 4567 4568 4569 4570 4571 4572 4573 4574 4575 4576 4577 4578 4579 4580 4581 4582 4583 4584 4585 4586 4587 4588 4589 4590 4591 4592 4593 4594 4595 4596 4597 4598 4599 4600 4601 4602 4603 4604 4605 4606 4607 4608 4609 4610 4611 4612 4613 4614 4615 4616 4617 4618 4619 4620 4621 4622 4623 4624 4625 4626 4627 4628 4629 4630 4631 4632 4633 4634 4635 4636 4637 4638 4639 4640 4641 4642 4643 4644 4645 4646 4647 4648 4649 4650 4651 4652 4653 4654 4655 4656 4657 4658 4659 4660 4661 4662 4663 4664 4665 4666 4667 4668 4669 4670 4671 4672 4673 4674 4675 4676 4677 4678 4679 4680 4681 4682 4683 4684 4685 4686 4687 4688 4689 4690 4691 4692 4693 4694 4695 4696 4697 4698 4699 4700 4701 4702 4703 4704 4705 4706 4707 4708 4709 4710 4711 4712 4713 4714 4715 4716 4717 4718 4719 4720 4721 4722 4723 4724 4725 4726 4727 4728 4729 4730 4731 4732 4733 4734 4735 4736 4737 4738 4739 4740 4741 4742 4743 4744 4745 4746 4747 4748 4749 4750 4751 4752 4753 4754 4755 4756 4757 4758 4759 4760 4761 4762 4763 4764 4765 4766 4767 4768 4769 4770 4771 4772 4773 4774 4775 4776 4777 4778 4779 4780 4781 4782 4783 4784 4785 4786 4787 4788 4789 4790 4791 4792 4793 4794 4795 4796 4797 4798 4799 4800 4801 4802 4803 4804 4805 4806 4807 4808 4809 4810 4811 4812 4813 4814 4815 4816 4817 4818 4819 4820 4821 4822 4823 4824 4825 4826 4827 4828 4829 4830 4831 4832 4833 4834 4835 4836 4837 4838 4839 4840 4841 4842 4843 4844 4845 4846 4847 4848 4849 4850 4851 4852 4853 4854 4855 4856 4857 4858 4859 4860 4861 4862 4863 4864 4865 4866 4867 4868 4869 4870 4871 4872 4873 4874 4875 4876 4877 4878 4879 4880 4881 4882 4883 4884 4885 4886 4887 4888 4889 4890 4891 4892 4893 4894 4895 4896 4897 4898 4899 4900 4901 4902 4903 4904 4905 4906 4907 4908 4909 4910 4911 4912 4913 4914 4915 4916 4917 4918 4919 4920 4921 4922 4923 4924 4925 4926 4927 4928 4929 4930 4931 4932 4933 4934 4935 4936 4937 4938 4939 4940 4941 4942 4943 4944 4945 4946 4947 4948 4949 4950 4951 4952 4953 4954 4955 4956 4957 4958 4959 4960 4961 4962 4963 4964 4965 4966 4967 4968 4969 4970 4971 4972 4973 4974 4975 4976 4977 4978 4979 4980 4981 4982 4983 4984 4985 4986 4987 4988 4989 4990 4991 4992 4993 4994 4995 4996 4997 4998 4999 5000 5001 5002 5003 5004 5005 5006 5007 5008 5009 5010 5011 5012 5013 5014 5015 5016 5017 5018 5019 5020 5021 5022 5023 5024 5025 5026 5027 5028 5029 5030 5031 5032 5033 5034 5035 5036 5037 5038 5039 5040 5041 5042 5043 5044 5045 5046 5047 5048 5049 5050 5051 5052 5053 5054 5055 5056 5057 5058 5059 5060 5061 5062 5063 5064 5065 5066 5067 5068 5069 5070 5071 5072 5073 5074 5075 5076 5077 5078 5079 5080 5081 5082 5083 5084 5085 5086 5087 5088 5089 5090 5091 5092 5093 5094 5095 5096 5097 5098 5099 5100 5101 5102 5103 5104 5105 5106 5107 5108 5109 5110 5111 5112 5113 5114 5115 5116 5117 5118 5119 5120 5121 5122 5123 5124 5125 5126 5127 5128 5129 5130 5131 5132 5133 5134 5135 5136 5137 5138 5139 5140 5141 5142 5143 5144 5145 5146 5147 5148 5149 5150 5151 5152 5153 5154 5155 5156 5157 5158 5159 5160 5161 5162 5163 5164 5165 5166 5167 5168 5169 5170 5171 5172 5173 5174 5175 5176 5177 5178 5179 5180 5181 5182 5183 5184 5185 5186 5187 5188 5189 5190 5191 5192 5193 5194 5195 5196 5197 5198 5199 5200 5201 5202 5203 5204 5205 5206 5207 5208 5209 5210 5211 5212 5213 5214 5215 5216 5217 5218 5219 5220 5221 5222 5223 5224 5225 5226 5227 5228 5229 5230 5231 5232 5233 5234 5235 5236 5237 5238 5239 5240 5241 5242 5243 5244 5245 5246 5247 5248 5249 5250 5251 5252 5253 5254 5255 5256 5257 5258 5259 5260 5261 5262 5263 5264 5265 5266 5267 5268 5269 5270 5271 5272 5273 5274 5275 5276 5277 5278 5279 5280 5281 5282 5283 5284 5285 5286 5287 5288 5289 5290 5291 5292 5293 5294 5295 5296 5297 5298 5299 5300 5301 5302 5303 5304 5305 5306 5307 5308 5309 5310 5311 5312 5313 5314 5315 5316 5317 5318 5319 5320 5321 5322 5323 5324 5325 5326 5327 5328 5329 5330 5331 5332 5333 5334 5335 5336 5337 5338 5339 5340 5341 5342 5343 5344 5345 5346 5347 5348 5349 5350 5351 5352 5353 5354 5355 5356 5357 5358 5359 5360 5361 5362 5363 5364 5365 5366 5367 5368 5369 5370 5371 5372 5373 5374 5375 5376 5377 5378 5379 5380 5381 5382 5383 5384 5385 5386 5387 5388 5389 5390 5391 5392 5393 5394 5395 5396 5397 5398 5399 5400 5401 5402 5403 5404 5405 5406 5407 5408 5409 5410 5411 5412 5413 5414 5415 5416 5417 5418 5419 5420 5421 5422 5423 5424 5425 5426 5427 5428 5429 5430 5431 5432 5433 5434 5435 5436 5437 5438 5439 5440 5441 5442 5443 5444 5445 5446 5447 5448 5449 5450 5451 5452 5453 5454 5455 5456 5457 5458 5459 5460 5461 5462 5463 5464 5465 5466 5467 5468 5469 5470 5471 5472 5473 5474 5475 5476 5477 5478 5479 5480 5481 5482 5483 5484 5485 5486 5487 5488 5489 5490 5491 5492 5493 5494 5495 5496 5497 5498 5499 5500 5501 5502 5503 5504 5505 5506 5507 5508 5509 5510 5511 5512 5513 5514 5515 5516 5517 5518 5519 5520 5521 5522 5523 5524 5525 5526 5527 5528 5529 5530 5531 5532 5533 5534 5535 5536 5537 5538 5539 5540 5541 5542 5543 5544 5545 5546 5547 5548 5549 5550 5551 5552 5553 5554 5555 5556 5557 5558 5559 5560 5561 5562 5563 5564 5565 5566 5567 5568 5569 5570 5571 5572 5573 5574 5575 5576 5577 5578 5579 5580 5581 5582 5583 5584 5585 5586 5587 5588 5589 5590 5591 5592 5593 5594 5595 5596 5597 5598 5599 5600 5601 5602 5603 5604 5605 5606 5607 5608 5609 5610 5611 5612 5613 5614 5615 5616 5617 5618 5619 5620 5621 5622 5623 5624 5625 5626 5627 5628 5629 5630 5631 5632 5633 5634 5635 5636 5637 5638 5639 5640 5641 5642 5643 5644 5645 5646 5647 5648 5649 5650 5651 5652 5653 5654 5655 5656 5657 5658 5659 5660 5661 5662 5663 5664 5665 5666 5667 5668 5669 5670 5671 5672 5673 5674 5675 5676 5677 5678 5679 5680 5681 5682 5683 5684 5685 5686 5687 5688 5689 5690 5691 5692 5693 5694 5695 5696 5697 5698 5699 5700 5701 5702 5703 5704 5705 5706 5707 5708 5709 5710 5711 5712 5713 5714 5715 5716 5717 5718 5719 5720 5721 5722 5723 5724 5725 5726 5727 5728 5729 5730 5731 5732 5733 5734 5735 5736 5737 5738 5739 5740 5741 5742 5743 5744 5745 5746 5747 5748 5749 5750 5751 5752 5753 5754 5755 5756 5757 5758 5759 5760 5761 5762 5763 5764 5765 5766 5767 5768 5769 5770 5771 5772 5773 5774 5775 5776 5777 5778 5779 5780 5781 5782 5783 5784 5785 5786 5787 5788 5789 5790 5791 5792 5793 5794 5795 5796 5797 5798 5799 5800 5801 5802 5803 5804 5805 5806 5807 5808 5809 5810 5811 5812 5813 5814 5815 5816 5817 5818 5819 5820 5821 5822 5823 5824 5825 5826 5827 5828 5829 5830 5831 5832 5833 5834 5835 5836 5837 5838 5839 5840 5841 5842 5843 5844 5845 5846 5847 5848 5849 5850 5851 5852 5853 5854 5855 5856 5857 5858 5859 5860 5861 5862 5863 5864 5865 5866 5867 5868 5869 5870 5871 5872 5873 5874 5875 5876 5877 5878 5879 5880 5881 5882 5883 5884 5885 5886 5887 5888 5889 5890 5891 5892 5893 5894 5895 5896 5897 5898 5899 5900 5901 5902 5903 5904 5905 5906 5907 5908 5909 5910 5911 5912 5913 5914 5915 5916 5917 5918 5919 5920 5921 5922 5923 5924 5925 5926 5927 5928 5929 5930 5931 5932 5933 5934 5935 5936 5937 5938 5939 5940 5941 5942 5943 5944 5945 5946 5947 5948 5949 5950 5951 5952 5953 5954 5955 5956 5957 5958 5959 5960 5961 5962 5963 5964 5965 5966 5967 5968 5969 5970 5971 5972 5973 5974 5975 5976 5977 5978 5979 5980 5981 5982 5983 5984 5985 5986 5987 5988 5989 5990 5991 5992 5993 5994 5995 5996 5997 5998 5999 6000 6001 6002 6003 6004 6005 6006 6007 6008 6009 6010 6011 6012 6013 6014 6015 6016 6017 6018 6019 6020 6021 6022 6023 6024 6025 6026 6027 6028 6029 6030 6031 6032 6033 6034 6035 6036 6037 6038 6039 6040 6041 6042 6043 6044 6045 6046 6047 6048 6049 6050 6051 6052 6053 6054 6055 6056 6057 6058 6059 6060 6061 6062 6063 6064 6065 6066 6067 6068 6069 6070 6071 6072 6073 6074 6075 6076 6077 6078 6079 6080 6081 6082 6083 6084 6085 6086 6087 6088 6089 6090 6091 6092 6093 6094 6095 6096 6097 6098 6099 6100 6101 6102 6103 6104 6105 6106 6107 6108 6109 6110 6111 6112 6113 6114 6115 6116 6117 6118 6119 6120 6121 6122 6123 6124 6125 6126 6127 6128 6129 6130 6131 6132 6133 6134 6135 6136 6137 6138 6139 6140 6141 6142 6143 6144 6145 6146 6147 6148 6149 6150 6151 6152 6153 6154 6155 6156 6157 6158 6159 6160 6161 6162 6163 6164 6165 6166 6167 6168 6169 6170 6171 6172 6173 6174 6175 6176 6177 6178 6179 6180 6181 6182 6183 6184 6185 6186 6187 6188 6189 6190 6191 6192 6193 6194 6195 6196 6197 6198 6199 6200 6201 6202 6203 6204 6205 6206 6207 6208 6209 6210 6211 6212 6213 6214 6215 6216 6217 6218 6219 6220 6221 6222 6223 6224 6225 6226 6227 6228 6229 6230 6231 6232 6233 6234 6235 6236 6237 6238 6239 6240 6241 6242 6243 6244 6245 6246 6247 6248 6249 6250 6251 6252 6253 6254 6255 6256 6257 6258 6259 6260 6261 6262 6263 6264 6265 6266 6267 6268 6269 6270 6271 6272 6273 6274 6275 6276 6277 6278 6279 6280 6281 6282 6283 6284 6285 6286 6287 6288 6289 6290 6291 6292 6293 6294 6295 6296 6297 6298 6299 6300 6301 6302 6303 6304 6305 6306 6307 6308 6309 6310 6311 6312 6313 6314 6315 6316 6317 6318 6319 6320 6321 6322 6323 6324 6325 6326 6327 6328 6329 6330 6331 6332 6333 6334 6335 6336 6337 6338 6339 6340 6341 6342 6343 6344 6345 6346 6347 6348 6349 6350 6351 6352 6353 6354 6355 6356 6357 6358 6359 6360 6361 6362 6363 6364 6365 6366 6367 6368 6369 6370 6371 6372 6373 6374 6375 6376 6377 6378 6379 6380 6381 6382 6383 6384 6385 6386 6387 6388 6389 6390 6391 6392 6393 6394 6395 6396 6397 6398 6399 6400 6401 6402 6403 6404 6405 6406 6407 6408 6409 6410 6411 6412 6413 6414 6415 6416 6417 6418 6419 6420 6421 6422 6423 6424 6425 6426 6427 6428 6429 6430 6431 6432 6433 6434 6435 6436 6437 6438 6439 6440 6441 6442 6443 6444 6445 6446 6447 6448 6449 6450 6451 6452 6453 6454 6455 6456 6457 6458 6459 6460 6461 6462 6463 6464 6465 6466 6467 6468 6469 6470 6471 6472 6473 6474 6475 6476 6477 6478 6479 6480 6481 6482 6483 6484 6485 6486 6487 6488 6489 6490 6491 6492 6493 6494 6495 6496 6497 6498 6499 6500 6501 6502 6503 6504 6505 6506 6507 6508 6509 6510 6511 6512 6513 6514 6515 6516 6517 6518 6519 6520 6521 6522 6523 6524 6525 6526 6527 6528 6529 6530 6531 6532 6533 6534 6535 6536 6537 6538 6539 6540 6541 6542 6543 6544 6545 6546 6547 6548 6549 6550 6551 6552 6553 6554 6555 6556 6557 6558 6559 6560 6561 6562 6563 6564 6565 6566 6567 6568 6569 6570 6571 6572 6573 6574 6575 6576 6577 6578 6579 6580 6581 6582 6583 6584 6585 6586 6587 6588 6589 6590 6591 6592 6593 6594 6595 6596 6597 6598 6599 6600 6601 6602 6603 6604 6605 6606 6607 6608 6609 6610 6611 6612 6613 6614 6615 6616 6617 6618 6619 6620 6621 6622 6623 6624 6625 6626 6627 6628 6629 6630 6631 6632 6633 6634 6635 6636 6637 6638 6639 6640 6641 6642 6643 6644 6645 6646 6647 6648 6649 6650 6651 6652 6653 6654 6655 6656 6657 6658 6659 6660 6661 6662 6663 6664 6665 6666 6667 6668 6669 6670 6671 6672 6673 6674 6675 6676 6677 6678 6679 6680 6681 6682 6683 6684 6685 6686 6687 6688 6689 6690 6691 6692 6693 6694 6695 6696 6697 6698 6699 6700 6701 6702 6703 6704 6705 6706 6707 6708 6709 6710 6711 6712 6713 6714 6715 6716 6717 6718 6719 6720 6721 6722 6723 6724 6725 6726 6727 6728 6729 6730 6731 6732 6733 6734 6735 6736 6737 6738 6739 6740 6741 6742 6743 6744 6745 6746 6747 6748 6749 6750 6751 6752 6753 6754 6755 6756 6757 6758 6759 6760 6761 6762 6763 6764 6765 6766 6767 6768 6769 6770 6771 6772 6773 6774 6775 6776 6777 6778 6779 6780 6781 6782 6783 6784 6785 6786 6787 6788 6789 6790 6791 6792 6793 6794 6795 6796 6797 6798 6799 6800 6801 6802 6803 6804 6805 6806 6807 6808 6809 6810 6811 6812 6813 6814 6815 6816 6817 6818 6819 6820 6821 6822 6823 6824 6825 6826 6827 6828 6829 6830 6831 6832 6833 6834 6835 6836 6837 6838 6839 6840 6841 6842 6843 6844 6845 6846 6847 6848 6849 6850 6851 6852 6853 6854 6855 6856 6857 6858 6859 6860 6861 6862 6863 6864 6865 6866 6867 6868 6869 6870 6871 6872 6873 6874 6875 6876 6877 6878 6879 6880 6881 6882 6883 6884 6885 6886 6887 6888 6889 6890 6891 6892 6893 6894 6895 6896 6897 6898 6899 6900 6901 6902 6903 6904 6905 6906 6907 6908 6909 6910 6911 6912 6913 6914 6915 6916 6917 6918 6919 6920 6921 6922 6923 6924 6925 6926 6927 6928 6929 6930 6931 6932 6933 6934 6935 6936 6937 6938 6939 6940 6941 6942 6943 6944 6945 6946 6947 6948 6949 6950 6951 6952 6953 6954 6955 6956 6957 6958 6959 6960 6961 6962 6963 6964 6965 6966 6967 6968 6969 6970 6971 6972 6973 6974 6975 6976 6977 6978 6979 6980 6981 6982 6983 6984 6985 6986 6987 6988 6989 6990 6991 6992 6993 6994 6995 6996 6997 6998 6999 7000 7001 7002 7003 7004 7005 7006 7007 7008 7009 7010 7011 7012 7013 7014 7015 7016 7017 7018 7019 7020 7021 7022 7023 7024 7025 7026 7027 7028 7029 7030 7031 7032 7033 7034 7035 7036 7037 7038 7039 7040 7041 7042 7043 7044 7045 7046 7047 7048 7049 7050 7051 7052 7053 7054 7055 7056 7057 7058 7059 7060 7061 7062 7063 7064 7065 7066 7067 7068 7069 7070 7071 7072 7073 7074 7075 7076 7077 7078 7079 7080 7081 7082 7083 7084 7085 7086 7087 7088 7089 7090 7091 7092 7093 7094 7095 7096 7097 7098 7099 7100 7101 7102 7103 7104 7105 7106 7107 7108 7109 7110 7111 7112 7113 7114 7115 7116 7117 7118 7119 7120 7121 7122 7123 7124 7125 7126 7127 7128 7129 7130 7131 7132 7133 7134 7135 7136 7137 7138 7139 7140 7141 7142 7143 7144 7145 7146 7147 7148 7149 7150 7151 7152 7153 7154 7155 7156 7157 7158 7159 7160 7161 7162 7163 7164 7165 7166 7167 7168 7169 7170 7171 7172 7173 7174 7175 7176 7177 7178 7179 7180 7181 7182 7183 7184 7185 7186 7187 7188 7189 7190 7191 7192 7193 7194 7195 7196 7197 7198 7199 7200 7201 7202 7203 7204 7205 7206 7207 7208 7209 7210 7211 7212 7213 7214 7215 7216 7217 7218 7219 7220 7221 7222 7223 7224 7225 7226 7227 7228 7229 7230 7231 7232 7233 7234 7235 7236 7237 7238 7239 7240 7241 7242 7243 7244 7245 7246 7247 7248 7249 7250 7251 7252 7253 7254 7255 7256 7257 7258 7259 7260 7261 7262 7263 7264 7265 7266 7267 7268 7269 7270 7271 7272 7273 7274 7275 7276 7277 7278 7279 7280 7281 7282 7283 7284 7285 7286 7287 7288 7289 7290 7291 7292 7293 7294 7295 7296 7297 7298 7299 7300 7301 7302 7303 7304 7305 7306 7307 7308 7309 7310 7311 7312 7313 7314 7315 7316 7317 7318 7319 7320 7321 7322 7323 7324 7325 7326 7327 7328 7329 7330 7331 7332 7333 7334 7335 7336 7337 7338 7339 7340 7341 7342 7343 7344 7345 7346 7347 7348 7349 7350 7351 7352 7353 7354 7355 7356 7357 7358 7359 7360 7361 7362 7363 7364 7365 7366 7367 7368 7369 7370 7371 7372 7373 7374 7375 7376 7377 7378 7379 7380 7381 7382 7383 7384 7385 7386 7387 7388 7389 7390 7391 7392 7393 7394 7395 7396 7397 7398 7399 7400 7401 7402 7403 7404 7405 7406 7407 7408 7409 7410 7411 7412 7413 7414 7415 7416 7417 7418 7419 7420 7421 7422 7423 7424 7425 7426 7427 7428 7429 7430 7431 7432 7433 7434 7435 7436 7437 7438 7439 7440 7441 7442 7443 7444 7445 7446 7447 7448 7449 7450 7451 7452 7453 7454 7455 7456 7457 7458 7459 7460 7461 7462 7463 7464 7465 7466 7467 7468 7469 7470 7471 7472 7473 7474 7475 7476 7477 7478 7479 7480 7481 7482 7483 7484 7485 7486 7487 7488 7489 7490 7491 7492 7493 7494 7495 7496 7497 7498 7499 7500 7501 7502 7503 7504 7505 7506 7507 7508 7509 7510 7511 7512 7513 7514 7515 7516 7517 7518 7519 7520 7521 7522 7523 7524 7525 7526 7527 7528 7529 7530 7531 7532 7533 7534 7535 7536 7537 7538 7539 7540 7541 7542 7543 7544 7545 7546 7547 7548 7549 7550 7551 7552 7553 7554 7555 7556 7557 7558 7559 7560 7561 7562 7563 7564 7565 7566 7567 7568 7569 7570 7571 7572 7573 7574 7575 7576 7577 7578 7579 7580 7581 7582 7583 7584 7585 7586 7587 7588 7589 7590 7591 7592 7593 7594 7595 7596 7597 7598 7599 7600 7601 7602 7603 7604 7605 7606 7607 7608 7609 7610 7611 7612 7613 7614 7615 7616 7617 7618 7619 7620 7621 7622 7623 7624 7625 7626 7627 7628 7629 7630 7631 7632 7633 7634 7635 7636 7637 7638 7639 7640 7641 7642 7643 7644 7645 7646 7647 7648 7649 7650 7651 7652 7653 7654 7655 7656 7657 7658 7659 7660 7661 7662 7663 7664 7665 7666 7667 7668 7669 7670 7671 7672 7673 7674 7675 7676 7677 7678 7679 7680 7681 7682 7683 7684 7685 7686 7687 7688 7689 7690 7691 7692 7693 7694 7695 7696 7697 7698 7699 7700 7701 7702 7703 7704 7705 7706 7707 7708 7709 7710 7711 7712 7713 7714 7715 7716 7717 7718 7719 7720 7721 7722 7723 7724 7725 7726 7727 7728 7729 7730 7731 7732 7733 7734 7735 7736 7737 7738 7739 7740 7741 7742 7743 7744 7745 7746 7747 7748 7749 7750 7751 7752 7753 7754 7755 7756 7757 7758 7759 7760 7761 7762 7763 7764 7765 7766 7767 7768 7769 7770 7771 7772 7773 7774 7775 7776 7777 7778 7779 7780 7781 7782 7783 7784 7785 7786 7787 7788 7789 7790 7791 7792 7793 7794 7795 7796 7797 7798 7799 7800 7801 7802 7803 7804 7805 7806 7807 7808 7809 7810 7811 7812 7813 7814 7815 7816 7817 7818 7819 7820 7821 7822 7823 7824 7825 7826 7827 7828 7829 7830 7831 7832 7833 7834 7835 7836 7837 7838 7839 7840 7841 7842 7843 7844 7845 7846 7847 7848 7849 7850 7851 7852 7853 7854 7855 7856 7857 7858 7859 7860 7861 7862 7863 7864 7865 7866 7867 7868 7869 7870 7871 7872 7873 7874 7875 7876 7877 7878 7879 7880 7881 7882 7883 7884 7885 7886 7887 7888 7889 7890 7891 7892 7893 7894 7895 7896 7897 7898 7899 7900 7901 7902 7903 7904 7905 7906 7907 7908 7909 7910 7911 7912 7913 7914 7915 7916 7917 7918 7919 7920 7921 7922 7923 7924 7925 7926 7927 7928 7929 7930 7931 7932 7933 7934 7935 7936 7937 7938 7939 7940 7941 7942 7943 7944 7945 7946 7947 7948 7949 7950 7951 7952 7953 7954 7955 7956 7957 7958 7959 7960 7961 7962 7963 7964 7965 7966 7967 7968 7969 7970 7971 7972 7973 7974 7975 7976 7977 7978 7979 7980 7981 7982 7983 7984 7985 7986 7987 7988 7989 7990 7991 7992 7993 7994 7995 7996 7997 7998 7999 8000 8001 8002 8003 8004 8005 8006 8007 8008 8009 8010 8011 8012 8013 8014 8015 8016 8017 8018 8019 8020 8021 8022 8023 8024 8025 8026 8027 8028 8029 8030 8031 8032 8033 8034 8035 8036 8037 8038 8039 8040 8041 8042 8043 8044 8045 8046 8047 8048 8049 8050 8051 8052 8053 8054 8055 8056 8057 8058 8059 8060 8061 8062 8063 8064 8065 8066 8067 8068 8069 8070 8071 8072 8073 8074 8075 8076 8077 8078 8079 8080 8081 8082 8083 8084 8085 8086 8087 8088 8089 8090 8091 8092 8093 8094 8095 8096 8097 8098 8099 8100 8101 8102 8103 8104 8105 8106 8107 8108 8109 8110 8111 8112 8113 8114 8115 8116 8117 8118 8119 8120 8121 8122 8123 8124 8125 8126 8127 8128 8129 8130 8131 8132 8133 8134 8135 8136 8137 8138 8139 8140 8141 8142 8143 8144 8145 8146 8147 8148 8149 8150 8151 8152 8153 8154 8155 8156 8157 8158 8159 8160 8161 8162 8163 8164 8165 8166 8167 8168 8169 8170 8171 8172 8173 8174 8175 8176 8177 8178 8179 8180 8181 8182 8183 8184 8185 8186 8187 8188 8189 8190 8191 8192 8193 8194 8195 8196 8197 8198 8199 8200 8201 8202 8203 8204 8205 8206 8207 8208 8209 8210 8211 8212 8213 8214 8215 8216 8217 8218 8219 8220 8221 8222 8223 8224 8225 8226 8227 8228 8229 8230 8231 8232 8233 8234 8235 8236 8237 8238 8239 8240 8241 8242 8243 8244 8245 8246 8247 8248 8249 8250 8251 8252 8253 8254 8255 8256 8257 8258 8259 8260 8261 8262 8263 8264 8265 8266 8267 8268 8269 8270 8271 8272 8273 8274 8275 8276 8277 8278 8279 8280 8281 8282 8283 8284 8285 8286 8287 8288 8289 8290 8291 8292 8293 8294 8295 8296 8297 8298 8299 8300 8301 8302 8303 8304 8305 8306 8307 8308 8309 8310 8311 8312 8313 8314 8315 8316 8317 8318 8319 8320 8321 8322 8323 8324 8325 8326 8327 8328 8329 8330 8331 8332 8333 8334 8335 8336 8337 8338 8339 8340 8341 8342 8343 8344 8345 8346 8347 8348 8349 8350 8351 8352 8353 8354 8355 8356 8357 8358 8359 8360 8361 8362 8363 8364 8365 8366 8367 8368 8369 8370 8371 8372 8373 8374 8375 8376 8377 8378 8379 8380 8381 8382 8383 8384 8385 8386 8387 8388 8389 8390 8391 8392 8393 8394 8395 8396 8397 8398 8399 8400 8401 8402 8403 8404 8405 8406 8407 8408 8409 8410 8411 8412 8413 8414 8415 8416 8417 8418 8419 8420 8421 8422 8423 8424 8425 8426 8427 8428 8429 8430 8431 8432 8433 8434 8435 8436 8437 8438 8439 8440 8441 8442 8443 8444 8445 8446 8447 8448 8449 8450 8451 8452 8453 8454 8455 8456 8457 8458 8459 8460 8461 8462 8463 8464 8465 8466 8467 8468 8469 8470 8471 8472 8473 8474 8475 8476 8477 8478 8479 8480 8481 8482 8483 8484 8485 8486 8487 8488 8489 8490 8491 8492 8493 8494 8495 8496 8497 8498 8499 8500 8501 8502 8503 8504 8505 8506 8507 8508 8509 8510 8511 8512 8513 8514 8515 8516 8517 8518 8519 8520 8521 8522 8523 8524 8525 8526 8527 8528 8529 8530 8531 8532 8533 8534 8535 8536 8537 8538 8539 8540 8541 8542 8543 8544 8545 8546 8547 8548 8549 8550 8551 8552 8553 8554 8555 8556 8557 8558 8559 8560 8561 8562 8563 8564 8565 8566 8567 8568 8569 8570 8571 8572 8573 8574 8575 8576 8577 8578 8579 8580 8581 8582 8583 8584 8585 8586 8587 8588 8589 8590 8591 8592 8593 8594 8595 8596 8597 8598 8599 8600 8601 8602 8603 8604 8605 8606 8607 8608 8609 8610 8611 8612 8613 8614 8615 8616 8617 8618 8619 8620 8621 8622 8623 8624 8625 8626 8627 8628 8629 8630 8631 8632 8633 8634 8635 8636 8637 8638 8639 8640 8641 8642 8643 8644 8645 8646 8647 8648 8649 8650 8651 8652 8653 8654 8655 8656 8657 8658 8659 8660 8661 8662 8663 8664 8665 8666 8667 8668 8669 8670 8671 8672 8673 8674 8675 8676 8677 8678 8679 8680 8681 8682 8683 8684 8685 8686 8687 8688 8689 8690 8691 8692 8693 8694 8695 8696 8697 8698 8699 8700 8701 8702 8703 8704 8705 8706 8707 8708 8709 8710 8711 8712 8713 8714 8715 8716 8717 8718 8719 8720 8721 8722 8723 8724 8725 8726 8727 8728 8729 8730 8731 8732 8733 8734 8735 8736 8737 8738 8739 8740 8741 8742 8743 8744 8745 8746 8747 8748 8749 8750 8751 8752 8753 8754 8755 8756 8757 8758 8759 8760 8761 8762 8763 8764 8765 8766 8767 8768 8769 8770 8771 8772 8773 8774 8775 8776 8777 8778 8779 8780 8781 8782 8783 8784 8785 8786 8787 8788 8789 8790 8791 8792 8793 8794 8795 8796 8797 8798 8799 8800 8801 8802 8803 8804 8805 8806 8807 8808 8809 8810 8811 8812 8813 8814 8815 8816 8817 8818 8819 8820 8821 8822 8823 8824 8825 8826 8827 8828 8829 8830 8831 8832 8833 8834 8835 8836 8837 8838 8839 8840 8841 8842 8843 8844 8845 8846 8847 8848 8849 8850 8851 8852 8853 8854 8855 8856 8857 8858 8859 8860 8861 8862 8863 8864 8865 8866 8867 8868 8869 8870 8871 8872 8873 8874 8875 8876 8877 8878 8879 8880 8881 8882 8883 8884 8885 8886 8887 8888 8889 8890 8891 8892 8893 8894 8895 8896 8897 8898 8899 8900 8901 8902 8903 8904 8905 8906 8907 8908 8909 8910 8911 8912 8913 8914 8915 8916 8917 8918 8919 8920 8921 8922 8923 8924 8925 8926 8927 8928 8929 8930 8931 8932 8933 8934 8935 8936 8937 8938 8939 8940 8941 8942 8943 8944 8945 8946 8947 8948 8949 8950 8951 8952 8953 8954 8955 8956 8957 8958 8959 8960 8961 8962 8963 8964 8965 8966 8967 8968 8969 8970 8971 8972 8973 8974 8975 8976 8977 8978 8979 8980 8981 8982 8983 8984 8985 8986 8987 8988 8989 8990 8991 8992 8993 8994 8995 8996 8997 8998 8999 9000 9001 9002 9003 9004 9005 9006 9007 9008 9009 9010 9011 9012 9013 9014 9015 9016 9017 9018 9019 9020 9021 9022 9023 9024 9025 9026 9027 9028 9029 9030 9031 9032 9033 9034 9035 9036 9037 9038 9039 9040 9041 9042 9043 9044 9045 9046 9047 9048 9049 9050 9051 9052 9053 9054 9055 9056 9057 9058 9059 9060 9061 9062 9063 9064 9065 9066 9067 9068 9069 9070 9071 9072 9073 9074 9075 9076 9077 9078 9079 9080 9081 9082 9083 9084 9085 9086 9087 9088 9089 9090 9091 9092 9093 9094 9095 9096 9097 9098 9099 9100 9101 9102 9103 9104 9105 9106 9107 9108 9109 9110 9111 9112 9113 9114 9115 9116 9117 9118 9119 9120 9121 9122 9123 9124 9125 9126 9127 9128 9129 9130 9131 9132 9133 9134 9135 9136 9137 9138 9139 9140 9141 9142 9143 9144 9145 9146 9147 9148 9149 9150 9151 9152 9153 9154 9155 9156 9157 9158 9159 9160 9161 9162 9163 9164 9165 9166 9167 9168 9169 9170 9171 9172 9173 9174 9175 9176 9177 9178 9179 9180 9181 9182 9183 9184 9185 9186 9187 9188 9189 9190 9191 9192 9193 9194 9195 9196 9197 9198 9199 9200 9201 9202 9203 9204 9205 9206 9207 9208 9209 9210 9211 9212 9213 9214 9215 9216 9217 9218 9219 9220 9221 9222 9223 9224 9225 9226 9227 9228 9229 9230 9231 9232 9233 9234 9235 9236 9237 9238 9239 9240 9241 9242 9243 9244 9245 9246 9247 9248 9249 9250 9251 9252 9253 9254 9255 9256 9257 9258 9259 9260 9261 9262 9263 9264 9265 9266 9267 9268 9269 9270 9271 9272 9273 9274 9275 9276 9277 9278 9279 9280 9281 9282 9283 9284 9285 9286 9287 9288 9289 9290 9291 9292 9293 9294 9295 9296 9297 9298 9299 9300 9301 9302 9303 9304 9305 9306 9307 9308 9309 9310 9311 9312 9313 9314 9315 9316 9317 9318 9319 9320 9321 9322 9323 9324 9325 9326 9327 9328 9329 9330 9331 9332 9333 9334 9335 9336 9337 9338 9339 9340 9341 9342 9343 9344 9345 9346 9347 9348 9349 9350 9351 9352 9353 9354 9355 9356 9357 9358 9359 9360 9361 9362 9363 9364 9365 9366 9367 9368 9369 9370 9371 9372 9373 9374 9375 9376 9377 9378 9379 9380 9381 9382 9383 9384 9385 9386 9387 9388 9389 9390 9391 9392 9393 9394 9395 9396 9397 9398 9399 9400 9401 9402 9403 9404 9405 9406 9407 9408 9409 9410 9411 9412 9413 9414 9415 9416 9417 9418 9419 9420 9421 9422 9423 9424 9425 9426 9427 9428 9429 9430 9431 9432 9433 9434 9435 9436 9437 9438 9439 9440 9441 9442 9443 9444 9445 9446 9447 9448 9449 9450 9451 9452 9453 9454 9455 9456 9457 9458 9459 9460 9461 9462 9463 9464 9465 9466 9467 9468 9469 9470 9471 9472 9473 9474 9475 9476 9477 9478 9479 9480 9481 9482 9483 9484 9485 9486 9487 9488 9489 9490 9491 9492 9493 9494 9495 9496 9497 9498 9499 9500 9501 9502 9503 9504 9505 9506 9507 9508 9509 9510 9511 9512 9513 9514 9515 9516 9517 9518 9519 9520 9521 9522 9523 9524 9525 9526 9527 9528 9529 9530 9531 9532 9533 9534 9535 9536 9537 9538 9539 9540 9541 9542 9543 9544 9545 9546 9547 9548 9549 9550 9551 9552 9553 9554 9555 9556 9557 9558 9559 9560 9561 9562 9563 9564 9565 9566 9567 9568 9569 9570 9571 9572 9573 9574 9575 9576 9577 9578 9579 9580 9581 9582 9583 9584 9585 9586 9587 9588 9589 9590 9591 9592 9593 9594 9595 9596 9597 9598 9599 9600 9601 9602 9603 9604 9605 9606 9607 9608 9609 9610 9611 9612 9613 9614 9615 9616 9617 9618 9619 9620 9621 9622 9623 9624 9625 9626 9627 9628 9629 9630 9631 9632 9633 9634 9635 9636 9637 9638 9639 9640 9641 9642 9643 9644 9645 9646 9647 9648 9649 9650 9651 9652 9653 9654 9655 9656 9657 9658 9659 9660 9661 9662 9663 9664 9665 9666 9667 9668 9669 9670 9671 9672 9673 9674 9675 9676 9677 9678 9679 9680 9681 9682 9683 9684 9685 9686 9687 9688 9689 9690 9691 9692 9693 9694 9695 9696 9697 9698 9699 9700 9701 9702 9703 9704 9705 9706 9707 9708 9709 9710 9711 9712 9713 9714 9715 9716 9717 9718 9719 9720 9721 9722 9723 9724 9725 9726 9727 9728 9729 9730 9731 9732 9733 9734 9735 9736 9737 9738 9739 9740 9741 9742 9743 9744 9745 9746 9747 9748 9749 9750 9751 9752 9753 9754 9755 9756 9757 9758 9759 9760 9761 9762 9763 9764 9765 9766 9767 9768 9769 9770 9771 9772 9773 9774 9775 9776 9777 9778 9779 9780 9781 9782 9783 9784 9785 9786 9787 9788 9789 9790 9791 9792 9793 9794 9795 9796 9797 9798 9799 9800 9801 9802 9803 9804 9805 9806 9807 9808 9809 9810 9811 9812 9813 9814 9815 9816 9817 9818 9819 9820 9821 9822 9823 9824 9825 9826 9827 9828 9829 9830 9831 9832 9833 9834 9835 9836 9837 9838 9839 9840 9841 9842 9843 9844 9845 9846 9847 9848 9849 9850 9851 9852 9853 9854 9855 9856 9857 9858 9859 9860 9861 9862 9863 9864 9865 9866 9867 9868 9869 9870 9871 9872 9873 9874 9875 9876 9877 9878 9879 9880 9881 9882 9883 9884 9885 9886 9887 9888 9889 9890 9891 9892 9893 9894 9895 9896 9897 9898 9899 9900 9901 9902 9903 9904 9905 9906 9907 9908 9909 9910 9911 9912 9913 9914 9915 9916 9917 9918 9919 9920 9921 9922 9923 9924 9925 9926 9927 9928 9929 9930 9931 9932 9933 9934 9935 9936 9937 9938 9939 9940 9941 9942 9943 9944 9945 9946 9947 9948 9949 9950 9951 9952 9953 9954 9955 9956 9957 9958 9959 9960 9961 9962 9963 9964 9965 9966 9967 9968 9969 9970 9971 9972 9973 9974 9975 9976 9977 9978 9979 9980 9981 9982 9983 9984 9985 9986 9987 9988 9989 9990 9991 9992 9993 9994 9995 9996 9997 9998 9999 10000 10001 10002 10003 10004 10005 10006 10007 10008 10009 10010 10011 10012 10013 10014 10015 10016 10017 10018 10019 10020 10021 10022 10023 10024 10025 10026 10027 10028 10029 10030 10031 10032 10033 10034 10035 10036 10037 10038 10039 10040 10041 10042 10043 10044 10045 10046 10047 10048 10049 10050 10051 10052 10053 10054 10055 10056 10057 10058 10059 10060 10061 10062 10063 10064 10065 10066 10067 10068 10069 10070 10071 10072 10073 10074 10075 10076 10077 10078 10079 10080 10081 10082 10083 10084 10085 10086 10087 10088 10089 10090 10091 10092 10093 10094 10095 10096 10097 10098 10099 10100 10101 10102 10103 10104 10105 10106 10107 10108 10109 10110 10111 10112 10113 10114 10115 10116 10117 10118 10119 10120 10121 10122 10123 10124 10125 10126 10127 10128 10129 10130 10131 10132 10133 10134 10135 10136 10137 10138 10139 10140 10141 10142 10143 10144 10145 10146 10147 10148 10149 10150 10151 10152 10153 10154 10155 10156 10157 10158 10159 10160 10161 10162 10163 10164 10165 10166 10167 10168 10169 10170 10171 10172 10173 10174 10175 10176 10177 10178 10179 10180 10181 10182 10183 10184 10185 10186 10187 10188 10189 10190 10191 10192 10193 10194 10195 10196 10197 10198 10199 10200 10201 10202 10203 10204 10205 10206 10207 10208 10209 10210 10211 10212 10213 10214 10215 10216 10217 10218 10219 10220 10221 10222 10223 10224 10225 10226 10227 10228 10229 10230 10231 10232 10233 10234 10235 10236 10237 10238 10239 10240 10241 10242 10243 10244 10245 10246 10247 10248 10249 10250 10251 10252 10253 10254 10255 10256 10257 10258 10259 10260 10261 10262 10263 10264 10265 10266 10267 10268 10269 10270 10271 10272 10273 10274 10275 10276 10277 10278 10279 10280 10281 10282 10283 10284 10285 10286 10287 10288 10289 10290 10291 10292 10293 10294 10295 10296 10297 10298 10299 10300 10301 10302 10303 10304 10305 10306 10307 10308 10309 10310 10311 10312 10313 10314 10315 10316 10317 10318 10319 10320 10321 10322 10323 10324 10325 10326 10327 10328 10329 10330 10331 10332 10333 10334 10335 10336 10337 10338 10339 10340 10341 10342 10343 10344 10345 10346 10347 10348 10349 10350 10351 10352 10353 10354 10355 10356 10357 10358 10359 10360 10361 10362 10363 10364 10365 10366 10367 10368 10369 10370 10371 10372 10373 10374 10375 10376 10377 10378 10379 10380 10381 10382 10383 10384 10385 10386 10387 10388 10389 10390 10391 10392 10393 10394 10395 10396 10397 10398 10399 10400 10401 10402 10403 10404 10405 10406 10407 10408 10409 10410 10411 10412 10413 10414 10415 10416 10417 10418 10419 10420 10421 10422 10423 10424 10425 10426 10427 10428 10429 10430 10431 10432 10433 10434 10435 10436 10437 10438 10439 10440 10441 10442 10443 10444 10445 10446 10447 10448 10449 10450 10451 10452 10453 10454 10455 10456 10457 10458 10459 10460 10461 10462 10463 10464 10465 10466 10467 10468 10469 10470 10471 10472 10473 10474 10475 10476 10477 10478 10479 10480 10481 10482 10483 10484 10485 10486 10487 10488 10489 10490 10491 10492 10493 10494 10495 10496 10497 10498 10499 10500 10501 10502 10503 10504 10505 10506 10507 10508 10509 10510 10511 10512 10513 10514 10515 10516 10517 10518 10519 10520 10521 10522 10523 10524 10525 10526 10527 10528 10529 10530 10531 10532 10533 10534 10535 10536 10537 10538 10539 10540 10541 10542 10543 10544 10545 10546 10547 10548 10549 10550 10551 10552 10553 10554 10555 10556 10557 10558 10559 10560 10561 10562 10563 10564 10565 10566 10567 10568 10569 10570 10571 10572 10573 10574 10575 10576 10577 10578 10579 10580 10581 10582 10583 10584 10585 10586 10587 10588 10589 10590 10591 10592 10593 10594 10595 10596 10597 10598 10599 10600 10601 10602 10603 10604 10605 10606 10607 10608 10609 10610 10611 10612 10613 10614 10615 10616 10617 10618 10619 10620 10621 10622 10623 10624 10625 10626 10627 10628 10629 10630 10631 10632 10633 10634 10635 10636 10637 10638 10639 10640 10641 10642 10643 10644 10645 10646 10647 10648 10649 10650 10651 10652 10653 10654 10655 10656 10657 10658 10659 10660 10661 10662 10663 10664 10665 10666 10667 10668 10669 10670 10671 10672 10673 10674 10675 10676 10677 10678 10679 10680 10681 10682 10683 10684 10685 10686 10687 10688 10689 10690 10691 10692 10693 10694 10695 10696 10697 10698 10699 10700 10701 10702 10703 10704 10705 10706 10707 10708 10709 10710 10711 10712 10713 10714 10715 10716 10717 10718 10719 10720 10721 10722 10723 10724 10725 10726 10727 10728 10729 10730 10731 10732 10733 10734 10735 10736 10737 10738 10739 10740 10741 10742 10743 10744 10745 10746 10747 10748 10749 10750 10751 10752 10753 10754 10755 10756 10757 10758 10759 10760 10761 10762 10763 10764 10765 10766 10767 10768 10769 10770 10771 10772 10773 10774 10775 10776 10777 10778 10779 10780 10781 10782 10783 10784 10785 10786 10787 10788 10789 10790 10791 10792 10793 10794 10795 10796 10797 10798 10799 10800 10801 10802 10803 10804 10805 10806 10807 10808 10809 10810 10811 10812 10813 10814 10815 10816 10817 10818 10819 10820 10821 10822 10823 10824 10825 10826 10827 10828 10829 10830 10831 10832 10833 10834 10835 10836 10837 10838 10839 10840 10841 10842 10843 10844 10845 10846 10847 10848 10849 10850 10851 10852 10853 10854 10855 10856 10857 10858 10859 10860 10861 10862 10863 10864 10865 10866 10867 10868 10869 10870 10871 10872 10873 10874 10875 10876 10877 10878 10879 10880 10881 10882 10883 10884 10885 10886 10887 10888 10889 10890 10891 10892 10893 10894 10895 10896 10897 10898 10899 10900 10901 10902 10903 10904 10905 10906 10907 10908 10909 10910 10911 10912 10913 10914 10915 10916 10917 10918 10919 10920 10921 10922 10923 10924 10925 10926 10927 10928 10929 10930 10931 10932 10933 10934 10935 10936 10937 10938 10939 10940 10941 10942 10943 10944 10945 10946 10947 10948 10949 10950 10951 10952 10953 10954 10955 10956 10957 10958 10959 10960 10961 10962 10963 10964 10965 10966 10967 10968 10969 10970 10971 10972 10973 10974 10975 10976 10977 10978 10979 10980 10981 10982 10983 10984 10985 10986 10987 10988 10989 10990 10991 10992 10993 10994 10995 10996 10997 10998 10999 11000 11001 11002 11003 11004 11005 11006 11007 11008 11009 11010 11011 11012 11013 11014 11015 11016 11017 11018 11019 11020 11021 11022 11023 11024 11025 11026 11027 11028 11029 11030 11031 11032 11033 11034 11035 11036 11037 11038 11039 11040 11041 11042 11043 11044 11045 11046 11047 11048 11049 11050 11051 11052 11053 11054 11055 11056 11057 11058 11059 11060 11061 11062 11063 11064 11065 11066 11067 11068 11069 11070 11071 11072 11073 11074 11075 11076 11077 11078 11079 11080 11081 11082 11083 11084 11085 11086 11087 11088 11089 11090 11091 11092 11093 11094 11095 11096 11097 11098 11099 11100 11101 11102 11103 11104 11105 11106 11107 11108 11109 11110 11111 11112 11113 11114 11115 11116 11117 11118 11119 11120 11121 11122 11123 11124 11125 11126 11127 11128 11129 11130 11131 11132 11133 11134 11135 11136 11137 11138 11139 11140 11141 11142 11143 11144 11145 11146 11147 11148 11149 11150 11151 11152 11153 11154 11155 11156 11157 11158 11159 11160 11161 11162 11163 11164 11165 11166 11167 11168 11169 11170 11171 11172 11173 11174 11175 11176 11177 11178 11179 11180 11181 11182 11183 11184 11185 11186 11187 11188 11189 11190 11191 11192 11193 11194 11195 11196 11197 11198 11199 11200 11201 11202 11203 11204 11205 11206 11207 11208 11209 11210 11211 11212 11213 11214 11215 11216 11217 11218 11219 11220 11221 11222 11223 11224 11225 11226 11227 11228 11229 11230 11231 11232 11233 11234 11235 11236 11237 11238 11239 11240 11241 11242 11243 11244 11245 11246 11247 11248 11249 11250 11251 11252 11253 11254 11255 11256 11257 11258 11259 11260 11261 11262 11263 11264 11265 11266 11267 11268 11269 11270 11271 11272 11273 11274 11275 11276 11277 11278 11279 11280 11281 11282 11283 11284 11285 11286 11287 11288 11289 11290 11291 11292 11293 11294 11295 11296 11297 11298 11299 11300 11301 11302 11303 11304 11305 11306 11307 11308 11309 11310 11311 11312 11313 11314 11315 11316 11317 11318 11319 11320 11321 11322 11323 11324 11325 11326 11327 11328 11329 11330 11331 11332 11333 11334 11335 11336 11337 11338 11339 11340 11341 11342 11343 11344 11345 11346 11347 11348 11349 11350 11351 11352 11353 11354 11355 11356 11357 11358 11359 11360 11361 11362 11363 11364 11365 11366 11367 11368 11369 11370 11371 11372 11373 11374 11375 11376 11377 11378 11379 11380 11381 11382 11383 11384 11385 11386 11387 11388 11389 11390 11391 11392 11393 11394 11395 11396 11397 11398 11399 11400 11401 11402 11403 11404 11405 11406 11407 11408 11409 11410 11411 11412 11413 11414 11415 11416 11417 11418 11419 11420 11421 11422 11423 11424 11425 11426 11427 11428 11429 11430 11431 11432 11433 11434 11435 11436 11437 11438 11439 11440 11441 11442 11443 11444 11445 11446 11447 11448 11449 11450 11451 11452 11453 11454 11455 11456 11457 11458 11459 11460 11461 11462 11463 11464 11465 11466 11467 11468 11469 11470 11471 11472 11473 11474 11475 11476 11477 11478 11479 11480 11481 11482 11483 11484 11485 11486 11487 11488 11489 11490 11491 11492 11493 11494 11495 11496 11497 11498 11499 11500 11501 11502 11503 11504 11505 11506 11507 11508 11509 11510 11511 11512 11513 11514 11515 11516 11517 11518 11519 11520 11521 11522 11523 11524 11525 11526 11527 11528 11529 11530 11531 11532 11533 11534 11535 11536 11537 11538 11539 11540 11541 11542 11543 11544 11545 11546 11547 11548 11549 11550 11551 11552 11553 11554 11555 11556 11557 11558 11559 11560 11561 11562 11563 11564 11565 11566 11567 11568 11569 11570 11571 11572 11573 11574 11575 11576 11577 11578 11579 11580 11581 11582 11583 11584 11585 11586 11587 11588 11589 11590 11591 11592 11593 11594 11595 11596 11597 11598 11599 11600 11601 11602 11603 11604 11605 11606 11607 11608 11609 11610 11611 11612 11613 11614 11615 11616 11617 11618 11619 11620 11621 11622 11623 11624 11625 11626 11627 11628 11629 11630 11631 11632 11633 11634 11635 11636 11637 11638 11639 11640 11641 11642 11643 11644 11645 11646 11647 11648 11649 11650 11651 11652 11653 11654 11655 11656 11657 11658 11659 11660 11661 11662 11663 11664 11665 11666 11667 11668 11669 11670 11671 11672 11673 11674 11675 11676 11677 11678 11679 11680 11681 11682 11683 11684 11685 11686 11687 11688 11689 11690 11691 11692 11693 11694 11695 11696 11697 11698 11699 11700 11701 11702 11703 11704 11705 11706 11707 11708 11709 11710 11711 11712 11713 11714 11715 11716 11717 11718 11719 11720 11721 11722 11723 11724 11725 11726 11727 11728 11729 11730 11731 11732 11733 11734 11735 11736 11737 11738 11739 11740 11741 11742 11743 11744 11745 11746 11747 11748 11749 11750 11751 11752 11753 11754 11755 11756 11757 11758 11759 11760 11761 11762 11763 11764 11765 11766 11767 11768 11769 11770 11771 11772 11773 11774 11775 11776 11777 11778 11779 11780 11781 11782 11783 11784 11785 11786 11787 11788 11789 11790 11791 11792 11793 11794 11795 11796 11797 11798 11799 11800 11801 11802 11803 11804 11805 11806 11807 11808 11809 11810 11811 11812 11813 11814 11815 11816 11817 11818 11819 11820 11821 11822 11823 11824 11825 11826 11827 11828 11829 11830 11831 11832 11833 11834 11835 11836 11837 11838 11839 11840 11841 11842 11843 11844 11845 11846 11847 11848 11849 11850 11851 11852 11853 11854 11855 11856 11857 11858 11859 11860 11861 11862 11863 11864 11865 11866 11867 11868 11869 11870 11871 11872 11873 11874 11875 11876 11877 11878 11879 11880 11881 11882 11883 11884 11885 11886 11887 11888 11889 11890 11891 11892 11893 11894 11895 11896 11897 11898 11899 11900 11901 11902 11903 11904 11905 11906 11907 11908 11909 11910 11911 11912 11913 11914 11915 11916 11917 11918 11919 11920 11921 11922 11923 11924 11925 11926 11927 11928 11929 11930 11931 11932 11933 11934 11935 11936 11937 11938 11939 11940 11941 11942 11943 11944 11945 11946 11947 11948 11949 11950 11951 11952 11953 11954 11955 11956 11957 11958 11959 11960 11961 11962 11963 11964 11965 11966 11967 11968 11969 11970 11971 11972 11973 11974 11975 11976 11977 11978 11979 11980 11981 11982 11983 11984 11985 11986 11987 11988 11989 11990 11991 11992 11993 11994 11995 11996 11997 11998 11999 12000 12001 12002 12003 12004 12005 12006 12007 12008 12009 12010 12011 12012 12013 12014 12015 12016 12017 12018 12019 12020 12021 12022 12023 12024 12025 12026 12027 12028 12029 12030 12031 12032 12033 12034 12035 12036 12037 12038 12039 12040 12041 12042 12043 12044 12045 12046 12047 12048 12049 12050 12051 12052 12053 12054 12055 12056 12057 12058 12059 12060 12061 12062 12063 12064 12065 12066 12067 12068 12069 12070 12071 12072 12073 12074 12075 12076 12077 12078 12079 12080 12081 12082 12083 12084 12085 12086 12087 12088 12089 12090 12091 12092 12093 12094 12095 12096 12097 12098 12099 12100 12101 12102 12103 12104 12105 12106 12107 12108 12109 12110 12111 12112 12113 12114 12115 12116 12117 12118 12119 12120 12121 12122 12123 12124 12125 12126 12127 12128 12129 12130 12131 12132 12133 12134 12135 12136 12137 12138 12139 12140 12141 12142 12143 12144 12145 12146 12147 12148 12149 12150 12151 12152 12153 12154 12155 12156 12157 12158 12159 12160 12161 12162 12163 12164 12165 12166 12167 12168 12169 12170 12171 12172 12173 12174 12175 12176 12177 12178 12179 12180 12181 12182 12183 12184 12185 12186 12187 12188 12189 12190 12191 12192 12193 12194 12195 12196 12197 12198 12199 12200 12201 12202 12203 12204 12205 12206 12207 12208 12209 12210 12211 12212 12213 12214 12215 12216 12217 12218 12219 12220 12221 12222 12223 12224 12225 12226 12227 12228 12229 12230 12231 12232 12233 12234 12235 12236 12237 12238 12239 12240 12241 12242 12243 12244 12245 12246 12247 12248 12249 12250 12251 12252 12253 12254 12255 12256 12257 12258 12259 12260 12261 12262 12263 12264 12265 12266 12267 12268 12269 12270 12271 12272 12273 12274 12275 12276 12277 12278 12279 12280 12281 12282 12283 12284 12285 12286 12287 12288 12289 12290 12291 12292 12293 12294 12295 12296 12297 12298 12299 12300 12301 12302 12303 12304 12305 12306 12307 12308 12309 12310 12311 12312 12313 12314 12315 12316 12317 12318 12319 12320 12321 12322 12323 12324 12325 12326 12327 12328 12329 12330 12331 12332 12333 12334 12335 12336 12337 12338 12339 12340 12341 12342 12343 12344 12345 12346 12347 12348 12349 12350 12351 12352 12353 12354 12355 12356 12357 12358 12359 12360 12361 12362 12363 12364 12365 12366 12367 12368 12369 12370 12371 12372 12373 12374 12375 12376 12377 12378 12379 12380 12381 12382 12383 12384 12385 12386 12387 12388 12389 12390 12391 12392 12393 12394 12395 12396 12397 12398 12399 12400 12401 12402 12403 12404 12405 12406 12407 12408 12409 12410 12411 12412 12413 12414 12415 12416 12417 12418 12419 12420 12421 12422 12423 12424 12425 12426 12427 12428 12429 12430 12431 12432 12433 12434 12435 12436 12437 12438 12439 12440 12441 12442 12443 12444 12445 12446 12447 12448 12449 12450 12451 12452 12453 12454 12455 12456 12457 12458 12459 12460 12461 12462 12463 12464 12465 12466 12467 12468 12469 12470 12471 12472 12473 12474 12475 12476 12477 12478 12479 12480 12481 12482 12483 12484 12485 12486 12487 12488 12489 12490 12491 12492 12493 12494 12495 12496 12497 12498 12499 12500 12501 12502 12503 12504 12505 12506 12507 12508 12509 12510 12511 12512 12513 12514 12515 12516 12517 12518 12519 12520 12521 12522 12523 12524 12525 12526 12527 12528 12529 12530 12531 12532 12533 12534 12535 12536 12537 12538 12539 12540 12541 12542 12543 12544 12545 12546 12547 12548 12549 12550 12551 12552 12553 12554 12555 12556 12557 12558 12559 12560 12561 12562 12563 12564 12565 12566 12567 12568 12569 12570 12571 12572 12573 12574 12575 12576 12577 12578 12579 12580 12581 12582 12583 12584 12585 12586 12587 12588 12589 12590 12591 12592 12593 12594 12595 12596 12597 12598 12599 12600 12601 12602 12603 12604 12605 12606 12607 12608 12609 12610 12611 12612 12613 12614 12615 12616 12617 12618 12619 12620 12621 12622 12623 12624 12625 12626 12627 12628 12629 12630 12631 12632 12633 12634 12635 12636 12637 12638 12639 12640 12641 12642 12643 12644 12645 12646 12647 12648 12649 12650 12651 12652 12653 12654 12655 12656 12657 12658 12659 12660 12661 12662 12663 12664 12665 12666 12667 12668 12669 12670 12671 12672 12673 12674 12675 12676 12677 12678 12679 12680 12681 12682 12683 12684 12685 12686 12687 12688 12689 12690 12691 12692 12693 12694 12695 12696 12697 12698 12699 12700 12701 12702 12703 12704 12705 12706 12707 12708 12709 12710 12711 12712 12713 12714 12715 12716 12717 12718 12719 12720 12721 12722 12723 12724 12725 12726 12727 12728 12729 12730 12731 12732 12733 12734 12735 12736 12737 12738 12739 12740 12741 12742 12743 12744 12745 12746 12747 12748 12749 12750 12751 12752 12753 12754 12755 12756 12757 12758 12759 12760 12761 12762 12763 12764 12765 12766 12767 12768 12769 12770 12771 12772 12773 12774 12775 12776 12777 12778 12779 12780 12781 12782 12783 12784 12785 12786 12787 12788 12789 12790 12791 12792 12793 12794 12795 12796 12797 12798 12799 12800 12801 12802 12803 12804 12805 12806 12807 12808 12809 12810 12811 12812 12813 12814 12815 12816 12817 12818 12819 12820 12821 12822 12823 12824 12825 12826 12827 12828 12829 12830 12831 12832 12833 12834 12835 12836 12837 12838 12839 12840 12841 12842 12843 12844 12845 12846 12847 12848 12849 12850 12851 12852 12853 12854 12855 12856 12857 12858 12859 12860 12861 12862 12863 12864 12865 12866 12867 12868 12869 12870 12871 12872 12873 12874 12875 12876 12877 12878 12879 12880 12881 12882 12883 12884 12885 12886 12887 12888 12889 12890 12891 12892 12893 12894 12895 12896 12897 12898 12899 12900 12901 12902 12903 12904 12905 12906 12907 12908 12909 12910 12911 12912 12913 12914 12915 12916 12917 12918 12919 12920 12921 12922 12923 12924 12925 12926 12927 12928 12929 12930 12931 12932 12933 12934 12935 12936 12937 12938 12939 12940 12941 12942 12943 12944 12945 12946 12947 12948 12949 12950 12951 12952 12953 12954 12955 12956 12957 12958 12959 12960 12961 12962 12963 12964 12965 12966 12967 12968 12969 12970 12971 12972 12973 12974 12975 12976 12977 12978 12979 12980 12981 12982 12983 12984 12985 12986 12987 12988 12989 12990 12991 12992 12993 12994 12995 12996 12997 12998 12999 13000 13001 13002 13003 13004 13005 13006 13007 13008 13009 13010 13011 13012 13013 13014 13015 13016 13017 13018 13019 13020 13021 13022 13023 13024 13025 13026 13027 13028 13029 13030 13031 13032 13033 13034 13035 13036 13037 13038 13039 13040 13041 13042 13043 13044 13045 13046 13047 13048 13049 13050 13051 13052 13053 13054 13055 13056 13057 13058 13059 13060 13061 13062 13063 13064 13065 13066 13067 13068 13069 13070 13071 13072 13073 13074 13075 13076 13077 13078 13079 13080 13081 13082 13083 13084 13085 13086 13087 13088 13089 13090 13091 13092 13093 13094 13095 13096 13097 13098 13099 13100 13101 13102 13103 13104 13105 13106 13107 13108 13109 13110 13111 13112 13113 13114 13115 13116 13117 13118 13119 13120 13121 13122 13123 13124 13125 13126 13127 13128 13129 13130 13131 13132 13133 13134 13135 13136 13137 13138 13139 13140 13141 13142 13143 13144 13145 13146 13147 13148 13149 13150 13151 13152 13153 13154 13155 13156 13157 13158 13159 13160 13161 13162 13163 13164 13165 13166 13167 13168 13169 13170 13171 13172 13173 13174 13175 13176 13177 13178 13179 13180 13181 13182 13183 13184 13185 13186 13187 13188 13189 13190 13191 13192 13193 13194 13195 13196 13197 13198 13199 13200 13201 13202 13203 13204 13205 13206 13207 13208 13209 13210 13211 13212 13213 13214 13215 13216 13217 13218 13219 13220 13221 13222 13223 13224 13225 13226 13227 13228 13229 13230 13231 13232 13233 13234 13235 13236 13237 13238 13239 13240 13241 13242 13243 13244 13245 13246 13247 13248 13249 13250 13251 13252 13253 13254 13255 13256 13257 13258 13259 13260 13261 13262 13263 13264 13265 13266 13267 13268 13269 13270 13271 13272 13273 13274 13275 13276 13277 13278 13279 13280 13281 13282 13283 13284 13285 13286 13287 13288 13289 13290 13291 13292 13293 13294 13295 13296 13297 13298 13299 13300 13301 13302 13303 13304 13305 13306 13307 13308 13309 13310 13311 13312 13313 13314 13315 13316 13317 13318 13319 13320 13321 13322 13323 13324 13325 13326 13327 13328 13329 13330 13331 13332 13333 13334 13335 13336 13337 13338 13339 13340 13341 13342 13343 13344 13345 13346 13347 13348 13349 13350 13351 13352 13353 13354 13355 13356 13357 13358 13359 13360 13361 13362 13363 13364 13365 13366 13367 13368 13369 13370 13371 13372 13373 13374 13375 13376 13377 13378 13379 13380 13381 13382 13383 13384 13385 13386 13387 13388 13389 13390 13391 13392 13393 13394 13395 13396 13397 13398 13399 13400 13401 13402 13403 13404 13405 13406 13407 13408 13409 13410 13411 13412 13413 13414 13415 13416 13417 13418 13419 13420 13421 13422 13423 13424 13425 13426 13427 13428 13429 13430 13431 13432 13433 13434 13435 13436 13437 13438 13439 13440 13441 13442 13443 13444 13445 13446 13447 13448 13449 13450 13451 13452 13453 13454 13455 13456 13457 13458 13459 13460 13461 13462 13463 13464 13465 13466 13467 13468 13469 13470 13471 13472 13473 13474 13475 13476 13477 13478 13479 13480 13481 13482 13483 13484 13485 13486 13487 13488 13489 13490 13491 13492 13493 13494 13495 13496 13497 13498 13499 13500 13501 13502 13503 13504 13505 13506 13507 13508 13509 13510 13511 13512 13513 13514 13515 13516 13517 13518 13519 13520 13521 13522 13523 13524 13525 13526 13527 13528 13529 13530 13531 13532 13533 13534 13535 13536 13537 13538 13539 13540 13541 13542 13543 13544 13545 13546 13547 13548 13549 13550 13551 13552 13553 13554 13555 13556 13557 13558 13559 13560 13561 13562 13563 13564 13565 13566 13567 13568 13569 13570 13571 13572 13573 13574 13575 13576 13577 13578 13579 13580 13581 13582 13583 13584 13585 13586 13587 13588 13589 13590 13591 13592 13593 13594 13595 13596 13597 13598 13599 13600 13601 13602 13603 13604 13605 13606 13607 13608 13609 13610 13611 13612 13613 13614 13615 13616 13617 13618 13619 13620 13621 13622 13623 13624 13625 13626 13627 13628 13629 13630 13631 13632 13633 13634 13635 13636 13637 13638 13639 13640 13641 13642 13643 13644 13645 13646 13647 13648 13649 13650 13651 13652 13653 13654 13655 13656 13657 13658 13659 13660 13661 13662 13663 13664 13665 13666 13667 13668 13669 13670 13671 13672 13673 13674 13675 13676 13677 13678 13679 13680 13681 13682 13683 13684 13685 13686 13687 13688 13689 13690 13691 13692 13693 13694 13695 13696 13697 13698 13699 13700 13701 13702 13703 13704 13705 13706 13707 13708 13709 13710 13711 13712 13713 13714 13715 13716 13717 13718 13719 13720 13721 13722 13723 13724 13725 13726 13727 13728 13729 13730 13731 13732 13733 13734 13735 13736 13737 13738 13739 13740 13741 13742 13743 13744 13745 13746 13747 13748 13749 13750 13751 13752 13753 13754 13755 13756 13757 13758 13759 13760 13761 13762 13763 13764 13765 13766 13767 13768 13769 13770 13771 13772 13773 13774 13775 13776 13777 13778 13779 13780 13781 13782 13783 13784 13785 13786 13787 13788 13789 13790 13791 13792 13793 13794 13795 13796 13797 13798 13799 13800 13801 13802 13803 13804 13805 13806 13807 13808 13809 13810 13811 13812 13813 13814 13815 13816 13817 13818 13819 13820 13821 13822 13823 13824 13825 13826 13827 13828 13829 13830 13831 13832 13833 13834 13835 13836 13837 13838 13839 13840 13841 13842 13843 13844 13845 13846 13847 13848 13849 13850 13851 13852 13853 13854 13855 13856 13857 13858 13859 13860 13861 13862 13863 13864 13865 13866 13867 13868 13869 13870 13871 13872 13873 13874 13875 13876 13877 13878 13879 13880 13881 13882 13883 13884 13885 13886 13887 13888 13889 13890 13891 13892 13893 13894 13895 13896 13897 13898 13899 13900 13901 13902 13903 13904 13905 13906 13907 13908 13909 13910 13911 13912 13913 13914 13915 13916 13917 13918 13919 13920 13921 13922 13923 13924 13925 13926 13927 13928 13929 13930 13931 13932 13933 13934 13935 13936 13937 13938 13939 13940 13941 13942 13943 13944 13945 13946 13947 13948 13949 13950 13951 13952 13953 13954 13955 13956 13957 13958 13959 13960 13961 13962 13963 13964 13965 13966 13967 13968 13969 13970 13971 13972 13973 13974 13975 13976 13977 13978 13979 13980 13981 13982 13983 13984 13985 13986 13987 13988 13989 13990 13991 13992 13993 13994 13995 13996 13997 13998 13999 14000 14001 14002 14003 14004 14005 14006 14007 14008 14009 14010 14011 14012 14013 14014 14015 14016 14017 14018 14019 14020 14021 14022 14023 14024 14025 14026 14027 14028 14029 14030 14031 14032 14033 14034 14035 14036 14037 14038 14039 14040 14041 14042 14043 14044 14045 14046 14047 14048 14049 14050 14051 14052 14053 14054 14055 14056 14057 14058 14059 14060 14061 14062 14063 14064 14065 14066 14067 14068 14069 14070 14071 14072 14073 14074 14075 14076 14077 14078 14079 14080 14081 14082 14083 14084 14085 14086 14087 14088 14089 14090 14091 14092 14093 14094 14095 14096 14097 14098 14099 14100 14101 14102 14103 14104 14105 14106 14107 14108 14109 14110 14111 14112 14113 14114 14115 14116 14117 14118 14119 14120 14121 14122 14123 14124 14125 14126 14127 14128 14129 14130 14131 14132 14133 14134 14135 14136 14137 14138 14139 14140 14141 14142 14143 14144 14145 14146 14147 14148 14149 14150 14151 14152 14153 14154 14155 14156 14157 14158 14159 14160 14161 14162 14163 14164 14165 14166 14167 14168 14169 14170 14171 14172 14173 14174 14175 14176 14177 14178 14179 14180 14181 14182 14183 14184 14185 14186 14187 14188 14189 14190 14191 14192 14193 14194 14195 14196 14197 14198 14199 14200 14201 14202 14203 14204 14205 14206 14207 14208 14209 14210 14211 14212 14213 14214 14215 14216 14217 14218 14219 14220 14221 14222 14223 14224 14225 14226 14227 14228 14229 14230 14231 14232 14233 14234 14235 14236 14237 14238 14239 14240 14241 14242 14243 14244 14245 14246 14247 14248 14249 14250 14251 14252 14253 14254 14255 14256 14257 14258 14259 14260 14261 14262 14263 14264 14265 14266 14267 14268 14269 14270 14271 14272 14273 14274 14275 14276 14277 14278 14279 14280 14281 14282 14283 14284 14285 14286 14287 14288 14289 14290 14291 14292 14293 14294 14295 14296 14297 14298 14299 14300 14301 14302 14303 14304 14305 14306 14307 14308 14309 14310 14311 14312 14313 14314 14315 14316 14317 14318 14319 14320 14321 14322 14323 14324 14325 14326 14327 14328 14329 14330 14331 14332 14333 14334 14335 14336 14337 14338 14339 14340 14341 14342 14343 14344 14345 14346 14347 14348 14349 14350 14351 14352 14353 14354 14355 14356 14357 14358 14359 14360 14361 14362 14363 14364 14365 14366 14367 14368 14369 14370 14371 14372 14373 14374 14375 14376 14377 14378 14379 14380 14381 14382 14383 14384 14385 14386 14387 14388 14389 14390 14391 14392 14393 14394 14395 14396 14397 14398 14399 14400 14401 14402 14403 14404 14405 14406 14407 14408 14409 14410 14411 14412 14413 14414 14415 14416 14417 14418 14419 14420 14421 14422 14423 14424 14425 14426 14427 14428 14429 14430 14431 14432 14433 14434 14435 14436 14437 14438 14439 14440 14441 14442 14443 14444 14445 14446 14447 14448 14449 14450 14451 14452 14453 14454 14455 14456 14457 14458 14459 14460 14461 14462 14463 14464 14465 14466 14467 14468 14469 14470 14471 14472 14473 14474 14475 14476 14477 14478 14479 14480 14481 14482 14483 14484 14485 14486 14487 14488 14489 14490 14491 14492 14493 14494 14495 14496 14497 14498 14499 14500 14501 14502 14503 14504 14505 14506 14507 14508 14509 14510 14511 14512 14513 14514 14515 14516 14517 14518 14519 14520 14521 14522 14523 14524 14525 14526 14527 14528 14529 14530 14531 14532 14533 14534 14535 14536 14537 14538 14539 14540 14541 14542 14543 14544 14545 14546 14547 14548 14549 14550 14551 14552 14553 14554 14555 14556 14557 14558 14559 14560 14561 14562 14563 14564 14565 14566 14567 14568 14569 14570 14571 14572 14573 14574 14575 14576 14577 14578 14579 14580 14581 14582 14583 14584 14585 14586 14587 14588 14589 14590 14591 14592 14593 14594 14595 14596 14597 14598 14599 14600 14601 14602 14603 14604 14605 14606 14607 14608 14609 14610 14611 14612 14613 14614 14615 14616 14617 14618 14619 14620 14621 14622 14623 14624 14625 14626 14627 14628 14629 14630 14631 14632 14633 14634 14635 14636 14637 14638 14639 14640 14641 14642 14643 14644 14645 14646 14647 14648 14649 14650 14651 14652 14653 14654 14655 14656 14657 14658 14659 14660 14661 14662 14663 14664 14665 14666 14667 14668 14669 14670 14671 14672 14673 14674 14675 14676 14677 14678 14679 14680 14681 14682 14683 14684 14685 14686 14687 14688 14689 14690 14691 14692 14693 14694 14695 14696 14697 14698 14699 14700 14701 14702 14703 14704 14705 14706 14707 14708 14709 14710 14711 14712 14713 14714 14715 14716 14717 14718 14719 14720 14721 14722 14723 14724 14725 14726 14727 14728 14729 14730 14731 14732 14733 14734 14735 14736 14737 14738 14739 14740 14741 14742 14743 14744 14745 14746 14747 14748 14749 14750 14751 14752 14753 14754 14755 14756 14757 14758 14759 14760 14761 14762 14763 14764 14765 14766 14767 14768 14769 14770 14771 14772 14773 14774 14775 14776 14777 14778 14779 14780 14781 14782 14783 14784 14785 14786 14787 14788 14789 14790 14791 14792 14793 14794 14795 14796 14797 14798 14799 14800 14801 14802 14803 14804 14805 14806 14807 14808 14809 14810 14811 14812 14813 14814 14815 14816 14817 14818 14819 14820 14821 14822 14823 14824 14825 14826 14827 14828 14829 14830 14831 14832 14833 14834 14835 14836 14837 14838 14839 14840 14841 14842 14843 14844 14845 14846 14847 14848 14849 14850 14851 14852 14853 14854 14855 14856 14857 14858 14859 14860 14861 14862 14863 14864 14865 14866 14867 14868 14869 14870 14871 14872 14873 14874 14875 14876 14877 14878 14879 14880 14881 14882 14883 14884 14885 14886 14887 14888 14889 14890 14891 14892 14893 14894 14895 14896 14897 14898 14899 14900 14901 14902 14903 14904 14905 14906 14907 14908 14909 14910 14911 14912 14913 14914 14915 14916 14917 14918 14919 14920 14921 14922 14923 14924 14925 14926 14927 14928 14929 14930 14931 14932 14933 14934 14935 14936 14937 14938 14939 14940 14941 14942 14943 14944 14945 14946 14947 14948 14949 14950 14951 14952 14953 14954 14955 14956 14957 14958 14959 14960 14961 14962 14963 14964 14965 14966 14967 14968 14969 14970 14971 14972 14973 14974 14975 14976 14977 14978 14979 14980 14981 14982 14983 14984 14985 14986 14987 14988 14989 14990 14991 14992 14993 14994 14995 14996 14997 14998 14999 15000 15001 15002 15003 15004 15005 15006 15007 15008 15009 15010 15011 15012 15013 15014 15015 15016 15017 15018 15019 15020 15021 15022 15023 15024 15025 15026 15027 15028 15029 15030 15031 15032 15033 15034 15035 15036 15037 15038 15039 15040 15041 15042 15043 15044 15045 15046 15047 15048 15049 15050 15051 15052 15053 15054 15055 15056 15057 15058 15059 15060 15061 15062 15063 15064 15065 15066 15067 15068 15069 15070 15071 15072 15073 15074 15075 15076 15077 15078 15079 15080 15081 15082 15083 15084 15085 15086 15087 15088 15089 15090 15091 15092 15093 15094 15095 15096 15097 15098 15099 15100 15101 15102 15103 15104 15105 15106 15107 15108 15109 15110 15111 15112 15113 15114 15115 15116 15117 15118 15119 15120 15121 15122 15123 15124 15125 15126 15127 15128 15129 15130 15131 15132 15133 15134 15135 15136 15137 15138 15139 15140 15141 15142 15143 15144 15145 15146 15147 15148 15149 15150 15151 15152 15153 15154 15155 15156 15157 15158 15159 15160 15161 15162 15163 15164 15165 15166 15167 15168 15169 15170 15171 15172 15173 15174 15175 15176 15177 15178 15179 15180 15181 15182 15183 15184 15185 15186 15187 15188 15189 15190 15191 15192 15193 15194 15195 15196 15197 15198 15199 15200 15201 15202 15203 15204 15205 15206 15207 15208 15209 15210 15211 15212 15213 15214 15215 15216 15217 15218 15219 15220 15221 15222 15223 15224 15225 15226 15227 15228 15229 15230 15231 15232 15233 15234 15235 15236 15237 15238 15239 15240 15241 15242 15243 15244 15245 15246 15247 15248 15249 15250 15251 15252 15253 15254 15255 15256 15257 15258 15259 15260 15261 15262 15263 15264 15265 15266 15267 15268 15269 15270 15271 15272 15273 15274 15275 15276 15277 15278 15279 15280 15281 15282 15283 15284 15285 15286 15287 15288 15289 15290 15291 15292 15293 15294 15295 15296 15297 15298 15299 15300 15301 15302 15303 15304 15305 15306 15307 15308 15309 15310 15311 15312 15313 15314 15315 15316 15317 15318 15319 15320 15321 15322 15323 15324 15325 15326 15327 15328 15329 15330 15331 15332 15333 15334 15335 15336 15337 15338 15339 15340 15341 15342 15343 15344 15345 15346 15347 15348 15349 15350 15351 15352 15353 15354 15355 15356 15357 15358 15359 15360 15361 15362 15363 15364 15365 15366 15367 15368 15369 15370 15371 15372 15373 15374 15375 15376 15377 15378 15379 15380 15381 15382 15383 15384 15385 15386 15387 15388 15389 15390 15391 15392 15393 15394 15395 15396 15397 15398 15399 15400 15401 15402 15403 15404 15405 15406 15407 15408 15409 15410 15411 15412 15413 15414 15415 15416 15417 15418 15419 15420 15421 15422 15423 15424 15425 15426 15427 15428 15429 15430 15431 15432 15433 15434 15435 15436 15437 15438 15439 15440 15441 15442 15443 15444 15445 15446 15447 15448 15449 15450 15451 15452 15453 15454 15455 15456 15457 15458 15459 15460 15461 15462 15463 15464 15465 15466 15467 15468 15469 15470 15471 15472 15473 15474 15475 15476 15477 15478 15479 15480 15481 15482 15483 15484 15485 15486 15487 15488 15489 15490 15491 15492 15493 15494 15495 15496 15497 15498 15499 15500 15501 15502 15503 15504 15505 15506 15507 15508 15509 15510 15511 15512 15513 15514 15515 15516 15517 15518 15519 15520 15521 15522 15523 15524 15525 15526 15527 15528 15529 15530 15531 15532 15533 15534 15535 15536 15537 15538 15539 15540 15541 15542 15543 15544 15545 15546 15547 15548 15549 15550 15551 15552 15553 15554 15555 15556 15557 15558 15559 15560 15561 15562 15563 15564 15565 15566 15567 15568 15569 15570 15571 15572 15573 15574 15575 15576 15577 15578 15579 15580 15581 15582 15583 15584 15585 15586 15587 15588 15589 15590 15591 15592 15593 15594 15595 15596 15597 15598 15599 15600 15601 15602 15603 15604 15605 15606 15607 15608 15609 15610 15611 15612 15613 15614 15615 15616 15617 15618 15619 15620 15621 15622 15623 15624 15625 15626 15627 15628 15629 15630 15631 15632 15633 15634 15635 15636 15637 15638 15639 15640 15641 15642 15643 15644 15645 15646 15647 15648 15649 15650 15651 15652 15653 15654 15655 15656 15657 15658 15659 15660 15661 15662 15663 15664 15665 15666 15667 15668 15669 15670 15671 15672 15673 15674 15675 15676 15677 15678 15679 15680 15681 15682 15683 15684 15685 15686 15687 15688 15689 15690 15691 15692 15693 15694 15695 15696 15697 15698 15699 15700 15701 15702 15703 15704 15705 15706 15707 15708 15709 15710 15711 15712 15713 15714 15715 15716 15717 15718 15719 15720 15721 15722 15723 15724 15725 15726 15727 15728 15729 15730 15731 15732 15733 15734 15735 15736 15737 15738 15739 15740 15741 15742 15743 15744 15745 15746 15747 15748 15749 15750 15751 15752 15753 15754 15755 15756 15757 15758 15759 15760 15761 15762 15763 15764 15765 15766 15767 15768 15769 15770 15771 15772 15773 15774 15775 15776 15777 15778 15779 15780 15781 15782 15783 15784 15785 15786 15787 15788 15789 15790 15791 15792 15793 15794 15795 15796 15797 15798 15799 15800 15801 15802 15803 15804 15805 15806 15807 15808 15809 15810 15811 15812 15813 15814 15815 15816 15817 15818 15819 15820 15821 15822 15823 15824 15825 15826 15827 15828 15829 15830 15831 15832 15833 15834 15835 15836 15837 15838 15839 15840 15841 15842 15843 15844 15845 15846 15847 15848 15849 15850 15851 15852 15853 15854 15855 15856 15857 15858 15859 15860 15861 15862 15863 15864 15865 15866 15867 15868 15869 15870 15871 15872 15873 15874 15875 15876 15877 15878 15879 15880 15881 15882 15883 15884 15885 15886 15887 15888 15889 15890 15891 15892 15893 15894 15895 15896 15897 15898 15899 15900 15901 15902 15903 15904 15905 15906 15907 15908 15909 15910 15911 15912 15913 15914 15915 15916 15917 15918 15919 15920 15921 15922 15923 15924 15925 15926 15927 15928 15929 15930 15931 15932 15933 15934 15935 15936 15937 15938 15939 15940 15941 15942 15943 15944 15945 15946 15947 15948 15949 15950 15951 15952 15953 15954 15955 15956 15957 15958 15959 15960 15961 15962 15963 15964 15965 15966 15967 15968 15969 15970 15971 15972 15973 15974 15975 15976 15977 15978 15979 15980 15981 15982 15983 15984 15985 15986 15987 15988 15989 15990 15991 15992 15993 15994 15995 15996 15997 15998 15999 16000 16001 16002 16003 16004 16005 16006 16007 16008 16009 16010 16011 16012 16013 16014 16015 16016 16017 16018 16019 16020 16021 16022 16023 16024 16025 16026 16027 16028 16029 16030 16031 16032 16033 16034 16035 16036 16037 16038 16039 16040 16041 16042 16043 16044 16045 16046 16047 16048 16049 16050 16051 16052 16053 16054 16055 16056 16057 16058 16059 16060 16061 16062 16063 16064 16065 16066 16067 16068 16069 16070 16071 16072 16073 16074 16075 16076 16077 16078 16079 16080 16081 16082 16083 16084 16085 16086 16087 16088 16089 16090 16091 16092 16093 16094 16095 16096 16097 16098 16099 16100 16101 16102 16103 16104 16105 16106 16107 16108 16109 16110 16111 16112 16113 16114 16115 16116 16117 16118 16119 16120 16121 16122 16123 16124 16125 16126 16127 16128 16129 16130 16131 16132 16133 16134 16135 16136 16137 16138 16139 16140 16141 16142 16143 16144 16145 16146 16147 16148 16149 16150 16151 16152 16153 16154 16155 16156 16157 16158 16159 16160 16161 16162 16163 16164 16165 16166 16167 16168 16169 16170 16171 16172 16173 16174 16175 16176 16177 16178 16179 16180 16181 16182 16183 16184 16185 16186 16187 16188 16189 16190 16191 16192 16193 16194 16195 16196 16197 16198 16199 16200 16201 16202 16203 16204 16205 16206 16207 16208 16209 16210 16211 16212 16213 16214 16215 16216 16217 16218 16219 16220 16221 16222 16223 16224 16225 16226 16227 16228 16229 16230 16231 16232 16233 16234 16235 16236 16237 16238 16239 16240 16241 16242 16243 16244 16245 16246 16247 16248 16249 16250 16251 16252 16253 16254 16255 16256 16257 16258 16259 16260 16261 16262 16263 16264 16265 16266 16267 16268 16269 16270 16271 16272 16273 16274 16275 16276 16277 16278 16279 16280 16281 16282 16283 16284 16285 16286 16287 16288 16289 16290 16291 16292 16293 16294 16295 16296 16297 16298 16299 16300 16301 16302 16303 16304 16305 16306 16307 16308 16309 16310 16311 16312 16313 16314 16315 16316 16317 16318 16319 16320 16321 16322 16323 16324 16325 16326 16327 16328 16329 16330 16331 16332 16333 16334 16335 16336 16337 16338 16339 16340 16341 16342 16343 16344 16345 16346 16347 16348 16349 16350 16351 16352 16353 16354 16355 16356 16357 16358 16359 16360 16361 16362 16363 16364 16365 16366 16367 16368 16369 16370 16371 16372 16373 16374 16375 16376 16377 16378 16379 16380 16381 16382 16383 16384 16385 16386 16387 16388 16389 16390 16391 16392 16393 16394 16395 16396 16397 16398 16399 16400 16401 16402 16403 16404 16405 16406 16407 16408 16409 16410 16411 16412 16413 16414 16415 16416 16417 16418 16419 16420 16421 16422 16423 16424 16425 16426 16427 16428 16429 16430 16431 16432 16433 16434 16435 16436 16437 16438 16439 16440 16441 16442 16443 16444 16445 16446 16447 16448 16449 16450 16451 16452 16453 16454 16455 16456 16457 16458 16459 16460 16461 16462 16463 16464 16465 16466 16467 16468 16469 16470 16471 16472 16473 16474 16475 16476 16477 16478 16479 16480 16481 16482 16483 16484 16485 16486 16487 16488 16489 16490 16491 16492 16493 16494 16495 16496 16497 16498 16499 16500 16501 16502 16503 16504 16505 16506 16507 16508 16509 16510 16511 16512 16513 16514 16515 16516 16517 16518 16519 16520 16521 16522 16523 16524 16525 16526 16527 16528 16529 16530 16531 16532 16533 16534 16535 16536 16537 16538 16539 16540 16541 16542 16543 16544 16545 16546 16547 16548 16549 16550 16551 16552 16553 16554 16555 16556 16557 16558 16559 16560 16561 16562 16563 16564 16565 16566 16567 16568 16569 16570 16571 16572 16573 16574 16575 16576 16577 16578 16579 16580 16581 16582 16583 16584 16585 16586 16587 16588 16589 16590 16591 16592 16593 16594 16595 16596 16597 16598 16599 16600 16601 16602 16603 16604 16605 16606 16607 16608 16609 16610 16611 16612 16613 16614 16615 16616 16617 16618 16619 16620 16621 16622 16623 16624 16625 16626 16627 16628 16629 16630 16631 16632 16633 16634 16635 16636 16637 16638 16639 16640 16641 16642 16643 16644 16645 16646 16647 16648 16649 16650 16651 16652 16653 16654 16655 16656 16657 16658 16659 16660 16661 16662 16663 16664 16665 16666 16667 16668 16669 16670 16671 16672 16673 16674 16675 16676 16677 16678 16679 16680 16681 16682 16683 16684 16685 16686 16687 16688 16689 16690 16691 16692 16693 16694 16695 16696 16697 16698 16699 16700 16701 16702 16703 16704 16705 16706 16707 16708 16709 16710 16711 16712 16713 16714 16715 16716 16717 16718 16719 16720 16721 16722 16723 16724 16725 16726 16727 16728 16729 16730 16731 16732 16733 16734 16735 16736 16737 16738 16739 16740 16741 16742 16743 16744 16745 16746 16747 16748 16749 16750 16751 16752 16753 16754 16755 16756 16757 16758 16759 16760 16761 16762 16763 16764 16765 16766 16767 16768 16769 16770 16771 16772 16773 16774 16775 16776 16777 16778 16779 16780 16781 16782 16783 16784 16785 16786 16787 16788 16789 16790 16791 16792 16793 16794 16795 16796 16797 16798 16799 16800 16801 16802 16803 16804 16805 16806 16807 16808 16809 16810 16811 16812 16813 16814 16815 16816 16817 16818 16819 16820 16821 16822 16823 16824 16825 16826 16827 16828 16829 16830 16831 16832 16833 16834 16835 16836 16837 16838 16839 16840 16841 16842 16843 16844 16845 16846 16847 16848 16849 16850 16851 16852 16853 16854 16855 16856 16857 16858 16859 16860 16861 16862 16863 16864 16865 16866 16867 16868 16869 16870 16871 16872 16873 16874 16875 16876 16877 16878 16879 16880 16881 16882 16883 16884 16885 16886 16887 16888 16889 16890 16891 16892 16893 16894 16895 16896 16897 16898 16899 16900 16901 16902 16903 16904 16905 16906 16907 16908 16909 16910 16911 16912 16913 16914 16915 16916 16917 16918 16919 16920 16921 16922 16923 16924 16925 16926 16927 16928 16929 16930 16931 16932 16933 16934 16935 16936 16937 16938 16939 16940 16941 16942 16943 16944 16945 16946 16947 16948 16949 16950 16951 16952 16953 16954 16955 16956 16957 16958 16959 16960 16961 16962 16963 16964 16965 16966 16967 16968 16969 16970 16971 16972 16973 16974 16975 16976 16977 16978 16979 16980 16981 16982 16983 16984 16985 16986 16987 16988 16989 16990 16991 16992 16993 16994 16995 16996 16997 16998 16999 17000 17001 17002 17003 17004 17005 17006 17007 17008 17009 17010 17011 17012 17013 17014 17015 17016 17017 17018 17019 17020 17021 17022 17023 17024 17025 17026 17027 17028 17029 17030 17031 17032 17033 17034 17035 17036 17037 17038 17039 17040 17041 17042 17043 17044 17045 17046 17047 17048 17049 17050 17051 17052 17053 17054 17055 17056 17057 17058 17059 17060 17061 17062 17063 17064 17065 17066 17067 17068 17069 17070 17071 17072 17073 17074 17075 17076 17077 17078 17079 17080 17081 17082 17083 17084 17085 17086 17087 17088 17089 17090 17091 17092 17093 17094 17095 17096 17097 17098 17099 17100 17101 17102 17103 17104 17105 17106 17107 17108 17109 17110 17111 17112 17113 17114 17115 17116 17117 17118 17119 17120 17121 17122 17123 17124 17125 17126 17127 17128 17129 17130 17131 17132 17133 17134 17135 17136 17137 17138 17139 17140 17141 17142 17143 17144 17145 17146 17147 17148 17149 17150 17151 17152 17153 17154 17155 17156 17157 17158 17159 17160 17161 17162 17163 17164 17165 17166 17167 17168 17169 17170 17171 17172 17173 17174 17175 17176 17177 17178 17179 17180 17181 17182 17183 17184 17185 17186 17187 17188 17189 17190 17191 17192 17193 17194 17195 17196 17197 17198 17199 17200 17201 17202 17203 17204 17205 17206 17207 17208 17209 17210 17211 17212 17213 17214 17215 17216 17217 17218 17219 17220 17221 17222 17223 17224 17225 17226 17227 17228 17229 17230 17231 17232 17233 17234 17235 17236 17237 17238 17239 17240 17241 17242 17243 17244 17245 17246 17247 17248 17249 17250 17251 17252 17253 17254 17255 17256 17257 17258 17259 17260 17261 17262 17263 17264 17265 17266 17267 17268 17269 17270 17271 17272 17273 17274 17275 17276 17277 17278 17279 17280 17281 17282 17283 17284 17285 17286 17287 17288 17289 17290 17291 17292 17293 17294 17295 17296 17297 17298 17299 17300 17301 17302 17303 17304 17305 17306 17307 17308 17309 17310 17311 17312 17313 17314 17315 17316 17317 17318 17319 17320 17321 17322 17323 17324 17325 17326 17327 17328 17329 17330 17331 17332 17333 17334 17335 17336 17337 17338 17339 17340 17341 17342 17343 17344 17345 17346 17347 17348 17349 17350 17351 17352 17353 17354 17355 17356 17357 17358 17359 17360 17361 17362 17363 17364 17365 17366 17367 17368 17369 17370 17371 17372 17373 17374 17375 17376 17377 17378 17379 17380 17381 17382 17383 17384 17385 17386 17387 17388 17389 17390 17391 17392 17393 17394 17395 17396 17397 17398 17399 17400 17401 17402 17403 17404 17405 17406 17407 17408 17409 17410 17411 17412 17413 17414 17415 17416 17417 17418 17419 17420 17421 17422 17423 17424 17425 17426 17427 17428 17429 17430 17431 17432 17433 17434 17435 17436 17437 17438 17439 17440 17441 17442 17443 17444 17445 17446 17447 17448 17449 17450 17451 17452 17453 17454 17455 17456 17457 17458 17459 17460 17461 17462 17463 17464 17465 17466 17467 17468 17469 17470 17471 17472 17473 17474 17475 17476 17477 17478 17479 17480 17481 17482 17483 17484 17485 17486 17487 17488 17489 17490 17491 17492 17493 17494 17495 17496 17497 17498 17499 17500 17501 17502 17503 17504 17505 17506 17507 17508 17509 17510 17511 17512 17513 17514 17515 17516 17517 17518 17519 17520 17521 17522 17523 17524 17525 17526 17527 17528 17529 17530 17531 17532 17533 17534 17535 17536 17537 17538 17539 17540 17541 17542 17543 17544 17545 17546 17547 17548 17549 17550 17551 17552 17553 17554 17555 17556 17557 17558 17559 17560 17561 17562 17563 17564 17565 17566 17567 17568 17569 17570 17571 17572 17573 17574 17575 17576 17577 17578 17579 17580 17581 17582 17583 17584 17585 17586 17587 17588 17589 17590 17591 17592 17593 17594 17595 17596 17597 17598 17599 17600 17601 17602 17603 17604 17605 17606 17607 17608 17609 17610 17611 17612 17613 17614 17615 17616 17617 17618 17619 17620 17621 17622 17623 17624 17625 17626 17627 17628 17629 17630 17631 17632 17633 17634 17635 17636 17637 17638 17639 17640 17641 17642 17643 17644 17645 17646 17647 17648 17649 17650 17651 17652 17653 17654 17655 17656 17657 17658 17659 17660 17661 17662 17663 17664 17665 17666 17667 17668 17669 17670 17671 17672 17673 17674 17675 17676 17677 17678 17679 17680 17681 17682 17683 17684 17685 17686 17687 17688 17689 17690 17691 17692 17693 17694 17695 17696 17697 17698 17699 17700 17701 17702 17703 17704 17705 17706 17707 17708 17709 17710 17711 17712 17713 17714 17715 17716 17717 17718 17719 17720 17721 17722 17723 17724 17725 17726 17727 17728 17729 17730 17731 17732 17733 17734 17735 17736 17737 17738 17739 17740 17741 17742 17743 17744 17745 17746 17747 17748 17749 17750 17751 17752 17753 17754 17755 17756 17757 17758 17759 17760 17761 17762 17763 17764 17765 17766 17767 17768 17769 17770 17771 17772 17773 17774 17775 17776 17777 17778 17779 17780 17781 17782 17783 17784 17785 17786 17787 17788 17789 17790 17791 17792 17793 17794 17795 17796 17797 17798 17799 17800 17801 17802 17803 17804 17805 17806 17807 17808 17809 17810 17811 17812 17813 17814 17815 17816 17817 17818 17819 17820 17821 17822 17823 17824 17825 17826 17827 17828 17829 17830 17831 17832 17833 17834 17835 17836 17837 17838 17839 17840 17841 17842 17843 17844 17845 17846 17847 17848 17849 17850 17851 17852 17853 17854 17855 17856 17857 17858 17859 17860 17861 17862 17863 17864 17865 17866 17867 17868 17869 17870 17871 17872 17873 17874 17875 17876 17877 17878 17879 17880 17881 17882 17883 17884 17885 17886 17887 17888 17889 17890 17891 17892 17893 17894 17895 17896 17897 17898 17899 17900 17901 17902 17903 17904 17905 17906 17907 17908 17909 17910 17911 17912 17913 17914 17915 17916 17917 17918 17919 17920 17921 17922 17923 17924 17925 17926 17927 17928 17929 17930 17931 17932 17933 17934 17935 17936 17937 17938 17939 17940 17941 17942 17943 17944 17945 17946 17947 17948 17949 17950 17951 17952 17953 17954 17955 17956 17957 17958 17959 17960 17961 17962 17963 17964 17965 17966 17967 17968 17969 17970 17971 17972 17973 17974 17975 17976 17977 17978 17979 17980 17981 17982 17983 17984 17985 17986 17987 17988 17989 17990 17991 17992 17993 17994 17995 17996 17997 17998 17999 18000 18001 18002 18003 18004 18005 18006 18007 18008 18009 18010 18011 18012 18013 18014 18015 18016 18017 18018 18019 18020 18021 18022 18023 18024 18025 18026 18027 18028 18029 18030 18031 18032 18033 18034 18035 18036 18037 18038 18039 18040 18041 18042 18043 18044 18045 18046 18047 18048 18049 18050 18051 18052 18053 18054 18055 18056 18057 18058 18059 18060 18061 18062 18063 18064 18065 18066 18067 18068 18069 18070 18071 18072 18073 18074 18075 18076 18077 18078 18079 18080 18081 18082 18083 18084 18085 18086 18087 18088 18089 18090 18091 18092 18093 18094 18095 18096 18097 18098 18099 18100 18101 18102 18103 18104 18105 18106 18107 18108 18109 18110 18111 18112 18113 18114 18115 18116 18117 18118 18119 18120 18121 18122 18123 18124 18125 18126 18127 18128 18129 18130 18131 18132 18133 18134 18135 18136 18137 18138 18139 18140 18141 18142 18143 18144 18145 18146 18147 18148 18149 18150 18151 18152 18153 18154 18155 18156 18157 18158 18159 18160 18161 18162 18163 18164 18165 18166 18167 18168 18169 18170 18171 18172 18173 18174 18175 18176 18177 18178 18179 18180 18181 18182 18183 18184 18185 18186 18187 18188 18189 18190 18191 18192 18193 18194 18195 18196 18197 18198 18199 18200 18201 18202 18203 18204 18205 18206 18207 18208 18209 18210 18211 18212 18213 18214 18215 18216 18217 18218 18219 18220 18221 18222 18223 18224 18225 18226 18227 18228 18229 18230 18231 18232 18233 18234 18235 18236 18237 18238 18239 18240 18241 18242 18243 18244 18245 18246 18247 18248 18249 18250 18251 18252 18253 18254 18255 18256 18257 18258 18259 18260 18261 18262 18263 18264 18265 18266 18267 18268 18269 18270 18271 18272 18273 18274 18275 18276 18277 18278 18279 18280 18281 18282 18283 18284 18285 18286 18287 18288 18289 18290 18291 18292 18293 18294 18295 18296 18297 18298 18299 18300 18301 18302 18303 18304 18305 18306 18307 18308 18309 18310 18311 18312 18313 18314 18315 18316 18317 18318 18319 18320 18321 18322 18323 18324 18325 18326 18327 18328 18329 18330 18331 18332 18333 18334 18335 18336 18337 18338 18339 18340 18341 18342 18343 18344 18345 18346 18347 18348 18349 18350 18351 18352 18353 18354 18355 18356 18357 18358 18359 18360 18361 18362 18363 18364 18365 18366 18367 18368 18369 18370 18371 18372 18373 18374 18375 18376 18377 18378 18379 18380 18381 18382 18383 18384 18385 18386 18387 18388 18389 18390 18391 18392 18393 18394 18395 18396 18397 18398 18399 18400 18401 18402 18403 18404 18405 18406 18407 18408 18409 18410 18411 18412 18413 18414 18415 18416 18417 18418 18419 18420 18421 18422 18423 18424 18425 18426 18427 18428 18429 18430 18431 18432 18433 18434 18435 18436 18437 18438 18439 18440 18441 18442 18443 18444 18445 18446 18447 18448 18449 18450 18451 18452 18453 18454 18455 18456 18457 18458 18459 18460 18461 18462 18463 18464 18465 18466 18467 18468 18469 18470 18471 18472 18473 18474 18475 18476 18477 18478 18479 18480 18481 18482 18483 18484 18485 18486 18487 18488 18489 18490 18491 18492 18493 18494 18495 18496 18497 18498 18499 18500 18501 18502 18503 18504 18505 18506 18507 18508 18509 18510 18511 18512 18513 18514 18515 18516 18517 18518 18519 18520 18521 18522 18523 18524 18525 18526 18527 18528 18529 18530 18531 18532 18533 18534 18535 18536 18537 18538 18539 18540 18541 18542 18543 18544 18545 18546 18547 18548 18549 18550 18551 18552 18553 18554 18555 18556 18557 18558 18559 18560 18561 18562 18563 18564 18565 18566 18567 18568 18569 18570 18571 18572 18573 18574 18575 18576 18577 18578 18579 18580 18581 18582 18583 18584 18585 18586 18587 18588 18589 18590 18591 18592 18593 18594 18595 18596 18597 18598 18599 18600 18601 18602 18603 18604 18605 18606 18607 18608 18609 18610 18611 18612 18613 18614 18615 18616 18617 18618 18619 18620 18621 18622 18623 18624 18625 18626 18627 18628 18629 18630 18631 18632 18633 18634 18635 18636 18637 18638 18639 18640 18641 18642 18643 18644 18645 18646 18647 18648 18649 18650 18651 18652 18653 18654 18655 18656 18657 18658 18659 18660 18661 18662 18663 18664 18665 18666 18667 18668 18669 18670 18671 18672 18673 18674 18675 18676 18677 18678 18679 18680 18681 18682 18683 18684 18685 18686 18687 18688 18689 18690 18691 18692 18693 18694 18695 18696 18697 18698 18699 18700 18701 18702 18703 18704 18705 18706 18707 18708 18709 18710 18711 18712 18713 18714 18715 18716 18717 18718 18719 18720 18721 18722 18723 18724 18725 18726 18727 18728 18729 18730 18731 18732 18733 18734 18735 18736 18737 18738 18739 18740 18741 18742 18743 18744 18745 18746 18747 18748 18749 18750 18751 18752 18753 18754 18755 18756 18757 18758 18759 18760 18761 18762 18763 18764 18765 18766 18767 18768 18769 18770 18771 18772 18773 18774 18775 18776 18777 18778 18779 18780 18781 18782 18783 18784 18785 18786 18787 18788 18789 18790 18791 18792 18793 18794 18795 18796 18797 18798 18799 18800 18801 18802 18803 18804 18805 18806 18807 18808 18809 18810 18811 18812 18813 18814 18815 18816 18817 18818 18819 18820 18821 18822 18823 18824 18825 18826 18827 18828 18829 18830 18831 18832 18833 18834 18835 18836 18837 18838 18839 18840 18841 18842 18843 18844 18845 18846 18847 18848 18849 18850 18851 18852 18853 18854 18855 18856 18857 18858 18859 18860 18861 18862 18863 18864 18865 18866 18867 18868 18869 18870 18871 18872 18873 18874 18875 18876 18877 18878 18879 18880 18881 18882 18883 18884 18885 18886 18887 18888 18889 18890 18891 18892 18893 18894 18895 18896 18897 18898 18899 18900 18901 18902 18903 18904 18905 18906 18907 18908 18909 18910 18911 18912 18913 18914 18915 18916 18917 18918 18919 18920 18921 18922 18923 18924 18925 18926 18927 18928 18929 18930 18931 18932 18933 18934 18935 18936 18937 18938 18939 18940 18941 18942 18943 18944 18945 18946 18947 18948 18949 18950 18951 18952 18953 18954 18955 18956 18957 18958 18959 18960 18961 18962 18963 18964 18965 18966 18967 18968 18969 18970 18971 18972 18973 18974 18975 18976 18977 18978 18979 18980 18981 18982 18983 18984 18985 18986 18987 18988 18989 18990 18991 18992 18993 18994 18995 18996 18997 18998 18999 19000 19001 19002 19003 19004 19005 19006 19007 19008 19009 19010 19011 19012 19013 19014 19015 19016 19017 19018 19019 19020 19021 19022 19023 19024 19025 19026 19027 19028 19029 19030 19031 19032 19033 19034 19035 19036 19037 19038 19039 19040 19041 19042 19043 19044 19045 19046 19047 19048 19049 19050 19051 19052 19053 19054 19055 19056 19057 19058 19059 19060 19061 19062 19063 19064 19065 19066 19067 19068 19069 19070 19071 19072 19073 19074 19075 19076 19077 19078 19079 19080 19081 19082 19083 19084 19085 19086 19087 19088 19089 19090 19091 19092 19093 19094 19095 19096 19097 19098 19099 19100 19101 19102 19103 19104 19105 19106 19107 19108 19109 19110 19111 19112 19113 19114 19115 19116 19117 19118 19119 19120 19121 19122 19123 19124 19125 19126 19127 19128 19129 19130 19131 19132 19133 19134 19135 19136 19137 19138 19139 19140 19141 19142 19143 19144 19145 19146 19147 19148 19149 19150 19151 19152 19153 19154 19155 19156 19157 19158 19159 19160 19161 19162 19163 19164 19165 19166 19167 19168 19169 19170 19171 19172 19173 19174 19175 19176 19177 19178 19179 19180 19181 19182 19183 19184 19185 19186 19187 19188 19189 19190 19191 19192 19193 19194 19195 19196 19197 19198 19199 19200 19201 19202 19203 19204 19205 19206 19207 19208 19209 19210 19211 19212 19213 19214 19215 19216 19217 19218 19219 19220 19221 19222 19223 19224 19225 19226 19227 19228 19229 19230 19231 19232 19233 19234 19235 19236 19237 19238 19239 19240 19241 19242 19243 19244 19245 19246 19247 19248 19249 19250 19251 19252 19253 19254 19255 19256 19257 19258 19259 19260 19261 19262 19263 19264 19265 19266 19267 19268 19269 19270 19271 19272 19273 19274 19275 19276 19277 19278 19279 19280 19281 19282 19283 19284 19285 19286 19287 19288 19289 19290 19291 19292 19293 19294 19295 19296 19297 19298 19299 19300 19301 19302 19303 19304 19305 19306 19307 19308 19309 19310 19311 19312 19313 19314 19315 19316 19317 19318 19319 19320 19321 19322 19323 19324 19325 19326 19327 19328 19329 19330 19331 19332 19333 19334 19335 19336 19337 19338 19339 19340 19341 19342 19343 19344 19345 19346 19347 19348 19349 19350 19351 19352 19353 19354 19355 19356 19357 19358 19359 19360 19361 19362 19363 19364 19365 19366 19367 19368 19369 19370 19371 19372 19373 19374 19375 19376 19377 19378 19379 19380 19381 19382 19383 19384 19385 19386 19387 19388 19389 19390 19391 19392 19393 19394 19395 19396 19397 19398 19399 19400 19401 19402 19403 19404 19405 19406 19407 19408 19409 19410 19411 19412 19413 19414 19415 19416 19417 19418 19419 19420 19421 19422 19423 19424 19425 19426 19427 19428 19429 19430 19431 19432 19433 19434 19435 19436 19437 19438 19439 19440 19441 19442 19443 19444 19445 19446 19447 19448 19449 19450 19451 19452 19453 19454 19455 19456 19457 19458 19459 19460 19461 19462 19463 19464 19465 19466 19467 19468 19469 19470 19471 19472 19473 19474 19475 19476 19477 19478 19479 19480 19481 19482 19483 19484 19485 19486 19487 19488 19489 19490 19491 19492 19493 19494 19495 19496 19497 19498 19499 19500 19501 19502 19503 19504 19505 19506 19507 19508 19509 19510 19511 19512 19513 19514 19515 19516 19517 19518 19519 19520 19521 19522 19523 19524 19525 19526 19527 19528 19529 19530 19531 19532 19533 19534 19535 19536 19537 19538 19539 19540 19541 19542 19543 19544 19545 19546 19547 19548 19549 19550 19551 19552 19553 19554 19555 19556 19557 19558 19559 19560 19561 19562 19563 19564 19565 19566 19567 19568 19569 19570 19571 19572 19573 19574 19575 19576 19577 19578 19579 19580 19581 19582 19583 19584 19585 19586 19587 19588 19589 19590 19591 19592 19593 19594 19595 19596 19597 19598 19599 19600 19601 19602 19603 19604 19605 19606 19607 19608 19609 19610 19611 19612 19613 19614 19615 19616 19617 19618 19619 19620 19621 19622 19623 19624 19625 19626 19627 19628 19629 19630 19631 19632 19633 19634 19635 19636 19637 19638 19639 19640 19641 19642 19643 19644 19645 19646 19647 19648 19649 19650 19651 19652 19653 19654 19655 19656 19657 19658 19659 19660 19661 19662 19663 19664 19665 19666 19667 19668 19669 19670 19671 19672 19673 19674 19675 19676 19677 19678 19679 19680 19681 19682 19683 19684 19685 19686 19687 19688 19689 19690 19691 19692 19693 19694 19695 19696 19697 19698 19699 19700 19701 19702 19703 19704 19705 19706 19707 19708 19709 19710 19711 19712 19713 19714 19715 19716 19717 19718 19719 19720 19721 19722 19723 19724 19725 19726 19727 19728 19729 19730 19731 19732 19733 19734 19735 19736 19737 19738 19739 19740 19741 19742 19743 19744 19745 19746 19747 19748 19749 19750 19751 19752 19753 19754 19755 19756 19757 19758 19759 19760 19761 19762 19763 19764 19765 19766 19767 19768 19769 19770 19771 19772 19773 19774 19775 19776 19777 19778 19779 19780 19781 19782 19783 19784 19785 19786 19787 19788 19789 19790 19791 19792 19793 19794 19795 19796 19797 19798 19799 19800 19801 19802 19803 19804 19805 19806 19807 19808 19809 19810 19811 19812 19813 19814 19815 19816 19817 19818 19819 19820 19821 19822 19823 19824 19825 19826 19827 19828 19829 19830 19831 19832 19833 19834 19835 19836 19837 19838 19839 19840 19841 19842 19843 19844 19845 19846 19847 19848 19849 19850 19851 19852 19853 19854 19855 19856 19857 19858 19859 19860 19861 19862 19863 19864 19865 19866 19867 19868 19869 19870 19871 19872 19873 19874 19875 19876 19877 19878 19879 19880 19881 19882 19883 19884 19885 19886 19887 19888 19889 19890 19891 19892 19893 19894 19895 19896 19897 19898 19899 19900 19901 19902 19903 19904 19905 19906 19907 19908 19909 19910 19911 19912 19913 19914 19915 19916 19917 19918 19919 19920 19921 19922 19923 19924 19925 19926 19927 19928 19929 19930 19931 19932 19933 19934 19935 19936 19937 19938 19939 19940 19941 19942 19943 19944 19945 19946 19947 19948 19949 19950 19951 19952 19953 19954 19955 19956 19957 19958 19959 19960 19961 19962 19963 19964 19965 19966 19967 19968 19969 19970 19971 19972 19973 19974 19975 19976 19977 19978 19979 19980 19981 19982 19983 19984 19985 19986 19987 19988 19989 19990 19991 19992 19993 19994 19995 19996 19997 19998 19999 20000 20001 20002 20003 20004 20005 20006 20007 20008 20009 20010 20011 20012 20013 20014 20015 20016 20017 20018 20019 20020 20021 20022 20023 20024 20025 20026 20027 20028 20029 20030 20031 20032 20033 20034 20035 20036 20037 20038 20039 20040 20041 20042 20043 20044 20045 20046 20047 20048 20049 20050 20051 20052 20053 20054 20055 20056 20057 20058 20059 20060 20061 20062 20063 20064 20065 20066 20067 20068 20069 20070 20071 20072 20073 20074 20075 20076 20077 20078 20079 20080 20081 20082 20083 20084 20085 20086 20087 20088 20089 20090 20091 20092 20093 20094 20095 20096 20097 20098 20099 20100 20101 20102 20103 20104 20105 20106 20107 20108 20109 20110 20111 20112 20113 20114 20115 20116 20117 20118 20119 20120 20121 20122 20123 20124 20125 20126 20127 20128 20129 20130 20131 20132 20133 20134 20135 20136 20137 20138 20139 20140 20141 20142 20143 20144 20145 20146 20147 20148 20149 20150 20151 20152 20153 20154 20155 20156 20157 20158 20159 20160 20161 20162 20163 20164 20165 20166 20167 20168 20169 20170 20171 20172 20173 20174 20175 20176 20177 20178 20179 20180 20181 20182 20183 20184 20185 20186 20187 20188 20189 20190 20191 20192 20193 20194 20195 20196 20197 20198 20199 20200 20201 20202 20203 20204 20205 20206 20207 20208 20209 20210 20211 20212 20213 20214 20215 20216 20217 20218 20219 20220 20221 20222 20223 20224 20225 20226 20227 20228 20229 20230 20231 20232 20233 20234 20235 20236 20237 20238 20239 20240 20241 20242 20243 20244 20245 20246 20247 20248 20249 20250 20251 20252 20253 20254 20255 20256 20257 20258 20259 20260 20261 20262 20263 20264 20265 20266 20267 20268 20269 20270 20271 20272 20273 20274 20275 20276 20277 20278 20279 20280 20281 20282 20283 20284 20285 20286 20287 20288 20289 20290 20291 20292 20293 20294 20295 20296 20297 20298 20299 20300 20301 20302 20303 20304 20305 20306 20307 20308 20309 20310 20311 20312 20313 20314 20315 20316 20317 20318 20319 20320 20321 20322 20323 20324 20325 20326 20327 20328 20329 20330 20331 20332 20333 20334 20335 20336 20337 20338 20339 20340 20341 20342 20343 20344 20345 20346 20347 20348 20349 20350 20351 20352 20353 20354 20355 20356 20357 20358 20359 20360 20361 20362 20363 20364 20365 20366 20367 20368 20369 20370 20371 20372 20373 20374 20375 20376 20377 20378 20379 20380 20381 20382 20383 20384 20385 20386 20387 20388 20389 20390 20391 20392 20393 20394 20395 20396 20397 20398 20399 20400 20401 20402 20403 20404 20405 20406 20407 20408 20409 20410 20411 20412 20413 20414 20415 20416 20417 20418 20419 20420 20421 20422 20423 20424 20425 20426 20427 20428 20429 20430 20431 20432 20433 20434 20435 20436 20437 20438 20439 20440 20441 20442 20443 20444 20445 20446 20447 20448 20449 20450 20451 20452 20453 20454 20455 20456 20457 20458 20459 20460 20461 20462 20463 20464 20465 20466 20467 20468 20469 20470 20471 20472 20473 20474 20475 20476 20477 20478 20479 20480 20481 20482 20483 20484 20485 20486 20487 20488 20489 20490 20491 20492 20493 20494 20495 20496 20497 20498 20499 20500 20501 20502 20503 20504 20505 20506 20507 20508 20509 20510 20511 20512 20513 20514 20515 20516 20517 20518 20519 20520 20521 20522 20523 20524 20525 20526 20527 20528 20529 20530 20531 20532 20533 20534 20535 20536 20537 20538 20539 20540 20541 20542 20543 20544 20545 20546 20547 20548 20549 20550 20551 20552 20553 20554 20555 20556 20557 20558 20559 20560 20561 20562 20563 20564 20565 20566 20567 20568 20569 20570 20571 20572 20573 20574 20575 20576 20577 20578 20579 20580 20581 20582 20583 20584 20585 20586 20587 20588 20589 20590 20591 20592 20593 20594 20595 20596 20597 20598 20599 20600 20601 20602 20603 20604 20605 20606 20607 20608 20609 20610 20611 20612 20613 20614 20615 20616 20617 20618 20619 20620 20621 20622 20623 20624 20625 20626 20627 20628 20629 20630 20631 20632 20633 20634 20635 20636 20637 20638 20639 20640 20641 20642 20643 20644 20645 20646 20647 20648 20649 20650 20651 20652 20653 20654 20655 20656 20657 20658 20659 20660 20661 20662 20663 20664 20665 20666 20667 20668 20669 20670 20671 20672 20673 20674 20675 20676 20677 20678 20679 20680 20681 20682 20683 20684 20685 20686 20687 20688 20689 20690 20691 20692 20693 20694 20695 20696 20697 20698 20699 20700 20701 20702 20703 20704 20705 20706 20707 20708 20709 20710 20711 20712 20713 20714 20715 20716 20717 20718 20719 20720 20721 20722 20723 20724 20725 20726 20727 20728 20729 20730 20731 20732 20733 20734 20735 20736 20737 20738 20739 20740 20741 20742 20743 20744 20745 20746 20747 20748 20749 20750 20751 20752 20753 20754 20755 20756 20757 20758 20759 20760 20761 20762 20763 20764 20765 20766 20767 20768 20769 20770 20771 20772 20773 20774 20775 20776 20777 20778 20779 20780 20781 20782 20783 20784 20785 20786 20787 20788 20789 20790 20791 20792 20793 20794 20795 20796 20797 20798 20799 20800 20801 20802 20803 20804 20805 20806 20807 20808 20809 20810 20811 20812 20813 20814 20815 20816 20817 20818 20819 20820 20821 20822 20823 20824 20825 20826 20827 20828 20829 20830 20831 20832 20833 20834 20835 20836 20837 20838 20839 20840 20841 20842 20843 20844 20845 20846 20847 20848 20849 20850 20851 20852 20853 20854 20855 20856 20857 20858 20859 20860 20861 20862 20863 20864 20865 20866 20867 20868 20869 20870 20871 20872 20873 20874 20875 20876 20877 20878 20879 20880 20881 20882 20883 20884 20885 20886 20887 20888 20889 20890 20891 20892 20893 20894 20895 20896 20897 20898 20899 20900 20901 20902 20903 20904 20905 20906 20907 20908 20909 20910 20911 20912 20913 20914 20915 20916 20917 20918 20919 20920 20921 20922 20923 20924 20925 20926 20927 20928 20929 20930 20931 20932 20933 20934 20935 20936 20937 20938 20939 20940 20941 20942 20943 20944 20945 20946 20947 20948 20949 20950 20951 20952 20953 20954 20955 20956 20957 20958 20959 20960 20961 20962 20963 20964 20965 20966 20967 20968 20969 20970 20971 20972 20973 20974 20975 20976 20977 20978 20979 20980 20981 20982 20983 20984 20985 20986 20987 20988 20989 20990 20991 20992 20993 20994 20995 20996 20997 20998 20999 21000 21001 21002 21003 21004 21005 21006 21007 21008 21009 21010 21011 21012 21013 21014 21015 21016 21017 21018 21019 21020 21021 21022 21023 21024 21025 21026 21027 21028 21029 21030 21031 21032 21033 21034 21035 21036 21037 21038 21039 21040 21041 21042 21043 21044 21045 21046 21047 21048 21049 21050 21051 21052 21053 21054 21055 21056 21057 21058 21059 21060 21061 21062 21063 21064 21065 21066 21067 21068 21069 21070 21071 21072 21073 21074 21075 21076 21077 21078 21079 21080 21081 21082 21083 21084 21085 21086 21087 21088 21089 21090 21091 21092 21093 21094 21095 21096 21097 21098 21099 21100 21101 21102 21103 21104 21105 21106 21107 21108 21109 21110 21111 21112 21113 21114 21115 21116 21117 21118 21119 21120 21121 21122 21123 21124 21125 21126 21127 21128 21129 21130 21131 21132 21133 21134 21135 21136 21137 21138 21139 21140 21141 21142 21143 21144 21145 21146 21147 21148 21149 21150 21151 21152 21153 21154 21155 21156 21157 21158 21159 21160 21161 21162 21163 21164 21165 21166 21167 21168 21169 21170 21171 21172 21173 21174 21175 21176 21177 21178 21179 21180 21181 21182 21183 21184 21185 21186 21187 21188 21189 21190 21191 21192 21193 21194 21195 21196 21197 21198 21199 21200 21201 21202 21203 21204 21205 21206 21207 21208 21209 21210 21211 21212 21213 21214 21215 21216 21217 21218 21219 21220 21221 21222 21223 21224 21225 21226 21227 21228 21229 21230 21231 21232 21233 21234 21235 21236 21237 21238 21239 21240 21241 21242 21243 21244 21245 21246 21247 21248 21249 21250 21251 21252 21253 21254 21255 21256 21257 21258 21259 21260 21261 21262 21263 21264 21265 21266 21267 21268 21269 21270 21271 21272 21273 21274 21275 21276 21277 21278 21279 21280 21281 21282 21283 21284 21285 21286 21287 21288 21289 21290 21291 21292 21293 21294 21295 21296 21297 21298 21299 21300 21301 21302 21303 21304 21305 21306 21307 21308 21309 21310 21311 21312 21313 21314 21315 21316 21317 21318 21319 21320 21321 21322 21323 21324 21325 21326 21327 21328 21329 21330 21331 21332 21333 21334 21335 21336 21337 21338 21339 21340 21341 21342 21343 21344 21345 21346 21347 21348 21349 21350 21351 21352 21353 21354 21355 21356 21357 21358 21359 21360 21361 21362 21363 21364 21365 21366 21367 21368 21369 21370 21371 21372 21373 21374 21375 21376 21377 21378 21379 21380 21381 21382 21383 21384 21385 21386 21387 21388 21389 21390 21391 21392 21393 21394 21395 21396 21397 21398 21399 21400 21401 21402 21403 21404 21405 21406 21407 21408 21409 21410 21411 21412 21413 21414 21415 21416 21417 21418 21419 21420 21421 21422 21423 21424 21425 21426 21427 21428 21429 21430 21431 21432 21433 21434 21435 21436 21437 21438 21439 21440 21441 21442 21443 21444 21445 21446 21447 21448 21449 21450 21451 21452 21453 21454 21455 21456 21457 21458 21459 21460 21461 21462 21463 21464 21465 21466 21467 21468 21469 21470 21471 21472 21473 21474 21475 21476 21477 21478 21479 21480 21481 21482 21483 21484 21485 21486 21487 21488 21489 21490 21491 21492 21493 21494 21495 21496 21497 21498 21499 21500 21501 21502 21503 21504 21505 21506 21507 21508 21509 21510 21511 21512 21513 21514 21515 21516 21517 21518 21519 21520 21521 21522 21523 21524 21525 21526 21527 21528 21529 21530 21531 21532 21533 21534 21535 21536 21537 21538 21539 21540 21541 21542 21543 21544 21545 21546 21547 21548 21549 21550 21551 21552 21553 21554 21555 21556 21557 21558 21559 21560 21561 21562 21563 21564 21565 21566 21567 21568 21569 21570 21571 21572 21573 21574 21575 21576 21577 21578 21579 21580 21581 21582 21583 21584 21585 21586 21587 21588 21589 21590 21591 21592 21593 21594 21595 21596 21597 21598 21599 21600 21601 21602 21603 21604 21605 21606 21607 21608 21609 21610 21611 21612 21613 21614 21615 21616 21617 21618 21619 21620 21621 21622 21623 21624 21625 21626 21627 21628 21629 21630 21631 21632 21633 21634 21635 21636 21637 21638 21639 21640 21641 21642 21643 21644 21645 21646 21647 21648 21649 21650 21651 21652 21653 21654 21655 21656 21657 21658 21659 21660 21661 21662 21663 21664 21665 21666 21667 21668 21669 21670 21671 21672 21673 21674 21675 21676 21677 21678 21679 21680 21681 21682 21683 21684 21685 21686 21687 21688 21689 21690 21691 21692 21693 21694 21695 21696 21697 21698 21699 21700 21701 21702 21703 21704 21705 21706 21707 21708 21709 21710 21711 21712 21713 21714 21715 21716 21717 21718 21719 21720 21721 21722 21723 21724 21725 21726 21727 21728 21729 21730 21731 21732 21733 21734 21735 21736 21737 21738 21739 21740 21741 21742 21743 21744 21745 21746 21747 21748 21749 21750 21751 21752 21753 21754 21755 21756 21757 21758 21759 21760 21761 21762 21763 21764 21765 21766 21767 21768 21769 21770 21771 21772 21773 21774 21775 21776 21777 21778 21779 21780 21781 21782 21783 21784 21785 21786 21787 21788 21789 21790 21791 21792 21793 21794 21795 21796 21797 21798 21799 21800 21801 21802 21803 21804 21805 21806 21807 21808 21809 21810 21811 21812 21813 21814 21815 21816 21817 21818 21819 21820 21821 21822 21823 21824 21825 21826 21827 21828 21829 21830 21831 21832 21833 21834 21835 21836 21837 21838 21839 21840 21841 21842 21843 21844 21845 21846 21847 21848 21849 21850 21851 21852 21853 21854 21855 21856 21857 21858 21859 21860 21861 21862 21863 21864 21865 21866 21867 21868 21869 21870 21871 21872 21873 21874 21875 21876 21877 21878 21879 21880 21881 21882 21883 21884 21885 21886 21887 21888 21889 21890 21891 21892 21893 21894 21895 21896 21897 21898 21899 21900 21901 21902 21903 21904 21905 21906 21907 21908 21909 21910 21911 21912 21913 21914 21915 21916 21917 21918 21919 21920 21921 21922 21923 21924 21925 21926 21927 21928 21929 21930 21931 21932 21933 21934 21935 21936 21937 21938 21939 21940 21941 21942 21943 21944 21945 21946 21947 21948 21949 21950 21951 21952 21953 21954 21955 21956 21957 21958 21959 21960 21961 21962 21963 21964 21965 21966 21967 21968 21969 21970 21971 21972 21973 21974 21975 21976 21977 21978 21979 21980 21981 21982 21983 21984 21985 21986 21987 21988 21989 21990 21991 21992 21993 21994 21995 21996 21997 21998 21999 22000 22001 22002 22003 22004 22005 22006 22007 22008 22009 22010 22011 22012 22013 22014 22015 22016 22017 22018 22019 22020 22021 22022 22023 22024 22025 22026 22027 22028 22029 22030 22031 22032 22033 22034 22035 22036 22037 22038 22039 22040 22041 22042 22043 22044 22045 22046 22047 22048 22049 22050 22051 22052 22053 22054 22055 22056 22057 22058 22059 22060 22061 22062 22063 22064 22065 22066 22067 22068 22069 22070 22071 22072 22073 22074 22075 22076 22077 22078 22079 22080 22081 22082 22083 22084 22085 22086 22087 22088 22089 22090 22091 22092 22093 22094 22095 22096 22097 22098 22099 22100 22101 22102 22103 22104 22105 22106 22107 22108 22109 22110 22111 22112 22113 22114 22115 22116 22117 22118 22119 22120 22121 22122 22123 22124 22125 22126 22127 22128 22129 22130 22131 22132 22133 22134 22135 22136 22137 22138 22139 22140 22141 22142 22143 22144 22145 22146 22147 22148 22149 22150 22151 22152 22153 22154 22155 22156 22157 22158 22159 22160 22161 22162 22163 22164 22165 22166 22167 22168 22169 22170 22171 22172 22173 22174 22175 22176 22177 22178 22179 22180 22181 22182 22183 22184 22185 22186 22187 22188 22189 22190 22191 22192 22193 22194 22195 22196 22197 22198 22199 22200 22201 22202 22203 22204 22205 22206 22207 22208 22209 22210 22211 22212 22213 22214 22215 22216 22217 22218 22219 22220 22221 22222 22223 22224 22225 22226 22227 22228 22229 22230 22231 22232 22233 22234 22235 22236 22237 22238 22239 22240 22241 22242 22243 22244 22245 22246 22247 22248 22249 22250 22251 22252 22253 22254 22255 22256 22257 22258 22259 22260 22261 22262 22263 22264 22265 22266 22267 22268 22269 22270 22271 22272 22273 22274 22275 22276 22277 22278 22279 22280 22281 22282 22283 22284 22285 22286 22287 22288 22289 22290 22291 22292 22293 22294 22295 22296 22297 22298 22299 22300 22301 22302 22303 22304 22305 22306 22307 22308 22309 22310 22311 22312 22313 22314 22315 22316 22317 22318 22319 22320 22321 22322 22323 22324 22325 22326 22327 22328 22329 22330 22331 22332 22333 22334 22335 22336 22337 22338 22339 22340 22341 22342 22343 22344 22345 22346 22347 22348 22349 22350 22351 22352 22353 22354 22355 22356 22357 22358 22359 22360 22361 22362 22363 22364 22365 22366 22367 22368 22369 22370 22371 22372 22373 22374 22375 22376 22377 22378 22379 22380 22381 22382 22383 22384 22385 22386 22387 22388 22389 22390 22391 22392 22393 22394 22395 22396 22397 22398 22399 22400 22401 22402 22403 22404 22405 22406 22407 22408 22409 22410 22411 22412 22413 22414 22415 22416 22417 22418 22419 22420 22421 22422 22423 22424 22425 22426 22427 22428 22429 22430 22431 22432 22433 22434 22435 22436 22437 22438 22439 22440 22441 22442 22443 22444 22445 22446 22447 22448 22449 22450 22451 22452 22453 22454 22455 22456 22457 22458 22459 22460 22461 22462 22463 22464 22465 22466 22467 22468 22469 22470 22471 22472 22473 22474 22475 22476 22477 22478 22479 22480 22481 22482 22483 22484 22485 22486 22487 22488 22489 22490 22491 22492 22493 22494 22495 22496 22497 22498 22499 22500 22501 22502 22503 22504 22505 22506 22507 22508 22509 22510 22511 22512 22513 22514 22515 22516 22517 22518 22519 22520 22521 22522 22523 22524 22525 22526 22527 22528 22529 22530 22531 22532 22533 22534 22535 22536 22537 22538 22539 22540 22541 22542 22543 22544 22545 22546 22547 22548 22549 22550 22551 22552 22553 22554 22555 22556 22557 22558 22559 22560 22561 22562 22563 22564 22565 22566 22567 22568 22569 22570 22571 22572 22573 22574 22575 22576 22577 22578 22579 22580 22581 22582 22583 22584 22585 22586 22587 22588 22589 22590 22591 22592 22593 22594 22595 22596 22597 22598 22599 22600 22601 22602 22603 22604 22605 22606 22607 22608 22609 22610 22611 22612 22613 22614 22615 22616 22617 22618 22619 22620 22621 22622 22623 22624 22625 22626 22627 22628 22629 22630 22631 22632 22633 22634 22635 22636 22637 22638 22639 22640 22641 22642 22643 22644 22645 22646 22647 22648 22649 22650 22651 22652 22653 22654 22655 22656 22657 22658 22659 22660 22661 22662 22663 22664 22665 22666 22667 22668 22669 22670 22671 22672 22673 22674 22675 22676 22677 22678 22679 22680 22681 22682 22683 22684 22685 22686 22687 22688 22689 22690 22691 22692 22693 22694 22695 22696 22697 22698 22699 22700 22701 22702 22703 22704 22705 22706 22707 22708 22709 22710 22711 22712 22713 22714 22715 22716 22717 22718 22719 22720 22721 22722 22723 22724 22725 22726 22727 22728 22729 22730 22731 22732 22733 22734 22735 22736 22737 22738 22739 22740 22741 22742 22743 22744 22745 22746 22747 22748 22749 22750 22751 22752 22753 22754 22755 22756 22757 22758 22759 22760 22761 22762 22763 22764 22765 22766 22767 22768 22769 22770 22771 22772 22773 22774 22775 22776 22777 22778 22779 22780 22781 22782 22783 22784 22785 22786 22787 22788 22789 22790 22791 22792 22793 22794 22795 22796 22797 22798 22799 22800 22801 22802 22803 22804 22805 22806 22807 22808 22809 22810 22811 22812 22813 22814 22815 22816 22817 22818 22819 22820 22821 22822 22823 22824 22825 22826 22827 22828 22829 22830 22831 22832 22833 22834 22835 22836 22837 22838 22839 22840 22841 22842 22843 22844 22845 22846 22847 22848 22849 22850 22851 22852 22853 22854 22855 22856 22857 22858 22859 22860 22861 22862 22863 22864 22865 22866 22867 22868 22869 22870 22871 22872 22873 22874 22875 22876 22877 22878 22879 22880 22881 22882 22883 22884 22885 22886 22887 22888 22889 22890 22891 22892 22893 22894 22895 22896 22897 22898 22899 22900 22901 22902 22903 22904 22905 22906 22907 22908 22909 22910 22911 22912 22913 22914 22915 22916 22917 22918 22919 22920 22921 22922 22923 22924 22925 22926 22927 22928 22929 22930 22931 22932 22933 22934 22935 22936 22937 22938 22939 22940 22941 22942 22943 22944 22945 22946 22947 22948 22949 22950 22951 22952 22953 22954 22955 22956 22957 22958 22959 22960 22961 22962 22963 22964 22965 22966 22967 22968 22969 22970 22971 22972 22973 22974 22975 22976 22977 22978 22979 22980 22981 22982 22983 22984 22985 22986 22987 22988 22989 22990 22991 22992 22993 22994 22995 22996 22997 22998 22999 23000 23001 23002 23003 23004 23005 23006 23007 23008 23009 23010 23011 23012 23013 23014 23015 23016 23017 23018 23019 23020 23021 23022 23023 23024 23025 23026 23027 23028 23029 23030 23031 23032 23033 23034 23035 23036 23037 23038 23039 23040 23041 23042 23043 23044 23045 23046 23047 23048 23049 23050 23051 23052 23053 23054 23055 23056 23057 23058 23059 23060 23061 23062 23063 23064 23065 23066 23067 23068 23069 23070 23071 23072 23073 23074 23075 23076 23077 23078 23079 23080 23081 23082 23083 23084 23085 23086 23087 23088 23089 23090 23091 23092 23093 23094 23095 23096 23097 23098 23099 23100 23101 23102 23103 23104 23105 23106 23107 23108 23109 23110 23111 23112 23113 23114 23115 23116 23117 23118 23119 23120 23121 23122 23123 23124 23125 23126 23127 23128 23129 23130 23131 23132 23133 23134 23135 23136 23137 23138 23139 23140 23141 23142 23143 23144 23145 23146 23147 23148 23149 23150 23151 23152 23153 23154 23155 23156 23157 23158 23159 23160 23161 23162 23163 23164 23165 23166 23167 23168 23169 23170 23171 23172 23173 23174 23175 23176 23177 23178 23179 23180 23181 23182 23183 23184 23185 23186 23187 23188 23189 23190 23191 23192 23193 23194 23195 23196 23197 23198 23199 23200 23201 23202 23203 23204 23205 23206 23207 23208 23209 23210 23211 23212 23213 23214 23215 23216 23217 23218 23219 23220 23221 23222 23223 23224 23225 23226 23227 23228 23229 23230 23231 23232 23233 23234 23235 23236 23237 23238 23239 23240 23241 23242 23243 23244 23245 23246 23247 23248 23249 23250 23251 23252 23253 23254 23255 23256 23257 23258 23259 23260 23261 23262 23263 23264 23265 23266 23267 23268 23269 23270 23271 23272 23273 23274 23275 23276 23277 23278 23279 23280 23281 23282 23283 23284 23285 23286 23287 23288 23289 23290 23291 23292 23293 23294 23295 23296 23297 23298 23299 23300 23301 23302 23303 23304 23305 23306 23307 23308 23309 23310 23311 23312 23313 23314 23315 23316 23317 23318 23319 23320 23321 23322 23323 23324 23325 23326 23327 23328 23329 23330 23331 23332 23333 23334 23335 23336 23337 23338 23339 23340 23341 23342 23343 23344 23345 23346 23347 23348 23349 23350 23351 23352 23353 23354 23355 23356 23357 23358 23359 23360 23361 23362 23363 23364 23365 23366 23367 23368 23369 23370 23371 23372 23373 23374 23375 23376 23377 23378 23379 23380 23381 23382 23383 23384 23385 23386 23387 23388 23389 23390 23391 23392 23393 23394 23395 23396 23397 23398 23399 23400 23401 23402 23403 23404 23405 23406 23407 23408 23409 23410 23411 23412 23413 23414 23415 23416 23417 23418 23419 23420 23421 23422 23423 23424 23425 23426 23427 23428 23429 23430 23431 23432 23433 23434 23435 23436 23437 23438 23439 23440 23441 23442 23443 23444 23445 23446 23447 23448 23449 23450 23451 23452 23453 23454 23455 23456 23457 23458 23459 23460 23461 23462 23463 23464 23465 23466 23467 23468 23469 23470 23471 23472 23473 23474 23475 23476 23477 23478 23479 23480 23481 23482 23483 23484 23485 23486 23487 23488 23489 23490 23491 23492 23493 23494 23495 23496 23497 23498 23499 23500 23501 23502 23503 23504 23505 23506 23507 23508 23509 23510 23511 23512 23513 23514 23515 23516 23517 23518 23519 23520 23521 23522 23523 23524 23525 23526 23527 23528 23529 23530 23531 23532 23533 23534 23535 23536 23537 23538 23539 23540 23541 23542 23543 23544 23545 23546 23547 23548 23549 23550 23551 23552 23553 23554 23555 23556 23557 23558 23559 23560 23561 23562 23563 23564 23565 23566 23567 23568 23569 23570 23571 23572 23573 23574 23575 23576 23577 23578 23579 23580 23581 23582 23583 23584 23585 23586 23587 23588 23589 23590 23591 23592 23593 23594 23595 23596 23597 23598 23599 23600 23601 23602 23603 23604 23605 23606 23607 23608 23609 23610 23611 23612 23613 23614 23615 23616 23617 23618 23619 23620 23621 23622 23623 23624 23625 23626 23627 23628 23629 23630 23631 23632 23633 23634 23635 23636 23637 23638 23639 23640 23641 23642 23643 23644 23645 23646 23647 23648 23649 23650 23651 23652 23653 23654 23655 23656 23657 23658 23659 23660 23661 23662 23663 23664 23665 23666 23667 23668 23669 23670 23671 23672 23673 23674 23675 23676 23677 23678 23679 23680 23681 23682 23683 23684 23685 23686 23687 23688 23689 23690 23691 23692 23693 23694 23695 23696 23697 23698 23699 23700 23701 23702 23703 23704 23705 23706 23707 23708 23709 23710 23711 23712 23713 23714 23715 23716 23717 23718 23719 23720 23721 23722 23723 23724 23725 23726 23727 23728 23729 23730 23731 23732 23733 23734 23735 23736 23737 23738 23739 23740 23741 23742 23743 23744 23745 23746 23747 23748 23749 23750 23751 23752 23753 23754 23755 23756 23757 23758 23759 23760 23761 23762 23763 23764 23765 23766 23767 23768 23769 23770 23771 23772 23773 23774 23775 23776 23777 23778 23779 23780 23781 23782 23783 23784 23785 23786 23787 23788 23789 23790 23791 23792 23793 23794 23795 23796 23797 23798 23799 23800 23801 23802 23803 23804 23805 23806 23807 23808 23809 23810 23811 23812 23813 23814 23815 23816 23817 23818 23819 23820 23821 23822 23823 23824 23825 23826 23827 23828 23829 23830 23831 23832 23833 23834 23835 23836 23837 23838 23839 23840 23841 23842 23843 23844 23845 23846 23847 23848 23849 23850 23851 23852 23853 23854 23855 23856 23857 23858 23859 23860 23861 23862 23863 23864 23865 23866 23867 23868 23869 23870 23871 23872 23873 23874 23875 23876 23877 23878 23879 23880 23881 23882 23883 23884 23885 23886 23887 23888 23889 23890 23891 23892 23893 23894 23895 23896 23897 23898 23899 23900 23901 23902 23903 23904 23905 23906 23907 23908 23909 23910 23911 23912 23913 23914 23915 23916 23917 23918 23919 23920 23921 23922 23923 23924 23925 23926 23927 23928 23929 23930 23931 23932 23933 23934 23935 23936 23937 23938 23939 23940 23941 23942 23943 23944 23945 23946 23947 23948 23949 23950 23951 23952 23953 23954 23955 23956 23957 23958 23959 23960 23961 23962 23963 23964 23965 23966 23967 23968 23969 23970 23971 23972 23973 23974 23975 23976 23977 23978 23979 23980 23981 23982 23983 23984 23985 23986 23987 23988 23989 23990 23991 23992 23993 23994 23995 23996 23997 23998 23999 24000 24001 24002 24003 24004 24005 24006 24007 24008 24009 24010 24011 24012 24013 24014 24015 24016 24017 24018 24019 24020 24021 24022 24023 24024 24025 24026 24027 24028 24029 24030 24031 24032 24033 24034 24035 24036 24037 24038 24039 24040 24041 24042 24043 24044 24045 24046 24047 24048 24049 24050 24051 24052 24053 24054 24055 24056 24057 24058 24059 24060 24061 24062 24063 24064 24065 24066 24067 24068 24069 24070 24071 24072 24073 24074 24075 24076 24077 24078 24079 24080 24081 24082 24083 24084 24085 24086 24087 24088 24089 24090 24091 24092 24093 24094 24095 24096 24097 24098 24099 24100 24101 24102 24103 24104 24105 24106 24107 24108 24109 24110 24111 24112 24113 24114 24115 24116 24117 24118 24119 24120 24121 24122 24123 24124 24125 24126 24127 24128 24129 24130 24131 24132 24133 24134 24135 24136 24137 24138 24139 24140 24141 24142 24143 24144 24145 24146 24147 24148 24149 24150 24151 24152 24153 24154 24155 24156 24157 24158 24159 24160 24161 24162 24163 24164 24165 24166 24167 24168 24169 24170 24171 24172 24173 24174 24175 24176 24177 24178 24179 24180 24181 24182 24183 24184 24185 24186 24187 24188 24189 24190 24191 24192 24193 24194 24195 24196 24197 24198 24199 24200 24201 24202 24203 24204 24205 24206 24207 24208 24209 24210 24211 24212 24213 24214 24215 24216 24217 24218 24219 24220 24221 24222 24223 24224 24225 24226 24227 24228 24229 24230 24231 24232 24233 24234 24235 24236 24237 24238 24239 24240 24241 24242 24243 24244 24245 24246 24247 24248 24249 24250 24251 24252 24253 24254 24255 24256 24257 24258 24259 24260 24261 24262 24263 24264 24265 24266 24267 24268 24269 24270 24271 24272 24273 24274 24275 24276 24277 24278 24279 24280 24281 24282 24283 24284 24285 24286 24287 24288 24289 24290 24291 24292 24293 24294 24295 24296 24297 24298 24299 24300 24301 24302 24303 24304 24305 24306 24307 24308 24309 24310 24311 24312 24313 24314 24315 24316 24317 24318 24319 24320 24321 24322 24323 24324 24325 24326 24327 24328 24329 24330 24331 24332 24333 24334 24335 24336 24337 24338 24339 24340 24341 24342 24343 24344 24345 24346 24347 24348 24349 24350 24351 24352 24353 24354 24355 24356 24357 24358 24359 24360 24361 24362 24363 24364 24365 24366 24367 24368 24369 24370 24371 24372 24373 24374 24375 24376 24377 24378 24379 24380 24381 24382 24383 24384 24385 24386 24387 24388 24389 24390 24391 24392 24393 24394 24395 24396 24397 24398 24399 24400 24401 24402 24403 24404 24405 24406 24407 24408 24409 24410 24411 24412 24413 24414 24415 24416 24417 24418 24419 24420 24421 24422 24423 24424 24425 24426 24427 24428 24429 24430 24431 24432 24433 24434 24435 24436 24437 24438 24439 24440 24441 24442 24443 24444 24445 24446 24447 24448 24449 24450 24451 24452 24453 24454 24455 24456 24457 24458 24459 24460 24461 24462 24463 24464 24465 24466 24467 24468 24469 24470 24471 24472 24473 24474 24475 24476 24477 24478 24479 24480 24481 24482 24483 24484 24485 24486 24487 24488 24489 24490 24491 24492 24493 24494 24495 24496 24497 24498 24499 24500 24501 24502 24503 24504 24505 24506 24507 24508 24509 24510 24511 24512 24513 24514 24515 24516 24517 24518 24519 24520 24521 24522 24523 24524 24525 24526 24527 24528 24529 24530 24531 24532 24533 24534 24535 24536 24537 24538 24539 24540 24541 24542 24543 24544 24545 24546 24547 24548 24549 24550 24551 24552 24553 24554 24555 24556 24557 24558 24559 24560 24561 24562 24563 24564 24565 24566 24567 24568 24569 24570 24571 24572 24573 24574 24575 24576 24577 24578 24579 24580 24581 24582 24583 24584 24585 24586 24587 24588 24589 24590 24591 24592 24593 24594 24595 24596 24597 24598 24599 24600 24601 24602 24603 24604 24605 24606 24607 24608 24609 24610 24611 24612 24613 24614 24615 24616 24617 24618 24619 24620 24621 24622 24623 24624 24625 24626 24627 24628 24629 24630 24631 24632 24633 24634 24635 24636 24637 24638 24639 24640 24641 24642 24643 24644 24645 24646 24647 24648 24649 24650 24651 24652 24653 24654 24655 24656 24657 24658 24659 24660 24661 24662 24663 24664 24665 24666 24667 24668 24669 24670 24671 24672 24673 24674 24675 24676 24677 24678 24679 24680 24681 24682 24683 24684 24685 24686 24687 24688 24689 24690 24691 24692 24693 24694 24695 24696 24697 24698 24699 24700 24701 24702 24703 24704 24705 24706 24707 24708 24709 24710 24711 24712 24713 24714 24715 24716 24717 24718 24719 24720 24721 24722 24723 24724 24725 24726 24727 24728 24729 24730 24731 24732 24733 24734 24735 24736 24737 24738 24739 24740 24741 24742 24743 24744 24745 24746 24747 24748 24749 24750 24751 24752 24753 24754 24755 24756 24757 24758 24759 24760 24761 24762 24763 24764 24765 24766 24767 24768 24769 24770 24771 24772 24773 24774 24775 24776 24777 24778 24779 24780 24781 24782 24783 24784 24785 24786 24787 24788 24789 24790 24791 24792 24793 24794 24795 24796 24797 24798 24799 24800 24801 24802 24803 24804 24805 24806 24807 24808 24809 24810 24811 24812 24813 24814 24815 24816 24817 24818 24819 24820 24821 24822 24823 24824 24825 24826 24827 24828 24829 24830 24831 24832 24833 24834 24835 24836 24837 24838 24839 24840 24841 24842 24843 24844 24845 24846 24847 24848 24849 24850 24851 24852 24853 24854 24855 24856 24857 24858 24859 24860 24861 24862 24863 24864 24865 24866 24867 24868 24869 24870 24871 24872 24873 24874 24875 24876 24877 24878 24879 24880 24881 24882 24883 24884 24885 24886 24887 24888 24889 24890 24891 24892 24893 24894 24895 24896 24897 24898 24899 24900 24901 24902 24903 24904 24905 24906 24907 24908 24909 24910 24911 24912 24913 24914 24915 24916 24917 24918 24919 24920 24921 24922 24923 24924 24925 24926 24927 24928 24929 24930 24931 24932 24933 24934 24935 24936 24937 24938 24939 24940 24941 24942 24943 24944 24945 24946 24947 24948 24949 24950 24951 24952 24953 24954 24955 24956 24957 24958 24959 24960 24961 24962 24963 24964 24965 24966 24967 24968 24969 24970 24971 24972 24973 24974 24975 24976 24977 24978 24979 24980 24981 24982 24983 24984 24985 24986 24987 24988 24989 24990 24991 24992 24993 24994 24995 24996 24997 24998 24999 25000 25001 25002 25003 25004 25005 25006 25007 25008 25009 25010 25011 25012 25013 25014 25015 25016 25017 25018 25019 25020 25021 25022 25023 25024 25025 25026 25027 25028 25029 25030 25031 25032 25033 25034 25035 25036 25037 25038 25039 25040 25041 25042 25043 25044 25045 25046 25047 25048 25049 25050 25051 25052 25053 25054 25055 25056 25057 25058 25059 25060 25061 25062 25063 25064 25065 25066 25067 25068 25069 25070 25071 25072 25073 25074 25075 25076 25077 25078 25079 25080 25081 25082 25083 25084 25085 25086 25087 25088 25089 25090 25091 25092 25093 25094 25095 25096 25097 25098 25099 25100 25101 25102 25103 25104 25105 25106 25107 25108 25109 25110 25111 25112 25113 25114 25115 25116 25117 25118 25119 25120 25121 25122 25123 25124 25125 25126 25127 25128 25129 25130 25131 25132 25133 25134 25135 25136 25137 25138 25139 25140 25141 25142 25143 25144 25145 25146 25147 25148 25149 25150 25151 25152 25153 25154 25155 25156 25157 25158 25159 25160 25161 25162 25163 25164 25165 25166 25167 25168 25169 25170 25171 25172 25173 25174 25175 25176 25177 25178 25179 25180 25181 25182 25183 25184 25185 25186 25187 25188 25189 25190 25191 25192 25193 25194 25195 25196 25197 25198 25199 25200 25201 25202 25203 25204 25205 25206 25207 25208 25209 25210 25211 25212 25213 25214 25215 25216 25217 25218 25219 25220 25221 25222 25223 25224 25225 25226 25227 25228 25229 25230 25231 25232 25233 25234 25235 25236 25237 25238 25239 25240 25241 25242 25243 25244 25245 25246 25247 25248 25249 25250 25251 25252 25253 25254 25255 25256 25257 25258 25259 25260 25261 25262 25263 25264 25265 25266 25267 25268 25269 25270 25271 25272 25273 25274 25275 25276 25277 25278 25279 25280 25281 25282 25283 25284 25285 25286 25287 25288 25289 25290 25291 25292 25293 25294 25295 25296 25297 25298 25299 25300 25301 25302 25303 25304 25305 25306 25307 25308 25309 25310 25311 25312 25313 25314 25315 25316 25317 25318 25319 25320 25321 25322 25323 25324 25325 25326 25327 25328 25329 25330 25331 25332 25333 25334 25335 25336 25337 25338 25339 25340 25341 25342 25343 25344 25345 25346 25347 25348 25349 25350 25351 25352 25353 25354 25355 25356 25357 25358 25359 25360 25361 25362 25363 25364 25365 25366 25367 25368 25369 25370 25371 25372 25373 25374 25375 25376 25377 25378 25379 25380 25381 25382 25383 25384 25385 25386 25387 25388 25389 25390 25391 25392 25393 25394 25395 25396 25397 25398 25399 25400 25401 25402 25403 25404 25405 25406 25407 25408 25409 25410 25411 25412 25413 25414 25415 25416 25417 25418 25419 25420 25421 25422 25423 25424 25425 25426 25427 25428 25429 25430 25431 25432 25433 25434 25435 25436 25437 25438 25439 25440 25441 25442 25443 25444 25445 25446 25447 25448 25449 25450 25451 25452 25453 25454 25455 25456 25457 25458 25459 25460 25461 25462 25463 25464 25465 25466 25467 25468 25469 25470 25471 25472 25473 25474 25475 25476 25477 25478 25479 25480 25481 25482 25483 25484 25485 25486 25487 25488 25489 25490 25491 25492 25493 25494 25495 25496 25497 25498 25499 25500 25501 25502 25503 25504 25505 25506 25507 25508 25509 25510 25511 25512 25513 25514 25515 25516 25517 25518 25519 25520 25521 25522 25523 25524 25525 25526 25527 25528 25529 25530 25531 25532 25533 25534 25535 25536 25537 25538 25539 25540 25541 25542 25543 25544 25545 25546 25547 25548 25549 25550 25551 25552 25553 25554 25555 25556 25557 25558 25559 25560 25561 25562 25563 25564 25565 25566 25567 25568 25569 25570 25571 25572 25573 25574 25575 25576 25577 25578 25579 25580 25581 25582 25583 25584 25585 25586 25587 25588 25589 25590 25591 25592 25593 25594 25595 25596 25597 25598 25599 25600 25601 25602 25603 25604 25605 25606 25607 25608 25609 25610 25611 25612 25613 25614 25615 25616 25617 25618 25619 25620 25621 25622 25623 25624 25625 25626 25627 25628 25629 25630 25631 25632 25633 25634 25635 25636 25637 25638 25639 25640 25641 25642 25643 25644 25645 25646 25647 25648 25649 25650 25651 25652 25653 25654 25655 25656 25657 25658 25659 25660 25661 25662 25663 25664 25665 25666 25667 25668 25669 25670 25671 25672 25673 25674 25675 25676 25677 25678 25679 25680 25681 25682 25683 25684 25685 25686 25687 25688 25689 25690 25691 25692 25693 25694 25695 25696 25697 25698 25699 25700 25701 25702 25703 25704 25705 25706 25707 25708 25709 25710 25711 25712 25713 25714 25715 25716 25717 25718 25719 25720 25721 25722 25723 25724 25725 25726 25727 25728 25729 25730 25731 25732 25733 25734 25735 25736 25737 25738 25739 25740 25741 25742 25743 25744 25745 25746 25747 25748 25749 25750 25751 25752 25753 25754 25755 25756 25757 25758 25759 25760 25761 25762 25763 25764 25765 25766 25767 25768 25769 25770 25771 25772 25773 25774 25775 25776 25777 25778 25779 25780 25781 25782 25783 25784 25785 25786 25787 25788 25789 25790 25791 25792 25793 25794 25795 25796 25797 25798 25799 25800 25801 25802 25803 25804 25805 25806 25807 25808 25809 25810 25811 25812 25813 25814 25815 25816 25817 25818 25819 25820 25821 25822 25823 25824 25825 25826 25827 25828 25829 25830 25831 25832 25833 25834 25835 25836 25837 25838 25839 25840 25841 25842 25843 25844 25845 25846 25847 25848 25849 25850 25851 25852 25853 25854 25855 25856 25857 25858 25859 25860 25861 25862 25863 25864 25865 25866 25867 25868 25869 25870 25871 25872 25873 25874 25875 25876 25877 25878 25879 25880 25881 25882 25883 25884 25885 25886 25887 25888 25889 25890 25891 25892 25893 25894 25895 25896 25897 25898 25899 25900 25901 25902 25903 25904 25905 25906 25907 25908 25909 25910 25911 25912 25913 25914 25915 25916 25917 25918 25919 25920 25921 25922 25923 25924 25925 25926 25927 25928 25929 25930 25931 25932 25933 25934 25935 25936 25937 25938 25939 25940 25941 25942 25943 25944 25945 25946 25947 25948 25949 25950 25951 25952 25953 25954 25955 25956 25957 25958 25959 25960 25961 25962 25963 25964 25965 25966 25967 25968 25969 25970 25971 25972 25973 25974 25975 25976 25977 25978 25979 25980 25981 25982 25983 25984 25985 25986 25987 25988 25989 25990 25991 25992 25993 25994 25995 25996 25997 25998 25999 26000 26001 26002 26003 26004 26005 26006 26007 26008 26009 26010 26011 26012 26013 26014 26015 26016 26017 26018 26019 26020 26021 26022 26023 26024 26025 26026 26027 26028 26029 26030 26031 26032 26033 26034 26035 26036 26037 26038 26039 26040 26041 26042 26043 26044 26045 26046 26047 26048 26049 26050 26051 26052 26053 26054 26055 26056 26057 26058 26059 26060 26061 26062 26063 26064 26065 26066 26067 26068 26069 26070 26071 26072 26073 26074 26075 26076 26077 26078 26079 26080 26081 26082 26083 26084 26085 26086 26087 26088 26089 26090 26091 26092 26093 26094 26095 26096 26097 26098 26099 26100 26101 26102 26103 26104 26105 26106 26107 26108 26109 26110 26111 26112 26113 26114 26115 26116 26117 26118 26119 26120 26121 26122 26123 26124 26125 26126 26127 26128 26129 26130 26131 26132 26133 26134 26135 26136 26137 26138 26139 26140 26141 26142 26143 26144 26145 26146 26147 26148 26149 26150 26151 26152 26153 26154 26155 26156 26157 26158 26159 26160 26161 26162 26163 26164 26165 26166 26167 26168 26169 26170 26171 26172 26173 26174 26175 26176 26177 26178 26179 26180 26181 26182 26183 26184 26185 26186 26187 26188 26189 26190 26191 26192 26193 26194 26195 26196 26197 26198 26199 26200 26201 26202 26203 26204 26205 26206 26207 26208 26209 26210 26211 26212 26213 26214 26215 26216 26217 26218 26219 26220 26221 26222 26223 26224 26225 26226 26227 26228 26229 26230 26231 26232 26233 26234 26235 26236 26237 26238 26239 26240 26241 26242 26243 26244 26245 26246 26247 26248 26249 26250 26251 26252 26253 26254 26255 26256 26257 26258 26259 26260 26261 26262 26263 26264 26265 26266 26267 26268 26269 26270 26271 26272 26273 26274 26275 26276 26277 26278 26279 26280 26281 26282 26283 26284 26285 26286 26287 26288 26289 26290 26291 26292 26293 26294 26295 26296 26297 26298 26299 26300 26301 26302 26303 26304 26305 26306 26307 26308 26309 26310 26311 26312 26313 26314 26315 26316 26317 26318 26319 26320 26321 26322 26323 26324 26325 26326 26327 26328 26329 26330 26331 26332 26333 26334 26335 26336 26337 26338 26339 26340 26341 26342 26343 26344 26345 26346 26347 26348 26349 26350 26351 26352 26353 26354 26355 26356 26357 26358 26359 26360 26361 26362 26363 26364 26365 26366 26367 26368 26369 26370 26371 26372 26373 26374 26375 26376 26377 26378 26379 26380 26381 26382 26383 26384 26385 26386 26387 26388 26389 26390 26391 26392 26393 26394 26395 26396 26397 26398 26399 26400 26401 26402 26403 26404 26405 26406 26407 26408 26409 26410 26411 26412 26413 26414 26415 26416 26417 26418 26419 26420 26421 26422 26423 26424 26425 26426 26427 26428 26429 26430 26431 26432 26433 26434 26435 26436 26437 26438 26439 26440 26441 26442 26443 26444 26445 26446 26447 26448 26449 26450 26451 26452 26453 26454 26455 26456 26457 26458 26459 26460 26461 26462 26463 26464 26465 26466 26467 26468 26469 26470 26471 26472 26473 26474 26475 26476 26477 26478 26479 26480 26481 26482 26483 26484 26485 26486 26487 26488 26489 26490 26491 26492 26493 26494 26495 26496 26497 26498 26499 26500 26501 26502 26503 26504 26505 26506 26507 26508 26509 26510 26511 26512 26513 26514 26515 26516 26517 26518 26519 26520 26521 26522 26523 26524 26525 26526 26527 26528 26529 26530 26531 26532 26533 26534 26535 26536 26537 26538 26539 26540 26541 26542 26543 26544 26545 26546 26547 26548 26549 26550 26551 26552 26553 26554 26555 26556 26557 26558 26559 26560 26561 26562 26563 26564 26565 26566 26567 26568 26569 26570 26571 26572 26573 26574 26575 26576 26577 26578 26579 26580 26581 26582 26583 26584 26585 26586 26587 26588 26589 26590 26591 26592 26593 26594 26595 26596 26597 26598 26599 26600 26601 26602 26603 26604 26605 26606 26607 26608 26609 26610 26611 26612 26613 26614 26615 26616 26617 26618 26619 26620 26621 26622 26623 26624 26625 26626 26627 26628 26629 26630 26631 26632 26633 26634 26635 26636 26637 26638 26639 26640 26641 26642 26643 26644 26645 26646 26647 26648 26649 26650 26651 26652 26653 26654 26655 26656 26657 26658 26659 26660 26661 26662 26663 26664 26665 26666 26667 26668 26669 26670 26671 26672 26673 26674 26675 26676 26677 26678 26679 26680 26681 26682 26683 26684 26685 26686 26687 26688 26689 26690 26691 26692 26693 26694 26695 26696 26697 26698 26699 26700 26701 26702 26703 26704 26705 26706 26707 26708 26709 26710 26711 26712 26713 26714 26715 26716 26717 26718 26719 26720 26721 26722 26723 26724 26725 26726 26727 26728 26729 26730 26731 26732 26733 26734 26735 26736 26737 26738 26739 26740 26741 26742 26743 26744 26745 26746 26747 26748 26749 26750 26751 26752 26753 26754 26755 26756 26757 26758 26759 26760 26761 26762 26763 26764 26765 26766 26767 26768 26769 26770 26771 26772 26773 26774 26775 26776 26777 26778 26779 26780 26781 26782 26783 26784 26785 26786 26787 26788 26789 26790 26791 26792 26793 26794 26795 26796 26797 26798 26799 26800 26801 26802 26803 26804 26805 26806 26807 26808 26809 26810 26811 26812 26813 26814 26815 26816 26817 26818 26819 26820 26821 26822 26823 26824 26825 26826 26827 26828 26829 26830 26831 26832 26833 26834 26835 26836 26837 26838 26839 26840 26841 26842 26843 26844 26845 26846 26847 26848 26849 26850 26851 26852 26853 26854 26855 26856 26857 26858 26859 26860 26861 26862 26863 26864 26865 26866 26867 26868 26869 26870 26871 26872 26873 26874 26875 26876 26877 26878 26879 26880 26881 26882 26883 26884 26885 26886 26887 26888 26889 26890 26891 26892 26893 26894 26895 26896 26897 26898 26899 26900 26901 26902 26903 26904 26905 26906 26907 26908 26909 26910 26911 26912 26913 26914 26915 26916 26917 26918 26919 26920 26921 26922 26923 26924 26925 26926 26927 26928 26929 26930 26931 26932 26933 26934 26935 26936 26937 26938 26939 26940 26941 26942 26943 26944 26945 26946 26947 26948 26949 26950 26951 26952 26953 26954 26955 26956 26957 26958 26959 26960 26961 26962 26963 26964 26965 26966 26967 26968 26969 26970 26971 26972 26973 26974 26975 26976 26977 26978 26979 26980 26981 26982 26983 26984 26985 26986 26987 26988 26989 26990 26991 26992 26993 26994 26995 26996 26997 26998 26999 27000 27001 27002 27003 27004 27005 27006 27007 27008 27009 27010 27011 27012 27013 27014 27015 27016 27017 27018 27019 27020 27021 27022 27023 27024 27025 27026 27027 27028 27029 27030 27031 27032 27033 27034 27035 27036 27037 27038 27039 27040 27041 27042 27043 27044 27045 27046 27047 27048 27049 27050 27051 27052 27053 27054 27055 27056 27057 27058 27059 27060 27061 27062 27063 27064 27065 27066 27067 27068 27069 27070 27071 27072 27073 27074 27075 27076 27077 27078 27079 27080 27081 27082 27083 27084 27085 27086 27087 27088 27089 27090 27091 27092 27093 27094 27095 27096 27097 27098 27099 27100 27101 27102 27103 27104 27105 27106 27107 27108 27109 27110 27111 27112 27113 27114 27115 27116 27117 27118 27119 27120 27121 27122 27123 27124 27125 27126 27127 27128 27129 27130 27131 27132 27133 27134 27135 27136 27137 27138 27139 27140 27141 27142 27143 27144 27145 27146 27147 27148 27149 27150 27151 27152 27153 27154 27155 27156 27157 27158 27159 27160 27161 27162 27163 27164 27165 27166 27167 27168 27169 27170 27171 27172 27173 27174 27175 27176 27177 27178 27179 27180 27181 27182 27183 27184 27185 27186 27187 27188 27189 27190 27191 27192 27193 27194 27195 27196 27197 27198 27199 27200 27201 27202 27203 27204 27205 27206 27207 27208 27209 27210 27211 27212 27213 27214 27215 27216 27217 27218 27219 27220 27221 27222 27223 27224 27225 27226 27227 27228 27229 27230 27231 27232 27233 27234 27235 27236 27237 27238 27239 27240 27241 27242 27243 27244 27245 27246 27247 27248 27249 27250 27251 27252 27253 27254 27255 27256 27257 27258 27259 27260 27261 27262 27263 27264 27265 27266 27267 27268 27269 27270 27271 27272 27273 27274 27275 27276 27277 27278 27279 27280 27281 27282 27283 27284 27285 27286 27287 27288 27289 27290 27291 27292 27293 27294 27295 27296 27297 27298 27299 27300 27301 27302 27303 27304 27305 27306 27307 27308 27309 27310 27311 27312 27313 27314 27315 27316 27317 27318 27319 27320 27321 27322 27323 27324 27325 27326 27327 27328 27329 27330 27331 27332 27333 27334 27335 27336 27337 27338 27339 27340 27341 27342 27343 27344 27345 27346 27347 27348 27349 27350 27351 27352 27353 27354 27355 27356 27357 27358 27359 27360 27361 27362 27363 27364 27365 27366 27367 27368 27369 27370 27371 27372 27373 27374 27375 27376 27377 27378 27379 27380 27381 27382 27383 27384 27385 27386 27387 27388 27389 27390 27391 27392 27393 27394 27395 27396 27397 27398 27399 27400 27401 27402 27403 27404 27405 27406 27407 27408 27409 27410 27411 27412 27413 27414 27415 27416 27417 27418 27419 27420 27421 27422 27423 27424 27425 27426 27427 27428 27429 27430 27431 27432 27433 27434 27435 27436 27437 27438 27439 27440 27441 27442 27443 27444 27445 27446 27447 27448 27449 27450 27451 27452 27453 27454 27455 27456 27457 27458 27459 27460 27461 27462 27463 27464 27465 27466 27467 27468 27469 27470 27471 27472 27473 27474 27475 27476 27477 27478 27479 27480 27481 27482 27483 27484 27485 27486 27487 27488 27489 27490 27491 27492 27493 27494 27495 27496 27497 27498 27499 27500 27501 27502 27503 27504 27505 27506 27507 27508 27509 27510 27511 27512 27513 27514 27515 27516 27517 27518 27519 27520 27521 27522 27523 27524 27525 27526 27527 27528 27529 27530 27531 27532 27533 27534 27535 27536 27537 27538 27539 27540 27541 27542 27543 27544 27545 27546 27547 27548 27549 27550 27551 27552 27553 27554 27555 27556 27557 27558 27559 27560 27561 27562 27563 27564 27565 27566 27567 27568 27569 27570 27571 27572 27573 27574 27575 27576 27577 27578 27579 27580 27581 27582 27583 27584 27585 27586 27587 27588 27589 27590 27591 27592 27593 27594 27595 27596 27597 27598 27599 27600 27601 27602 27603 27604 27605 27606 27607 27608 27609 27610 27611 27612 27613 27614 27615 27616 27617 27618 27619 27620 27621 27622 27623 27624 27625 27626 27627 27628 27629 27630 27631 27632 27633 27634 27635 27636 27637 27638 27639 27640 27641 27642 27643 27644 27645 27646 27647 27648 27649 27650 27651 27652 27653 27654 27655 27656 27657 27658 27659 27660 27661 27662 27663 27664 27665 27666 27667 27668 27669 27670 27671 27672 27673 27674 27675 27676 27677 27678 27679 27680 27681 27682 27683 27684 27685 27686 27687 27688 27689 27690 27691 27692 27693 27694 27695 27696 27697 27698 27699 27700 27701 27702 27703 27704 27705 27706 27707 27708 27709 27710 27711 27712 27713 27714 27715 27716 27717 27718 27719 27720 27721 27722 27723 27724 27725 27726 27727 27728 27729 27730 27731 27732 27733 27734 27735 27736 27737 27738 27739 27740 27741 27742 27743 27744 27745 27746 27747 27748 27749 27750 27751 27752 27753 27754 27755 27756 27757 27758 27759 27760 27761 27762 27763 27764 27765 27766 27767 27768 27769 27770 27771 27772 27773 27774 27775 27776 27777 27778 27779 27780 27781 27782 27783 27784 27785 27786 27787 27788 27789 27790 27791 27792 27793 27794 27795 27796 27797 27798 27799 27800 27801 27802 27803 27804 27805 27806 27807 27808 27809 27810 27811 27812 27813 27814 27815 27816 27817 27818 27819 27820 27821 27822 27823 27824 27825 27826 27827 27828 27829 27830 27831 27832 27833 27834 27835 27836 27837 27838 27839 27840 27841 27842 27843 27844 27845 27846 27847 27848 27849 27850 27851 27852 27853 27854 27855 27856 27857 27858 27859 27860 27861 27862 27863 27864 27865 27866 27867 27868 27869 27870 27871 27872 27873 27874 27875 27876 27877 27878 27879 27880 27881 27882 27883 27884 27885 27886 27887 27888 27889 27890 27891 27892 27893 27894 27895 27896 27897 27898 27899 27900 27901 27902 27903 27904 27905 27906 27907 27908 27909 27910 27911 27912 27913 27914 27915 27916 27917 27918 27919 27920 27921 27922 27923 27924 27925 27926 27927 27928 27929 27930 27931 27932 27933 27934 27935 27936 27937 27938 27939 27940 27941 27942 27943 27944 27945 27946 27947 27948 27949 27950 27951 27952 27953 27954 27955 27956 27957 27958 27959 27960 27961 27962 27963 27964 27965 27966 27967 27968 27969 27970 27971 27972 27973 27974 27975 27976 27977 27978 27979 27980 27981 27982 27983 27984 27985 27986 27987 27988 27989 27990 27991 27992 27993 27994 27995 27996 27997 27998 27999 28000 28001 28002 28003 28004 28005 28006 28007 28008 28009 28010 28011 28012 28013 28014 28015 28016 28017 28018 28019 28020 28021 28022 28023 28024 28025 28026 28027 28028 28029 28030 28031 28032 28033 28034 28035 28036 28037 28038 28039 28040 28041 28042 28043 28044 28045 28046 28047 28048 28049 28050 28051 28052 28053 28054 28055 28056 28057 28058 28059 28060 28061 28062 28063 28064 28065 28066 28067 28068 28069 28070 28071 28072 28073 28074 28075 28076 28077 28078 28079 28080 28081 28082 28083 28084 28085 28086 28087 28088 28089 28090 28091 28092 28093 28094 28095 28096 28097 28098 28099 28100 28101 28102 28103 28104 28105 28106 28107 28108 28109 28110 28111 28112 28113 28114 28115 28116 28117 28118 28119 28120 28121 28122 28123 28124 28125 28126 28127 28128 28129 28130 28131 28132 28133 28134 28135 28136 28137 28138 28139 28140 28141 28142 28143 28144 28145 28146 28147 28148 28149 28150 28151 28152 28153 28154 28155 28156 28157 28158 28159 28160 28161 28162 28163 28164 28165 28166 28167 28168 28169 28170 28171 28172 28173 28174 28175 28176 28177 28178 28179 28180 28181 28182 28183 28184 28185 28186 28187 28188 28189 28190 28191 28192 28193 28194 28195 28196 28197 28198 28199 28200 28201 28202 28203 28204 28205 28206 28207 28208 28209 28210 28211 28212 28213 28214 28215 28216 28217 28218 28219 28220 28221 28222 28223 28224 28225 28226 28227 28228 28229 28230 28231 28232 28233 28234 28235 28236 28237 28238 28239 28240 28241 28242 28243 28244 28245 28246 28247 28248 28249 28250 28251 28252 28253 28254 28255 28256 28257 28258 28259 28260 28261 28262 28263 28264 28265 28266 28267 28268 28269 28270 28271 28272 28273 28274 28275 28276 28277 28278 28279 28280 28281 28282 28283 28284 28285 28286 28287 28288 28289 28290 28291 28292 28293 28294 28295 28296 28297 28298 28299 28300 28301 28302 28303 28304 28305 28306 28307 28308 28309 28310 28311 28312 28313 28314 28315 28316 28317 28318 28319 28320 28321 28322 28323 28324 28325 28326 28327 28328 28329 28330 28331 28332 28333 28334 28335 28336 28337 28338 28339 28340 28341 28342 28343 28344 28345 28346 28347 28348 28349 28350 28351 28352 28353 28354 28355 28356 28357 28358 28359 28360 28361 28362 28363 28364 28365 28366 28367 28368 28369 28370 28371 28372 28373 28374 28375 28376 28377 28378 28379 28380 28381 28382 28383 28384 28385 28386 28387 28388 28389 28390 28391 28392 28393 28394 28395 28396 28397 28398 28399 28400 28401 28402 28403 28404 28405 28406 28407 28408 28409 28410 28411 28412 28413 28414 28415 28416 28417 28418 28419 28420 28421 28422 28423 28424 28425 28426 28427 28428 28429 28430 28431 28432 28433 28434 28435 28436 28437 28438 28439 28440 28441 28442 28443 28444 28445 28446 28447 28448 28449 28450 28451 28452 28453 28454 28455 28456 28457 28458 28459 28460 28461 28462 28463 28464 28465 28466 28467 28468 28469 28470 28471 28472 28473 28474 28475 28476 28477 28478 28479 28480 28481 28482 28483 28484 28485 28486 28487 28488 28489 28490 28491 28492 28493 28494 28495 28496 28497 28498 28499 28500 28501 28502 28503 28504 28505 28506 28507 28508 28509 28510 28511 28512 28513 28514 28515 28516 28517 28518 28519 28520 28521 28522 28523 28524 28525 28526 28527 28528 28529 28530 28531 28532 28533 28534 28535 28536 28537 28538 28539 28540 28541 28542 28543 28544 28545 28546 28547 28548 28549 28550 28551 28552 28553 28554 28555 28556 28557 28558 28559 28560 28561 28562 28563 28564 28565 28566 28567 28568 28569 28570 28571 28572 28573 28574 28575 28576 28577 28578 28579 28580 28581 28582 28583 28584 28585 28586 28587 28588 28589 28590 28591 28592 28593 28594 28595 28596 28597 28598 28599 28600 28601 28602 28603 28604 28605 28606 28607 28608 28609 28610 28611 28612 28613 28614 28615 28616 28617 28618 28619 28620 28621 28622 28623 28624 28625 28626 28627 28628 28629 28630 28631 28632 28633 28634 28635 28636 28637 28638 28639 28640 28641 28642 28643 28644 28645 28646 28647 28648 28649 28650 28651 28652 28653 28654 28655 28656 28657 28658 28659 28660 28661 28662 28663 28664 
</DataArray>
<DataArray type="UInt32" Name="offsets" format="ascii">
3 6 9 12 15 18 20 23 26 28 31 34 37 39 42 45 47 50 52 55 58 60 63 66 69 72 74 77 80 82 85 88 91 93 96 98 101 104 107 110 113 116 118 121 124 127 130 133 135 138 141 144 147 150 153 155 158 161 164 166 169 172 175 178 181 184 187 190 193 195 198 201 204 207 210 213 216 219 222 224 227 230 233 236 239 242 244 247 250 253 256 259 261 264 267 270 273 276 279 282 284 287 290 293 296 299 302 305 308 311 314 316 319 322 325 328 331 334 336 339 342 345 348 351 353 356 358 361 364 367 370 373 376 379 381 384 387 389 392 395 398 401 403 406 409 412 415 417 419 422 425 428 431 434 437 440 442 445 448 450 453 456 458 461 464 466 468 471 474 477 480 483 486 489 492 494 497 500 503 505 508 511 514 516 518 521 524 527 530 533 536 538 541 544 547 550 553 556 559 561 564 567 570 573 575 578 581 584 587 589 592 595 598 601 604 607 610 613 616 619 622 625 628 630 633 636 639 642 645 647 650 653 656 659 662 665 668 671 674 677 680 683 686 689 692 695 698 701 704 707 710 713 716 719 722 725 728 731 734 736 739 742 745 748 750 753 756 759 762 765 768 770 773 776 779 781 784 787 790 793 795 797 800 803 806 809 812 815 818 821 824 826 829 832 835 838 841 844 847 849 852 855 858 861 864 866 869 872 875 878 881 884 887 890 893 896 899 902 905 908 911 914 916 918 921 924 927 930 933 935 938 941 944 947 950 952 955 958 961 964 967 970 972 975 978 981 984 987 989 992 994 997 1000 1002 1005 1008 1010 1013 1015 1018 1021 1024 1026 1029 1032 1035 1037 1040 1043 1046 1049 1052 1055 1057 1059 1062 1065 1068 1071 1074 1077 1079 1081 1084 1087 1090 1093 1096 1099 1101 1104 1106 1109 1112 1115 1117 1120 1123 1126 1129 1132 1135 1138 1141 1144 1147 1150 1153 1156 1159 1161 1164 1167 1170 1173 1176 1178 1180 1183 1186 1189 1192 1195 1198 1201 1203 1206 1209 1212 1215 1218 1221 1224 1227 1230 1233 1235 1238 1241 1244 1247 1250 1253 1256 1258 1261 1264 1267 1270 1273 1276 1279 1282 1285 1288 1291 1294 1297 1300 1303 1306 1309 1312 1315 1318 1321 1324 1327 1330 1333 1336 1339 1342 1345 1348 1351 1354 1357 1360 1363 1366 1369 1372 1375 1378 1381 1384 1387 1390 1393 1396 1399 1401 1404 1406 1409 1412 1415 1418 1421 1424 1426 1429 1432 1435 1438 1441 1444 1447 1450 1453 1456 1458 1461 1464 1467 1469 1471 1474 1477 1479 1482 1485 1488 1490 1493 1496 1499 1501 1504 1507 1510 1513 1516 1519 1521 1524 1527 1530 1533 1536 1539 1542 1545 1548 1551 1554 1557 1560 1562 1565 1568 1571 1573 1576 1579 1581 1584 1587 1590 1593 1595 1598 1600 1603 1606 1609 1611 1614 1617 1620 1622 1625 1628 1631 1634 1637 1640 1643 1646 1649 1652 1655 1658 1660 1663 1666 1669 1672 1674 1677 1679 1682 1685 1688 1691 1694 1697 1700 1703 1706 1709 1712 1715 1717 1720 1723 1726 1729 1732 1735 1738 1740 1743 1746 1748 1751 1754 1756 1759 1762 1765 1768 1771 1774 1777 1780 1783 1786 1789 1792 1795 1798 1801 1804 1807 1810 1813 1816 1818 1821 1824 1827 1830 1832 1835 1838 1841 1844 1846 1849 1852 1855 1858 1860 1863 1866 1869 1872 1875 1878 1881 1884 1887 1890 1893 1896 1899 1902 1905 1908 1911 1914 1917 1920 1923 1925 1928 1931 1933 1935 1938 1941 1944 1947 1950 1953 1956 1959 1962 1965 1968 1971 1974 1977 1980 1983 1986 1989 1992 1995 1998 2001 2004 2007 2010 2012 2015 2018 2021 2023 2026 2028 2031 2034 2036 2039 2042 2044 2047 2050 2052 2055 2057 2060 2063 2066 2069 2071 2074 2076 2079 2082 2085 2088 2091 2093 2096 2099 2102 2105 2108 2111 2114 2117 2120 2123 2126 2129 2132 2135 2138 2141 2144 2147 2150 2153 2156 2159 2162 2165 2168 2171 2174 2177 2179 2182 2185 2188 2191 2194 2197 2200 2203 2206 2208 2211 2213 2216 2219 2222 2225 2228 2230 2233 2236 2239 2241 2244 2247 2250 2253 2256 2259 2262 2265 2268 2271 2274 2277 2280 2283 2286 2289 2292 2295 2298 2301 2304 2307 2309 2312 2315 2318 2321 2324 2327 2330 2333 2336 2339 2341 2344 2347 2350 2352 2355 2358 2361 2363 2366 2369 2372 2375 2378 2381 2383 2386 2389 2392 2395 2397 2400 2403 2406 2409 2412 2414 2417 2420 2423 2426 2429 2432 2435 2437 2440 2443 2446 2449 2452 2454 2457 2460 2463 2465 2468 2471 2474 2477 2479 2482 2484 2486 2489 2492 2495 2498 2501 2504 2506 2509 2511 2514 2516 2518 2520 2522 2525 2528 2531 2533 2536 2539 2542 2544 2547 2550 2553 2556 2558 2560 2563 2566 2569 2571 2573 2576 2579 2582 2585 2587 2590 2593 2596 2599 2602 2604 2607 2610 2613 2616 2619 2622 2625 2627 2630 2633 2636 2639 2642 2645 2648 2651 2654 2656 2659 2662 2665 2668 2670 2673 2676 2679 2682 2685 2688 2691 2693 2696 2699 2701 2703 2706 2709 2711 2714 2717 2720 2723 2726 2729 2732 2735 2738 2741 2743 2745 2747 2750 2753 2755 2757 2760 2762 2765 2768 2771 2774 2777 2779 2781 2784 2787 2790 2792 2795 2798 2800 2802 2805 2808 2811 2813 2816 2818 2820 2823 2826 2829 2832 2835 2837 2839 2842 2845 2848 2851 2854 2856 2859 2862 2865 2867 2870 2873 2876 2879 2882 2884 2887 2890 2893 2896 2899 2902 2905 2908 2911 2914 2917 2920 2923 2926 2928 2931 2934 2936 2939 2942 2945 2948 2951 2954 2957 2960 2962 2964 2967 2970 2973 2976 2978 2981 2984 2987 2989 2992 2995 2997 2999 3002 3004 3007 3010 3013 3015 3017 3020 3022 3024 3027 3030 3032 3035 3038 3041 3043 3046 3049 3052 3055 3058 3060 3063 3065 3068 3071 3073 3076 3079 3082 3085 3088 3091 3094 3097 3100 3103 3106 3109 3112 3115 3117 3120 3123 3126 3129 3132 3135 3138 3141 3144 3147 3149 3152 3155 3158 3160 3163 3166 3169 3172 3175 3177 3180 3183 3186 3189 3192 3195 3198 3201 3204 3207 3210 3213 3216 3219 3222 3225 3228 3231 3234 3237 3240 3243 3246 3249 3252 3254 3257 3260 3263 3266 3269 3272 3274 3277 3279 3282 3284 3286 3289 3292 3294 3297 3300 3302 3305 3308 3310 3313 3316 3319 3322 3325 3328 3331 3333 3336 3339 3342 3345 3348 3350 3353 3356 3359 3362 3365 3367 3370 3373 3376 3379 3382 3385 3388 3391 3394 3397 3400 3403 3406 3409 3412 3415 3418 3421 3424 3427 3430 3433 3436 3439 3441 3444 3447 3450 3453 3456 3459 3461 3464 3467 3470 3473 3476 3479 3482 3485 3488 3491 3494 3497 3500 3503 3506 3509 3512 3515 3518 3520 3523 3526 3529 3532 3535 3538 3541 3544 3546 3548 3551 3553 3556 3559 3562 3565 3568 3571 3574 3577 3580 3583 3586 3589 3592 3595 3598 3601 3604 3607 3610 3613 3616 3619 3622 3625 3628 3630 3633 3635 3638 3641 3643 3646 3649 3652 3655 3658 3661 3664 3667 3670 3673 3676 3679 3682 3685 3688 3691 3694 3697 3700 3703 3705 3708 3711 3713 3716 3719 3722 3725 3728 3731 3733 3736 3739 3741 3744 3747 3750 3753 3756 3759 3762 3765 3768 3771 3774 3777 3780 3783 3785 3788 3791 3794 3797 3800 3803 3806 3809 3811 3814 3817 3820 3823 3826 3828 3831 3834 3836 3839 3842 3845 3848 3851 3854 3857 3860 3863 3866 3869 3872 3875 3878 3881 3884 3887 3890 3893 3896 3899 3902 3904 3907 3910 3913 3916 3919 3922 3924 3927 3929 3932 3935 3938 3941 3944 3947 3950 3953 3956 3959 3962 3965 3967 3970 3973 3976 3979 3981 3984 3986 3989 3992 3995 3998 4000 4003 4005 4007 4010 4012 4015 4017 4020 4022 4025 4027 4029 4032 4035 4038 4040 4042 4044 4046 4049 4051 4053 4056 4059 4062 4065 4067 4070 4072 4074 4077 4079 4081 4084 4087 4090 4092 4095 4098 4101 4104 4106 4109 4112 4114 4117 4120 4122 4125 4128 4131 4134 4137 4139 4142 4144 4147 4150 4153 4156 4158 4161 4164 4166 4169 4172 4175 4178 4181 4183 4186 4189 4191 4194 4196 4199 4202 4205 4208 4211 4214 4216 4219 4222 4224 4227 4229 4232 4235 4237 4240 4243 4246 4248 4251 4254 4256 4259 4262 4264 4266 4269 4272 4275 4277 4280 4283 4285 4288 4290 4293 4296 4299 4302 4305 4307 4310 4313 4315 4318 4321 4324 4327 4329 4331 4334 4337 4340 4343 4346 4349 4352 4355 4357 4359 4362 4365 4368 4370 4373 4375 4378 4381 4383 4386 4389 4392 4394 4397 4400 4403 4406 4409 4412 4415 4418 4421 4424 4427 4430 4433 4436 4439 4442 4445 4448 4451 4454 4457 4460 4463 4466 4469 4472 4475 4478 4481 4484 4487 4490 4493 4495 4498 4501 4504 4507 4510 4513 4516 4518 4521 4524 4527 4530 4533 4536 4539 4542 4545 4548 4551 4554 4557 4559 4562 4565 4568 4570 4573 4576 4578 4580 4583 4586 4589 4592 4595 4598 4600 4602 4605 4608 4611 4614 4617 4620 4623 4626 4629 4632 4635 4638 4641 4644 4647 4650 4653 4656 4659 4662 4664 4667 4670 4673 4676 4679 4682 4685 4688 4691 4693 4696 4699 4701 4704 4707 4710 4713 4716 4719 4722 4725 4728 4731 4734 4737 4740 4743 4746 4749 4752 4755 4758 4761 4764 4767 4770 4773 4775 4778 4781 4783 4786 4789 4792 4795 4798 4801 4804 4807 4810 4813 4816 4819 4822 4825 4828 4830 4833 4836 4839 4842 4845 4848 4851 4854 4857 4860 4862 4865 4868 4871 4874 4877 4880 4883 4886 4889 4892 4895 4898 4901 4904 4907 4910 4913 4916 4919 4921 4924 4927 4930 4933 4936 4939 4941 4944 4947 4950 4953 4956 4959 4962 4965 4968 4971 4974 4977 4980 4983 4986 4989 4992 4994 4997 5000 5003 5006 5009 5011 5014 5017 5020 5022 5025 5028 5031 5034 5037 5040 5043 5046 5049 5052 5055 5058 5061 5063 5066 5069 5072 5075 5078 5081 5083 5086 5089 5092 5095 5098 5100 5103 5105 5108 5110 5113 5115 5118 5121 5124 5127 5130 5133 5136 5139 5142 5145 5148 5151 5154 5157 5160 5163 5166 5169 5172 5175 5177 5180 5183 5186 5189 5191 5194 5197 5200 5203 5206 5209 5212 5215 5218 5221 5224 5227 5230 5233 5236 5239 5242 5245 5247 5250 5253 5256 5258 5261 5263 5266 5269 5272 5275 5278 5280 5283 5286 5289 5292 5295 5298 5301 5304 5307 5310 5312 5315 5318 5321 5324 5327 5330 5332 5335 5338 5341 5344 5347 5350 5353 5356 5359 5362 5364 5367 5369 5372 5374 5377 5380 5383 5386 5389 5391 5394 5397 5400 5403 5406 5408 5411 5414 5417 5420 5423 5426 5429 5431 5434 5437 5440 5443 5446 5449 5452 5454 5457 5460 5463 5466 5468 5471 5473 5476 5479 5482 5485 5488 5491 5494 5497 5500 5503 5505 5508 5511 5514 5517 5520 5522 5525 5528 5531 5534 5537 5540 5543 5545 5548 5551 5554 5557 5559 5562 5565 5567 5570 5573 5576 5578 5581 5584 5587 5590 5593 5596 5599 5601 5604 5607 5610 5613 5616 5619 5622 5625 5628 5631 5633 5636 5639 5642 5645 5647 5650 5653 5656 5659 5662 5665 5668 5671 5674 5677 5680 5683 5686 5689 5692 5695 5698 5701 5704 5707 5710 5713 5716 5719 5722 5725 5728 5731 5734 5737 5739 5742 5745 5748 5750 5753 5756 5759 5762 5765 5768 5771 5774 5777 5780 5783 5786 5789 5792 5795 5797 5800 5803 5806 5809 5812 5814 5817 5820 5823 5826 5829 5832 5835 5838 5841 5844 5846 5849 5852 5855 5858 5861 5864 5867 5869 5872 5875 5878 5881 5884 5887 5890 5893 5895 5898 5901 5904 5906 5909 5912 5915 5918 5921 5924 5927 5930 5933 5936 5939 5942 5944 5946 5949 5952 5955 5958 5960 5963 5966 5969 5972 5975 5977 5980 5983 5986 5989 5991 5994 5997 6000 6003 6006 6009 6012 6015 6018 6021 6024 6027 6030 6033 6036 6039 6042 6045 6047 6050 6053 6056 6059 6061 6064 6066 6069 6072 6075 6078 6081 6084 6087 6090 6093 6096 6099 6102 6105 6108 6111 6113 6116 6119 6122 6125 6127 6130 6133 6136 6139 6142 6145 6148 6151 6154 6156 6159 6162 6165 6168 6171 6174 6177 6180 6183 6186 6189 6192 6195 6198 6201 6204 6207 6210 6213 6216 6219 6222 6225 6228 6231 6234 6237 6240 6243 6246 6249 6252 6255 6258 6261 6264 6267 6270 6273 6275 6278 6281 6284 6287 6290 6293 6295 6298 6301 6304 6307 6310 6313 6316 6319 6322 6325 6328 6331 6334 6337 6340 6342 6345 6348 6351 6354 6357 6360 6363 6366 6369 6372 6375 6378 6381 6384 6386 6389 6392 6395 6398 6401 6404 6407 6409 6412 6415 6418 6420 6423 6426 6429 6431 6434 6437 6440 6443 6445 6448 6451 6454 6457 6459 6462 6465 6468 6471 6474 6477 6480 6483 6486 6489 6492 6495 6498 6501 6503 6506 6509 6512 6514 6517 6520 6523 6525 6528 6531 6534 6536 6539 6541 6544 6547 6550 6553 6556 6559 6562 6565 6568 6571 6574 6577 6580 6583 6586 6589 6592 6595 6598 6601 6604 6607 6610 6613 6616 6619 6622 6625 6628 6631 6633 6636 6639 6642 6644 6647 6650 6653 6656 6658 6661 6664 6667 6670 6672 6675 6678 6681 6684 6687 6690 6692 6695 6698 6701 6704 6707 6710 6713 6716 6719 6722 6725 6728 6731 6733 6736 6739 6742 6744 6747 6750 6753 6756 6759 6761 6764 6767 6769 6772 6775 6777 6780 6783 6785 6788 6791 6793 6796 6799 6802 6804 6807 6810 6812 6814 6817 6820 6822 6824 6827 6830 6832 6835 6838 6841 6844 6847 6850 6853 6855 6858 6861 6864 6867 6870 6873 6875 6878 6881 6884 6887 6889 6892 6894 6897 6900 6903 6905 6908 6911 6914 6917 6920 6923 6926 6929 6931 6934 6937 6940 6943 6945 6948 6950 6953 6956 6959 6961 6964 6967 6970 6973 6976 6979 6982 6984 6987 6990 6993 6996 6999 7002 7005 7008 7011 7014 7017 7020 7023 7026 7029 7032 7035 7038 7041 7044 7047 7050 7053 7056 7059 7062 7065 7068 7071 7074 7077 7080 7083 7086 7089 7092 7095 7098 7101 7103 7106 7109 7112 7115 7117 7120 7123 7126 7129 7132 7135 7138 7140 7143 7146 7149 7152 7154 7157 7160 7162 7165 7167 7170 7173 7176 7179 7181 7184 7187 7190 7193 7195 7198 7201 7204 7207 7210 7213 7216 7219 7222 7225 7228 7231 7234 7237 7240 7243 7246 7249 7252 7255 7258 7261 7264 7267 7270 7273 7276 7279 7282 7284 7287 7290 7293 7296 7299 7302 7305 7308 7311 7314 7317 7320 7323 7326 7329 7332 7334 7337 7340 7343 7346 7349 7352 7355 7358 7361 7364 7367 7370 7373 7375 7378 7381 7384 7387 7390 7393 7396 7399 7402 7405 7408 7411 7414 7417 7420 7423 7426 7429 7432 7435 7438 7440 7443 7446 7449 7452 7455 7458 7461 7464 7467 7470 7473 7476 7479 7482 7485 7487 7490 7492 7495 7497 7500 7503 7506 7509 7511 7514 7517 7520 7523 7526 7529 7531 7534 7537 7540 7543 7546 7549 7552 7555 7558 7560 7562 7565 7568 7571 7574 7576 7579 7582 7585 7588 7591 7594 7597 7600 7603 7606 7609 7612 7615 7617 7619 7622 7625 7628 7630 7633 7636 7639 7641 7644 7647 7650 7653 7656 7659 7662 7665 7668 7671 7673 7676 7679 7682 7685 7688 7691 7693 7696 7699 7702 7705 7707 7710 7713 7716 7719 7722 7725 7728 7731 7733 7736 7739 7742 7745 7748 7751 7754 7757 7760 7763 7765 7768 7771 7774 7777 7780 7783 7786 7788 7791 7793 7796 7799 7802 7805 7808 7811 7814 7817 7820 7823 7826 7829 7832 7835 7838 7841 7844 7847 7850 7853 7856 7859 7862 7864 7867 7870 7873 7876 7879 7881 7884 7887 7890 7893 7896 7899 7902 7905 7908 7910 7913 7916 7918 7921 7923 7926 7929 7932 7934 7936 7939 7942 7944 7947 7950 7953 7955 7958 7961 7964 7967 7970 7973 7976 7979 7982 7985 7988 7991 7994 7997 8000 8003 8006 8009 8012 8015 8018 8021 8024 8026 8029 8032 8035 8038 8040 8043 8046 8049 8052 8055 8058 8061 8064 8067 8070 8073 8076 8079 8082 8085 8088 8091 8094 8097 8100 8103 8106 8109 8112 8114 8117 8120 8123 8125 8128 8131 8134 8137 8140 8143 8146 8149 8152 8154 8157 8160 8163 8166 8168 8171 8173 8176 8179 8182 8185 8188 8190 8193 8196 8199 8201 8204 8207 8210 8213 8216 8219 8222 8225 8227 8230 8233 8236 8239 8242 8245 8248 8251 8254 8257 8260 8263 8266 8268 8271 8274 8277 8280 8282 8285 8288 8291 8293 8296 8299 8302 8305 8307 8310 8313 8316 8319 8322 8325 8328 8331 8334 8337 8340 8343 8346 8349 8352 8355 8357 8359 8362 8365 8368 8371 8374 8377 8380 8383 8386 8389 8392 8395 8398 8401 8404 8407 8410 8413 8415 8418 8421 8424 8427 8430 8433 8436 8439 8441 8444 8447 8450 8452 8455 8458 8461 8464 8467 8470 8473 8476 8479 8481 8484 8487 8490 8493 8495 8498 8501 8504 8507 8510 8513 8516 8519 8522 8525 8528 8530 8533 8536 8539 8542 8545 8548 8551 8553 8556 8559 8562 8564 8567 8570 8573 8576 8579 8582 8585 8587 8590 8593 8596 8599 8602 8605 8608 8611 8614 8617 8620 8623 8626 8629 8632 8635 8638 8641 8644 8647 8650 8653 8655 8658 8661 8664 8666 8669 8672 8675 8678 8681 8684 8687 8690 8693 8696 8699 8702 8705 8708 8711 8714 8717 8720 8723 8726 8728 8731 8734 8737 8740 8743 8746 8748 8751 8754 8757 8760 8762 8765 8767 8769 8771 8774 8777 8780 8783 8786 8788 8791 8794 8797 8800 8803 8806 8809 8812 8815 8818 8821 8824 8827 8830 8833 8836 8839 8842 8845 8848 8851 8854 8857 8860 8863 8865 8868 8871 8874 8877 8880 8883 8886 8889 8891 8894 8896 8899 8902 8905 8908 8911 8914 8916 8919 8922 8925 8928 8931 8934 8937 8940 8943 8946 8949 8952 8955 8958 8961 8964 8967 8970 8973 8976 8979 8982 8985 8988 8991 8994 8997 9000 9003 9006 9009 9012 9015 9018 9021 9024 9027 9029 9032 9035 9038 9040 9042 9045 9048 9051 9054 9057 9060 9062 9065 9067 9070 9073 9076 9079 9082 9084 9087 9090 9093 9096 9099 9101 9104 9107 9110 9113 9116 9119 9122 9125 9127 9130 9133 9136 9139 9142 9145 9148 9151 9154 9157 9160 9163 9166 9169 9172 9175 9178 9181 9184 9187 9190 9193 9196 9199 9202 9205 9207 9210 9213 9216 9219 9221 9224 9227 9230 9233 9235 9238 9241 9244 9247 9250 9253 9255 9258 9261 9263 9266 9269 9271 9274 9277 9279 9282 9285 9288 9291 9294 9297 9300 9303 9306 9309 9312 9315 9318 9321 9324 9327 9330 9333 9336 9339 9342 9345 9348 9351 9354 9357 9360 9363 9366 9369 9372 9375 9378 9381 9384 9387 9390 9393 9396 9399 9402 9405 9408 9411 9414 9417 9420 9423 9426 9429 9432 9435 9438 9441 9444 9447 9450 9453 9456 9459 9462 9465 9468 9471 9474 9477 9480 9483 9486 9489 9492 9495 9498 9501 9504 9507 9510 9512 9515 9518 9521 9524 9527 9530 9533 9536 9539 9542 9545 9548 9551 9554 9557 9560 9563 9566 9568 9571 9574 9577 9579 9582 9585 9588 9590 9593 9596 9598 9601 9604 9606 9609 9612 9615 9618 9621 9624 9627 9630 9633 9636 9639 9642 9645 9648 9651 9654 9657 9660 9663 9666 9669 9672 9675 9678 9681 9684 9687 9689 9692 9694 9697 9700 9703 9706 9708 9711 9714 9717 9720 9723 9726 9729 9732 9735 9738 9741 9744 9747 9750 9753 9755 9758 9761 9764 9767 9770 9773 9776 9779 9782 9785 9788 9791 9794 9796 9799 9802 9805 9808 9811 9814 9817 9820 9822 9825 9828 9831 9834 9837 9839 9842 9845 9847 9850 9852 9855 9858 9860 9863 9866 9869 9872 9875 9878 9881 9884 9887 9890 9893 9896 9898 9901 9904 9907 9910 9913 9916 9918 9921 9924 9927 9930 9933 9935 9938 9941 9944 9946 9949 9952 9955 9958 9961 9964 9967 9970 9973 9976 9979 9982 9985 9988 9991 9994 9997 10000 10003 10006 10009 10012 10015 10017 10020 10023 10026 10029 10032 10035 10038 10041 10044 10047 10050 10053 10055 10058 10061 10063 10066 10069 10072 10075 10078 10081 10084 10087 10090 10093 10096 10099 10102 10105 10107 10110 10113 10116 10119 10122 10124 10127 10130 10133 10136 10139 10142 10145 10148 10151 10154 10157 10160 10162 10165 10168 10171 10174 10177 10180 10182 10185 10188 10191 10194 10196 10199 10202 10205 10208 10211 10214 10217 10220 10223 10225 10228 10231 10234 10237 10240 10243 10246 10249 10252 10255 10258 10261 10264 10267 10270 10273 10275 10278 10281 10284 10287 10289 10292 10295 10297 10300 10302 10305 10308 10311 10314 10317 10320 10323 10326 10329 10331 10334 10337 10340 10342 10344 10347 10350 10353 10356 10359 10362 10365 10368 10371 10374 10377 10379 10382 10385 10388 10391 10394 10397 10399 10402 10405 10407 10410 10413 10416 10419 10422 10425 10428 10431 10434 10437 10439 10442 10445 10448 10451 10454 10457 10459 10462 10465 10468 10471 10474 10477 10480 10483 10486 10488 10491 10494 10496 10498 10501 10504 10507 10510 10513 10516 10519 10522 10525 10528 10531 10534 10536 10539 10541 10544 10547 10549 10552 10555 10558 10561 10564 10567 10569 10572 10575 10578 10581 10584 10587 10590 10593 10596 10598 10601 10603 10605 10608 10611 10613 10616 10618 10621 10624 10627 10630 10633 10635 10638 10641 10644 10647 10650 10652 10655 10657 10660 10663 10665 10668 10671 10673 10676 10679 10682 10685 10688 10691 10694 10697 10700 10703 10706 10709 10712 10715 10718 10721 10724 10727 10730 10733 10736 10739 10742 10745 10748 10751 10754 10757 10760 10762 10764 10767 10770 10773 10776 10779 10782 10785 10787 10790 10793 10796 10798 10800 10803 10805 10808 10811 10814 10817 10820 10823 10825 10828 10831 10834 10837 10839 10842 10845 10848 10851 10854 10857 10860 10863 10866 10869 10872 10875 10877 10879 10882 10885 10888 10891 10894 10897 10899 10902 10905 10908 10911 10913 10916 10918 10920 10923 10926 10928 10931 10934 10937 10940 10942 10945 10947 10949 10952 10955 10958 10961 10964 10966 10969 10972 10975 10978 10981 10983 10986 10989 10992 10995 10997 11000 11003 11005 11008 11010 11013 11016 11019 11021 11023 11026 11029 11032 11034 11037 11039 11042 11045 11047 11050 11053 11056 11059 11062 11065 11067 11070 11073 11076 11079 11082 11085 11088 11091 11094 11097 11100 11103 11106 11109 11111 11114 11117 11120 11123 11126 11129 11131 11134 11137 11140 11143 11146 11149 11152 11154 11157 11159 11162 11165 11167 11170 11172 11175 11178 11181 11183 11186 11189 11192 11195 11197 11200 11203 11205 11208 11211 11214 11217 11220 11223 11226 11229 11232 11235 11237 11240 11242 11245 11248 11251 11254 11257 11259 11262 11265 11267 11270 11273 11276 11279 11282 11285 11288 11291 11294 11297 11300 11303 11306 11309 11311 11314 11317 11320 11323 11326 11329 11332 11335 11338 11340 11343 11346 11349 11352 11355 11358 11361 11364 11367 11370 11372 11375 11378 11381 11384 11387 11389 11392 11395 11398 11401 11404 11406 11408 11411 11414 11417 11420 11422 11425 11428 11431 11434 11437 11440 11443 11445 11448 11451 11453 11456 11459 11462 11464 11467 11470 11473 11476 11479 11482 11485 11488 11491 11494 11497 11500 11503 11506 11509 11512 11515 11518 11521 11524 11527 11530 11533 11536 11539 11542 11545 11548 11551 11554 11557 11560 11563 11566 11569 11572 11575 11578 11581 11584 11587 11590 11593 11596 11599 11602 11605 11608 11610 11613 11616 11619 11622 11625 11627 11630 11633 11636 11639 11642 11645 11648 11650 11653 11656 11659 11661 11664 11666 11669 11672 11675 11678 11681 11683 11686 11689 11692 11695 11698 11701 11703 11706 11709 11712 11715 11718 11721 11724 11727 11730 11733 11735 11738 11741 11744 11747 11750 11753 11755 11758 11761 11764 11767 11770 11773 11776 11779 11782 11784 11787 11790 11793 11796 11799 11802 11805 11807 11810 11813 11816 11819 11822 11825 11828 11831 11834 11837 11840 11843 11846 11849 11852 11855 11858 11861 11864 11866 11868 11870 11873 11876 11879 11881 11884 11886 11889 11892 11895 11898 11901 11904 11907 11910 11913 11916 11919 11922 11925 11928 11931 11934 11937 11940 11943 11946 11949 11952 11955 11958 11961 11964 11967 11970 11973 11976 11979 11982 11985 11988 11991 11994 11997 12000 12003 12005 12008 12011 12014 12017 12019 12021 12024 12027 12029 12031 12034 12037 12040 12043 12046 12049 12052 12054 12057 12060 12063 12065 12068 12071 12074 12077 12080 12083 12086 12089 12091 12093 12095 12097 12100 12103 12105 12108 12111 12113 12116 12118 12121 12124 12126 12128 12131 12134 12136 12138 12141 12144 12147 12150 12152 12155 12158 12161 12164 12167 12170 12173 12176 12179 12182 12185 12188 12190 12193 12195 12198 12200 12203 12205 12208 12210 12213 12216 12219 12222 12225 12228 12230 12233 12235 12238 12240 12242 12245 12248 12251 12254 12257 12260 12263 12266 12269 12272 12275 12278 12281 12284 12287 12290 12293 12296 12299 12302 12305 12308 12311 12314 12317 12320 12323 12326 12329 12332 12335 12338 12341 12344 12347 12349 12352 12355 12358 12361 12364 12367 12370 12373 12376 12379 12381 12384 12387 12390 12393 12396 12398 12401 12404 12407 12410 12413 12416 12418 12421 12424 12427 12430 12433 12436 12439 12442 12445 12447 12450 12452 12455 12458 12461 12464 12467 12469 12472 12475 12477 12480 12483 12485 12488 12491 12494 12496 12499 12502 12505 12508 12511 12514 12517 12520 12523 12525 12528 12531 12534 12537 12539 12542 12545 12548 12551 12554 12557 12560 12563 12566 12569 12572 12575 12578 12581 12584 12587 12590 12593 12596 12599 12602 12605 12608 12611 12614 12617 12620 12623 12626 12629 12632 12635 12638 12640 12643 12646 12649 12652 12655 12658 12661 12664 12667 12670 12673 12676 12679 12682 12685 12687 12690 12693 12696 12699 12702 12705 12708 12711 12714 12717 12720 12722 12725 12728 12731 12734 12737 12740 12742 12745 12748 12751 12754 12757 12760 12763 12766 12769 12771 12774 12777 12780 12782 12785 12788 12791 12794 12797 12800 12803 12806 12809 12812 12815 12818 12821 12824 12827 12830 12833 12836 12839 12842 12845 12848 12851 12854 12856 12859 12862 12865 12868 12871 12874 12877 12880 12883 12885 12888 12891 12894 12896 12899 12902 12905 12908 12911 12913 12916 12919 12922 12925 12927 12930 12933 12936 12939 12942 12945 12948 12951 12954 12957 12960 12962 12965 12967 12970 12973 12975 12978 12981 12984 12987 12990 12993 12996 12999 13002 13004 13007 13010 13013 13016 13019 13022 13025 13028 13031 13034 13037 13040 13042 13045 13048 13051 13054 13057 13060 13063 13066 13069 13072 13074 13076 13079 13082 13085 13088 13090 13093 13096 13099 13101 13104 13106 13109 13112 13115 13118 13121 13124 13126 13129 13131 13134 13137 13139 13142 13145 13147 13150 13153 13156 13159 13162 13165 13168 13171 13173 13176 13179 13181 13183 13186 13189 13192 13195 13198 13201 13204 13207 13209 13212 13215 13217 13220 13222 13225 13228 13230 13232 13235 13238 13240 13242 13244 13246 13249 13251 13254 13257 13260 13263 13265 13268 13271 13274 13277 13280 13282 13284 13286 13289 13292 13294 13296 13299 13302 13305 13307 13310 13313 13316 13319 13322 13324 13326 13329 13332 13335 13338 13341 13344 13347 13350 13353 13356 13359 13362 13365 13368 13371 13374 13376 13379 13382 13385 13387 13390 13392 13395 13398 13401 13404 13407 13410 13413 13415 13418 13421 13424 13427 13429 13432 13435 13438 13440 13443 13445 13448 13451 13454 13457 13460 13463 13466 13469 13472 13475 13478 13481 13484 13487 13490 13493 13496 13499 13502 13505 13508 13511 13514 13517 13519 13522 13525 13528 13531 13533 13536 13539 13542 13545 13548 13551 13554 13557 13560 13563 13566 13569 13572 13574 13577 13580 13583 13586 13589 13592 13595 13598 13601 13604 13607 13610 13613 13616 13619 13622 13625 13628 13631 13633 13636 13639 13642 13645 13648 13651 13653 13655 13658 13661 13664 13667 13670 13673 13676 13679 13682 13685 13688 13691 13694 13697 13700 13703 13706 13709 13711 13714 13717 13719 13722 13725 13727 13730 13733 13736 13739 13742 13745 13748 13751 13754 13757 13760 13763 13766 13769 13772 13775 13777 13780 13782 13785 13788 13791 13794 13797 13800 13803 13805 13808 13811 13814 13817 13820 13823 13826 13828 13831 13834 13837 13840 13843 13846 13848 13851 13854 13857 13859 13862 13865 13867 13870 13873 13876 13879 13882 13885 13888 13891 13894 13897 13900 13903 13906 13909 13912 13915 13918 13921 13924 13927 13930 13933 13936 13939 13942 13945 13948 13951 13954 13957 13960 13963 13966 13969 13972 13975 13978 13981 13984 13987 13990 13993 13996 13999 14002 14005 14007 14010 14013 14016 14019 14022 14025 14028 14031 14033 14036 14039 14042 14045 14048 14051 14054 14057 14060 14062 14064 14067 14070 14073 14076 14079 14082 14084 14087 14090 14093 14095 14097 14100 14102 14104 14107 14109 14112 14114 14117 14119 14122 14125 14128 14131 14134 14137 14140 14143 14146 14148 14151 14154 14156 14159 14162 14165 14167 14169 14172 14175 14178 14181 14184 14187 14190 14193 14196 14199 14202 14205 14207 14210 14212 14215 14218 14221 14224 14227 14229 14231 14234 14237 14240 14243 14246 14249 14252 14255 14258 14261 14264 14267 14270 14273 14276 14279 14282 14285 14288 14290 14293 14296 14299 14301 14304 14307 14310 14313 14316 14319 14322 14325 14328 14331 14333 14336 14338 14341 14344 14347 14350 14353 14356 14359 14362 14365 14368 14371 14374 14377 14380 14383 14386 14388 14391 14394 14397 14400 14403 14406 14409 14412 14415 14418 14421 14424 14427 14430 14433 14436 14439 14442 14445 14448 14451 14454 14457 14460 14463 14465 14467 14470 14473 14476 14479 14482 14485 14488 14491 14493 14496 14499 14501 14504 14507 14510 14513 14516 14518 14520 14523 14526 14529 14532 14535 14538 14541 14544 14547 14550 14553 14556 14559 14562 14565 14568 14571 14574 14577 14580 14583 14586 14589 14592 14595 14598 14601 14603 14606 14609 14612 14615 14617 14620 14623 14626 14629 14632 14635 14637 14640 14643 14646 14649 14651 14654 14657 14660 14663 14666 14669 14672 14675 14678 14681 14684 14687 14689 14692 14695 14698 14701 14704 14707 14710 14713 14716 14718 14721 14724 14727 14730 14733 14736 14739 14742 14745 14748 14751 14754 14757 14760 14763 14766 14768 14771 14774 14777 14780 14783 14786 14788 14791 14794 14797 14800 14803 14806 14809 14812 14815 14817 14820 14823 14826 14829 14832 14835 14838 14841 14844 14847 14850 14852 14855 14858 14861 14864 14867 14869 14871 14873 14876 14879 14882 14885 14888 14891 14894 14897 14900 14903 14906 14909 14912 14915 14918 14921 14924 14927 14930 14933 14936 14939 14942 14945 14948 14951 14954 14957 14960 14963 14966 14969 14972 14975 14978 14981 14984 14987 14990 14993 14996 14999 15002 15005 15008 15011 15014 15017 15020 15023 15026 15029 15032 15035 15038 15041 15044 15047 15050 15052 15055 15058 15061 15064 15067 15070 15073 15076 15079 15082 15085 15088 15091 15094 15097 15100 15103 15106 15109 15112 15115 15118 15121 15124 15127 15130 15133 15136 15139 15141 15144 15147 15150 15152 15155 15158 15160 15162 15165 15168 15170 15173 15176 15178 15181 15184 15186 15189 15192 15195 15197 15200 15203 15206 15209 15212 15215 15218 15221 15224 15227 15230 15233 15236 15239 15242 15244 15247 15250 15253 15256 15258 15261 15263 15266 15269 15272 15275 15277 15280 15283 15286 15289 15292 15295 15298 15301 15304 15306 15309 15312 15315 15318 15321 15324 15327 15330 15333 15336 15339 15342 15345 15348 15351 15354 15357 15360 15363 15366 15369 15371 15374 15376 15379 15382 15384 15387 15390 15393 15396 15398 15401 15404 15406 15409 15411 15414 15417 15420 15423 15426 15429 15432 15435 15438 15441 15443 15446 15449 15452 15455 15458 15461 15464 15467 15469 15471 15474 15477 15479 15482 15485 15487 15490 15493 15496 15499 15501 15503 15506 15509 15512 15515 15518 15521 15524 15526 15529 15532 15535 15538 15540 15542 15544 15547 15550 15553 15556 15559 15562 15564 15567 15570 15572 15574 15577 15580 15583 15585 15587 15590 15593 15596 15599 15602 15604 15607 15609 15612 15615 15618 15621 15624 15627 15630 15633 15636 15639 15642 15644 15647 15650 15653 15655 15658 15661 15664 15667 15670 15673 15676 15678 15681 15683 15686 15688 15691 15694 15697 15700 15702 15705 15708 15711 15714 15717 15719 15722 15725 15728 15731 15734 15737 15740 15743 15746 15749 15752 15754 15757 15760 15763 15766 15769 15772 15775 15778 15780 15783 15786 15789 15792 15795 15798 15801 15804 15807 15809 15812 15815 15818 15821 15824 15826 15828 15831 15834 15837 15840 15843 15846 15849 15851 15854 15857 15860 15862 15865 15868 15871 15874 15877 15880 15883 15886 15888 15891 15894 15897 15899 15902 15905 15908 15910 15913 15915 15918 15920 15922 15925 15928 15930 15933 15935 15938 15941 15943 15945 15948 15951 15953 15956 15959 15962 15965 15968 15971 15974 15976 15979 15982 15985 15987 15990 15993 15995 15998 16001 16004 16006 16009 16011 16014 16017 16020 16023 16025 16028 16030 16033 16036 16039 16042 16045 16047 16050 16053 16056 16059 16061 16064 16066 16069 16072 16074 16077 16079 16082 16085 16088 16091 16093 16096 16099 16101 16104 16106 16109 16112 16114 16117 16119 16122 16124 16127 16130 16133 16136 16139 16141 16144 16147 16150 16153 16156 16158 16161 16164 16167 16170 16173 16176 16178 16181 16184 16187 16190 16193 16196 16199 16202 16205 16208 16211 16214 16217 16220 16223 16226 16229 16232 16235 16238 16241 16244 16247 16250 16253 16255 16258 16261 16264 16267 16269 16271 16274 16277 16280 16283 16286 16289 16292 16295 16298 16301 16304 16307 16310 16313 16316 16319 16322 16325 16328 16331 16334 16337 16340 16343 16346 16349 16351 16354 16357 16360 16363 16366 16369 16372 16375 16378 16381 16384 16387 16390 16393 16396 16399 16402 16405 16408 16411 16413 16416 16419 16422 16425 16428 16431 16434 16437 16440 16443 16446 16449 16452 16455 16457 16460 16463 16466 16469 16472 16475 16478 16481 16484 16487 16490 16492 16495 16498 16500 16503 16506 16508 16510 16513 16516 16518 16521 16524 16527 16530 16533 16536 16539 16542 16545 16548 16550 16553 16556 16559 16562 16565 16568 16571 16574 16577 16580 16583 16586 16589 16592 16595 16598 16601 16604 16607 16610 16613 16616 16619 16622 16625 16628 16630 16633 16636 16639 16641 16644 16647 16650 16653 16656 16659 16662 16664 16667 16670 16673 16676 16679 16682 16685 16688 16691 16694 16697 16700 16702 16705 16708 16711 16714 16717 16720 16723 16726 16728 16730 16733 16736 16739 16742 16745 16748 16751 16754 16757 16760 16762 16765 16768 16771 16774 16777 16780 16783 16786 16789 16791 16794 16797 16800 16803 16806 16809 16812 16815 16818 16821 16824 16827 16830 16833 16836 16839 16842 16845 16848 16851 16854 16856 16859 16862 16865 16867 16870 16873 16876 16879 16882 16885 16888 16891 16894 16897 16900 16903 16906 16909 16912 16915 16918 16921 16924 16927 16929 16932 16935 16938 16941 16944 16947 16950 16953 16956 16959 16962 16965 16968 16971 16974 16976 16978 16981 16983 16986 16989 16992 16995 16998 17001 17004 17007 17010 17013 17016 17019 17022 17025 17028 17031 17034 17037 17040 17043 17046 17049 17051 17054 17057 17060 17063 17066 17069 17072 17075 17078 17081 17084 17087 17090 17093 17096 17099 17102 17105 17107 17110 17113 17116 17119 17122 17125 17128 17131 17134 17136 17139 17142 17145 17148 17151 17154 17157 17160 17163 17166 17169 17172 17175 17178 17181 17184 17187 17190 17193 17196 17198 17201 17204 17207 17210 17212 17215 17218 17221 17224 17226 17229 17232 17235 17238 17241 17244 17247 17250 17253 17256 17259 17261 17264 17267 17270 17273 17276 17279 17281 17284 17286 17289 17292 17295 17298 17301 17304 17307 17310 17313 17316 17319 17322 17325 17328 17331 17334 17337 17339 17342 17345 17347 17350 17353 17356 17359 17362 17365 17368 17371 17374 17377 17380 17383 17386 17389 17392 17395 17398 17401 17404 17407 17410 17413 17416 17419 17422 17425 17428 17431 17434 17437 17440 17443 17446 17449 17452 17455 17458 17461 17464 17467 17470 17473 17476 17479 17482 17485 17488 17491 17493 17496 17499 17502 17505 17508 17511 17514 17517 17520 17523 17526 17529 17532 17535 17538 17541 17544 17547 17550 17553 17556 17559 17562 17565 17568 17571 17574 17577 17580 17583 17586 17589 17592 17595 17598 17601 17604 17607 17610 17613 17616 17619 17622 17625 17628 17631 17634 17637 17640 17643 17645 17648 17651 17654 17657 17660 17662 17665 17668 17671 17673 17676 17679 17682 17685 17688 17690 17693 17696 17699 17701 17704 17707 17710 17713 17716 17719 17722 17725 17728 17731 17734 17737 17739 17742 17745 17748 17751 17754 17757 17759 17762 17765 17768 17771 17774 17777 17780 17783 17786 17789 17792 17795 17798 17801 17804 17807 17810 17813 17816 17819 17822 17825 17828 17831 17834 17837 17840 17843 17846 17849 17852 17855 17858 17861 17864 17867 17870 17873 17876 17879 17882 17885 17888 17891 17894 17897 17900 17903 17906 17909 17912 17915 17918 17921 17924 17927 17930 17933 17936 17939 17941 17943 17946 17949 17952 17955 17958 17960 17962 17965 17968 17971 17974 17977 17980 17983 17986 17989 17992 17995 17998 18000 18003 18005 18008 18011 18014 18017 18019 18022 18025 18028 18031 18034 18037 18039 18042 18045 18048 18051 18054 18057 18059 18062 18065 18067 18070 18073 18075 18078 18081 18084 18086 18088 18091 18094 18096 18098 18101 18104 18107 18110 18112 18115 18118 18121 18124 18127 18130 18133 18135 18138 18141 18144 18147 18150 18153 18156 18158 18161 18164 18167 18169 18172 18175 18178 18181 18184 18187 18189 18192 18194 18196 18199 18202 18204 18207 18210 18213 18216 18218 18221 18224 18227 18230 18233 18236 18239 18242 18245 18248 18251 18254 18257 18260 18263 18266 18269 18272 18274 18277 18280 18283 18285 18287 18290 18293 18296 18299 18302 18305 18308 18311 18314 18317 18319 18322 18324 18327 18330 18333 18336 18339 18342 18344 18347 18349 18352 18354 18357 18360 18363 18366 18369 18372 18375 18378 18381 18384 18387 18390 18393 18396 18399 18402 18405 18408 18411 18414 18417 18420 18422 18425 18428 18431 18434 18437 18440 18443 18446 18449 18452 18455 18457 18460 18463 18465 18468 18471 18474 18477 18480 18482 18485 18488 18491 18494 18496 18499 18502 18505 18508 18511 18514 18516 18519 18522 18525 18528 18531 18534 18537 18540 18543 18546 18549 18552 18555 18558 18561 18564 18567 18570 18573 18576 18579 18582 18585 18588 18591 18594 18597 18600 18603 18606 18609 18612 18614 18617 18619 18622 18625 18628 18631 18634 18637 18640 18643 18646 18649 18652 18655 18658 18661 18664 18667 18670 18673 18676 18679 18681 18684 18687 18690 18692 18695 18698 18701 18704 18707 18710 18713 18716 18719 18722 18725 18728 18731 18734 18737 18740 18742 18745 18747 18750 18753 18756 18759 18762 18765 18768 18771 18774 18777 18780 18783 18786 18788 18791 18794 18797 18800 18803 18806 18808 18811 18814 18817 18820 18823 18826 18829 18832 18835 18837 18840 18842 18845 18847 18850 18853 18856 18858 18861 18864 18867 18870 18873 18875 18878 18881 18883 18886 18889 18892 18895 18897 18900 18903 18906 18909 18911 18914 18917 18920 18922 18924 18927 18930 18933 18936 18939 18942 18944 18947 18950 18953 18956 18959 18962 18965 18968 18971 18974 18977 18980 18982 18985 18988 18991 18994 18997 19000 19003 19006 19008 19011 19014 19016 19019 19022 19025 19028 19031 19034 19037 19040 19043 19046 19048 19051 19053 19056 19059 19061 19063 19066 19069 19072 19074 19077 19080 19083 19086 19088 19091 19094 19096 19099 19102 19105 19108 19111 19114 19117 19120 19122 19125 19128 19131 19134 19137 19140 19143 19146 19149 19152 19155 19157 19160 19163 19166 19169 19172 19174 19177 19180 19183 19186 19189 19192 19195 19198 19201 19204 19206 19209 19212 19215 19218 19221 19224 19227 19230 19232 19235 19238 19241 19244 19247 19250 19253 19256 19258 19261 19264 19266 19269 19271 19274 19276 19279 19282 19285 19288 19290 19293 19296 19298 19300 19303 19306 19309 19311 19314 19317 19320 19323 19326 19329 19331 19334 19337 19339 19342 19345 19348 19351 19354 19357 19360 19363 19366 19368 19371 19374 19377 19380 19382 19385 19388 19391 19394 19396 19399 19402 19405 19407 19409 19412 19415 19417 19419 19422 19424 19427 19429 19432 19435 19438 19441 19443 19446 19449 19451 19453 19455 19458 19461 19464 19467 19470 19472 19475 19478 19480 19483 19486 19489 19492 19495 19497 19499 19502 19505 19508 19510 19513 19516 19519 19522 19525 19528 19531 19534 19536 19539 19542 19545 19548 19551 19554 19557 19560 19563 19566 19568 19571 19574 19577 19580 19582 19585 19588 19591 19594 19597 19600 19603 19605 19608 19611 19614 19617 19620 19623 19626 19629 19632 19635 19638 19641 19644 19647 19650 19653 19656 19659 19662 19665 19668 19671 19673 19676 19679 19682 19685 19688 19690 19692 19695 19698 19701 19704 19706 19709 19712 19714 19717 19719 19721 19724 19727 19730 19732 19735 19738 19740 19743 19746 19749 19752 19755 19758 19761 19764 19767 19770 19773 19776 19779 19782 19785 19788 19791 19794 19797 19800 19803 19806 19809 19812 19815 19818 19821 19824 19827 19830 19833 19836 19839 19842 19845 19848 19851 19854 19857 19860 19863 19866 19869 19872 19875 19878 19881 19884 19887 19890 19892 19895 19898 19901 19904 19907 19910 19912 19915 19918 19921 19924 19927 19930 19933 19936 19939 19941 19944 19946 19949 19952 19955 19958 19961 19964 19967 19970 19973 19976 19979 19982 19985 19988 19991 19994 19997 19999 20002 20005 20008 20011 20014 20017 20020 20023 20026 20029 20032 20035 20038 20040 20043 20046 20049 20052 20055 20058 20061 20063 20066 20069 20072 20075 20078 20080 20083 20086 20089 20092 20095 20098 20101 20104 20107 20109 20112 20114 20117 20120 20123 20126 20128 20131 20133 20136 20139 20142 20144 20147 20150 20153 20156 20158 20161 20164 20167 20170 20173 20176 20179 20182 20185 20188 20191 20194 20197 20200 20203 20206 20209 20212 20215 20218 20220 20222 20225 20228 20231 20234 20237 20240 20243 20246 20249 20252 20255 20258 20261 20264 20267 20270 20273 20276 20279 20282 20285 20288 20291 20294 20297 20299 20302 20305 20307 20310 20313 20316 20319 20322 20325 20328 20330 20333 20336 20339 20342 20345 20348 20351 20354 20357 20360 20363 20365 20368 20370 20373 20376 20379 20382 20385 20388 20391 20394 20397 20400 20403 20406 20409 20412 20415 20418 20421 20424 20427 20430 20433 20436 20439 20442 20445 20448 20450 20453 20455 20458 20461 20464 20467 20470 20473 20476 20479 20482 20485 20488 20491 20493 20495 20498 20501 20503 20506 20509 20512 20515 20518 20521 20524 20527 20530 20533 20536 20539 20542 20545 20548 20551 20554 20556 20559 20562 20565 20568 20571 20574 20576 20579 20582 20585 20588 20591 20594 20596 20598 20601 20604 20607 20610 20613 20616 20619 20622 20625 20628 20631 20634 20637 20640 20643 20646 20649 20652 20655 20658 20661 20664 20667 20670 20673 20676 20679 20682 20685 20688 20691 20694 20697 20700 20703 20706 20709 20712 20715 20718 20721 20724 20727 20730 20732 20735 20738 20741 20744 20747 20750 20753 20756 20759 20762 20765 20768 20771 20774 20777 20779 20782 20785 20787 20790 20793 20796 20798 20801 20804 20807 20810 20813 20816 20819 20822 20825 20827 20830 20832 20835 20838 20840 20842 20845 20848 20851 20853 20856 20859 20862 20865 20868 20871 20873 20876 20879 20882 20885 20888 20891 20894 20896 20898 20901 20904 20907 20910 20912 20914 20917 20919 20921 20924 20927 20930 20933 20936 20938 20940 20943 20946 20949 20952 20955 20958 20961 20964 20967 20970 20973 20976 20979 20982 20985 20988 20991 20993 20996 20999 21001 21004 21007 21010 21013 21016 21019 21022 21024 21027 21030 21033 21035 21038 21041 21044 21047 21050 21053 21055 21058 21061 21064 21067 21070 21073 21076 21079 21081 21084 21087 21090 21093 21096 21099 21102 21104 21107 21110 21113 21116 21119 21122 21125 21127 21129 21132 21134 21137 21140 21142 21144 21147 21150 21152 21155 21157 21160 21163 21166 21169 21172 21175 21178 21181 21184 21187 21190 21193 21196 21199 21202 21205 21208 21211 21214 21217 21220 21222 21225 21227 21230 21233 21236 21239 21242 21245 21248 21251 21254 21257 21260 21263 21266 21268 21271 21274 21277 21280 21283 21285 21288 21291 21294 21297 21300 21303 21306 21309 21312 21315 21317 21320 21322 21325 21328 21331 21334 21337 21340 21343 21346 21349 21352 21355 21357 21359 21362 21365 21367 21370 21373 21376 21379 21382 21385 21388 21391 21394 21397 21400 21403 21406 21408 21410 21413 21416 21419 21422 21425 21427 21430 21433 21436 21439 21442 21444 21447 21450 21452 21454 21457 21460 21462 21465 21468 21471 21474 21477 21480 21483 21486 21489 21492 21495 21498 21501 21504 21507 21510 21513 21516 21519 21522 21525 21528 21530 21533 21536 21538 21541 21544 21547 21550 21553 21556 21559 21562 21565 21568 21571 21574 21577 21580 21583 21586 21589 21592 21595 21598 21601 21604 21606 21608 21611 21614 21616 21619 21622 21625 21627 21630 21633 21636 21638 21641 21644 21647 21650 21653 21656 21659 21662 21665 21668 21671 21674 21677 21680 21683 21686 21688 21691 21693 21696 21699 21702 21705 21708 21711 21714 21717 21720 21723 21726 21729 21732 21735 21738 21741 21743 21746 21749 21752 21755 21758 21760 21763 21766 21769 21772 21775 21778 21781 21784 21787 21790 21793 21796 21799 21802 21805 21808 21811 21814 21817 21820 21823 21826 21829 21832 21835 21838 21841 21843 21846 21849 21852 21855 21858 21861 21864 21866 21869 21872 21875 21878 21881 21884 21887 21889 21892 21895 21897 21900 21903 21906 21909 21912 21915 21918 21920 21923 21925 21928 21931 21933 21936 21939 21941 21944 21947 21950 21953 21956 21958 21961 21964 21967 21970 21973 21976 21979 21982 21985 21988 21991 21994 21997 22000 22002 22005 22007 22010 22013 22015 22018 22021 22023 22026 22029 22032 22035 22038 22041 22044 22047 22050 22053 22056 22059 22062 22065 22068 22070 22072 22075 22077 22080 22083 22085 22088 22091 22094 22097 22100 22103 22105 22107 22110 22113 22115 22118 22120 22123 22126 22129 22131 22134 22137 22139 22142 22145 22148 22150 22153 22156 22159 22162 22165 22168 22171 22174 22177 22180 22183 22185 22188 22190 22193 22195 22198 22201 22203 22206 22209 22212 22215 22218 22221 22224 22227 22230 22233 22236 22239 22241 22243 22246 22249 22251 22254 22257 22259 22261 22263 22266 22269 22272 22274 22277 22280 22283 22286 22289 22292 22294 22297 22299 22301 22304 22306 22309 22312 22315 22318 22320 22323 22326 22329 22331 22334 22337 22340 22343 22346 22349 22352 22355 22358 22361 22363 22366 22368 22371 22374 22377 22380 22383 22386 22388 22391 22393 22396 22399 22401 22404 22407 22410 22413 22415 22418 22421 22423 22426 22429 22431 22434 22436 22439 22442 22445 22448 22450 22453 22456 22459 22462 22464 22466 22468 22471 22474 22477 22480 22482 22485 22487 22490 22492 22495 22498 22501 22504 22507 22510 22513 22516 22519 22521 22523 22526 22529 22532 22535 22537 22539 22542 22545 22548 22551 22554 22557 22559 22562 22565 22567 22569 22572 22575 22578 22581 22584 22587 22590 22593 22596 22598 22601 22604 22607 22609 22612 22615 22618 22621 22623 22626 22629 22632 22635 22638 22641 22644 22647 22650 22653 22656 22659 22662 22665 22668 22671 22674 22677 22680 22683 22686 22689 22692 22695 22698 22701 22704 22707 22710 22713 22716 22719 22722 22725 22728 22731 22734 22737 22740 22743 22746 22749 22752 22755 22757 22760 22763 22766 22769 22772 22775 22778 22781 22784 22787 22789 22791 22794 22797 22799 22802 22805 22807 22809 22812 22814 22817 22820 22823 22826 22828 22830 22833 22836 22838 22841 22843 22846 22849 22852 22855 22858 22860 22863 22866 22868 22871 22874 22877 22879 22882 22885 22887 22889 22892 22895 22898 22900 22903 22906 22909 22911 22914 22917 22920 22923 22925 22928 22931 22934 22937 22940 22943 22946 22949 22951 22954 22957 22960 22963 22966 22969 22972 22975 22978 22981 22983 22986 22989 22992 22995 22998 23001 23004 23007 23010 23013 23016 23019 23022 23025 23028 23031 23034 23037 23040 23043 23046 23049 23052 23055 23057 23060 23063 23066 23069 23072 23075 23078 23080 23083 23086 23088 23091 23094 23097 23099 23102 23104 23107 23110 23113 23116 23119 23122 23125 23128 23130 23133 23136 23138 23140 23143 23146 23149 23152 23155 23157 23160 23162 23165 23167 23170 23173 23176 23179 23182 23185 23188 23191 23194 23197 23200 23203 23206 23209 23212 23215 23218 23221 23224 23227 23230 23233 23236 23239 23242 23245 23247 23250 23253 23256 23259 23262 23265 23267 23269 23272 23275 23277 23280 23282 23285 23287 23290 23293 23296 23299 23301 23304 23307 23310 23313 23316 23319 23321 23323 23325 23328 23331 23334 23336 23339 23342 23345 23348 23351 23354 23357 23360 23363 23366 23368 23371 23374 23376 23379 23382 23384 23387 23390 23392 23395 23398 23401 23403 23406 23409 23411 23414 23417 23420 23423 23426 23429 23432 23435 23438 23441 23444 23447 23449 23452 23454 23457 23460 23463 23466 23469 23472 23474 23477 23480 23483 23485 23487 23490 23493 23496 23499 23502 23504 23507 23510 23513 23516 23518 23520 23523 23526 23529 23532 23534 23536 23539 23541 23543 23546 23548 23551 23554 23556 23559 23562 23564 23566 23569 23572 23575 23578 23581 23584 23587 23590 23593 23596 23599 23602 23605 23608 23611 23613 23615 23618 23621 23624 23627 23630 23633 23636 23639 23642 23645 23648 23650 23653 23656 23659 23662 23665 23668 23671 23673 23676 23679 23682 23685 23687 23690 23693 23696 23698 23701 23703 23705 23708 23711 23714 23717 23720 23723 23725 23728 23731 23734 23737 23740 23743 23746 23749 23752 23755 23757 23760 23763 23766 23769 23772 23775 23778 23781 23784 23787 23790 23793 23795 23798 23801 23804 23807 23810 23813 23816 23819 23822 23825 23828 23831 23834 23836 23839 23842 23845 23848 23851 23854 23857 23860 23863 23866 23869 23872 23874 23877 23880 23883 23886 23889 23891 23894 23897 23900 23903 23906 23909 23912 23915 23918 23921 23924 23927 23929 23932 23935 23938 23941 23944 23947 23950 23953 23956 23959 23962 23965 23968 23971 23974 23977 23980 23983 23986 23989 23991 23994 23997 23999 24002 24004 24006 24009 24012 24015 24018 24021 24024 24026 24029 24032 24034 24037 24040 24043 24046 24049 24052 24054 24057 24060 24063 24066 24069 24072 24075 24078 24081 24083 24085 24088 24091 24094 24097 24100 24103 24106 24108 24111 24114 24117 24119 24121 24124 24127 24130 24133 24135 24138 24140 24143 24146 24149 24152 24155 24158 24160 24163 24165 24168 24171 24174 24177 24180 24182 24185 24187 24190 24193 24196 24199 24202 24205 24208 24210 24213 24216 24218 24221 24223 24226 24229 24232 24235 24237 24239 24242 24245 24248 24251 24254 24257 24259 24262 24265 24267 24270 24273 24276 24279 24282 24285 24288 24290 24293 24296 24299 24302 24305 24308 24311 24314 24316 24319 24322 24324 24327 24330 24333 24336 24339 24342 24345 24348 24350 24353 24355 24358 24360 24363 24366 24369 24372 24374 24377 24379 24382 24385 24387 24390 24393 24395 24398 24401 24403 24405 24408 24410 24413 24415 24418 24421 24424 24427 24430 24433 24436 24439 24442 24445 24448 24451 24454 24457 24460 24463 24466 24469 24472 24475 24478 24481 24484 24487 24490 24493 24496 24498 24501 24504 24507 24510 24512 24515 24518 24521 24523 24526 24529 24531 24534 24537 24540 24542 24545 24547 24550 24553 24556 24558 24561 24564 24566 24569 24572 24575 24577 24580 24583 24586 24589 24592 24595 24598 24601 24603 24606 24609 24612 24614 24617 24620 24623 24626 24628 24631 24634 24637 24640 24642 24645 24647 24650 24653 24656 24659 24662 24665 24668 24670 24673 24676 24679 24681 24684 24687 24689 24692 24695 24698 24701 24704 24707 24710 24713 24716 24719 24722 24725 24728 24731 24734 24737 24740 24743 24745 24748 24751 24753 24756 24759 24762 24764 24767 24770 24773 24776 24779 24782 24785 24788 24791 24794 24796 24799 24801 24804 24807 24810 24813 24816 24819 24822 24825 24828 24831 24834 24837 24840 24843 24846 24849 24852 24854 24857 24860 24863 24866 24869 24872 24874 24877 24880 24883 24886 24888 24891 24893 24896 24899 24902 24905 24908 24911 24914 24917 24920 24923 24926 24929 24932 24935 24938 24940 24943 24946 24949 24952 24955 24958 24960 24963 24966 24969 24972 24975 24978 24981 24983 24986 24989 24992 24995 24997 25000 25003 25005 25007 25010 25013 25016 25019 25022 25025 25028 25031 25034 25037 25040 25043 25046 25049 25052 25055 25058 25061 25064 25067 25070 25073 25076 25078 25080 25083 25086 25089 25092 25094 25097 25100 25103 25106 25109 25112 25115 25118 25120 25123 25126 25129 25132 25135 25137 25140 25143 25146 25149 25152 25155 25158 25161 25164 25167 25170 25173 25176 25179 25182 25185 25188 25191 25194 25197 25200 25203 25206 25209 25212 25215 25218 25221 25223 25225 25228 25231 25234 25236 25239 25242 25245 25248 25250 25253 25256 25259 25262 25264 25267 25270 25273 25275 25278 25281 25284 25287 25290 25293 25295 25298 25301 25304 25307 25310 25313 25315 25317 25320 25323 25326 25328 25331 25334 25337 25340 25342 25345 25348 25351 25354 25357 25360 25363 25366 25369 25372 25375 25378 25381 25384 25387 25390 25393 25396 25399 25402 25405 25408 25411 25413 25416 25419 25422 25425 25427 25430 25432 25435 25438 25441 25444 25447 25450 25453 25456 25459 25462 25464 25467 25470 25473 25476 25479 25482 25485 25488 25490 25493 25495 25498 25501 25504 25506 25509 25512 25515 25518 25521 25524 25527 25530 25533 25536 25539 25541 25544 25547 25550 25553 25556 25559 25562 25564 25566 25569 25571 25574 25577 25580 25583 25586 25589 25592 25595 25598 25601 25603 25606 25609 25612 25615 25618 25621 25624 25626 25629 25632 25635 25638 25641 25644 25647 25650 25653 25656 25659 25662 25664 25667 25670 25673 25676 25679 25682 25684 25687 25689 25692 25695 25698 25700 25703 25706 25709 25712 25715 25718 25721 25723 25726 25729 25732 25735 25738 25741 25744 25747 25750 25753 25756 25758 25761 25763 25766 25769 25772 25774 25777 25780 25783 25786 25789 25792 25794 25797 25800 25803 25805 25808 25811 25814 25816 25819 25822 25825 25828 25831 25834 25837 25840 25843 25845 25848 25851 25854 25857 25859 25862 25865 25868 25871 25874 25877 25880 25883 25886 25889 25891 25894 25897 25900 25903 25906 25908 25911 25914 25917 25920 25923 25926 25929 25932 25935 25938 25940 25943 25946 25949 25952 25954 25957 25960 25963 25966 25969 25972 25975 25978 25981 25983 25986 25988 25991 25994 25997 26000 26003 26006 26009 26012 26015 26018 26021 26024 26027 26030 26033 26036 26039 26042 26045 26048 26051 26054 26057 26060 26063 26066 26069 26072 26075 26078 26081 26084 26087 26090 26093 26096 26099 26102 26105 26108 26111 26114 26117 26120 26123 26126 26129 26132 26135 26138 26141 26144 26146 26149 26152 26155 26158 26161 26164 26167 26170 26173 26176 26179 26181 26184 26187 26190 26193 26196 26199 26202 26205 26208 26211 26214 26216 26219 26222 26225 26228 26231 26234 26237 26239 26242 26245 26248 26250 26253 26256 26259 26262 26265 26268 26270 26273 26276 26279 26282 26285 26288 26291 26293 26296 26299 26301 26304 26307 26310 26313 26315 26318 26321 26324 26326 26329 26331 26334 26336 26339 26342 26344 26347 26350 26353 26355 26358 26361 26364 26367 26370 26373 26375 26378 26381 26384 26387 26389 26392 26395 26398 26401 26404 26407 26409 26412 26415 26418 26421 26424 26427 26430 26433 26435 26438 26441 26444 26446 26449 26452 26455 26458 26461 26464 26467 26470 26473 26476 26479 26482 26485 26488 26491 26494 26497 26499 26502 26505 26508 26511 26513 26516 26519 26522 26525 26528 26530 26532 26535 26538 26540 26543 26546 26549 26552 26555 26557 26560 26563 26566 26568 26571 26573 26576 26578 26581 26584 26586 26588 26591 26594 26597 26599 26601 26604 26606 26609 26612 26614 26617 26620 26622 26624 26627 26630 26633 26636 26639 26641 26644 26647 26650 26653 26656 26659 26662 26665 26668 26671 26674 26677 26680 26683 26685 26688 26691 26693 26696 26699 26701 26704 26707 26710 26713 26716 26719 26721 26724 26727 26730 26733 26736 26739 26742 26745 26748 26751 26754 26757 26760 26763 26766 26768 26771 26774 26777 26780 26783 26785 26788 26791 26794 26797 26800 26803 26806 26809 26812 26815 26818 26821 26823 26826 26829 26832 26835 26838 26841 26844 26846 26849 26852 26855 26858 26861 26864 26867 26870 26873 26876 26879 26882 26885 26888 26891 26894 26897 26899 26902 26905 26908 26911 26914 26917 26920 26923 26926 26928 26931 26933 26936 26939 26942 26945 26948 26951 26954 26957 26960 26963 26965 26968 26971 26974 26977 26979 26982 26985 26988 26991 26994 26997 27000 27002 27005 27008 27011 27013 27016 27018 27021 27024 27027 27029 27031 27034 27037 27040 27043 27046 27049 27051 27053 27055 27058 27060 27063 27066 27069 27072 27075 27078 27080 27083 27086 27089 27092 27095 27098 27101 27103 27106 27109 27112 27114 27117 27120 27123 27126 27128 27131 27134 27137 27140 27143 27146 27149 27152 27154 27157 27160 27163 27165 27168 27171 27174 27177 27180 27182 27185 27188 27191 27194 27197 27200 27203 27206 27209 27212 27214 27217 27220 27222 27224 27227 27230 27233 27236 27239 27242 27245 27247 27250 27253 27256 27259 27262 27265 27268 27270 27273 27276 27279 27282 27285 27288 27291 27294 27297 27300 27303 27306 27308 27311 27314 27317 27320 27322 27325 27328 27331 27334 27337 27340 27343 27346 27349 27352 27355 27358 27361 27364 27367 27370 27373 27375 27378 27381 27384 27387 27389 27392 27395 27398 27401 27404 27407 27410 27413 27416 27419 27422 27424 27427 27430 27433 27436 27439 27442 27445 27448 27451 27454 27457 27460 27463 27466 27469 27472 27475 27478 27481 27484 27487 27490 27493 27496 27499 27502 27505 27508 27511 27514 27517 27520 27523 27526 27529 27532 27535 27538 27541 27544 27547 27549 27552 27554 27557 27560 27563 27566 27568 27570 27573 27576 27579 27582 27585 27588 27591 27594 27596 27598 27601 27604 27607 27610 27613 27616 27619 27622 27625 27628 27631 27633 27636 27639 27642 27645 27648 27651 27654 27657 27660 27663 27666 27669 27672 27674 27677 27680 27683 27686 27689 27691 27694 27697 27700 27703 27705 27708 27710 27713 27716 27718 27721 27724 27726 27729 27732 27734 27737 27740 27742 27745 27748 27751 27754 27757 27760 27762 27765 27767 27770 27773 27776 27779 27782 27785 27788 27790 27793 27796 27799 27802 27804 27807 27810 27812 27814 27816 27819 27821 27824 27827 27829 27831 27834 27837 27840 27843 27846 27849 27851 27854 27857 27860 27863 27866 27869 27872 27875 27878 27881 27884 27887 27890 27893 27896 27899 27902 27905 27908 27911 27914 27917 27919 27922 27925 27928 27931 27934 27937 27940 27943 27946 27949 27952 27955 27958 27961 27964 27967 27970 27973 27976 27979 27982 27984 27987 27990 27993 27996 27999 28002 28004 28007 28010 28013 28016 28019 28022 28025 28028 28031 28034 28037 28039 28042 28045 28047 28050 28053 28056 28059 28062 28065 28068 28071 28074 28077 28080 28083 28086 28089 28092 28095 28098 28101 28104 28107 28110 28113 28116 28119 28122 28125 28128 28131 28134 28137 28140 28143 28146 28149 28152 28155 28158 28161 28164 28167 28170 28173 28176 28179 28182 28185 28188 28191 28193 28196 28199 28201 28203 28206 28209 28212 28215 28218 28221 28224 28227 28230 28233 28235 28238 28241 28244 28247 28249 28252 28255 28258 28261 28264 28267 28270 28272 28275 28278 28281 28284 28287 28290 28293 28296 28299 28302 28305 28308 28311 28313 28316 28319 28322 28325 28328 28331 28334 28337 28340 28343 28345 28348 28351 28353 28356 28359 28362 28365 28368 28371 28374 28376 28379 28382 28385 28388 28391 28394 28397 28400 28403 28406 28409 28412 28415 28418 28421 28424 28427 28430 28433 28436 28439 28442 28445 28448 28451 28454 28457 28460 28463 28466 28469 28472 28474 28477 28480 28482 28485 28488 28491 28494 28497 28499 28502 28505 28508 28511 28514 28516 28519 28522 28525 28527 28530 28533 28536 28538 28541 28544 28547 28550 28553 28556 28559 28562 28565 28568 28571 28574 28577 28580 28583 28586 28589 28592 28595 28598 28600 28603 28605 28608 28611 28614 28617 28620 28622 28625 28628 28631 28634 28636 28639 28642 28644 28647 28650 28653 28656 28659 28662 28665 
</DataArray>
<DataArray type="UInt32" Name="types" format="ascii">
5 5 5 5 5 5 3 5 5 3 5 5 5 3 5 5 3 5 3 5 5 3 5 5 5 5 3 5 5 3 5 5 5 3 5 3 5 5 5 5 5 5 3 5 5 5 5 5 3 5 5 5 5 5 5 3 5 5 5 3 5 5 5 5 5 5 5 5 5 3 5 5 5 5 5 5 5 5 5 3 5 5 5 5 5 5 3 5 5 5 5 5 3 5 5 5 5 5 5 5 3 5 5 5 5 5 5 5 5 5 5 3 5 5 5 5 5 5 3 5 5 5 5 5 3 5 3 5 5 5 5 5 5 5 3 5 5 3 5 5 5 5 3 5 5 5 5 3 3 5 5 5 5 5 5 5 3 5 5 3 5 5 3 5 5 3 3 5 5 5 5 5 5 5 5 3 5 5 5 3 5 5 5 3 3 5 5 5 5 5 5 3 5 5 5 5 5 5 5 3 5 5 5 5 3 5 5 5 5 3 5 5 5 5 5 5 5 5 5 5 5 5 5 3 5 5 5 5 5 3 5 5 5 5 5 5 5 5 5 5 5 5 5 5 5 5 5 5 5 5 5 5 5 5 5 5 5 5 5 3 5 5 5 5 3 5 5 5 5 5 5 3 5 5 5 3 5 5 5 5 3 3 5 5 5 5 5 5 5 5 5 3 5 5 5 5 5 5 5 3 5 5 5 5 5 3 5 5 5 5 5 5 5 5 5 5 5 5 5 5 5 5 3 3 5 5 5 5 5 3 5 5 5 5 5 3 5 5 5 5 5 5 3 5 5 5 5 5 3 5 3 5 5 3 5 5 3 5 3 5 5 5 3 5 5 5 3 5 5 5 5 5 5 3 3 5 5 5 5 5 5 3 3 5 5 5 5 5 5 3 5 3 5 5 5 3 5 5 5 5 5 5 5 5 5 5 5 5 5 5 3 5 5 5 5 5 3 3 5 5 5 5 5 5 5 3 5 5 5 5 5 5 5 5 5 5 3 5 5 5 5 5 5 5 3 5 5 5 5 5 5 5 5 5 5 5 5 5 5 5 5 5 5 5 5 5 5 5 5 5 5 5 5 5 5 5 5 5 5 5 5 5 5 5 5 5 5 5 5 5 5 5 3 5 3 5 5 5 5 5 5 3 5 5 5 5 5 5 5 5 5 5 3 5 5 5 3 3 5 5 3 5 5 5 3 5 5 5 3 5 5 5 5 5 5 3 5 5 5 5 5 5 5 5 5 5 5 5 5 3 5 5 5 3 5 5 3 5 5 5 5 3 5 3 5 5 5 3 5 5 5 3 5 5 5 5 5 5 5 5 5 5 5 5 3 5 5 5 5 3 5 3 5 5 5 5 5 5 5 5 5 5 5 5 3 5 5 5 5 5 5 5 3 5 5 3 5 5 3 5 5 5 5 5 5 5 5 5 5 5 5 5 5 5 5 5 5 5 5 3 5 5 5 5 3 5 5 5 5 3 5 5 5 5 3 5 5 5 5 5 5 5 5 5 5 5 5 5 5 5 5 5 5 5 5 5 3 5 5 3 3 5 5 5 5 5 5 5 5 5 5 5 5 5 5 5 5 5 5 5 5 5 5 5 5 5 3 5 5 5 3 5 3 5 5 3 5 5 3 5 5 3 5 3 5 5 5 5 3 5 3 5 5 5 5 5 3 5 5 5 5 5 5 5 5 5 5 5 5 5 5 5 5 5 5 5 5 5 5 5 5 5 5 5 5 3 5 5 5 5 5 5 5 5 5 3 5 3 5 5 5 5 5 3 5 5 5 3 5 5 5 5 5 5 5 5 5 5 5 5 5 5 5 5 5 5 5 5 5 5 3 5 5 5 5 5 5 5 5 5 5 3 5 5 5 3 5 5 5 3 5 5 5 5 5 5 3 5 5 5 5 3 5 5 5 5 5 3 5 5 5 5 5 5 5 3 5 5 5 5 5 3 5 5 5 3 5 5 5 5 3 5 3 3 5 5 5 5 5 5 3 5 3 5 3 3 3 3 5 5 5 3 5 5 5 3 5 5 5 5 3 3 5 5 5 3 3 5 5 5 5 3 5 5 5 5 5 3 5 5 5 5 5 5 5 3 5 5 5 5 5 5 5 5 5 3 5 5 5 5 3 5 5 5 5 5 5 5 3 5 5 3 3 5 5 3 5 5 5 5 5 5 5 5 5 5 3 3 3 5 5 3 3 5 3 5 5 5 5 5 3 3 5 5 5 3 5 5 3 3 5 5 5 3 5 3 3 5 5 5 5 5 3 3 5 5 5 5 5 3 5 5 5 3 5 5 5 5 5 3 5 5 5 5 5 5 5 5 5 5 5 5 5 5 3 5 5 3 5 5 5 5 5 5 5 5 3 3 5 5 5 5 3 5 5 5 3 5 5 3 3 5 3 5 5 5 3 3 5 3 3 5 5 3 5 5 5 3 5 5 5 5 5 3 5 3 5 5 3 5 5 5 5 5 5 5 5 5 5 5 5 5 5 3 5 5 5 5 5 5 5 5 5 5 3 5 5 5 3 5 5 5 5 5 3 5 5 5 5 5 5 5 5 5 5 5 5 5 5 5 5 5 5 5 5 5 5 5 5 5 3 5 5 5 5 5 5 3 5 3 5 3 3 5 5 3 5 5 3 5 5 3 5 5 5 5 5 5 5 3 5 5 5 5 5 3 5 5 5 5 5 3 5 5 5 5 5 5 5 5 5 5 5 5 5 5 5 5 5 5 5 5 5 5 5 5 3 5 5 5 5 5 5 3 5 5 5 5 5 5 5 5 5 5 5 5 5 5 5 5 5 5 5 3 5 5 5 5 5 5 5 5 3 3 5 3 5 5 5 5 5 5 5 5 5 5 5 5 5 5 5 5 5 5 5 5 5 5 5 5 5 3 5 3 5 5 3 5 5 5 5 5 5 5 5 5 5 5 5 5 5 5 5 5 5 5 5 3 5 5 3 5 5 5 5 5 5 3 5 5 3 5 5 5 5 5 5 5 5 5 5 5 5 5 5 3 5 5 5 5 5 5 5 5 3 5 5 5 5 5 3 5 5 3 5 5 5 5 5 5 5 5 5 5 5 5 5 5 5 5 5 5 5 5 5 5 3 5 5 5 5 5 5 3 5 3 5 5 5 5 5 5 5 5 5 5 5 5 3 5 5 5 5 3 5 3 5 5 5 5 3 5 3 3 5 3 5 3 5 3 5 3 3 5 5 5 3 3 3 3 5 3 3 5 5 5 5 3 5 3 3 5 3 3 5 5 5 3 5 5 5 5 3 5 5 3 5 5 3 5 5 5 5 5 3 5 3 5 5 5 5 3 5 5 3 5 5 5 5 5 3 5 5 3 5 3 5 5 5 5 5 5 3 5 5 3 5 3 5 5 3 5 5 5 3 5 5 3 5 5 3 3 5 5 5 3 5 5 3 5 3 5 5 5 5 5 3 5 5 3 5 5 5 5 3 3 5 5 5 5 5 5 5 5 3 3 5 5 5 3 5 3 5 5 3 5 5 5 3 5 5 5 5 5 5 5 5 5 5 5 5 5 5 5 5 5 5 5 5 5 5 5 5 5 5 5 5 5 5 5 5 5 3 5 5 5 5 5 5 5 3 5 5 5 5 5 5 5 5 5 5 5 5 5 3 5 5 5 3 5 5 3 3 5 5 5 5 5 5 3 3 5 5 5 5 5 5 5 5 5 5 5 5 5 5 5 5 5 5 5 5 3 5 5 5 5 5 5 5 5 5 3 5 5 3 5 5 5 5 5 5 5 5 5 5 5 5 5 5 5 5 5 5 5 5 5 5 5 5 3 5 5 3 5 5 5 5 5 5 5 5 5 5 5 5 5 5 5 3 5 5 5 5 5 5 5 5 5 5 3 5 5 5 5 5 5 5 5 5 5 5 5 5 5 5 5 5 5 5 3 5 5 5 5 5 5 3 5 5 5 5 5 5 5 5 5 5 5 5 5 5 5 5 5 3 5 5 5 5 5 3 5 5 5 3 5 5 5 5 5 5 5 5 5 5 5 5 5 3 5 5 5 5 5 5 3 5 5 5 5 5 3 5 3 5 3 5 3 5 5 5 5 5 5 5 5 5 5 5 5 5 5 5 5 5 5 5 5 3 5 5 5 5 3 5 5 5 5 5 5 5 5 5 5 5 5 5 5 5 5 5 5 3 5 5 5 3 5 3 5 5 5 5 5 3 5 5 5 5 5 5 5 5 5 5 3 5 5 5 5 5 5 3 5 5 5 5 5 5 5 5 5 5 3 5 3 5 3 5 5 5 5 5 3 5 5 5 5 5 3 5 5 5 5 5 5 5 3 5 5 5 5 5 5 5 3 5 5 5 5 3 5 3 5 5 5 5 5 5 5 5 5 5 3 5 5 5 5 5 3 5 5 5 5 5 5 5 3 5 5 5 5 3 5 5 3 5 5 5 3 5 5 5 5 5 5 5 3 5 5 5 5 5 5 5 5 5 5 3 5 5 5 5 3 5 5 5 5 5 5 5 5 5 5 5 5 5 5 5 5 5 5 5 5 5 5 5 5 5 5 5 5 5 5 3 5 5 5 3 5 5 5 5 5 5 5 5 5 5 5 5 5 5 5 3 5 5 5 5 5 3 5 5 5 5 5 5 5 5 5 5 3 5 5 5 5 5 5 5 3 5 5 5 5 5 5 5 5 3 5 5 5 3 5 5 5 5 5 5 5 5 5 5 5 5 3 3 5 5 5 5 3 5 5 5 5 5 3 5 5 5 5 3 5 5 5 5 5 5 5 5 5 5 5 5 5 5 5 5 5 5 3 5 5 5 5 3 5 3 5 5 5 5 5 5 5 5 5 5 5 5 5 5 5 3 5 5 5 5 3 5 5 5 5 5 5 5 5 5 3 5 5 5 5 5 5 5 5 5 5 5 5 5 5 5 5 5 5 5 5 5 5 5 5 5 5 5 5 5 5 5 5 5 5 5 5 5 5 5 3 5 5 5 5 5 5 3 5 5 5 5 5 5 5 5 5 5 5 5 5 5 5 3 5 5 5 5 5 5 5 5 5 5 5 5 5 5 3 5 5 5 5 5 5 5 3 5 5 5 3 5 5 5 3 5 5 5 5 3 5 5 5 5 3 5 5 5 5 5 5 5 5 5 5 5 5 5 5 3 5 5 5 3 5 5 5 3 5 5 5 3 5 3 5 5 5 5 5 5 5 5 5 5 5 5 5 5 5 5 5 5 5 5 5 5 5 5 5 5 5 5 5 5 3 5 5 5 3 5 5 5 5 3 5 5 5 5 3 5 5 5 5 5 5 3 5 5 5 5 5 5 5 5 5 5 5 5 5 3 5 5 5 3 5 5 5 5 5 3 5 5 3 5 5 3 5 5 3 5 5 3 5 5 5 3 5 5 3 3 5 5 3 3 5 5 3 5 5 5 5 5 5 5 3 5 5 5 5 5 5 3 5 5 5 5 3 5 3 5 5 5 3 5 5 5 5 5 5 5 5 3 5 5 5 5 3 5 3 5 5 5 3 5 5 5 5 5 5 5 3 5 5 5 5 5 5 5 5 5 5 5 5 5 5 5 5 5 5 5 5 5 5 5 5 5 5 5 5 5 5 5 5 5 5 5 5 5 5 5 3 5 5 5 5 3 5 5 5 5 5 5 5 3 5 5 5 5 3 5 5 3 5 3 5 5 5 5 3 5 5 5 5 3 5 5 5 5 5 5 5 5 5 5 5 5 5 5 5 5 5 5 5 5 5 5 5 5 5 5 5 5 5 3 5 5 5 5 5 5 5 5 5 5 5 5 5 5 5 5 3 5 5 5 5 5 5 5 5 5 5 5 5 5 3 5 5 5 5 5 5 5 5 5 5 5 5 5 5 5 5 5 5 5 5 5 3 5 5 5 5 5 5 5 5 5 5 5 5 5 5 5 3 5 3 5 3 5 5 5 5 3 5 5 5 5 5 5 3 5 5 5 5 5 5 5 5 5 3 3 5 5 5 5 3 5 5 5 5 5 5 5 5 5 5 5 5 5 3 3 5 5 5 3 5 5 5 3 5 5 5 5 5 5 5 5 5 5 3 5 5 5 5 5 5 3 5 5 5 5 3 5 5 5 5 5 5 5 5 3 5 5 5 5 5 5 5 5 5 5 3 5 5 5 5 5 5 5 3 5 3 5 5 5 5 5 5 5 5 5 5 5 5 5 5 5 5 5 5 5 5 5 5 5 3 5 5 5 5 5 3 5 5 5 5 5 5 5 5 5 3 5 5 3 5 3 5 5 5 3 3 5 5 3 5 5 5 3 5 5 5 5 5 5 5 5 5 5 5 5 5 5 5 5 5 5 5 5 5 5 5 3 5 5 5 5 3 5 5 5 5 5 5 5 5 5 5 5 5 5 5 5 5 5 5 5 5 5 5 5 5 3 5 5 5 3 5 5 5 5 5 5 5 5 5 3 5 5 5 5 3 5 3 5 5 5 5 5 3 5 5 5 3 5 5 5 5 5 5 5 5 3 5 5 5 5 5 5 5 5 5 5 5 5 5 3 5 5 5 5 3 5 5 5 3 5 5 5 5 3 5 5 5 5 5 5 5 5 5 5 5 5 5 5 5 5 3 3 5 5 5 5 5 5 5 5 5 5 5 5 5 5 5 5 5 5 3 5 5 5 5 5 5 5 5 3 5 5 5 3 5 5 5 5 5 5 5 5 5 3 5 5 5 5 3 5 5 5 5 5 5 5 5 5 5 5 3 5 5 5 5 5 5 5 3 5 5 5 3 5 5 5 5 5 5 5 3 5 5 5 5 5 5 5 5 5 5 5 5 5 5 5 5 5 5 5 5 5 5 3 5 5 5 3 5 5 5 5 5 5 5 5 5 5 5 5 5 5 5 5 5 5 5 5 3 5 5 5 5 5 5 3 5 5 5 5 3 5 3 3 3 5 5 5 5 5 3 5 5 5 5 5 5 5 5 5 5 5 5 5 5 5 5 5 5 5 5 5 5 5 5 5 3 5 5 5 5 5 5 5 5 3 5 3 5 5 5 5 5 5 3 5 5 5 5 5 5 5 5 5 5 5 5 5 5 5 5 5 5 5 5 5 5 5 5 5 5 5 5 5 5 5 5 5 5 5 5 5 3 5 5 5 3 3 5 5 5 5 5 5 3 5 3 5 5 5 5 5 3 5 5 5 5 5 3 5 5 5 5 5 5 5 5 3 5 5 5 5 5 5 5 5 5 5 5 5 5 5 5 5 5 5 5 5 5 5 5 5 5 5 3 5 5 5 5 3 5 5 5 5 3 5 5 5 5 5 5 3 5 5 3 5 5 3 5 5 3 5 5 5 5 5 5 5 5 5 5 5 5 5 5 5 5 5 5 5 5 5 5 5 5 5 5 5 5 5 5 5 5 5 5 5 5 5 5 5 5 5 5 5 5 5 5 5 5 5 5 5 5 5 5 5 5 5 5 5 5 5 5 5 5 5 5 5 5 5 5 5 5 5 5 5 5 5 3 5 5 5 5 5 5 5 5 5 5 5 5 5 5 5 5 5 5 3 5 5 5 3 5 5 5 3 5 5 3 5 5 3 5 5 5 5 5 5 5 5 5 5 5 5 5 5 5 5 5 5 5 5 5 5 5 5 5 5 5 3 5 3 5 5 5 5 3 5 5 5 5 5 5 5 5 5 5 5 5 5 5 5 3 5 5 5 5 5 5 5 5 5 5 5 5 5 3 5 5 5 5 5 5 5 5 3 5 5 5 5 5 3 5 5 3 5 3 5 5 3 5 5 5 5 5 5 5 5 5 5 5 5 3 5 5 5 5 5 5 3 5 5 5 5 5 3 5 5 5 3 5 5 5 5 5 5 5 5 5 5 5 5 5 5 5 5 5 5 5 5 5 5 5 3 5 5 5 5 5 5 5 5 5 5 5 5 3 5 5 3 5 5 5 5 5 5 5 5 5 5 5 5 5 5 3 5 5 5 5 5 3 5 5 5 5 5 5 5 5 5 5 5 5 3 5 5 5 5 5 5 3 5 5 5 5 3 5 5 5 5 5 5 5 5 5 3 5 5 5 5 5 5 5 5 5 5 5 5 5 5 5 5 3 5 5 5 5 3 5 5 3 5 3 5 5 5 5 5 5 5 5 5 3 5 5 5 3 3 5 5 5 5 5 5 5 5 5 5 5 3 5 5 5 5 5 5 3 5 5 3 5 5 5 5 5 5 5 5 5 5 3 5 5 5 5 5 5 3 5 5 5 5 5 5 5 5 5 3 5 5 3 3 5 5 5 5 5 5 5 5 5 5 5 5 3 5 3 5 5 3 5 5 5 5 5 5 3 5 5 5 5 5 5 5 5 5 3 5 3 3 5 5 3 5 3 5 5 5 5 5 3 5 5 5 5 5 3 5 3 5 5 3 5 5 3 5 5 5 5 5 5 5 5 5 5 5 5 5 5 5 5 5 5 5 5 5 5 5 5 5 5 5 5 5 3 3 5 5 5 5 5 5 5 3 5 5 5 3 3 5 3 5 5 5 5 5 5 3 5 5 5 5 3 5 5 5 5 5 5 5 5 5 5 5 5 3 3 5 5 5 5 5 5 3 5 5 5 5 3 5 3 3 5 5 3 5 5 5 5 3 5 3 3 5 5 5 5 5 3 5 5 5 5 5 3 5 5 5 5 3 5 5 3 5 3 5 5 5 3 3 5 5 5 3 5 3 5 5 3 5 5 5 5 5 5 3 5 5 5 5 5 5 5 5 5 5 5 5 5 5 3 5 5 5 5 5 5 3 5 5 5 5 5 5 5 3 5 3 5 5 3 5 3 5 5 5 3 5 5 5 5 3 5 5 3 5 5 5 5 5 5 5 5 5 5 3 5 3 5 5 5 5 5 3 5 5 3 5 5 5 5 5 5 5 5 5 5 5 5 5 5 3 5 5 5 5 5 5 5 5 5 3 5 5 5 5 5 5 5 5 5 5 3 5 5 5 5 5 3 5 5 5 5 5 3 3 5 5 5 5 3 5 5 5 5 5 5 5 3 5 5 3 5 5 5 3 5 5 5 5 5 5 5 5 5 5 5 5 5 5 5 5 5 5 5 5 5 5 5 5 5 5 5 5 5 5 5 5 5 5 5 5 5 5 5 5 5 5 5 5 5 5 5 5 3 5 5 5 5 5 3 5 5 5 5 5 5 5 3 5 5 5 3 5 3 5 5 5 5 5 3 5 5 5 5 5 5 3 5 5 5 5 5 5 5 5 5 5 3 5 5 5 5 5 5 3 5 5 5 5 5 5 5 5 5 3 5 5 5 5 5 5 5 3 5 5 5 5 5 5 5 5 5 5 5 5 5 5 5 5 5 5 5 3 3 3 5 5 5 3 5 3 5 5 5 5 5 5 5 5 5 5 5 5 5 5 5 5 5 5 5 5 5 5 5 5 5 5 5 5 5 5 5 5 5 5 5 5 5 5 5 3 5 5 5 5 3 3 5 5 3 3 5 5 5 5 5 5 5 3 5 5 5 3 5 5 5 5 5 5 5 5 3 3 3 3 5 5 3 5 5 3 5 3 5 5 3 3 5 5 3 3 5 5 5 5 3 5 5 5 5 5 5 5 5 5 5 5 5 3 5 3 5 3 5 3 5 3 5 5 5 5 5 5 3 5 3 5 3 3 5 5 5 5 5 5 5 5 5 5 5 5 5 5 5 5 5 5 5 5 5 5 5 5 5 5 5 5 5 5 5 5 5 5 5 3 5 5 5 5 5 5 5 5 5 5 3 5 5 5 5 5 3 5 5 5 5 5 5 3 5 5 5 5 5 5 5 5 5 3 5 3 5 5 5 5 5 3 5 5 3 5 5 3 5 5 5 3 5 5 5 5 5 5 5 5 5 3 5 5 5 5 3 5 5 5 5 5 5 5 5 5 5 5 5 5 5 5 5 5 5 5 5 5 5 5 5 5 5 5 5 5 5 5 5 5 3 5 5 5 5 5 5 5 5 5 5 5 5 5 5 5 3 5 5 5 5 5 5 5 5 5 5 5 3 5 5 5 5 5 5 3 5 5 5 5 5 5 5 5 5 3 5 5 5 3 5 5 5 5 5 5 5 5 5 5 5 5 5 5 5 5 5 5 5 5 5 5 5 5 3 5 5 5 5 5 5 5 5 5 3 5 5 5 3 5 5 5 5 5 3 5 5 5 5 3 5 5 5 5 5 5 5 5 5 5 5 3 5 3 5 5 3 5 5 5 5 5 5 5 5 5 3 5 5 5 5 5 5 5 5 5 5 5 5 3 5 5 5 5 5 5 5 5 5 5 3 3 5 5 5 5 3 5 5 5 3 5 3 5 5 5 5 5 5 3 5 3 5 5 3 5 5 3 5 5 5 5 5 5 5 5 3 5 5 3 3 5 5 5 5 5 5 5 5 3 5 5 3 5 3 5 5 3 3 5 5 3 3 3 3 5 3 5 5 5 5 3 5 5 5 5 5 3 3 3 5 5 3 3 5 5 5 3 5 5 5 5 5 3 3 5 5 5 5 5 5 5 5 5 5 5 5 5 5 5 5 3 5 5 5 3 5 3 5 5 5 5 5 5 5 3 5 5 5 5 3 5 5 5 3 5 3 5 5 5 5 5 5 5 5 5 5 5 5 5 5 5 5 5 5 5 5 5 5 5 5 3 5 5 5 5 3 5 5 5 5 5 5 5 5 5 5 5 5 5 3 5 5 5 5 5 5 5 5 5 5 5 5 5 5 5 5 5 5 5 3 5 5 5 5 5 5 3 3 5 5 5 5 5 5 5 5 5 5 5 5 5 5 5 5 5 5 3 5 5 3 5 5 3 5 5 5 5 5 5 5 5 5 5 5 5 5 5 5 5 3 5 3 5 5 5 5 5 5 5 3 5 5 5 5 5 5 5 3 5 5 5 5 5 5 3 5 5 5 3 5 5 3 5 5 5 5 5 5 5 5 5 5 5 5 5 5 5 5 5 5 5 5 5 5 5 5 5 5 5 5 5 5 5 5 5 5 5 5 5 5 5 5 5 5 5 5 5 5 3 5 5 5 5 5 5 5 5 3 5 5 5 5 5 5 5 5 5 3 3 5 5 5 5 5 5 3 5 5 5 3 3 5 3 3 5 3 5 3 5 3 5 5 5 5 5 5 5 5 5 3 5 5 3 5 5 5 3 3 5 5 5 5 5 5 5 5 5 5 5 5 3 5 3 5 5 5 5 5 3 3 5 5 5 5 5 5 5 5 5 5 5 5 5 5 5 5 5 5 5 3 5 5 5 3 5 5 5 5 5 5 5 5 5 5 3 5 3 5 5 5 5 5 5 5 5 5 5 5 5 5 5 5 5 3 5 5 5 5 5 5 5 5 5 5 5 5 5 5 5 5 5 5 5 5 5 5 5 5 5 3 3 5 5 5 5 5 5 5 5 3 5 5 3 5 5 5 5 5 3 3 5 5 5 5 5 5 5 5 5 5 5 5 5 5 5 5 5 5 5 5 5 5 5 5 5 5 5 3 5 5 5 5 3 5 5 5 5 5 5 3 5 5 5 5 3 5 5 5 5 5 5 5 5 5 5 5 5 3 5 5 5 5 5 5 5 5 5 3 5 5 5 5 5 5 5 5 5 5 5 5 5 5 5 5 3 5 5 5 5 5 5 3 5 5 5 5 5 5 5 5 5 3 5 5 5 5 5 5 5 5 5 5 5 3 5 5 5 5 5 3 3 3 5 5 5 5 5 5 5 5 5 5 5 5 5 5 5 5 5 5 5 5 5 5 5 5 5 5 5 5 5 5 5 5 5 5 5 5 5 5 5 5 5 5 5 5 5 5 5 5 5 5 5 5 5 5 5 5 5 5 5 3 5 5 5 5 5 5 5 5 5 5 5 5 5 5 5 5 5 5 5 5 5 5 5 5 5 5 5 5 5 3 5 5 5 3 5 5 3 3 5 5 3 5 5 3 5 5 3 5 5 5 3 5 5 5 5 5 5 5 5 5 5 5 5 5 5 5 3 5 5 5 5 3 5 3 5 5 5 5 3 5 5 5 5 5 5 5 5 5 3 5 5 5 5 5 5 5 5 5 5 5 5 5 5 5 5 5 5 5 5 5 3 5 3 5 5 3 5 5 5 5 3 5 5 3 5 3 5 5 5 5 5 5 5 5 5 5 3 5 5 5 5 5 5 5 5 3 3 5 5 3 5 5 3 5 5 5 5 3 3 5 5 5 5 5 5 5 3 5 5 5 5 3 3 3 5 5 5 5 5 5 3 5 5 3 3 5 5 5 3 3 5 5 5 5 5 3 5 3 5 5 5 5 5 5 5 5 5 5 5 3 5 5 5 3 5 5 5 5 5 5 5 3 5 3 5 3 5 5 5 5 3 5 5 5 5 5 3 5 5 5 5 5 5 5 5 5 5 5 3 5 5 5 5 5 5 5 5 3 5 5 5 5 5 5 5 5 5 3 5 5 5 5 5 3 3 5 5 5 5 5 5 5 3 5 5 5 3 5 5 5 5 5 5 5 5 3 5 5 5 3 5 5 5 3 5 3 5 3 3 5 5 3 5 3 5 5 3 3 5 5 3 5 5 5 5 5 5 5 3 5 5 5 3 5 5 3 5 5 5 3 5 3 5 5 5 5 3 5 3 5 5 5 5 5 3 5 5 5 5 3 5 3 5 5 3 5 3 5 5 5 5 3 5 5 3 5 3 5 5 3 5 3 5 3 5 5 5 5 5 3 5 5 5 5 5 3 5 5 5 5 5 5 3 5 5 5 5 5 5 5 5 5 5 5 5 5 5 5 5 5 5 5 5 5 5 5 5 5 3 5 5 5 5 3 3 5 5 5 5 5 5 5 5 5 5 5 5 5 5 5 5 5 5 5 5 5 5 5 5 5 5 3 5 5 5 5 5 5 5 5 5 5 5 5 5 5 5 5 5 5 5 5 3 5 5 5 5 5 5 5 5 5 5 5 5 5 5 3 5 5 5 5 5 5 5 5 5 5 5 3 5 5 3 5 5 3 3 5 5 3 5 5 5 5 5 5 5 5 5 5 3 5 5 5 5 5 5 5 5 5 5 5 5 5 5 5 5 5 5 5 5 5 5 5 5 5 5 3 5 5 5 3 5 5 5 5 5 5 5 3 5 5 5 5 5 5 5 5 5 5 5 5 3 5 5 5 5 5 5 5 5 3 3 5 5 5 5 5 5 5 5 5 5 3 5 5 5 5 5 5 5 5 5 3 5 5 5 5 5 5 5 5 5 5 5 5 5 5 5 5 5 5 5 5 5 3 5 5 5 3 5 5 5 5 5 5 5 5 5 5 5 5 5 5 5 5 5 5 5 5 3 5 5 5 5 5 5 5 5 5 5 5 5 5 5 5 3 3 5 3 5 5 5 5 5 5 5 5 5 5 5 5 5 5 5 5 5 5 5 5 5 5 3 5 5 5 5 5 5 5 5 5 5 5 5 5 5 5 5 5 5 3 5 5 5 5 5 5 5 5 5 3 5 5 5 5 5 5 5 5 5 5 5 5 5 5 5 5 5 5 5 5 3 5 5 5 5 3 5 5 5 5 3 5 5 5 5 5 5 5 5 5 5 5 3 5 5 5 5 5 5 3 5 3 5 5 5 5 5 5 5 5 5 5 5 5 5 5 5 5 5 3 5 5 3 5 5 5 5 5 5 5 5 5 5 5 5 5 5 5 5 5 5 5 5 5 5 5 5 5 5 5 5 5 5 5 5 5 5 5 5 5 5 5 5 5 5 5 5 5 5 5 5 3 5 5 5 5 5 5 5 5 5 5 5 5 5 5 5 5 5 5 5 5 5 5 5 5 5 5 5 5 5 5 5 5 5 5 5 5 5 5 5 5 5 5 5 5 5 5 5 5 5 5 3 5 5 5 5 5 3 5 5 5 3 5 5 5 5 5 3 5 5 5 3 5 5 5 5 5 5 5 5 5 5 5 5 3 5 5 5 5 5 5 3 5 5 5 5 5 5 5 5 5 5 5 5 5 5 5 5 5 5 5 5 5 5 5 5 5 5 5 5 5 5 5 5 5 5 5 5 5 5 5 5 5 5 5 5 5 5 5 5 5 5 5 5 5 5 5 5 5 5 5 5 3 3 5 5 5 5 5 3 3 5 5 5 5 5 5 5 5 5 5 5 5 3 5 3 5 5 5 5 3 5 5 5 5 5 5 3 5 5 5 5 5 5 3 5 5 3 5 5 3 5 5 5 3 3 5 5 3 3 5 5 5 5 3 5 5 5 5 5 5 5 3 5 5 5 5 5 5 5 3 5 5 5 3 5 5 5 5 5 5 3 5 3 3 5 5 3 5 5 5 5 3 5 5 5 5 5 5 5 5 5 5 5 5 5 5 5 5 5 5 3 5 5 5 3 3 5 5 5 5 5 5 5 5 5 5 3 5 3 5 5 5 5 5 5 3 5 3 5 3 5 5 5 5 5 5 5 5 5 5 5 5 5 5 5 5 5 5 5 5 5 5 3 5 5 5 5 5 5 5 5 5 5 5 3 5 5 3 5 5 5 5 5 3 5 5 5 5 3 5 5 5 5 5 5 3 5 5 5 5 5 5 5 5 5 5 5 5 5 5 5 5 5 5 5 5 5 5 5 5 5 5 5 5 5 5 5 5 3 5 3 5 5 5 5 5 5 5 5 5 5 5 5 5 5 5 5 5 5 5 5 3 5 5 5 3 5 5 5 5 5 5 5 5 5 5 5 5 5 5 5 5 3 5 3 5 5 5 5 5 5 5 5 5 5 5 5 5 3 5 5 5 5 5 5 3 5 5 5 5 5 5 5 5 5 3 5 3 5 3 5 5 5 3 5 5 5 5 5 3 5 5 3 5 5 5 5 3 5 5 5 5 3 5 5 5 3 3 5 5 5 5 5 5 3 5 5 5 5 5 5 5 5 5 5 5 5 3 5 5 5 5 5 5 5 5 3 5 5 3 5 5 5 5 5 5 5 5 5 5 3 5 3 5 5 3 3 5 5 5 3 5 5 5 5 3 5 5 3 5 5 5 5 5 5 5 5 3 5 5 5 5 5 5 5 5 5 5 5 3 5 5 5 5 5 3 5 5 5 5 5 5 5 5 5 5 3 5 5 5 5 5 5 5 5 3 5 5 5 5 5 5 5 5 3 5 5 3 5 3 5 3 5 5 5 5 3 5 5 3 3 5 5 5 3 5 5 5 5 5 5 3 5 5 3 5 5 5 5 5 5 5 5 5 3 5 5 5 5 3 5 5 5 5 3 5 5 5 3 3 5 5 3 3 5 3 5 3 5 5 5 5 3 5 5 3 3 3 5 5 5 5 5 3 5 5 3 5 5 5 5 5 3 3 5 5 5 3 5 5 5 5 5 5 5 5 3 5 5 5 5 5 5 5 5 5 5 3 5 5 5 5 3 5 5 5 5 5 5 5 3 5 5 5 5 5 5 5 5 5 5 5 5 5 5 5 5 5 5 5 5 5 5 3 5 5 5 5 5 3 3 5 5 5 5 3 5 5 3 5 3 3 5 5 5 3 5 5 3 5 5 5 5 5 5 5 5 5 5 5 5 5 5 5 5 5 5 5 5 5 5 5 5 5 5 5 5 5 5 5 5 5 5 5 5 5 5 5 5 5 5 5 5 5 5 5 5 5 5 3 5 5 5 5 5 5 3 5 5 5 5 5 5 5 5 5 3 5 3 5 5 5 5 5 5 5 5 5 5 5 5 5 5 5 5 5 3 5 5 5 5 5 5 5 5 5 5 5 5 5 3 5 5 5 5 5 5 5 3 5 5 5 5 5 3 5 5 5 5 5 5 5 5 5 3 5 3 5 5 5 5 3 5 3 5 5 5 3 5 5 5 5 3 5 5 5 5 5 5 5 5 5 5 5 5 5 5 5 5 5 5 5 5 3 3 5 5 5 5 5 5 5 5 5 5 5 5 5 5 5 5 5 5 5 5 5 5 5 5 5 3 5 5 3 5 5 5 5 5 5 5 3 5 5 5 5 5 5 5 5 5 5 5 3 5 3 5 5 5 5 5 5 5 5 5 5 5 5 5 5 5 5 5 5 5 5 5 5 5 5 5 5 3 5 3 5 5 5 5 5 5 5 5 5 5 5 5 3 3 5 5 3 5 5 5 5 5 5 5 5 5 5 5 5 5 5 5 5 5 3 5 5 5 5 5 5 3 5 5 5 5 5 5 3 3 5 5 5 5 5 5 5 5 5 5 5 5 5 5 5 5 5 5 5 5 5 5 5 5 5 5 5 5 5 5 5 5 5 5 5 5 5 5 5 5 5 5 5 5 3 5 5 5 5 5 5 5 5 5 5 5 5 5 5 5 3 5 5 3 5 5 5 3 5 5 5 5 5 5 5 5 5 3 5 3 5 5 3 3 5 5 5 3 5 5 5 5 5 5 3 5 5 5 5 5 5 5 3 3 5 5 5 5 3 3 5 3 3 5 5 5 5 5 3 3 5 5 5 5 5 5 5 5 5 5 5 5 5 5 5 5 5 3 5 5 3 5 5 5 5 5 5 5 3 5 5 5 3 5 5 5 5 5 5 3 5 5 5 5 5 5 5 5 3 5 5 5 5 5 5 5 3 5 5 5 5 5 5 5 3 3 5 3 5 5 3 3 5 5 3 5 3 5 5 5 5 5 5 5 5 5 5 5 5 5 5 5 5 5 5 5 5 5 3 5 3 5 5 5 5 5 5 5 5 5 5 5 5 5 3 5 5 5 5 5 3 5 5 5 5 5 5 5 5 5 5 3 5 3 5 5 5 5 5 5 5 5 5 5 5 3 3 5 5 3 5 5 5 5 5 5 5 5 5 5 5 5 5 3 3 5 5 5 5 5 3 5 5 5 5 5 3 5 5 3 3 5 5 3 5 5 5 5 5 5 5 5 5 5 5 5 5 5 5 5 5 5 5 5 5 5 3 5 5 3 5 5 5 5 5 5 5 5 5 5 5 5 5 5 5 5 5 5 5 5 5 5 3 3 5 5 3 5 5 5 3 5 5 5 3 5 5 5 5 5 5 5 5 5 5 5 5 5 5 5 5 3 5 3 5 5 5 5 5 5 5 5 5 5 5 5 5 5 5 5 3 5 5 5 5 5 3 5 5 5 5 5 5 5 5 5 5 5 5 5 5 5 5 5 5 5 5 5 5 5 5 5 5 5 3 5 5 5 5 5 5 5 3 5 5 5 5 5 5 5 3 5 5 3 5 5 5 5 5 5 5 3 5 3 5 5 3 5 5 3 5 5 5 5 5 3 5 5 5 5 5 5 5 5 5 5 5 5 5 5 3 5 3 5 5 3 5 5 3 5 5 5 5 5 5 5 5 5 5 5 5 5 5 5 3 3 5 3 5 5 3 5 5 5 5 5 5 3 3 5 5 3 5 3 5 5 5 3 5 5 3 5 5 5 3 5 5 5 5 5 5 5 5 5 5 5 3 5 3 5 3 5 5 3 5 5 5 5 5 5 5 5 5 5 5 5 3 3 5 5 3 5 5 3 3 3 5 5 5 3 5 5 5 5 5 5 3 5 3 3 5 3 5 5 5 5 3 5 5 5 3 5 5 5 5 5 5 5 5 5 5 3 5 3 5 5 5 5 5 5 3 5 3 5 5 3 5 5 5 5 3 5 5 3 5 5 3 5 3 5 5 5 5 3 5 5 5 5 3 3 3 5 5 5 5 3 5 3 5 3 5 5 5 5 5 5 5 5 5 3 3 5 5 5 5 3 3 5 5 5 5 5 5 3 5 5 3 3 5 5 5 5 5 5 5 5 5 3 5 5 5 3 5 5 5 5 3 5 5 5 5 5 5 5 5 5 5 5 5 5 5 5 5 5 5 5 5 5 5 5 5 5 5 5 5 5 5 5 5 5 5 5 5 5 5 5 5 5 5 5 5 3 5 5 5 5 5 5 5 5 5 5 3 3 5 5 3 5 5 3 3 5 3 5 5 5 5 3 3 5 5 3 5 3 5 5 5 5 5 3 5 5 3 5 5 5 3 5 5 3 3 5 5 5 3 5 5 5 3 5 5 5 5 3 5 5 5 5 5 5 5 5 3 5 5 5 5 5 5 5 5 5 5 3 5 5 5 5 5 5 5 5 5 5 5 5 5 5 5 5 5 5 5 5 5 5 5 5 3 5 5 5 5 5 5 5 3 5 5 3 5 5 5 3 5 3 5 5 5 5 5 5 5 5 3 5 5 3 3 5 5 5 5 5 3 5 3 5 3 5 5 5 5 5 5 5 5 5 5 5 5 5 5 5 5 5 5 5 5 5 5 5 5 5 5 3 5 5 5 5 5 5 3 3 5 5 3 5 3 5 3 5 5 5 5 3 5 5 5 5 5 5 3 3 3 5 5 5 3 5 5 5 5 5 5 5 5 5 5 3 5 5 3 5 5 3 5 5 3 5 5 5 3 5 5 3 5 5 5 5 5 5 5 5 5 5 5 5 3 5 3 5 5 5 5 5 5 3 5 5 5 3 3 5 5 5 5 5 3 5 5 5 5 3 3 5 5 5 5 3 3 5 3 3 5 3 5 5 3 5 5 3 3 5 5 5 5 5 5 5 5 5 5 5 5 5 5 5 3 3 5 5 5 5 5 5 5 5 5 5 5 3 5 5 5 5 5 5 5 3 5 5 5 5 3 5 5 5 3 5 3 3 5 5 5 5 5 5 3 5 5 5 5 5 5 5 5 5 5 3 5 5 5 5 5 5 5 5 5 5 5 5 3 5 5 5 5 5 5 5 5 5 5 5 5 5 3 5 5 5 5 5 5 5 5 5 5 5 5 3 5 5 5 5 5 3 5 5 5 5 5 5 5 5 5 5 5 5 3 5 5 5 5 5 5 5 5 5 5 5 5 5 5 5 5 5 5 5 5 3 5 5 3 5 3 3 5 5 5 5 5 5 3 5 5 3 5 5 5 5 5 5 3 5 5 5 5 5 5 5 5 5 3 3 5 5 5 5 5 5 5 3 5 5 5 3 3 5 5 5 5 3 5 3 5 5 5 5 5 5 3 5 3 5 5 5 5 5 3 5 3 5 5 5 5 5 5 5 3 5 5 3 5 3 5 5 5 5 3 3 5 5 5 5 5 5 3 5 5 3 5 5 5 5 5 5 5 3 5 5 5 5 5 5 5 5 3 5 5 3 5 5 5 5 5 5 5 5 3 5 3 5 3 5 5 5 5 3 5 3 5 5 3 5 5 3 5 5 3 3 5 3 5 3 5 5 5 5 5 5 5 5 5 5 5 5 5 5 5 5 5 5 5 5 5 5 5 5 5 5 5 3 5 5 5 5 3 5 5 5 3 5 5 3 5 5 5 3 5 3 5 5 5 3 5 5 3 5 5 5 3 5 5 5 5 5 5 5 5 3 5 5 5 3 5 5 5 5 3 5 5 5 5 3 5 3 5 5 5 5 5 5 5 3 5 5 5 3 5 5 3 5 5 5 5 5 5 5 5 5 5 5 5 5 5 5 5 5 5 3 5 5 3 5 5 5 3 5 5 5 5 5 5 5 5 5 5 3 5 3 5 5 5 5 5 5 5 5 5 5 5 5 5 5 5 5 5 3 5 5 5 5 5 5 3 5 5 5 5 3 5 3 5 5 5 5 5 5 5 5 5 5 5 5 5 5 5 3 5 5 5 5 5 5 3 5 5 5 5 5 5 5 3 5 5 5 5 3 5 5 3 3 5 5 5 5 5 5 5 5 5 5 5 5 5 5 5 5 5 5 5 5 5 5 5 3 3 5 5 5 5 3 5 5 5 5 5 5 5 5 3 5 5 5 5 5 3 5 5 5 5 5 5 5 5 5 5 5 5 5 5 5 5 5 5 5 5 5 5 5 5 5 5 5 5 3 3 5 5 5 3 5 5 5 5 3 5 5 5 5 3 5 5 5 3 5 5 5 5 5 5 3 5 5 5 5 5 5 3 3 5 5 5 3 5 5 5 5 3 5 5 5 5 5 5 5 5 5 5 5 5 5 5 5 5 5 5 5 5 5 5 5 3 5 5 5 5 3 5 3 5 5 5 5 5 5 5 5 5 5 3 5 5 5 5 5 5 5 5 3 5 3 5 5 5 3 5 5 5 5 5 5 5 5 5 5 5 3 5 5 5 5 5 5 5 3 3 5 3 5 5 5 5 5 5 5 5 5 5 3 5 5 5 5 5 5 5 3 5 5 5 5 5 5 5 5 5 5 5 5 3 5 5 5 5 5 5 3 5 3 5 5 5 3 5 5 5 5 5 5 5 3 5 5 5 5 5 5 5 5 5 5 5 3 5 3 5 5 5 3 5 5 5 5 5 5 3 5 5 5 3 5 5 5 3 5 5 5 5 5 5 5 5 5 3 5 5 5 5 3 5 5 5 5 5 5 5 5 5 5 3 5 5 5 5 5 3 5 5 5 5 5 5 5 5 5 5 3 5 5 5 5 3 5 5 5 5 5 5 5 5 5 3 5 3 5 5 5 5 5 5 5 5 5 5 5 5 5 5 5 5 5 5 5 5 5 5 5 5 5 5 5 5 5 5 5 5 5 5 5 5 5 5 5 5 5 5 5 5 5 5 5 5 5 5 5 5 3 5 5 5 5 5 5 5 5 5 5 5 3 5 5 5 5 5 5 5 5 5 5 5 3 5 5 5 5 5 5 5 3 5 5 5 3 5 5 5 5 5 5 3 5 5 5 5 5 5 5 3 5 5 3 5 5 5 5 3 5 5 5 3 5 3 5 3 5 5 3 5 5 5 3 5 5 5 5 5 5 3 5 5 5 5 3 5 5 5 5 5 5 3 5 5 5 5 5 5 5 5 3 5 5 5 3 5 5 5 5 5 5 5 5 5 5 5 5 5 5 5 5 5 3 5 5 5 5 3 5 5 5 5 5 3 3 5 5 3 5 5 5 5 5 3 5 5 5 3 5 3 5 3 5 5 3 3 5 5 5 3 3 5 3 5 5 3 5 5 3 3 5 5 5 5 5 3 5 5 5 5 5 5 5 5 5 5 5 5 5 5 3 5 5 3 5 5 3 5 5 5 5 5 5 3 5 5 5 5 5 5 5 5 5 5 5 5 5 5 5 3 5 5 5 5 5 3 5 5 5 5 5 5 5 5 5 5 5 5 3 5 5 5 5 5 5 5 3 5 5 5 5 5 5 5 5 5 5 5 5 5 5 5 5 5 3 5 5 5 5 5 5 5 5 5 3 5 3 5 5 5 5 5 5 5 5 5 5 3 5 5 5 5 3 5 5 5 5 5 5 5 3 5 5 5 3 5 3 5 5 5 3 3 5 5 5 5 5 5 3 3 3 5 3 5 5 5 5 5 5 3 5 5 5 5 5 5 5 3 5 5 5 3 5 5 5 5 3 5 5 5 5 5 5 5 5 3 5 5 5 3 5 5 5 5 5 3 5 5 5 5 5 5 5 5 5 5 3 5 5 3 3 5 5 5 5 5 5 5 3 5 5 5 5 5 5 5 3 5 5 5 5 5 5 5 5 5 5 5 5 3 5 5 5 5 3 5 5 5 5 5 5 5 5 5 5 5 5 5 5 5 5 5 3 5 5 5 5 3 5 5 5 5 5 5 5 5 5 5 5 3 5 5 5 5 5 5 5 5 5 5 5 5 5 5 5 5 5 5 5 5 5 5 5 5 5 5 5 5 5 5 5 5 5 5 5 5 5 5 5 5 5 3 5 3 5 5 5 5 3 3 5 5 5 5 5 5 5 5 3 3 5 5 5 5 5 5 5 5 5 5 5 3 5 5 5 5 5 5 5 5 5 5 5 5 5 3 5 5 5 5 5 3 5 5 5 5 3 5 3 5 5 3 5 5 3 5 5 3 5 5 3 5 5 5 5 5 5 3 5 3 5 5 5 5 5 5 5 3 5 5 5 5 3 5 5 3 3 3 5 3 5 5 3 3 5 5 5 5 5 5 3 5 5 5 5 5 5 5 5 5 5 5 5 5 5 5 5 5 5 5 5 5 5 3 5 5 5 5 5 5 5 5 5 5 5 5 5 5 5 5 5 5 5 5 5 3 5 5 5 5 5 5 3 5 5 5 5 5 5 5 5 5 5 5 3 5 5 3 5 5 5 5 5 5 5 5 5 5 5 5 5 5 5 5 5 5 5 5 5 5 5 5 5 5 5 5 5 5 5 5 5 5 5 5 5 5 5 5 5 5 5 5 5 5 5 5 3 5 5 3 3 5 5 5 5 5 5 5 5 5 5 3 5 5 5 5 3 5 5 5 5 5 5 5 3 5 5 5 5 5 5 5 5 5 5 5 5 5 3 5 5 5 5 5 5 5 5 5 5 3 5 5 3 5 5 5 5 5 5 5 3 5 5 5 5 5 5 5 5 5 5 5 5 5 5 5 5 5 5 5 5 5 5 5 5 5 5 5 5 5 5 5 5 3 5 5 3 5 5 5 5 5 3 5 5 5 5 5 3 5 5 5 3 5 5 5 3 5 5 5 5 5 5 5 5 5 5 5 5 5 5 5 5 5 5 5 5 3 5 3 5 5 5 5 5 3 5 5 5 5 3 5 5 3 5 5 5 5 5 5 5 
</DataArray>
</Cells>
<PointData Scalars="" Vectors="displacement," Tensors="">
<DataArray type="Float64" Name="displacement" NumberOfComponents="3" format="ascii">
0.044996594403953413 8.3428376253760722e-07 0 0.044808711269635849 7.2134762108695159e-05 0 0.045001040555503621 -2.3998333667136328e-07 0 0.044996594403953413 8.3428376253760722e-07 0 0.044808711269635849 7.2134762108695159e-05 0 0.043067105382135963 -1.4088210010118892e-06 0 0.044808711269635849 7.2134762108695159e-05 0 0.044410528089699336 -0.00050258523601203506 0 0.045052745978569522 -0.00046412352938034646 0 0.044410528089699336 -0.00050258523601203506 0 0.04488794925476914 -0.00096913990890174048 0 0.045052745978569522 -0.00046412352938034646 0 0.044808711269635849 7.2134762108695159e-05 0 0.044410528089699336 -0.00050258523601203506 0 0.043067105382135963 -1.4088210010118892e-06 0 0.044410528089699336 -0.00050258523601203506 0 0.043067105382135963 -1.4088210010118892e-06 0 0.043827684583219811 -0.0010532804241977333 0 0.043061019935579058 1.8769195122105371e-08 0 0.042531269372074347 -0.00044682446517888924 0 0.041138705319446627 -1.5555553582583873e-07 0 0.040460029834629908 -7.7940952105616691e-06 0 0.040368500731121533 9.2692720979357436e-07 0 0.043059439073844151 -9.4421510504094573e-07 0 0.041138705319446627 -1.5555553582583873e-07 0 0.040368500731121533 9.2692720979357436e-07 0 0.042531269372074347 -0.00044682446517888924 0 0.041216814183499074 -0.0013247741581524641 0 0.043827684583219811 -0.0010532804241977333 0 0.04488794925476914 -0.00096913990890174048 0 0.04435860381535376 -0.0017928808580590018 0 0.044410528089699336 -0.00050258523601203506 0 0.043827684583219811 -0.0010532804241977333 0 0.04488794925476914 -0.00096913990890174048 0 0.04488794925476914 -0.00096913990890174048 0 0.044413677810862875 -0.0015753182330683806 0 0.044840096214188239 -0.0014630571691260823 0 0.045074220645657484 -0.00065639090490877928 0 0.041216814183499074 -0.0013247741581524641 0 0.036353280567233269 -0.0021301611588270949 0 0.036937047506307691 -0.0011762865355560181 0 0.035718458167444629 -0.0012743926916979741 0 0.044413677810862875 -0.0015753182330683806 0 0.044840096214188239 -0.0014630571691260823 0 0.044801901430186038 -0.0021875883725215048 0 0.041216814183499074 -0.0013247741581524641 0 0.038302833102850417 -0.0013572643157225806 0 0.040460029834629908 -7.7940952105616691e-06 0 0.040368500731121533 9.2692720979357436e-07 0 0.039707578904784387 -6.8604116444238806e-06 0 0.041216814183499074 -0.0013247741581524641 0 0.038134088581843022 -0.00062993086221242733 0 0.037473778476227314 -0.002175894859205258 0 0.036594212661586002 -0.00074231391051666768 0 0.036099181897431769 -0.0022846492664502778 0 0.044840096214188239 -0.0014630571691260823 0 0.045262520224406667 -0.0011366027728673708 0 0.044801901430186038 -0.0021875883725215048 0 0.040991699483682177 -0.0009488481127340328 0 0.038302833102850417 -0.0013572643157225806 0 0.04488794925476914 -0.00096913990890174048 0 0.044840096214188239 -0.0014630571691260823 0 0.045262520224406667 -0.0011366027728673708 0 0.04488794925476914 -0.00096913990890174048 0 0.045262520224406667 -0.0011366027728673708 0 0.045052745978569522 -0.00046412352938034646 0 0.037473778476227314 -0.002175894859205258 0 0.03779362189481935 -0.00028893182675877914 0 0.039119740442092314 -0.00096646392883417329 0 0.037473778476227314 -0.002175894859205258 0 0.036594212661586002 -0.00074231391051666768 0 0.03779362189481935 -0.00028893182675877914 0 0.042986222004073385 -0.00017776607534334581 0 0.041509208039101575 0.0006294608871776988 0 0.03779362189481935 -0.00028893182675877914 0 0.037199530459318772 0.0011242916693726109 0 0.038764799787671854 0.00099914560949243862 0 0.044808711269635849 7.2134762108695159e-05 0 0.045052745978569522 -0.00046412352938034646 0 0.04561815926484044 -9.8109929441185439e-05 0 0.040991699483682177 -0.0009488481127340328 0 0.042986222004073385 -0.00017776607534334581 0 0.045262520224406667 -0.0011366027728673708 0 0.045052745978569522 -0.00046412352938034646 0 0.04561815926484044 -9.8109929441185439e-05 0 0.036594212661586002 -0.00074231391051666768 0 0.03779362189481935 -0.00028893182675877914 0 0.037199530459318772 0.0011242916693726109 0 0.044808711269635849 7.2134762108695159e-05 0 0.044949549691031127 -2.9134436218709404e-05 0 0.045001040555503621 -2.3998333667136328e-07 0 0.045756063332057083 2.2989894023384954e-06 0 0.042986222004073385 -0.00017776607534334581 0 0.045001583891935877 3.9616073540284093e-05 0 0.04499999996292723 9.633340167270616e-08 0 0.044996177898918251 7.3715739350101373e-05 0 0.042986222004073385 -0.00017776607534334581 0 0.045000092908147986 6.6393802540895967e-07 0 0.04499999996292723 9.633340167270616e-08 0 0.045000086288262547 -4.9647526884047318e-08 0 0.044996177898918251 7.3715739350101373e-05 0 0.045000086288262547 -4.9647526884047318e-08 0 0.044945973778326022 0.0001842470140192185 0 0.044742342082700934 3.4550186813189382e-05 0 0.045000086288262547 -4.9647526884047318e-08 0 0.044945973778326022 0.0001842470140192185 0 0.044996177898918251 7.3715739350101373e-05 0 0.040709052891847834 0.00092622015950320454 0 0.038764799787671854 0.00099914560949243862 0 0.040316187770370715 -0.00048195998074233349 0 0.040709052891847834 0.00092622015950320454 0 0.042092075053649328 -0.00030304855448504343 0 0.040316187770370715 -0.00048195998074233349 0 0.03779362189481935 -0.00028893182675877914 0 0.038764799787671854 0.00099914560949243862 0 0.039119740442092314 -0.00096646392883417329 0 0.042931597405702467 0.00050264960706587042 0 0.041509208039101575 0.0006294608871776988 0 0.044775562170491071 0.00015398497873171635 0 0.044999016696152118 1.2227878335797133e-07 0 0.044999951883182905 1.8987644830415543e-07 0 0.044775562170491071 0.00015398497873171635 0 0.044605282249494817 0.00010148128069831095 0 0.044999016696152118 1.2227878335797133e-07 0 0.045000086288262547 -4.9647526884047318e-08 0 0.044999016696152118 1.2227878335797133e-07 0 0.044742342082700934 3.4550186813189382e-05 0 0.044605282249494817 0.00010148128069831095 0 0.044999016696152118 1.2227878335797133e-07 0 0.044742342082700934 3.4550186813189382e-05 0 0.040709052891847834 0.00092622015950320454 0 0.042092075053649328 -0.00030304855448504343 0 0.044013159789924317 0.00028100804233003002 0 0.042931597405702467 0.00050264960706587042 0 0.043867408826403123 0.0003332958876442386 0 0.044945973778326022 0.0001842470140192185 0 0.044742342082700934 3.4550186813189382e-05 0 0.044013159789924317 0.00028100804233003002 0 0.042092075053649328 -0.00030304855448504343 0 0.044013159789924317 0.00028100804233003002 0 0.043485292232467172 -0.0004635648871591862 0 0.044605282249494817 0.00010148128069831095 0 0.044742342082700934 3.4550186813189382e-05 0 0.044013159789924317 0.00028100804233003002 0 0.044013159789924317 0.00028100804233003002 0 0.043485292232467172 -0.0004635648871591862 0 0.044947494961577274 -9.720680318942414e-05 0 0.044775562170491071 0.00015398497873171635 0 0.044013159789924317 0.00028100804233003002 0 0.044947494961577274 -9.720680318942414e-05 0 0.044775562170491071 0.00015398497873171635 0 0.044605282249494817 0.00010148128069831095 0 0.044013159789924317 0.00028100804233003002 0 0.043897768759897995 -0.00096395060986172068 0 0.044510015772573755 -0.0004020647522718455 0 0.043834210085995556 -0.0010294872437964122 0 0.043485292232467172 -0.0004635648871591862 0 0.044947494961577274 -9.720680318942414e-05 0 0.044063324826790998 -0.0010330995555357927 0 0.043834210085995556 -0.0010294872437964122 0 0.044133572713539966 -0.00066288644175736648 0 0.044063324826790998 -0.0010330995555357927 0 0.043834210085995556 -0.0010294872437964122 0 0.043982774509993799 -0.001313765700715089 0 0.042039154866721849 -0.00030907641245659051 0 0.042563600989526079 -0.0014875156606346078 0 0.042092075053649328 -0.00030304855448504343 0 0.041221078278787626 -0.0012822468895935836 0 0.041445072657729787 -0.0017744345355045709 0 0.042092075053649328 -0.00030304855448504343 0 0.043485292232467172 -0.0004635648871591862 0 0.043824754365144498 -0.0014255353210510266 0 0.043834210085995556 -0.0010294872437964122 0 0.043485292232467172 -0.0004635648871591862 0 0.043824754365144498 -0.0014255353210510266 0 0.041221078278787626 -0.0012822468895935836 0 0.041078287070859268 -0.0018237248163129527 0 0.040421882755786752 -0.0016687826301329358 0 0.041078287070859268 -0.0018237248163129527 0 0.041107287606511111 -0.0022977712251736637 0 0.040616806031724607 -0.0023262868683005407 0 0.041078287070859268 -0.0018237248163129527 0 0.040421882755786752 -0.0016687826301329358 0 0.040616806031724607 -0.0023262868683005407 0 0.041078287070859268 -0.0018237248163129527 0 0.041445072657729787 -0.0017744345355045709 0 0.041107287606511111 -0.0022977712251736637 0 0.041221078278787626 -0.0012822468895935836 0 0.041078287070859268 -0.0018237248163129527 0 0.041445072657729787 -0.0017744345355045709 0 0.043982774509993799 -0.001313765700715089 0 0.044008569293893976 -0.0015464869376369463 0 0.044103395613597954 -0.0012457996201672128 0 0.042563600989526079 -0.0014875156606346078 0 0.042603904161957779 -0.0020666603578412134 0 0.041445072657729787 -0.0017744345355045709 0 0.041228102624572535 -0.0026334741772251497 0 0.041107287606511111 -0.0022977712251736637 0 0.043824754365144498 -0.0014255353210510266 0 0.043982774509993799 -0.001313765700715089 0 0.044008569293893976 -0.0015464869376369463 0 0.043834210085995556 -0.0010294872437964122 0 0.043824754365144498 -0.0014255353210510266 0 0.043982774509993799 -0.001313765700715089 0 0.044063324826790998 -0.0010330995555357927 0 0.043982774509993799 -0.001313765700715089 0 0.044103395613597954 -0.0012457996201672128 0 0.038764799787671854 0.00099914560949243862 0 0.039119740442092314 -0.00096646392883417329 0 0.040316187770370715 -0.00048195998074233349 0 0.041221078278787626 -0.0012822468895935836 0 0.040316187770370715 -0.00048195998074233349 0 0.040421882755786752 -0.0016687826301329358 0 0.039119740442092314 -0.00096646392883417329 0 0.040316187770370715 -0.00048195998074233349 0 0.040421882755786752 -0.0016687826301329358 0 0.042092075053649328 -0.00030304855448504343 0 0.041221078278787626 -0.0012822468895935836 0 0.040316187770370715 -0.00048195998074233349 0 0.040421882755786752 -0.0016687826301329358 0 0.039438501301920573 -0.0025816000833905174 0 0.040616806031724607 -0.0023262868683005407 0 0.039091564410631011 -0.0010052160550712665 0 0.0389440123486548 -0.0025223390401524571 0 0.037473778476227314 -0.002175894859205258 0 0.039119740442092314 -0.00096646392883417329 0 0.038472145229234971 -0.0025808960636946919 0 0.039119740442092314 -0.00096646392883417329 0 0.040421882755786752 -0.0016687826301329358 0 0.039438501301920573 -0.0025816000833905174 0 0.037473778476227314 -0.002175894859205258 0 0.038472145229234971 -0.0025808960636946919 0 0.037814746627076491 -0.0032056194019491027 0 0.039438501301920573 -0.0025816000833905174 0 0.040415931734879382 -0.0027688494590142774 0 0.040616806031724607 -0.0023262868683005407 0 0.039438501301920573 -0.0025816000833905174 0 0.040415931734879382 -0.0027688494590142774 0 0.04010911046672918 -0.0032967339386882496 0 0.039438501301920573 -0.0025816000833905174 0 0.04010911046672918 -0.0032967339386882496 0 0.039220781003770709 -0.003588587879323295 0 0.0389440123486548 -0.0025223390401524571 0 0.038604215416610174 -0.0037327892459300179 0 0.038472145229234971 -0.0025808960636946919 0 0.037814746627076491 -0.0032056194019491027 0 0.037994118898362364 -0.0038752499352820687 0 0.037814746627076491 -0.0032056194019491027 0 0.037994118898362364 -0.0038752499352820687 0 0.037540953597692134 -0.0035837633223561598 0 0.041228102624572535 -0.0026334741772251497 0 0.041107287606511111 -0.0022977712251736637 0 0.040984777851494826 -0.0027989404737333444 0 0.041107287606511111 -0.0022977712251736637 0 0.040616806031724607 -0.0023262868683005407 0 0.040984777851494826 -0.0027989404737333444 0 0.040415931734879382 -0.0027688494590142774 0 0.040616806031724607 -0.0023262868683005407 0 0.040984777851494826 -0.0027989404737333444 0 0.040971790251016611 -0.0028011058272328459 0 0.040882844727860371 -0.0032485812888959466 0 0.040415931734879382 -0.0027688494590142774 0 0.04010911046672918 -0.0032967339386882496 0 0.040984777851494826 -0.0027989404737333444 0 0.04010911046672918 -0.0032967339386882496 0 0.040984777851494826 -0.0027989404737333444 0 0.04069231830899557 -0.0038038786533208129 0 0.041228102624572535 -0.0026334741772251497 0 0.040984777851494826 -0.0027989404737333444 0 0.040945669057910521 -0.0027862257659682361 0 0.040984777851494826 -0.0027989404737333444 0 0.040945669057910521 -0.0027862257659682361 0 0.041093573954217637 -0.0026840780528892844 0 0.040945669057910521 -0.0027862257659682361 0 0.040885663408135965 -0.0025062419735299548 0 0.040714627154540058 -0.0026569168252462872 0 0.040945669057910521 -0.0027862257659682361 0 0.041093573954217637 -0.0026840780528892844 0 0.040885663408135965 -0.0025062419735299548 0 0.04010911046672918 -0.0032967339386882496 0 0.04069231830899557 -0.0038038786533208129 0 0.039774126527661498 -0.0042494375150779768 0 0.040882844727860371 -0.0032485812888959466 0 0.041064941231851504 -0.0034203009937419319 0 0.04069231830899557 -0.0038038786533208129 0 0.040528494614905972 -0.0048849802095015859 0 0.039774126527661498 -0.0042494375150779768 0 0.041184889872126193 -0.0022246295685519608 0 0.040885663408135965 -0.0025062419735299548 0 0.040593653091330048 -0.0022362880401573209 0 0.041093573954217637 -0.0026840780528892844 0 0.041184889872126193 -0.0022246295685519608 0 0.040885663408135965 -0.0025062419735299548 0 0.037994118898362364 -0.0038752499352820687 0 0.037119276717800277 -0.0048171862708435475 0 0.037187114384992705 -0.0042902634026554289 0 0.037498398419195667 -0.0038982454330540703 0 0.037994118898362364 -0.0038752499352820687 0 0.037540953597692134 -0.0035837633223561598 0 0.037498398419195667 -0.0038982454330540703 0 0.037994118898362364 -0.0038752499352820687 0 0.037187114384992705 -0.0042902634026554289 0 0.04010911046672918 -0.0032967339386882496 0 0.039220781003770709 -0.003588587879323295 0 0.039774126527661498 -0.0042494375150779768 0 0.039220781003770709 -0.003588587879323295 0 0.039774126527661498 -0.0042494375150779768 0 0.038701674900898257 -0.0048568503173168891 0 0.039774126527661498 -0.0042494375150779768 0 0.038701674900898257 -0.0048568503173168891 0 0.039422305338397884 -0.0054765895666917383 0 0.040528494614905972 -0.0048849802095015859 0 0.039774126527661498 -0.0042494375150779768 0 0.039422305338397884 -0.0054765895666917383 0 0.038604215416610174 -0.0037327892459300179 0 0.03817774923929125 -0.005054930269357885 0 0.037994118898362364 -0.0038752499352820687 0 0.037674682844719344 -0.0051371077474007439 0 0.037119276717800277 -0.0048171862708435475 0 0.037674682844719344 -0.0051371077474007439 0 0.037119276717800277 -0.0048171862708435475 0 0.036978061687057612 -0.0054549106972791323 0 0.037119276717800277 -0.0048171862708435475 0 0.037187114384992705 -0.0042902634026554289 0 0.036042635740325665 -0.0048522180410126448 0 0.037119276717800277 -0.0048171862708435475 0 0.036042635740325665 -0.0048522180410126448 0 0.036565339374410449 -0.0052970057619713276 0 0.037119276717800277 -0.0048171862708435475 0 0.036565339374410449 -0.0052970057619713276 0 0.036978061687057612 -0.0054549106972791323 0 0.037187114384992705 -0.0042902634026554289 0 0.036967366352997279 -0.0038261752105736594 0 0.036042635740325665 -0.0048522180410126448 0 0.036289969706308864 -0.0019890376145471969 0 0.036239446483208919 -0.0023351565897222217 0 0.037498398419195667 -0.0038982454330540703 0 0.037187114384992705 -0.0042902634026554289 0 0.037242211087674962 -0.0039984662626001118 0 0.037498398419195667 -0.0038982454330540703 0 0.037161255250342071 -0.0037088281670550173 0 0.037540953597692134 -0.0035837633223561598 0 0.037187114384992705 -0.0042902634026554289 0 0.036967366352997279 -0.0038261752105736594 0 0.037242211087674962 -0.0039984662626001118 0 0.036967366352997279 -0.0038261752105736594 0 0.037161255250342071 -0.0037088281670550173 0 0.037242211087674962 -0.0039984662626001118 0 0.037498398419195667 -0.0038982454330540703 0 0.037161255250342071 -0.0037088281670550173 0 0.037242211087674962 -0.0039984662626001118 0 0.036289969706308864 -0.0019890376145471969 0 0.035433694673038134 -0.0026405878525635842 0 0.035048627285145802 -0.00012316413665004782 0 0.03494108102351124 -0.00031139345197699086 0 0.034814036270730951 -0.00014657894944662789 0 0.035433694673038134 -0.0026405878525635842 0 0.035664491703124163 -0.0028312094779202115 0 0.036042635740325665 -0.0048522180410126448 0 0.035949933793736788 -0.0052618394770722714 0 0.036565339374410449 -0.0052970057619713276 0 0.034629585199933505 -0.00037299043700056672 0 0.034600709068489235 -0.00019820530919492291 0 0.034814036270730951 -0.00014657894944662789 0 0.03494108102351124 -0.00031139345197699086 0 0.034629585199933505 -0.00037299043700056672 0 0.034813001699166929 -0.00062112146919016998 0 0.03494108102351124 -0.00031139345197699086 0 0.034629585199933505 -0.00037299043700056672 0 0.034814036270730951 -0.00014657894944662789 0 0.034629585199933505 -0.00037299043700056672 0 0.034600709068489235 -0.00019820530919492291 0 0.034274944604064585 -0.00040188931691772671 0 0.033864398501132383 -1.7537038138096779e-06 0 0.035768617631833893 1.5455699036928415e-06 0 0.035806254734059136 0.00023891984967411536 0 0.033864398501132383 -1.7537038138096779e-06 0 0.035806254734059136 0.00023891984967411536 0 0.034274944604064585 -0.00040188931691772671 0 0.035163371596724648 5.0868409162772574e-05 0 0.03447105167248838 -0.00034976258285586474 0 0.035806254734059136 0.00023891984967411536 0 0.036341310175482484 0.00016296071220742628 0 0.036073465149951592 4.6528787704007455e-05 0 0.035768617631833893 1.5455699036928415e-06 0 0.035806254734059136 0.00023891984967411536 0 0.036341310175482484 0.00016296071220742628 0 0.035163371596724648 5.0868409162772574e-05 0 0.035128929567294465 4.8958364829859629e-05 0 0.034600709068489235 -0.00019820530919492291 0 0.034814036270730951 -0.00014657894944662789 0 0.034758611306682924 -1.1594246609195863e-05 0 0.034814036270730951 -0.00014657894944662789 0 0.034758611306682924 -1.1594246609195863e-05 0 0.034931728509024873 2.5410784207411464e-05 0 0.036341310175482484 0.00016296071220742628 0 0.036073465149951592 4.6528787704007455e-05 0 0.037672339848531855 -1.4534928599108242e-06 0 0.035768617631833893 1.5455699036928415e-06 0 0.036341310175482484 0.00016296071220742628 0 0.037672339848531855 -1.4534928599108242e-06 0 0.037675928031003683 1.7596071344770365e-07 0 0.038134088581843022 -0.00062993086221242733 0 0.036073465149951592 4.6528787704007455e-05 0 0.037672339848531855 -1.4534928599108242e-06 0 0.036937047506307691 -0.0011762865355560181 0 0.040368500731121533 9.2692720979357436e-07 0 0.037677217168652605 -9.4778948052987037e-07 0 0.039707578904784387 -6.8604116444238806e-06 0 0.034758611306682924 -1.1594246609195863e-05 0 0.034863443671520222 0.00013298335564034368 0 0.034931728509024873 2.5410784207411464e-05 0 0.036073465149951592 4.6528787704007455e-05 0 0.036937047506307691 -0.0011762865355560181 0 0.035718458167444629 -0.0012743926916979741 0 0.035128929567294465 4.8958364829859629e-05 0 0.038302833102850417 -0.0013572643157225806 0 0.038302833102850417 -0.0013572643157225806 0 0.035537906606857336 -0.0013151340626981372 0 0.037473778476227314 -0.002175894859205258 0 0.036099181897431769 -0.0022846492664502778 0 0.036735839805896439 -0.0031453007248284709 0 0.037473778476227314 -0.002175894859205258 0 0.037814746627076491 -0.0032056194019491027 0 0.037228022477256852 -0.0032261558826966849 0 0.037473778476227314 -0.002175894859205258 0 0.037228022477256852 -0.0032261558826966849 0 0.036735839805896439 -0.0031453007248284709 0 0.037098624066583104 -0.0038039014620560056 0 0.037161255250342071 -0.0037088281670550173 0 0.036735839805896439 -0.0031453007248284709 0 0.037161255250342071 -0.0037088281670550173 0 0.037228022477256852 -0.0032261558826966849 0 0.036735839805896439 -0.0031453007248284709 0 0.037814746627076491 -0.0032056194019491027 0 0.037228022477256852 -0.0032261558826966849 0 0.037540953597692134 -0.0035837633223561598 0 0.037161255250342071 -0.0037088281670550173 0 0.037228022477256852 -0.0032261558826966849 0 0.037540953597692134 -0.0035837633223561598 0 0.036289969706308864 -0.0019890376145471969 0 0.035537906606857336 -0.0013151340626981372 0 0.035048627285145802 -0.00012316413665004782 0 0.034814036270730951 -0.00014657894944662789 0 0.034931728509024873 2.5410784207411464e-05 0 0.044114912742644986 0.00017597233773198619 0 0.044002879397157191 0.0002147746887390788 0 0.044100390861780303 0.00015771515315312167 0 0.044470445676204583 4.7000693300669442e-05 0 0.044601047124404075 6.6520260355391468e-05 0 0.044114912742644986 0.00017597233773198619 0 0.04417757286766448 0.00012239210055179384 0 0.044100390861780303 0.00015771515315312167 0 0.044666824787856212 7.1372719082971221e-05 0 0.044712222080569207 4.2349839225326091e-05 0 0.04469296202523082 0.00011191719212170339 0 0.044713217615151388 6.6229406129124382e-05 0 0.044424203113286299 8.7990273065322323e-05 0 0.044684335325558461 7.1472579670275535e-05 0 0.044679480728752018 0.00012118735907226738 0 0.044587951121509081 0.00015188215465290652 0 0.044666824787856212 7.1372719082971221e-05 0 0.044712222080569207 4.2349839225326091e-05 0 0.044709390736626428 -1.2493159783587092e-05 0 0.044713217615151388 6.6229406129124382e-05 0 0.044766098768850501 -5.4086174888208631e-06 0 0.044470445676204583 4.7000693300669442e-05 0 0.044898396325547596 -2.3790524572259285e-05 0 0.044712222080569207 4.2349839225326091e-05 0 0.044709390736626428 -1.2493159783587092e-05 0 0.044732350657271651 -2.6651411079247373e-05 0 0.044988975422061366 1.205570672292308e-06 0 0.044995121098688237 1.7206454627666457e-07 0 0.044992928807629104 -5.8676360861999243e-08 0 0.044995121098688237 1.7206454627666457e-07 0 0.044996723477429765 -1.824210943243716e-07 0 0.044992928807629104 -5.8676360861999243e-08 0 0.044996723477429765 -1.824210943243716e-07 0 0.044999996356364619 -3.5333857022466668e-10 0 0.044999996073748307 8.4444727597040551e-11 0 0.044996723477429765 -1.824210943243716e-07 0 0.044999996356364619 -3.5333857022466668e-10 0 0.0449977490377391 -7.9649932767047249e-08 0 0.044999996356364619 -3.5333857022466668e-10 0 0.0449977490377391 -7.9649932767047249e-08 0 0.044999226658983441 -1.1222501368703783e-07 0 0.044999996356364619 -3.5333857022466668e-10 0 0.044999998623867096 -6.3190795584965486e-11 0 0.044999226658983441 -1.1222501368703783e-07 0 0.044709390736626428 -1.2493159783587092e-05 0 0.044732350657271651 -2.6651411079247373e-05 0 0.044753605847007653 -9.4214041898475808e-05 0 0.044898396325547596 -2.3790524572259285e-05 0 0.044913060029106416 -2.0906956487269101e-05 0 0.044995121098688237 1.7206454627666457e-07 0 0.0449977490377391 -7.9649932767047249e-08 0 0.044999226658983441 -1.1222501368703783e-07 0 0.044995121098688237 1.7206454627666457e-07 0 0.044996723477429765 -1.824210943243716e-07 0 0.0449977490377391 -7.9649932767047249e-08 0 0.044810376675124344 8.9871474995481814e-06 0 0.044904258050819976 -2.5504863780501366e-06 0 0.044803777816868604 4.6318249152637926e-05 0 0.044766098768850501 -5.4086174888208631e-06 0 0.044913060029106416 -2.0906956487269101e-05 0 0.044810376675124344 8.9871474995481814e-06 0 0.044904258050819976 -2.5504863780501366e-06 0 0.044946164675389678 -1.9226083943129451e-05 0 0.044963746923456942 -2.0831602927612297e-05 0 0.044999689942026008 -4.2553037790602573e-08 0 0.045012360116524215 -3.9914618452052161e-05 0 0.044904258050819976 -2.5504863780501366e-06 0 0.044963746923456942 -2.0831602927612297e-05 0 0.044946164675389678 -1.9226083943129451e-05 0 0.044999907363623623 -2.2312025025611262e-08 0 0.044913060029106416 -2.0906956487269101e-05 0 0.04499990602087512 -2.0885072041943971e-08 0 0.044913060029106416 -2.0906956487269101e-05 0 0.044963746923456942 -2.0831602927612297e-05 0 0.044999689942026008 -4.2553037790602573e-08 0 0.044946164675389678 -1.9226083943129451e-05 0 0.04499999945693596 -1.89450916715128e-10 0 0.04500000023380233 1.3252813633221341e-10 0 0.044999069117741833 -3.2790903954140444e-07 0 0.044999689942026008 -4.2553037790602573e-08 0 0.045012360116524215 -3.9914618452052161e-05 0 0.045000365152889722 -1.459687226245274e-07 0 0.044904258050819976 -2.5504863780501366e-06 0 0.044963746923456942 -2.0831602927612297e-05 0 0.045012360116524215 -3.9914618452052161e-05 0 0.044904258050819976 -2.5504863780501366e-06 0 0.044803777816868604 4.6318249152637926e-05 0 0.044902630347909075 6.6252697753201565e-06 0 0.044904258050819976 -2.5504863780501366e-06 0 0.045012360116524215 -3.9914618452052161e-05 0 0.044902630347909075 6.6252697753201565e-06 0 0.045031903937281244 -5.8541632286085747e-05 0 0.044991716295933855 -0.00027681950257004453 0 0.044803777816868604 4.6318249152637926e-05 0 0.04482580290284726 6.8849380292042517e-05 0 0.044902630347909075 6.6252697753201565e-06 0 0.044684335325558461 7.1472579670275535e-05 0 0.044810376675124344 8.9871474995481814e-06 0 0.044803777816868604 4.6318249152637926e-05 0 0.044684335325558461 7.1472579670275535e-05 0 0.044803777816868604 4.6318249152637926e-05 0 0.044679480728752018 0.00012118735907226738 0 0.044803777816868604 4.6318249152637926e-05 0 0.044679480728752018 0.00012118735907226738 0 0.044761852884114342 0.00010773700692536542 0 0.044803777816868604 4.6318249152637926e-05 0 0.044761852884114342 0.00010773700692536542 0 0.04482580290284726 6.8849380292042517e-05 0 0.044761852884114342 0.00010773700692536542 0 0.04482580290284726 6.8849380292042517e-05 0 0.044814133506477664 0.00011040923955447792 0 0.044848042936393176 8.9971863550367522e-05 0 0.04486614613567376 4.926509464064942e-05 0 0.044884486988442537 0.0001052128903604734 0 0.045233245234356637 -0.00013722863392039654 0 0.042704207883653353 -0.0016420198533878799 0 0.04482580290284726 6.8849380292042517e-05 0 0.044848042936393176 8.9971863550367522e-05 0 0.04486614613567376 4.926509464064942e-05 0 0.04482580290284726 6.8849380292042517e-05 0 0.044848042936393176 8.9971863550367522e-05 0 0.044814133506477664 0.00011040923955447792 0 0.044931278843053452 -0.0010185642000365024 0 0.045138813796352734 -0.00089880975781849728 0 0.044937463340650734 -0.0014034737547839345 0 0.044840898861026483 -0.0012623850336408399 0 0.044931278843053452 -0.0010185642000365024 0 0.044937463340650734 -0.0014034737547839345 0 0.043754072293224464 -0.0019030548531274655 0 0.042704207883653353 -0.0016420198533878799 0 0.044840898861026483 -0.0012623850336408399 0 0.044685635577347595 -0.0013355342886680892 0 0.044715345862903447 -0.0010843421659747908 0 0.044840898861026483 -0.0012623850336408399 0 0.044715345862903447 -0.0010843421659747908 0 0.044931278843053452 -0.0010185642000365024 0 0.044931278843053452 -0.0010185642000365024 0 0.044735895001176793 -0.00080230833804628579 0 0.044984468858968306 -0.00061979926156105849 0 0.044715345862903447 -0.0010843421659747908 0 0.044931278843053452 -0.0010185642000365024 0 0.044735895001176793 -0.00080230833804628579 0 0.045233245234356637 -0.00013722863392039654 0 0.044991716295933855 -0.00027681950257004453 0 0.04482580290284726 6.8849380292042517e-05 0 0.04486614613567376 4.926509464064942e-05 0 0.044902630347909075 6.6252697753201565e-06 0 0.044984468858968306 -0.00061979926156105849 0 0.045138813796352734 -0.00089880975781849728 0 0.045184936830158187 -0.00039228653941895226 0 0.044931278843053452 -0.0010185642000365024 0 0.044984468858968306 -0.00061979926156105849 0 0.045138813796352734 -0.00089880975781849728 0 0.044984468858968306 -0.00061979926156105849 0 0.045184936830158187 -0.00039228653941895226 0 0.044897437732960378 -0.00034613814413325076 0 0.045184936830158187 -0.00039228653941895226 0 0.045034189827290599 -0.00012935729284189321 0 0.044897437732960378 -0.00034613814413325076 0 0.045012360116524215 -3.9914618452052161e-05 0 0.045184936830158187 -0.00039228653941895226 0 0.045034189827290599 -0.00012935729284189321 0 0.045000365152889722 -1.459687226245274e-07 0 0.045034189827290599 -0.00012935729284189321 0 0.044999300490920269 -2.4174132966629484e-08 0 0.045012360116524215 -3.9914618452052161e-05 0 0.045000365152889722 -1.459687226245274e-07 0 0.045034189827290599 -0.00012935729284189321 0 0.045034189827290599 -0.00012935729284189321 0 0.044999300490920269 -2.4174132966629484e-08 0 0.044897437732960378 -0.00034613814413325076 0 0.044999300490920269 -2.4174132966629484e-08 0 0.044897437732960378 -0.00034613814413325076 0 0.044515486554568558 -0.00027263065308792662 0 0.044735895001176793 -0.00080230833804628579 0 0.044984468858968306 -0.00061979926156105849 0 0.044897437732960378 -0.00034613814413325076 0 0.044735895001176793 -0.00080230833804628579 0 0.044897437732960378 -0.00034613814413325076 0 0.044492995150585704 -0.0006883784736387528 0 0.044897437732960378 -0.00034613814413325076 0 0.044515486554568558 -0.00027263065308792662 0 0.044492995150585704 -0.0006883784736387528 0 0.044999915799493244 -2.5493792255694064e-08 0 0.044766285515011113 -0.00012980451683276042 0 0.044999991954876001 -7.5786926025098419e-08 0 0.044995658148298499 3.4807504294405945e-05 0 0.044999951883182905 1.8987644830415543e-07 0 0.044995658148298499 3.4807504294405945e-05 0 0.044999951883182905 1.8987644830415543e-07 0 0.04494285364508975 5.1417367885354903e-05 0 0.044775562170491071 0.00015398497873171635 0 0.044999951883182905 1.8987644830415543e-07 0 0.04494285364508975 5.1417367885354903e-05 0 0.044775562170491071 0.00015398497873171635 0 0.04494285364508975 5.1417367885354903e-05 0 0.044947494961577274 -9.720680318942414e-05 0 0.044515486554568558 -0.00027263065308792662 0 0.044133572713539966 -0.00066288644175736648 0 0.044492995150585704 -0.0006883784736387528 0 0.044766285515011113 -0.00012980451683276042 0 0.044510015772573755 -0.0004020647522718455 0 0.044995658148298499 3.4807504294405945e-05 0 0.04494285364508975 5.1417367885354903e-05 0 0.044947494961577274 -9.720680318942414e-05 0 0.044063324826790998 -0.0010330995555357927 0 0.044133572713539966 -0.00066288644175736648 0 0.044235659673762834 -0.00095697255396376608 0 0.044133572713539966 -0.00066288644175736648 0 0.044235659673762834 -0.00095697255396376608 0 0.044492995150585704 -0.0006883784736387528 0 0.044235659673762834 -0.00095697255396376608 0 0.044492995150585704 -0.0006883784736387528 0 0.044421440131115382 -0.0010948091391411502 0 0.044063324826790998 -0.0010330995555357927 0 0.044235659673762834 -0.00095697255396376608 0 0.044103395613597954 -0.0012457996201672128 0 0.044735895001176793 -0.00080230833804628579 0 0.044492995150585704 -0.0006883784736387528 0 0.044421440131115382 -0.0010948091391411502 0 0.044715345862903447 -0.0010843421659747908 0 0.044735895001176793 -0.00080230833804628579 0 0.044421440131115382 -0.0010948091391411502 0 0.044715345862903447 -0.0010843421659747908 0 0.044421440131115382 -0.0010948091391411502 0 0.044573393409191475 -0.0012671053050089464 0 0.044685635577347595 -0.0013355342886680892 0 0.044715345862903447 -0.0010843421659747908 0 0.044573393409191475 -0.0012671053050089464 0 0.044421440131115382 -0.0010948091391411502 0 0.044573393409191475 -0.0012671053050089464 0 0.044417136957590114 -0.0014173344860280511 0 0.044008569293893976 -0.0015464869376369463 0 0.044233360123767086 -0.0013224616543896935 0 0.044103395613597954 -0.0012457996201672128 0 0.044421440131115382 -0.0010948091391411502 0 0.044233360123767086 -0.0013224616543896935 0 0.044417136957590114 -0.0014173344860280511 0 0.044235659673762834 -0.00095697255396376608 0 0.044421440131115382 -0.0010948091391411502 0 0.044233360123767086 -0.0013224616543896935 0 0.044235659673762834 -0.00095697255396376608 0 0.044233360123767086 -0.0013224616543896935 0 0.044103395613597954 -0.0012457996201672128 0 0.044008569293893976 -0.0015464869376369463 0 0.04426949891425911 -0.0015556949166600715 0 0.044196034279701576 -0.0019347251717644059 0 0.044008569293893976 -0.0015464869376369463 0 0.044233360123767086 -0.0013224616543896935 0 0.04426949891425911 -0.0015556949166600715 0 0.044233360123767086 -0.0013224616543896935 0 0.04426949891425911 -0.0015556949166600715 0 0.044417136957590114 -0.0014173344860280511 0 0.044417136957590114 -0.0014173344860280511 0 0.04458595222680057 -0.0015274377553187929 0 0.04443308284260318 -0.0017491764821792165 0 0.04426949891425911 -0.0015556949166600715 0 0.044417136957590114 -0.0014173344860280511 0 0.04443308284260318 -0.0017491764821792165 0 0.044685635577347595 -0.0013355342886680892 0 0.04458595222680057 -0.0015274377553187929 0 0.04471506586298668 -0.0015208947602817324 0 0.044685635577347595 -0.0013355342886680892 0 0.044573393409191475 -0.0012671053050089464 0 0.04458595222680057 -0.0015274377553187929 0 0.044573393409191475 -0.0012671053050089464 0 0.044417136957590114 -0.0014173344860280511 0 0.04458595222680057 -0.0015274377553187929 0 0.04458595222680057 -0.0015274377553187929 0 0.044589358241321132 -0.0016985357412651772 0 0.04471506586298668 -0.0015208947602817324 0 0.04458595222680057 -0.0015274377553187929 0 0.044589358241321132 -0.0016985357412651772 0 0.04443308284260318 -0.0017491764821792165 0 0.04443308284260318 -0.0017491764821792165 0 0.044423665740847905 -0.001977531408189688 0 0.044657471557774296 -0.0018872514943562779 0 0.044589358241321132 -0.0016985357412651772 0 0.04443308284260318 -0.0017491764821792165 0 0.044657471557774296 -0.0018872514943562779 0 0.04443308284260318 -0.0017491764821792165 0 0.044423665740847905 -0.001977531408189688 0 0.044196034279701576 -0.0019347251717644059 0 0.041228102624572535 -0.0026334741772251497 0 0.040945669057910521 -0.0027862257659682361 0 0.040804582082740536 -0.0028169163297010764 0 0.04426949891425911 -0.0015556949166600715 0 0.04443308284260318 -0.0017491764821792165 0 0.044196034279701576 -0.0019347251717644059 0 0.042603904161957779 -0.0020666603578412134 0 0.042533749366764968 -0.0023759462941271977 0 0.040885663408135965 -0.0025062419735299548 0 0.040714627154540058 -0.0026569168252462872 0 0.040529606550345113 -0.0024988076308552422 0 0.040804582082740536 -0.0028169163297010764 0 0.040441538069958795 -0.00263186206782397 0 0.040714627154540058 -0.0026569168252462872 0 0.040945669057910521 -0.0027862257659682361 0 0.040804582082740536 -0.0028169163297010764 0 0.040714627154540058 -0.0026569168252462872 0 0.040804582082740536 -0.0028169163297010764 0 0.040441538069958795 -0.00263186206782397 0 0.040221066938672161 -0.0026278616534696417 0 0.042533749366764968 -0.0023759462941271977 0 0.041949567108609323 -0.0024289141915174385 0 0.040441538069958795 -0.00263186206782397 0 0.040714627154540058 -0.0026569168252462872 0 0.040529606550345113 -0.0024988076308552422 0 0.040885663408135965 -0.0025062419735299548 0 0.040529606550345113 -0.0024988076308552422 0 0.040593653091330048 -0.0022362880401573209 0 0.040441538069958795 -0.00263186206782397 0 0.040529606550345113 -0.0024988076308552422 0 0.040221066938672161 -0.0026278616534696417 0 0.040529606550345113 -0.0024988076308552422 0 0.040593653091330048 -0.0022362880401573209 0 0.040246515717159696 -0.0023548334588894835 0 0.040593653091330048 -0.0022362880401573209 0 0.040246515717159696 -0.0023548334588894835 0 0.040266481275356751 -0.0020608877259637921 0 0.039740750868007373 -0.0023359886378381532 0 0.039363730879880848 -0.0027625684024331458 0 0.039890562841396172 -0.0017504302848585318 0 0.038837448488233749 -0.0033176488261444765 0 0.03850422919171257 -0.0034134104443461813 0 0.039740750868007373 -0.0023359886378381532 0 0.040246515717159696 -0.0023548334588894835 0 0.040266481275356751 -0.0020608877259637921 0 0.040529606550345113 -0.0024988076308552422 0 0.040246515717159696 -0.0023548334588894835 0 0.040221066938672161 -0.0026278616534696417 0 0.039740750868007373 -0.0023359886378381532 0 0.040246515717159696 -0.0023548334588894835 0 0.040221066938672161 -0.0026278616534696417 0 0.039954708137322534 -0.0020321223614678838 0 0.041949567108609323 -0.0024289141915174385 0 0.039740750868007373 -0.0023359886378381532 0 0.039905794529560779 -0.0027704880526147097 0 0.039363730879880848 -0.0027625684024331458 0 0.039905794529560779 -0.0027704880526147097 0 0.039363730879880848 -0.0027625684024331458 0 0.039090877582372958 -0.0036893941402793562 0 0.044423665740847905 -0.001977531408189688 0 0.044196034279701576 -0.0019347251717644059 0 0.044409182623374482 -0.0023367922973035519 0 0.044423665740847905 -0.001977531408189688 0 0.044409182623374482 -0.0023367922973035519 0 0.044657471557774296 -0.0018872514943562779 0 0.041949567108609323 -0.0024289141915174385 0 0.041746571254018851 -0.003046905791780487 0 0.038837448488233749 -0.0033176488261444765 0 0.038687368389916377 -0.0038880510171419975 0 0.038197258952819876 -0.003967313768147439 0 0.038543216274372183 -0.0038666704736873819 0 0.038717398416345181 -0.0038327920074098711 0 0.038197258952819876 -0.003967313768147439 0 0.038426507459788276 -0.0039547999025471934 0 0.038543216274372183 -0.0038666704736873819 0 0.038197258952819876 -0.003967313768147439 0 0.038330475430357551 -0.0040426757134774368 0 0.038426507459788276 -0.0039547999025471934 0 0.038197258952819876 -0.003967313768147439 0 0.038168403487457286 -0.004169728473940087 0 0.037870909970067757 -0.0043487769399307144 0 0.038197258952819876 -0.003967313768147439 0 0.038168403487457286 -0.004169728473940087 0 0.038330475430357551 -0.0040426757134774368 0 0.038168403487457286 -0.004169728473940087 0 0.03837139433657373 -0.0041222951285533526 0 0.038330475430357551 -0.0040426757134774368 0 0.03837139433657373 -0.0041222951285533526 0 0.038330475430357551 -0.0040426757134774368 0 0.038424711412630617 -0.004020850860232625 0 0.038330475430357551 -0.0040426757134774368 0 0.038424711412630617 -0.004020850860232625 0 0.038426507459788276 -0.0039547999025471934 0 0.03837139433657373 -0.0041222951285533526 0 0.038424711412630617 -0.004020850860232625 0 0.038474093121199267 -0.0040758716336246632 0 0.038269430608687642 -0.0037622755434682715 0 0.039075081852266762 -0.004192749286063501 0 0.038426507459788276 -0.0039547999025471934 0 0.038543216274372183 -0.0038666704736873819 0 0.03846199165450942 -0.0039742494679503113 0 0.038424711412630617 -0.004020850860232625 0 0.038426507459788276 -0.0039547999025471934 0 0.03846199165450942 -0.0039742494679503113 0 0.038515356860395991 -0.0038553315040423196 0 0.038543216274372183 -0.0038666704736873819 0 0.038518445963709312 -0.0038426392941816605 0 0.038515356860395991 -0.0038553315040423196 0 0.038543216274372183 -0.0038666704736873819 0 0.038717398416345181 -0.0038327920074098711 0 0.039363730879880848 -0.0027625684024331458 0 0.038717398416345181 -0.0038327920074098711 0 0.039090877582372958 -0.0036893941402793562 0 0.044589358241321132 -0.0016985357412651772 0 0.044657471557774296 -0.0018872514943562779 0 0.04471506586298668 -0.0015208947602817324 0 0.038515356860395991 -0.0038553315040423196 0 0.038717398416345181 -0.0038327920074098711 0 0.038608569895088284 -0.0042775094565778056 0 0.041746571254018851 -0.003046905791780487 0 0.042704207883653353 -0.0016420198533878799 0 0.038717398416345181 -0.0038327920074098711 0 0.039090877582372958 -0.0036893941402793562 0 0.038608569895088284 -0.0042775094565778056 0 0.044657471557774296 -0.0018872514943562779 0 0.04471506586298668 -0.0015208947602817324 0 0.044921330883891893 -0.0013975910150175659 0 0.044840898861026483 -0.0012623850336408399 0 0.04471506586298668 -0.0015208947602817324 0 0.044921330883891893 -0.0013975910150175659 0 0.044840898861026483 -0.0012623850336408399 0 0.044685635577347595 -0.0013355342886680892 0 0.04471506586298668 -0.0015208947602817324 0 0.044831511243535835 0.00021526493253331698 0 0.044884486988442537 0.0001052128903604734 0 0.04483146919805623 0.00013734325361245328 0 0.041738921966580966 -0.0016096465865661446 0 0.042704207883653353 -0.0016420198533878799 0 0.044848042936393176 8.9971863550367522e-05 0 0.044884486988442537 0.0001052128903604734 0 0.04483146919805623 0.00013734325361245328 0 0.044814133506477664 0.00011040923955447792 0 0.04483146919805623 0.00013734325361245328 0 0.044768150773845668 0.00016029959024846496 0 0.044848042936393176 8.9971863550367522e-05 0 0.044814133506477664 0.00011040923955447792 0 0.04483146919805623 0.00013734325361245328 0 0.044831511243535835 0.00021526493253331698 0 0.04483146919805623 0.00013734325361245328 0 0.044768150773845668 0.00016029959024846496 0 0.044768150773845668 0.00016029959024846496 0 0.044679366749819649 0.0001746321104289161 0 0.044679300725506736 0.00026044861973638426 0 0.044761852884114342 0.00010773700692536542 0 0.044814133506477664 0.00011040923955447792 0 0.044768150773845668 0.00016029959024846496 0 0.044761852884114342 0.00010773700692536542 0 0.044768150773845668 0.00016029959024846496 0 0.044679366749819649 0.0001746321104289161 0 0.044679480728752018 0.00012118735907226738 0 0.044761852884114342 0.00010773700692536542 0 0.044679366749819649 0.0001746321104289161 0 0.044679480728752018 0.00012118735907226738 0 0.04460167100416966 0.00019428033447314584 0 0.044679366749819649 0.0001746321104289161 0 0.04460167100416966 0.00019428033447314584 0 0.044679366749819649 0.0001746321104289161 0 0.0446110386929413 0.00024114526257511962 0 0.044679366749819649 0.0001746321104289161 0 0.0446110386929413 0.00024114526257511962 0 0.044679300725506736 0.00026044861973638426 0 0.04460167100416966 0.00019428033447314584 0 0.0446110386929413 0.00024114526257511962 0 0.04448378090712022 0.00035779892929043485 0 0.0446110386929413 0.00024114526257511962 0 0.044679300725506736 0.00026044861973638426 0 0.04448378090712022 0.00035779892929043485 0 0.044831511243535835 0.00021526493253331698 0 0.044679300725506736 0.00026044861973638426 0 0.044723203593693736 0.00040018082195442058 0 0.044831511243535835 0.00021526493253331698 0 0.044768150773845668 0.00016029959024846496 0 0.044679300725506736 0.00026044861973638426 0 0.044679300725506736 0.00026044861973638426 0 0.044723203593693736 0.00040018082195442058 0 0.04448378090712022 0.00035779892929043485 0 0.041738921966580966 -0.0016096465865661446 0 0.039075081852266762 -0.004192749286063501 0 0.039075081852266762 -0.004192749286063501 0 0.036511268133951232 -0.0053712177715828351 0 0.038424711412630617 -0.004020850860232625 0 0.03846199165450942 -0.0039742494679503113 0 0.038474093121199267 -0.0040758716336246632 0 0.03846199165450942 -0.0039742494679503113 0 0.038474093121199267 -0.0040758716336246632 0 0.038587410957844084 -0.0041318848267496867 0 0.038474093121199267 -0.0040758716336246632 0 0.038587410957844084 -0.0041318848267496867 0 0.03849622448784093 -0.0042179637120354409 0 0.03837139433657373 -0.0041222951285533526 0 0.038474093121199267 -0.0040758716336246632 0 0.03849622448784093 -0.0042179637120354409 0 0.034387450934641295 -0.0062691985170663846 0 0.033492961583245641 -0.0072679403095501282 0 0.03264411273637962 -0.0060873437632227292 0 0.039075081852266762 -0.004192749286063501 0 0.03913138710657231 -0.0033263882224504821 0 0.035606536810007021 -0.0078440530728322889 0 0.034387450934641295 -0.0062691985170663846 0 0.033492961583245641 -0.0072679403095501282 0 0.044723203593693736 0.00040018082195442058 0 0.044358575259951467 0.00057665901401614402 0 0.04448378090712022 0.00035779892929043485 0 0.044358575259951467 0.00057665901401614402 0 0.04448378090712022 0.00035779892929043485 0 0.044234338237642487 0.00041406071970963705 0 0.044234338237642487 0.00041406071970963705 0 0.044046715903964334 0.0003669274461538958 0 0.043816692978910651 0.00070534723115459074 0 0.044358575259951467 0.00057665901401614402 0 0.044234338237642487 0.00041406071970963705 0 0.043816692978910651 0.00070534723115459074 0 0.03913138710657231 -0.0033263882224504821 0 0.03762260981516382 -0.0029354265734503199 0 0.033492961583245641 -0.0072679403095501282 0 0.03264411273637962 -0.0060873437632227292 0 0.031486667483806907 -0.0065806557549765226 0 0.03264411273637962 -0.0060873437632227292 0 0.031486667483806907 -0.0065806557549765226 0 0.030863922956211692 -0.0056970675492267198 0 0.043816692978910651 0.00070534723115459074 0 0.04382367509346332 0.00044914362572015971 0 0.043612988219233768 0.00051332099780602991 0 0.044046715903964334 0.0003669274461538958 0 0.043816692978910651 0.00070534723115459074 0 0.04382367509346332 0.00044914362572015971 0 0.044046715903964334 0.0003669274461538958 0 0.043881576486309498 0.00027125027895836786 0 0.044118697989380888 9.9679947031397508e-05 0 0.044046715903964334 0.0003669274461538958 0 0.04382367509346332 0.00044914362572015971 0 0.043881576486309498 0.00027125027895836786 0 0.044471292496742573 0.00035646826659856389 0 0.044424203113286299 8.7990273065322323e-05 0 0.04460167100416966 0.00019428033447314584 0 0.04448378090712022 0.00035779892929043485 0 0.044587951121509081 0.00015188215465290652 0 0.04448378090712022 0.00035779892929043485 0 0.044118697989380888 9.9679947031397508e-05 0 0.044127824324041234 3.0821443721802555e-05 0 0.04448378090712022 0.00035779892929043485 0 0.044234338237642487 0.00041406071970963705 0 0.044118697989380888 9.9679947031397508e-05 0 0.044234338237642487 0.00041406071970963705 0 0.044046715903964334 0.0003669274461538958 0 0.044118697989380888 9.9679947031397508e-05 0 0.044021404743801111 -0.00013221837566793022 0 0.044118697989380888 9.9679947031397508e-05 0 0.044133712263232899 3.5060472226404471e-05 0 0.044359888471815649 0.00010460362670301181 0 0.044424203113286299 8.7990273065322323e-05 0 0.044679480728752018 0.00012118735907226738 0 0.04460167100416966 0.00019428033447314584 0 0.044587951121509081 0.00015188215465290652 0 0.044470445676204583 4.7000693300669442e-05 0 0.044424203113286299 8.7990273065322323e-05 0 0.044114912742644986 0.00017597233773198619 0 0.043881576486309498 0.00027125027895836786 0 0.044002879397157191 0.0002147746887390788 0 0.044021404743801111 -0.00013221837566793022 0 0.043881576486309498 0.00027125027895836786 0 0.044118697989380888 9.9679947031397508e-05 0 0.044470445676204583 4.7000693300669442e-05 0 0.043787471527992415 0.00026598571772742236 0 0.029358002466445567 -0.0049565766665695564 0 0.0289624193058187 -0.0050730549688613995 0 0.029177060539399172 -0.0048478524834555461 0 0.029358002466445567 -0.0049565766665695564 0 0.0289624193058187 -0.0050730549688613995 0 0.028883384813647935 -0.0049754259664814655 0 0.029920842966450874 -0.0046158278323310412 0 0.030870940765065653 -0.0045704135741778925 0 0.0289624193058187 -0.0050730549688613995 0 0.029177060539399172 -0.0048478524834555461 0 0.028944123735250245 -0.0052252564648897649 0 0.030870940765065653 -0.0045704135741778925 0 0.03218778651447133 -0.0045912236839105126 0 0.0289624193058187 -0.0050730549688613995 0 0.028944123735250245 -0.0052252564648897649 0 0.028904483638304376 -0.0050327636334881543 0 0.034258813065957891 -0.0050716766128936592 0 0.035276451554831424 -0.0050165466285238564 0 0.035147387670868821 -0.0039801882993139338 0 0.033628372786480884 -0.0042375385507579903 0 0.034258813065957891 -0.0050716766128936592 0 0.035147387670868821 -0.0039801882993139338 0 0.030870940765065653 -0.0045704135741778925 0 0.032491193454783268 -0.0053415732499455621 0 0.030215649425979412 -0.0049459283891829763 0 0.0303057677248584 -0.0052945230221501842 0 0.030734766345229713 -0.0054770861197183211 0 0.029358002466445567 -0.0049565766665695564 0 0.029827478642371476 -0.0050170101370139459 0 0.029834288615468899 -0.0050087046458538653 0 0.029827478642371476 -0.0050170101370139459 0 0.030215649425979412 -0.0049459283891829763 0 0.0303057677248584 -0.0052945230221501842 0 0.030223577495275156 -0.0047541294994335372 0 0.030870940765065653 -0.0045704135741778925 0 0.0303057677248584 -0.0052945230221501842 0 0.030350602684448821 -0.0054711463995720175 0 0.029935859332413235 -0.0051868347522489649 0 0.029827478642371476 -0.0050170101370139459 0 0.0303057677248584 -0.0052945230221501842 0 0.029935859332413235 -0.0051868347522489649 0 0.030682926776643402 -0.0056200454630965808 0 0.030350602684448821 -0.0054711463995720175 0 0.030734766345229713 -0.0054770861197183211 0 0.0303057677248584 -0.0052945230221501842 0 0.030350602684448821 -0.0054711463995720175 0 0.030734766345229713 -0.0054770861197183211 0 0.030682926776643402 -0.0056200454630965808 0 0.030863922956211692 -0.0056970675492267198 0 0.030793037953142813 -0.0056175244732605519 0 0.03264411273637962 -0.0060873437632227292 0 0.030863922956211692 -0.0056970675492267198 0 0.033201837330150141 -0.0047537217127163493 0 0.029953660288789593 -0.0057833537068067735 0 0.034257344444800934 -0.0050836574260687125 0 0.034257344444800934 -0.0050836574260687125 0 0.032491193454783268 -0.0053415732499455621 0 0.034866836860046449 -0.005880217092849185 0 0.034258813065957891 -0.0050716766128936592 0 0.035276451554831424 -0.0050165466285238564 0 0.030682926776643402 -0.0056200454630965808 0 0.030793037953142813 -0.0056175244732605519 0 0.030734766345229713 -0.0054770861197183211 0 0.034866836860046449 -0.005880217092849185 0 0.035276451554831424 -0.0050165466285238564 0 0.035909729031915597 -0.0055489386883662249 0 0.038666136862861439 -0.0043111554335309452 0 0.038573098935105972 -0.0042603605330115285 0 0.038533937047387869 -0.0043806358565171323 0 0.034387450934641295 -0.0062691985170663846 0 0.03264411273637962 -0.0060873437632227292 0 0.033201837330150141 -0.0047537217127163493 0 0.038587410957844084 -0.0041318848267496867 0 0.038666136862861439 -0.0043111554335309452 0 0.038573098935105972 -0.0042603605330115285 0 0.034257344444800934 -0.0050836574260687125 0 0.037688766815276539 -0.0048767708345562088 0 0.036511268133951232 -0.0053712177715828351 0 0.034257344444800934 -0.0050836574260687125 0 0.038587410957844084 -0.0041318848267496867 0 0.038573098935105972 -0.0042603605330115285 0 0.03849622448784093 -0.0042179637120354409 0 0.038573098935105972 -0.0042603605330115285 0 0.03849622448784093 -0.0042179637120354409 0 0.038533937047387869 -0.0043806358565171323 0 0.03849622448784093 -0.0042179637120354409 0 0.038533937047387869 -0.0043806358565171323 0 0.038396973567231582 -0.0043164120417778029 0 0.038533937047387869 -0.0043806358565171323 0 0.038303609782362018 -0.004543767562317445 0 0.038396973567231582 -0.0043164120417778029 0 0.035909729031915597 -0.0055489386883662249 0 0.036162845185855871 -0.0046817045991738686 0 0.036866596382572829 -0.0051777606130462128 0 0.035276451554831424 -0.0050165466285238564 0 0.035909729031915597 -0.0055489386883662249 0 0.036162845185855871 -0.0046817045991738686 0 0.037688766815276539 -0.0048767708345562088 0 0.037466955082705353 -0.0048722274668713816 0 0.035276451554831424 -0.0050165466285238564 0 0.036162845185855871 -0.0046817045991738686 0 0.035147387670868821 -0.0039801882993139338 0 0.03218778651447133 -0.0045912236839105126 0 0.033013232629327635 -0.0046863046429445956 0 0.036162845185855871 -0.0046817045991738686 0 0.035147387670868821 -0.0039801882993139338 0 0.036591529058019483 -0.0038623334724459889 0 0.028944123735250245 -0.0052252564648897649 0 0.029471860229016548 -0.0054958867872786712 0 0.029215186463301502 -0.0050539243082613093 0 0.036591529058019483 -0.0038623334724459889 0 0.037567949329055057 -0.0040019188111795204 0 0.037509503240830869 -0.0043389473390583345 0 0.033013232629327635 -0.0046863046429445956 0 0.033920549430817133 -0.004854252429064892 0 0.037509503240830869 -0.0043389473390583345 0 0.037007513402879222 -0.0045331793588028139 0 0.037727652745784539 -0.0046789472378630705 0 0.036162845185855871 -0.0046817045991738686 0 0.036591529058019483 -0.0038623334724459889 0 0.037007513402879222 -0.0045331793588028139 0 0.036162845185855871 -0.0046817045991738686 0 0.037007513402879222 -0.0045331793588028139 0 0.036866596382572829 -0.0051777606130462128 0 0.036591529058019483 -0.0038623334724459889 0 0.037509503240830869 -0.0043389473390583345 0 0.037007513402879222 -0.0045331793588028139 0 0.038303609782362018 -0.004543767562317445 0 0.038236541779875566 -0.0042810616297120317 0 0.038068014881108503 -0.0044335399886600915 0 0.038303609782362018 -0.004543767562317445 0 0.038396973567231582 -0.0043164120417778029 0 0.038236541779875566 -0.0042810616297120317 0 0.038168403487457286 -0.004169728473940087 0 0.03837139433657373 -0.0041222951285533526 0 0.038236541779875566 -0.0042810616297120317 0 0.03837139433657373 -0.0041222951285533526 0 0.038396973567231582 -0.0043164120417778029 0 0.038236541779875566 -0.0042810616297120317 0 0.03837139433657373 -0.0041222951285533526 0 0.03849622448784093 -0.0042179637120354409 0 0.038396973567231582 -0.0043164120417778029 0 0.038168403487457286 -0.004169728473940087 0 0.037985872399774107 -0.0043301134369009521 0 0.037870909970067757 -0.0043487769399307144 0 0.038168403487457286 -0.004169728473940087 0 0.038124800648239573 -0.0042737673777526177 0 0.037985872399774107 -0.0043301134369009521 0 0.038168403487457286 -0.004169728473940087 0 0.038236541779875566 -0.0042810616297120317 0 0.038124800648239573 -0.0042737673777526177 0 0.038236541779875566 -0.0042810616297120317 0 0.038124800648239573 -0.0042737673777526177 0 0.038068014881108503 -0.0044335399886600915 0 0.038124800648239573 -0.0042737673777526177 0 0.037985872399774107 -0.0043301134369009521 0 0.038068014881108503 -0.0044335399886600915 0 0.037879441099357605 -0.0039227000458685966 0 0.03850422919171257 -0.0034134104443461813 0 0.037985872399774107 -0.0043301134369009521 0 0.037792696774837216 -0.0045426125563889025 0 0.037765756372791913 -0.004434711780185974 0 0.038303609782362018 -0.004543767562317445 0 0.038068014881108503 -0.0044335399886600915 0 0.037727652745784539 -0.0046789472378630705 0 0.037792696774837216 -0.0045426125563889025 0 0.038068014881108503 -0.0044335399886600915 0 0.037727652745784539 -0.0046789472378630705 0 0.037007513402879222 -0.0045331793588028139 0 0.036866596382572829 -0.0051777606130462128 0 0.037727652745784539 -0.0046789472378630705 0 0.037985872399774107 -0.0043301134369009521 0 0.037792696774837216 -0.0045426125563889025 0 0.038068014881108503 -0.0044335399886600915 0 0.037466955082705353 -0.0048722274668713816 0 0.037751366234949027 -0.0047097008022995712 0 0.03850422919171257 -0.0034134104443461813 0 0.03764684716920913 -0.0043897435513275112 0 0.037792696774837216 -0.0045426125563889025 0 0.037727652745784539 -0.0046789472378630705 0 0.037734025375107443 -0.0045844661745445964 0 0.037792696774837216 -0.0045426125563889025 0 0.037765756372791913 -0.004434711780185974 0 0.037734025375107443 -0.0045844661745445964 0 0.0377316358741022 -0.0037769850684288586 0 0.037845622622539356 -0.0036667058930436166 0 0.037774701111224343 -0.0039056519011072197 0 0.0377316358741022 -0.0037769850684288586 0 0.037845622622539356 -0.0036667058930436166 0 0.037612120377020587 -0.0037185292261974925 0 0.0377316358741022 -0.0037769850684288586 0 0.037654665867203806 -0.0038643085332675628 0 0.037774701111224343 -0.0039056519011072197 0 0.039890562841396172 -0.0017504302848585318 0 0.040266481275356751 -0.0020608877259637921 0 0.040652722009766967 -0.0017650427388602209 0 0.039740750868007373 -0.0023359886378381532 0 0.039890562841396172 -0.0017504302848585318 0 0.040266481275356751 -0.0020608877259637921 0 0.03850422919171257 -0.0034134104443461813 0 0.039440777488495594 -0.0024148321525285918 0 0.040593653091330048 -0.0022362880401573209 0 0.040266481275356751 -0.0020608877259637921 0 0.040652722009766967 -0.0017650427388602209 0 0.037612120377020587 -0.0037185292261974925 0 0.037654665867203806 -0.0038643085332675628 0 0.037520194854100852 -0.0038772163007113032 0 0.0377316358741022 -0.0037769850684288586 0 0.037612120377020587 -0.0037185292261974925 0 0.037654665867203806 -0.0038643085332675628 0 0.037602350328976193 -0.0039644856298890474 0 0.037654665867203806 -0.0038643085332675628 0 0.037520194854100852 -0.0038772163007113032 0 0.037602350328976193 -0.0039644856298890474 0 0.037668656548866399 -0.0039794214582889644 0 0.037654665867203806 -0.0038643085332675628 0 0.037668656548866399 -0.0039794214582889644 0 0.037654665867203806 -0.0038643085332675628 0 0.037774701111224343 -0.0039056519011072197 0 0.037509503240830869 -0.0043389473390583345 0 0.037727652745784539 -0.0046789472378630705 0 0.037734025375107443 -0.0045844661745445964 0 0.037567949329055057 -0.0040019188111795204 0 0.037509503240830869 -0.0043389473390583345 0 0.037651400680901101 -0.0040719091744219971 0 0.037668656548866399 -0.0039794214582889644 0 0.037774701111224343 -0.0039056519011072197 0 0.037651400680901101 -0.0040719091744219971 0 0.037509503240830869 -0.0043389473390583345 0 0.037734025375107443 -0.0045844661745445964 0 0.037651400680901101 -0.0040719091744219971 0 0.03764684716920913 -0.0043897435513275112 0 0.037703677276917986 -0.0040293201395452021 0 0.037651400680901101 -0.0040719091744219971 0 0.037639060177073067 -0.0040473324386921484 0 0.037655461215659436 -0.0041392966539583005 0 0.037639060177073067 -0.0040473324386921484 0 0.037655461215659436 -0.0041392966539583005 0 0.037514666460863468 -0.0040397386397697166 0 0.037602350328976193 -0.0039644856298890474 0 0.037668656548866399 -0.0039794214582889644 0 0.037639060177073067 -0.0040473324386921484 0 0.037602350328976193 -0.0039644856298890474 0 0.037639060177073067 -0.0040473324386921484 0 0.037514666460863468 -0.0040397386397697166 0 0.037668656548866399 -0.0039794214582889644 0 0.037651400680901101 -0.0040719091744219971 0 0.037639060177073067 -0.0040473324386921484 0 0.031493821705235743 -0.0057966904959846875 0 0.030868597276415607 -0.0054153716174078857 0 0.031349989101621997 -0.0051749799563955041 0 0.031493821705235743 -0.0057966904959846875 0 0.031349989101621997 -0.0051749799563955041 0 0.032062102587877353 -0.0052209593632997148 0 0.033920549430817133 -0.004854252429064892 0 0.034705950114359424 -0.0048788683234021173 0 0.037567949329055057 -0.0040019188111795204 0 0.037651400680901101 -0.0040719091744219971 0 0.037655461215659436 -0.0041392966539583005 0 0.030326006979487414 -0.0056954697599385599 0 0.031493821705235743 -0.0057966904959846875 0 0.030868597276415607 -0.0054153716174078857 0 0.030326006979487414 -0.0056954697599385599 0 0.030447064855327038 -0.0052767258715455938 0 0.030868597276415607 -0.0054153716174078857 0 0.030447064855327038 -0.0052767258715455938 0 0.030868597276415607 -0.0054153716174078857 0 0.030783986649458611 -0.0050907688881945109 0 0.030783986649458611 -0.0050907688881945109 0 0.030987801571793691 -0.0046535411529613083 0 0.03030315511491263 -0.0047974769390677578 0 0.030447064855327038 -0.0052767258715455938 0 0.030783986649458611 -0.0050907688881945109 0 0.03030315511491263 -0.0047974769390677578 0 0.031349989101621997 -0.0051749799563955041 0 0.030987801571793691 -0.0046535411529613083 0 0.031675611795475137 -0.004586843828151054 0 0.030783986649458611 -0.0050907688881945109 0 0.031349989101621997 -0.0051749799563955041 0 0.030987801571793691 -0.0046535411529613083 0 0.030868597276415607 -0.0054153716174078857 0 0.030783986649458611 -0.0050907688881945109 0 0.031349989101621997 -0.0051749799563955041 0 0.030987801571793691 -0.0046535411529613083 0 0.031339424656402874 -0.0041030367608880045 0 0.030566403691413228 -0.0042000727818867741 0 0.030987801571793691 -0.0046535411529613083 0 0.031339424656402874 -0.0041030367608880045 0 0.031675611795475137 -0.004586843828151054 0 0.031339424656402874 -0.0041030367608880045 0 0.030566403691413228 -0.0042000727818867741 0 0.030904126515650901 -0.003588878098236509 0 0.031339424656402874 -0.0041030367608880045 0 0.031805413503352135 -0.0035028379266238028 0 0.030904126515650901 -0.003588878098236509 0 0.030566403691413228 -0.0042000727818867741 0 0.030904126515650901 -0.003588878098236509 0 0.030274317386047415 -0.0036737936564232437 0 0.030987801571793691 -0.0046535411529613083 0 0.030566403691413228 -0.0042000727818867741 0 0.03030315511491263 -0.0047974769390677578 0 0.030003802151340384 -0.004346052047124984 0 0.029650964310133379 -0.0046951256562951568 0 0.03030315511491263 -0.0047974769390677578 0 0.030566403691413228 -0.0042000727818867741 0 0.030003802151340384 -0.004346052047124984 0 0.03030315511491263 -0.0047974769390677578 0 0.030566403691413228 -0.0042000727818867741 0 0.030003802151340384 -0.004346052047124984 0 0.030274317386047415 -0.0036737936564232437 0 0.030003802151340384 -0.004346052047124984 0 0.029833792360088724 -0.0039348497741803377 0 0.030274317386047415 -0.0036737936564232437 0 0.029499049168045174 -0.0038459798971553195 0 0.02953618913792485 -0.0042269186398577463 0 0.029152332716733575 -0.0040003211232369001 0 0.029833792360088724 -0.0039348497741803377 0 0.029499049168045174 -0.0038459798971553195 0 0.02953618913792485 -0.0042269186398577463 0 0.030003802151340384 -0.004346052047124984 0 0.029833792360088724 -0.0039348497741803377 0 0.02953618913792485 -0.0042269186398577463 0 0.02953618913792485 -0.0042269186398577463 0 0.029650964310133379 -0.0046951256562951568 0 0.029139865715844756 -0.0045178968337318427 0 0.030003802151340384 -0.004346052047124984 0 0.02953618913792485 -0.0042269186398577463 0 0.029650964310133379 -0.0046951256562951568 0 0.029650964310133379 -0.0046951256562951568 0 0.029917307258107328 -0.0051752792683419377 0 0.029215186463301502 -0.0050539243082613093 0 0.029650964310133379 -0.0046951256562951568 0 0.03030315511491263 -0.0047974769390677578 0 0.029917307258107328 -0.0051752792683419377 0 0.030447064855327038 -0.0052767258715455938 0 0.03030315511491263 -0.0047974769390677578 0 0.029917307258107328 -0.0051752792683419377 0 0.029471860229016548 -0.0054958867872786712 0 0.030326006979487414 -0.0056954697599385599 0 0.029917307258107328 -0.0051752792683419377 0 0.030326006979487414 -0.0056954697599385599 0 0.030447064855327038 -0.0052767258715455938 0 0.029917307258107328 -0.0051752792683419377 0 0.029471860229016548 -0.0054958867872786712 0 0.029917307258107328 -0.0051752792683419377 0 0.029215186463301502 -0.0050539243082613093 0 0.028944123735250245 -0.0052252564648897649 0 0.029215186463301502 -0.0050539243082613093 0 0.028904483638304376 -0.0050327636334881543 0 0.029215186463301502 -0.0050539243082613093 0 0.028904483638304376 -0.0050327636334881543 0 0.028931568690929853 -0.0048149180676426741 0 0.029650964310133379 -0.0046951256562951568 0 0.029215186463301502 -0.0050539243082613093 0 0.029139865715844756 -0.0045178968337318427 0 0.029215186463301502 -0.0050539243082613093 0 0.028931568690929853 -0.0048149180676426741 0 0.029139865715844756 -0.0045178968337318427 0 0.02953618913792485 -0.0042269186398577463 0 0.029139865715844756 -0.0045178968337318427 0 0.029152332716733575 -0.0040003211232369001 0 0.029139865715844756 -0.0045178968337318427 0 0.029152332716733575 -0.0040003211232369001 0 0.028769944805030537 -0.0042275112899461077 0 0.029152332716733575 -0.0040003211232369001 0 0.028769944805030537 -0.0042275112899461077 0 0.028810317941610718 -0.0039388413656167966 0 0.028769944805030537 -0.0042275112899461077 0 0.028382559547843921 -0.0043053063984838536 0 0.028447982493819326 -0.0038930961509093605 0 0.028769944805030537 -0.0042275112899461077 0 0.028447982493819326 -0.0038930961509093605 0 0.028810317941610718 -0.0039388413656167966 0 0.028931568690929853 -0.0048149180676426741 0 0.029139865715844756 -0.0045178968337318427 0 0.028673831102516152 -0.0045825401360805899 0 0.029139865715844756 -0.0045178968337318427 0 0.028769944805030537 -0.0042275112899461077 0 0.028673831102516152 -0.0045825401360805899 0 0.028673831102516152 -0.0045825401360805899 0 0.028382559547843921 -0.0043053063984838536 0 0.028288840123703481 -0.0046359632358542718 0 0.028673831102516152 -0.0045825401360805899 0 0.028288840123703481 -0.0046359632358542718 0 0.028710151777366261 -0.0048813434220846266 0 0.028382559547843921 -0.0043053063984838536 0 0.028169428578936638 -0.003983001715658312 0 0.028447982493819326 -0.0038930961509093605 0 0.028769944805030537 -0.0042275112899461077 0 0.028673831102516152 -0.0045825401360805899 0 0.028382559547843921 -0.0043053063984838536 0 0.028298148924271131 -0.0048601341840269008 0 0.027776661380557909 -0.0044438465047206624 0 0.027881595814280066 -0.0046641916512722235 0 0.028382559547843921 -0.0043053063984838536 0 0.02787386365140921 -0.0039944207663645181 0 0.028169428578936638 -0.003983001715658312 0 0.028316502295247532 -0.0047495537418953586 0 0.027814904971603049 -0.0042065461342934195 0 0.028382559547843921 -0.0043053063984838536 0 0.028288840123703481 -0.0046359632358542718 0 0.02787386365140921 -0.0039944207663645181 0 0.028316502295247532 -0.0047495537418953586 0 0.028783693328698057 -0.0049601036406504801 0 0.028288840123703481 -0.0046359632358542718 0 0.028710151777366261 -0.0048813434220846266 0 0.028883384813647935 -0.0049754259664814655 0 0.028904483638304376 -0.0050327636334881543 0 0.028931568690929853 -0.0048149180676426741 0 0.028710151777366261 -0.0048813434220846266 0 0.028931568690929853 -0.0048149180676426741 0 0.028673831102516152 -0.0045825401360805899 0 0.028710151777366261 -0.0048813434220846266 0 0.0289624193058187 -0.0050730549688613995 0 0.028904483638304376 -0.0050327636334881543 0 0.028710151777366261 -0.0048813434220846266 0 0.0289624193058187 -0.0050730549688613995 0 0.028710151777366261 -0.0048813434220846266 0 0.028883384813647935 -0.0049754259664814655 0 0.035672675950129969 -0.004372839837532237 0 0.035776491842637766 -0.0050982678169862062 0 0.035547679443047091 -0.0050004846296380599 0 0.03629041024135065 -0.0057245447869707705 0 0.035807533316526273 -0.0056406750444169757 0 0.035328859908286984 -0.004365173618478318 0 0.035672675950129969 -0.004372839837532237 0 0.035547679443047091 -0.0050004846296380599 0 0.036272473958422993 -0.0065993681710986392 0 0.036320838718422142 -0.0063108822211943427 0 0.036155647628850519 -0.0065883957715254203 0 0.036272473958422993 -0.0065993681710986392 0 0.035999933746917859 -0.0063510583301461384 0 0.036320838718422142 -0.0063108822211943427 0 0.036272473958422993 -0.0065993681710986392 0 0.036537419413044496 -0.0068146660371813704 0 0.036071957835455908 -0.0065378795742337525 0 0.036272473958422993 -0.0065993681710986392 0 0.035999933746917859 -0.0063510583301461384 0 0.036071957835455908 -0.0065378795742337525 0 0.035999933746917859 -0.0063510583301461384 0 0.036320838718422142 -0.0063108822211943427 0 0.03565008603056858 -0.0059347173988249643 0 0.035328859908286984 -0.004365173618478318 0 0.035672675950129969 -0.004372839837532237 0 0.035171728373962527 -0.0035521443693858831 0 0.025063011579726735 -0.00096056876048776214 0 0.026697304774372675 -0.00081309501833535288 0 0.026282024471849647 -0.00012739082555765865 0 0.025063011579726735 -0.00096056876048776214 0 0.026697304774372675 -0.00081309501833535288 0 0.027347784115001744 -0.0021320825153176774 0 0.028731856096295277 -3.6125774485941681e-06 0 0.026697304774372675 -0.00081309501833535288 0 0.026282024471849647 -0.00012739082555765865 0 0.028736449639114356 -1.0621283583351608e-07 0 0.028913680824356691 -0.0010845713832476544 0 0.028731856096295277 -3.6125774485941681e-06 0 0.026697304774372675 -0.00081309501833535288 0 0.027347784115001744 -0.0021320825153176774 0 0.030513520697392861 -3.8251230633430682e-06 0 0.031236172730943809 -1.2504950061106071e-05 0 0.031298774779219295 7.7557362118741457e-07 0 0.028737863915340198 -8.0671906569196806e-07 0 0.030513520697392861 -3.8251230633430682e-06 0 0.031298774779219295 7.7557362118741457e-07 0 0.028913680824356691 -0.0010845713832476544 0 0.031917099265971492 -0.0025325649896411942 0 0.030002612858446999 -0.0027266072510687312 0 0.031917099265971492 -0.0025325649896411942 0 0.035672675950129969 -0.004372839837532237 0 0.035776491842637766 -0.0050982678169862062 0 0.035992141679441855 -0.0049760165856326463 0 0.025063011579726735 -0.00096056876048776214 0 0.027347784115001744 -0.0021320825153176774 0 0.026551045070302794 -0.0034658036464781669 0 0.031917099265971492 -0.0025325649896411942 0 0.035664491703124163 -0.0028312094779202115 0 0.035776491842637766 -0.0050982678169862062 0 0.035992141679441855 -0.0049760165856326463 0 0.035813029185143119 -0.0052750051269990867 0 0.031236172730943809 -1.2504950061106071e-05 0 0.031298774779219295 7.7557362118741457e-07 0 0.03200518611262354 -4.3938954812967423e-06 0 0.034552096250633546 -0.0011387177739556509 0 0.03435934800380349 -0.00079102723598370667 0 0.034563611387927969 -0.00057743770124156837 0 0.031917099265971492 -0.0025325649896411942 0 0.033084667577571468 -9.772186466527091e-05 0 0.033859925209433872 -7.962089705752201e-07 0 0.031298774779219295 7.7557362118741457e-07 0 0.03200518611262354 -4.3938954812967423e-06 0 0.03435934800380349 -0.00079102723598370667 0 0.034274944604064585 -0.00040188931691772671 0 0.034563611387927969 -0.00057743770124156837 0 0.034629585199933505 -0.00037299043700056672 0 0.034274944604064585 -0.00040188931691772671 0 0.034563611387927969 -0.00057743770124156837 0 0.033861213129917737 -1.0441113770864199e-07 0 0.033084667577571468 -9.772186466527091e-05 0 0.033864398501132383 -1.7537038138096779e-06 0 0.03435934800380349 -0.00079102723598370667 0 0.034274944604064585 -0.00040188931691772671 0 0.034552096250633546 -0.0011387177739556509 0 0.034813001699166929 -0.00062112146919016998 0 0.034563611387927969 -0.00057743770124156837 0 0.034629585199933505 -0.00037299043700056672 0 0.034813001699166929 -0.00062112146919016998 0 0.034563611387927969 -0.00057743770124156837 0 0.035949933793736788 -0.0052618394770722714 0 0.036293044174591504 -0.0057839344305223089 0 0.036155647628850519 -0.0065883957715254203 0 0.036042635740325665 -0.0048522180410126448 0 0.035813029185143119 -0.0052750051269990867 0 0.035949933793736788 -0.0052618394770722714 0 0.035776491842637766 -0.0050982678169862062 0 0.035813029185143119 -0.0052750051269990867 0 0.035949933793736788 -0.0052618394770722714 0 0.035934534844708252 -0.0053267726258437315 0 0.035807533316526273 -0.0056406750444169757 0 0.035949933793736788 -0.0052618394770722714 0 0.036293044174591504 -0.0057839344305223089 0 0.036565339374410449 -0.0052970057619713276 0 0.035776491842637766 -0.0050982678169862062 0 0.035949933793736788 -0.0052618394770722714 0 0.035547679443047091 -0.0050004846296380599 0 0.036293044174591504 -0.0057839344305223089 0 0.036155647628850519 -0.0065883957715254203 0 0.036537534597436132 -0.0059605025878846614 0 0.036272473958422993 -0.0065993681710986392 0 0.036453372892067487 -0.0065114505894391184 0 0.036537419413044496 -0.0068146660371813704 0 0.036453372892067487 -0.0065114505894391184 0 0.036537419413044496 -0.0068146660371813704 0 0.037005349379110909 -0.0060925670923445653 0 0.036272473958422993 -0.0065993681710986392 0 0.036155647628850519 -0.0065883957715254203 0 0.036453372892067487 -0.0065114505894391184 0 0.036155647628850519 -0.0065883957715254203 0 0.036453372892067487 -0.0065114505894391184 0 0.036537534597436132 -0.0059605025878846614 0 0.036453372892067487 -0.0065114505894391184 0 0.036537534597436132 -0.0059605025878846614 0 0.037005349379110909 -0.0060925670923445653 0 0.036537534597436132 -0.0059605025878846614 0 0.036978061687057612 -0.0054549106972791323 0 0.037005349379110909 -0.0060925670923445653 0 0.036293044174591504 -0.0057839344305223089 0 0.036537534597436132 -0.0059605025878846614 0 0.036565339374410449 -0.0052970057619713276 0 0.036537534597436132 -0.0059605025878846614 0 0.036565339374410449 -0.0052970057619713276 0 0.036978061687057612 -0.0054549106972791323 0 0.037674682844719344 -0.0051371077474007439 0 0.036978061687057612 -0.0054549106972791323 0 0.037005349379110909 -0.0060925670923445653 0 0.037674682844719344 -0.0051371077474007439 0 0.037754137383807514 -0.0066971087569967294 0 0.037005349379110909 -0.0060925670923445653 0 0.03817774923929125 -0.005054930269357885 0 0.037832263585062607 -0.0066585315462871202 0 0.038701674900898257 -0.0048568503173168891 0 0.039422305338397884 -0.0054765895666917383 0 0.037754137383807514 -0.0066971087569967294 0 0.039422305338397884 -0.0054765895666917383 0 0.038897724094795395 -0.0067634324000515004 0 0.040453845838855515 -0.0063894863730166009 0 0.039422305338397884 -0.0054765895666917383 0 0.038897724094795395 -0.0067634324000515004 0 0.037754137383807514 -0.0066971087569967294 0 0.036886599556012721 -0.0070081351454824954 0 0.03834570068123952 -0.0046426285775278209 0 0.035327901159073548 -0.0070823462889652924 0 0.03464974966332085 -0.0071529958224535502 0 0.035118443364822005 -0.0065848595489617487 0 0.038897724094795395 -0.0067634324000515004 0 0.037754137383807514 -0.0066971087569967294 0 0.036537419413044496 -0.0068146660371813704 0 0.036886599556012721 -0.0070081351454824954 0 0.036716046031606185 -0.006837721330494765 0 0.035327901159073548 -0.0070823462889652924 0 0.036537419413044496 -0.0068146660371813704 0 0.03566860346331896 -0.006607631691932867 0 0.037754137383807514 -0.0066971087569967294 0 0.036537419413044496 -0.0068146660371813704 0 0.037005349379110909 -0.0060925670923445653 0 0.041184889872126193 -0.0022246295685519608 0 0.040652722009766967 -0.0017650427388602209 0 0.041191643837769971 -0.0017148345027444777 0 0.041184889872126193 -0.0022246295685519608 0 0.040593653091330048 -0.0022362880401573209 0 0.040652722009766967 -0.0017650427388602209 0 0.041064941231851504 -0.0034203009937419319 0 0.03834570068123952 -0.0046426285775278209 0 0.040528494614905972 -0.0048849802095015859 0 0.039422305338397884 -0.0054765895666917383 0 0.040453845838855515 -0.0063894863730166009 0 0.039440777488495594 -0.0024148321525285918 0 0.03834570068123952 -0.0046426285775278209 0 0.037612120377020587 -0.0037185292261974925 0 0.03738708858608418 -0.0037691950058902053 0 0.037520194854100852 -0.0038772163007113032 0 0.037602350328976193 -0.0039644856298890474 0 0.037520194854100852 -0.0038772163007113032 0 0.037514666460863468 -0.0040397386397697166 0 0.037520194854100852 -0.0038772163007113032 0 0.037348517985813998 -0.0039868372418945686 0 0.037514666460863468 -0.0040397386397697166 0 0.03834570068123952 -0.0046426285775278209 0 0.035936171720812489 -0.0052095469703967914 0 0.03738708858608418 -0.0037691950058902053 0 0.037520194854100852 -0.0038772163007113032 0 0.037348517985813998 -0.0039868372418945686 0 0.03464974966332085 -0.0071529958224535502 0 0.034705571349160046 -0.0062571629379483233 0 0.035118443364822005 -0.0065848595489617487 0 0.037348517985813998 -0.0039868372418945686 0 0.037514666460863468 -0.0040397386397697166 0 0.037291687290454248 -0.0042638555322636676 0 0.035936171720812489 -0.0052095469703967914 0 0.034548505966342 -0.0054589357130760824 0 0.034705571349160046 -0.0062571629379483233 0 0.035047997633363519 -0.0058564915596858308 0 0.034785139868670496 -0.0057156595665716929 0 0.035999933746917859 -0.0063510583301461384 0 0.036071957835455908 -0.0065378795742337525 0 0.035451867304067818 -0.0062594475723535357 0 0.036071957835455908 -0.0065378795742337525 0 0.03566860346331896 -0.006607631691932867 0 0.035451867304067818 -0.0062594475723535357 0 0.036537419413044496 -0.0068146660371813704 0 0.036071957835455908 -0.0065378795742337525 0 0.03566860346331896 -0.006607631691932867 0 0.034705571349160046 -0.0062571629379483233 0 0.035118443364822005 -0.0065848595489617487 0 0.035451867304067818 -0.0062594475723535357 0 0.035327901159073548 -0.0070823462889652924 0 0.03566860346331896 -0.006607631691932867 0 0.035118443364822005 -0.0065848595489617487 0 0.03566860346331896 -0.006607631691932867 0 0.035118443364822005 -0.0065848595489617487 0 0.035451867304067818 -0.0062594475723535357 0 0.034705571349160046 -0.0062571629379483233 0 0.035451867304067818 -0.0062594475723535357 0 0.035047997633363519 -0.0058564915596858308 0 0.035451867304067818 -0.0062594475723535357 0 0.035047997633363519 -0.0058564915596858308 0 0.03565008603056858 -0.0059347173988249643 0 0.035999933746917859 -0.0063510583301461384 0 0.035451867304067818 -0.0062594475723535357 0 0.03565008603056858 -0.0059347173988249643 0 0.034956569243537752 -0.0055656115489807513 0 0.035047997633363519 -0.0058564915596858308 0 0.03565008603056858 -0.0059347173988249643 0 0.034956569243537752 -0.0055656115489807513 0 0.035047997633363519 -0.0058564915596858308 0 0.034785139868670496 -0.0057156595665716929 0 0.034619947184403636 -0.0057322453249671343 0 0.034548505966342 -0.0054589357130760824 0 0.034956569243537752 -0.0055656115489807513 0 0.033016307639434438 -0.0046552622383659531 0 0.034020234925998517 -0.0040886079947111782 0 0.034956569243537752 -0.0055656115489807513 0 0.033025932753076033 -0.006100224751445912 0 0.033016307639434438 -0.0046552622383659531 0 0.031493821705235743 -0.0057966904959846875 0 0.032863380182205706 -0.0056813573449117577 0 0.032062102587877353 -0.0052209593632997148 0 0.037655461215659436 -0.0041392966539583005 0 0.037514666460863468 -0.0040397386397697166 0 0.037291687290454248 -0.0042638555322636676 0 0.034705950114359424 -0.0048788683234021173 0 0.034548505966342 -0.0054589357130760824 0 0.032863380182205706 -0.0056813573449117577 0 0.032062102587877353 -0.0052209593632997148 0 0.033016307639434438 -0.0046552622383659531 0 0.034548505966342 -0.0054589357130760824 0 0.032735345330631861 -0.0049186080121128798 0 0.032062102587877353 -0.0052209593632997148 0 0.031675611795475137 -0.004586843828151054 0 0.033016307639434438 -0.0046552622383659531 0 0.031349989101621997 -0.0051749799563955041 0 0.032062102587877353 -0.0052209593632997148 0 0.031675611795475137 -0.004586843828151054 0 0.031339424656402874 -0.0041030367608880045 0 0.031675611795475137 -0.004586843828151054 0 0.032230893616718027 -0.0040758381018158648 0 0.031675611795475137 -0.004586843828151054 0 0.033016307639434438 -0.0046552622383659531 0 0.032230893616718027 -0.0040758381018158648 0 0.033016307639434438 -0.0046552622383659531 0 0.032954604309195973 -0.0037242843107951843 0 0.032230893616718027 -0.0040758381018158648 0 0.032954604309195973 -0.0037242843107951843 0 0.032864718027635097 -0.0030317812226986944 0 0.031805413503352135 -0.0035028379266238028 0 0.032954604309195973 -0.0037242843107951843 0 0.032230893616718027 -0.0040758381018158648 0 0.031805413503352135 -0.0035028379266238028 0 0.031339424656402874 -0.0041030367608880045 0 0.032230893616718027 -0.0040758381018158648 0 0.031805413503352135 -0.0035028379266238028 0 0.034956569243537752 -0.0055656115489807513 0 0.034020234925998517 -0.0040886079947111782 0 0.035190627800392074 -0.0041839519547898982 0 0.033016307639434438 -0.0046552622383659531 0 0.032954604309195973 -0.0037242843107951843 0 0.034020234925998517 -0.0040886079947111782 0 0.032954604309195973 -0.0037242843107951843 0 0.034020234925998517 -0.0040886079947111782 0 0.034143481148785883 -0.0031696682869755228 0 0.034020234925998517 -0.0040886079947111782 0 0.035190627800392074 -0.0041839519547898982 0 0.034143481148785883 -0.0031696682869755228 0 0.029356547363865663 -0.0018941795251038976 0 0.028966020094645724 -0.001373771773017095 0 0.023743379687996849 0.00036448629999163415 0 0.023889224404890136 0.00027506412835267576 0 0.023878670586795988 0.00037841963277833392 0 0.023743379687996849 0.00036448629999163415 0 0.023970117983738128 0.0003880451008630892 0 0.023441022755314546 0.00026576764755154231 0 0.023743379687996849 0.00036448629999163415 0 0.023970117983738128 0.0003880451008630892 0 0.024132417303733302 0.00029012197322417411 0 0.023970117983738128 0.0003880451008630892 0 0.024132417303733302 0.00029012197322417411 0 0.024520411238358904 0.00025742645944452908 0 0.023743379687996849 0.00036448629999163415 0 0.024132417303733302 0.00029012197322417411 0 0.023889224404890136 0.00027506412835267576 0 0.034956569243537752 -0.0055656115489807513 0 0.035190627800392074 -0.0041839519547898982 0 0.036067984923835894 -0.0052854445118808045 0 0.024132417303733302 0.00029012197322417411 0 0.023889224404890136 0.00027506412835267576 0 0.024299051201583599 -2.3617606896552552e-05 0 0.029356547363865663 -0.0018941795251038976 0 0.031502046861348582 -0.0028123758455890634 0 0.024132417303733302 0.00029012197322417411 0 0.024625353746871817 7.5790586003475201e-05 0 0.024520411238358904 0.00025742645944452908 0 0.024132417303733302 0.00029012197322417411 0 0.024299051201583599 -2.3617606896552552e-05 0 0.024625353746871817 7.5790586003475201e-05 0 0.03629041024135065 -0.0057245447869707705 0 0.031502046861348582 -0.0028123758455890634 0 0.024299051201583599 -2.3617606896552552e-05 0 0.024625353746871817 7.5790586003475201e-05 0 0.025084428857398033 -0.0001417726402956382 0 0.025063011579726735 -0.00096056876048776214 0 0.024299051201583599 -2.3617606896552552e-05 0 0.025084428857398033 -0.0001417726402956382 0 0.030002612858446999 -0.0027266072510687312 0 0.031502046861348582 -0.0028123758455890634 0 0.036320838718422142 -0.0063108822211943427 0 0.036067984923835894 -0.0052854445118808045 0 0.03565008603056858 -0.0059347173988249643 0 0.034956569243537752 -0.0055656115489807513 0 0.036067984923835894 -0.0052854445118808045 0 0.03565008603056858 -0.0059347173988249643 0 0.028731856096295277 -3.6125774485941681e-06 0 0.026282024471849647 -0.00012739082555765865 0 0.026445354914265605 1.4529124476530368e-06 0 0.026282024471849647 -0.00012739082555765865 0 0.025213710576763082 9.8563799864911811e-05 0 0.026445354914265605 1.4529124476530368e-06 0 0.025063011579726735 -0.00096056876048776214 0 0.026282024471849647 -0.00012739082555765865 0 0.025084428857398033 -0.0001417726402956382 0 0.026282024471849647 -0.00012739082555765865 0 0.025084428857398033 -0.0001417726402956382 0 0.025213710576763082 9.8563799864911811e-05 0 0.025213710576763082 9.8563799864911811e-05 0 0.024520411238358904 0.00025742645944452908 0 0.024576456945412613 0.00027672945935504058 0 0.024625353746871817 7.5790586003475201e-05 0 0.025213710576763082 9.8563799864911811e-05 0 0.024520411238358904 0.00025742645944452908 0 0.024625353746871817 7.5790586003475201e-05 0 0.025084428857398033 -0.0001417726402956382 0 0.025213710576763082 9.8563799864911811e-05 0 0.025213710576763082 9.8563799864911811e-05 0 0.026445354914265605 1.4529124476530368e-06 0 0.024576456945412613 0.00027672945935504058 0 0.02415474697733537 2.2364978649917167e-07 0 0.024576456945412613 0.00027672945935504058 0 0.023413122328169337 0.0003244074141829872 0 0.026445354914265605 1.4529124476530368e-06 0 0.02415474697733537 2.2364978649917167e-07 0 0.024576456945412613 0.00027672945935504058 0 0.023970117983738128 0.0003880451008630892 0 0.024576456945412613 0.00027672945935504058 0 0.023413122328169337 0.0003244074141829872 0 0.023970117983738128 0.0003880451008630892 0 0.024520411238358904 0.00025742645944452908 0 0.024576456945412613 0.00027672945935504058 0 0.023970117983738128 0.0003880451008630892 0 0.023413122328169337 0.0003244074141829872 0 0.023441022755314546 0.00026576764755154231 0 0.02415474697733537 2.2364978649917167e-07 0 0.023413122328169337 0.0003244074141829872 0 0.021863798433272633 1.3809507489500542e-06 0 0.023413122328169337 0.0003244074141829872 0 0.021863798433272633 1.3809507489500542e-06 0 0.022573699148181112 0.00020035277121182156 0 0.023413122328169337 0.0003244074141829872 0 0.022573699148181112 0.00020035277121182156 0 0.023441022755314546 0.00026576764755154231 0 0.022573699148181112 0.00020035277121182156 0 0.022961489902025033 -0.00046860720891043177 0 0.023441022755314546 0.00026576764755154231 0 0.021863798433272633 1.3809507489500542e-06 0 0.022573699148181112 0.00020035277121182156 0 0.019578048907536855 -2.6116457629561989e-06 0 0.021848810263846184 2.5054570408727675e-06 0 0.019574151224611775 -3.0243592046726915e-08 0 0.022573699148181112 0.00020035277121182156 0 0.022961489902025033 -0.00046860720891043177 0 0.019578048907536855 -2.6116457629561989e-06 0 0.023743379687996849 0.00036448629999163415 0 0.023441022755314546 0.00026576764755154231 0 0.023348285899077493 8.4664466021218225e-05 0 0.023743379687996849 0.00036448629999163415 0 0.023348285899077493 8.4664466021218225e-05 0 0.023878670586795988 0.00037841963277833392 0 0.022961489902025033 -0.00046860720891043177 0 0.023441022755314546 0.00026576764755154231 0 0.023348285899077493 8.4664466021218225e-05 0 0.021848810263846184 2.5054570408727675e-06 0 0.023196915326666356 7.6147137156952951e-05 0 0.023348285899077493 8.4664466021218225e-05 0 0.022825588961719281 -0.0012216592722561162 0 0.023957843078349101 -0.00097756899694773948 0 0.020708964943932266 0.0004397784609332184 0 0.023348285899077493 8.4664466021218225e-05 0 0.022825588961719281 -0.0012216592722561162 0 0.020708964943932266 0.0004397784609332184 0 0.022825588961719281 -0.0012216592722561162 0 0.020652399417811596 -0.0010442137471199347 0 0.014172317498761855 -0.00033404744675101365 0 0.015007745374550456 -0.00069363812666452132 0 0.014209284527497566 -3.7094966493399658e-06 0 0.01875047777073784 -0.00077119379422990232 0 0.01783183204826853 -0.0007809189183927243 0 0.020708964943932266 0.0004397784609332184 0 0.019585111649627261 -5.9151198796762048e-05 0 0.019568414502707573 2.3467610755658909e-06 0 0.019585111649627261 -5.9151198796762048e-05 0 0.019568414502707573 2.3467610755658909e-06 0 0.017963651469985447 -2.8977896970710701e-06 0 0.020708964943932266 0.0004397784609332184 0 0.019585111649627261 -5.9151198796762048e-05 0 0.020652399417811596 -0.0010442137471199347 0 0.015007745374550456 -0.00069363812666452132 0 0.017952666437266184 -2.4076041578681912e-06 0 0.014738629110165614 0.00017636983659293057 0 0.01783183204826853 -0.0007809189183927243 0 0.017958105316021638 -3.8316004611209391e-07 0 0.019585111649627261 -5.9151198796762048e-05 0 0.020652399417811596 -0.0010442137471199347 0 0.017963651469985447 -2.8977896970710701e-06 0 0.017952666437266184 -2.4076041578681912e-06 0 0.015612307332351147 1.0376192452926787e-06 0 0.014738629110165614 0.00017636983659293057 0 0.015612307332351147 1.0376192452926787e-06 0 0.01416654314160778 0.00024189431924827751 0 0.014738629110165614 0.00017636983659293057 0 0.015612307332351147 1.0376192452926787e-06 0 0.01416654314160778 0.00024189431924827751 0 0.013262259218863546 9.0624902526260125e-07 0 0.01416654314160778 0.00024189431924827751 0 0.014738629110165614 0.00017636983659293057 0 0.014048947144360516 0.00018263584301888883 0 0.015007745374550456 -0.00069363812666452132 0 0.014738629110165614 0.00017636983659293057 0 0.014209284527497566 -3.7094966493399658e-06 0 0.014172317498761855 -0.00033404744675101365 0 0.014209284527497566 -3.7094966493399658e-06 0 0.014077991974853422 -6.9892259002367501e-05 0 0.014209284527497566 -3.7094966493399658e-06 0 0.01399857822615061 1.5710189582292577e-05 0 0.014077991974853422 -6.9892259002367501e-05 0 0.014738629110165614 0.00017636983659293057 0 0.014209284527497566 -3.7094966493399658e-06 0 0.014048947144360516 0.00018263584301888883 0 0.014209284527497566 -3.7094966493399658e-06 0 0.01399857822615061 1.5710189582292577e-05 0 0.014048947144360516 0.00018263584301888883 0 0.014048947144360516 0.00018263584301888883 0 0.013851599090359205 -4.9280459553608433e-05 0 0.013405527961444286 0.000140907787321002 0 0.01399857822615061 1.5710189582292577e-05 0 0.014048947144360516 0.00018263584301888883 0 0.013851599090359205 -4.9280459553608433e-05 0 0.01399857822615061 1.5710189582292577e-05 0 0.013851599090359205 -4.9280459553608433e-05 0 0.013984173338241996 -0.0001890439333705391 0 0.013851599090359205 -4.9280459553608433e-05 0 0.013574861256815056 -0.00035323562913521455 0 0.013858793083130034 -0.00037682035303264347 0 0.013405527961444286 0.000140907787321002 0 0.01318259884985493 -0.00028877328993495276 0 0.013574861256815056 -0.00035323562913521455 0 0.013851599090359205 -4.9280459553608433e-05 0 0.013405527961444286 0.000140907787321002 0 0.013574861256815056 -0.00035323562913521455 0 0.013405527961444286 0.000140907787321002 0 0.013262259218863546 9.0624902526260125e-07 0 0.010923200117053177 -1.485983774510362e-06 0 0.01416654314160778 0.00024189431924827751 0 0.013405527961444286 0.000140907787321002 0 0.013262259218863546 9.0624902526260125e-07 0 0.01416654314160778 0.00024189431924827751 0 0.014048947144360516 0.00018263584301888883 0 0.013405527961444286 0.000140907787321002 0 0.01415318961591068 -0.00019802992272422516 0 0.014054507360825638 -0.00029504938100685207 0 0.014104642451308897 -0.00019001302054825979 0 0.014460082447808052 -0.00053136828824873407 0 0.01446357686688322 -0.00028512298450416977 0 0.014653847398292955 -0.00036231951496710449 0 0.016685670990764415 -0.0010554879337790492 0 0.019270062044318324 -0.0014642878895889031 0 0.016572548636082443 -0.00077118205994305175 0 0.016552898896772337 -0.00027634726509350398 0 0.017047297744301134 -0.0010530167816286404 0 0.016087345992113072 -0.00057544466530097765 0 0.016572548636082443 -0.00077118205994305175 0 0.016552898896772337 -0.00027634726509350398 0 0.01476338282936341 -0.0004039106702890164 0 0.016685670990764415 -0.0010554879337790492 0 0.01476338282936341 -0.0004039106702890164 0 0.015601862845748356 -0.00084335284258677987 0 0.016087345992113072 -0.00057544466530097765 0 0.016572548636082443 -0.00077118205994305175 0 0.016651186378380797 -0.0012123324227982849 0 0.01415318961591068 -0.00019802992272422516 0 0.014420108839008102 -0.00044369770204568944 0 0.0141833043369102 -0.0003541763124152034 0 0.016572548636082443 -0.00077118205994305175 0 0.016651186378380797 -0.0012123324227982849 0 0.017047297744301134 -0.0010530167816286404 0 0.014420108839008102 -0.00044369770204568944 0 0.0141833043369102 -0.0003541763124152034 0 0.014258908019535657 -0.00054358187198964576 0 0.0141833043369102 -0.0003541763124152034 0 0.014022188925788754 -0.00049667901596039032 0 0.014258908019535657 -0.00054358187198964576 0 0.01415318961591068 -0.00019802992272422516 0 0.0141833043369102 -0.0003541763124152034 0 0.014054507360825638 -0.00029504938100685207 0 0.0141833043369102 -0.0003541763124152034 0 0.014054507360825638 -0.00029504938100685207 0 0.014022188925788754 -0.00049667901596039032 0 0.014054507360825638 -0.00029504938100685207 0 0.013984173338241996 -0.0001890439333705391 0 0.01394642575193328 -0.00044456406861774386 0 0.014054507360825638 -0.00029504938100685207 0 0.01394642575193328 -0.00044456406861774386 0 0.014022188925788754 -0.00049667901596039032 0 0.013984173338241996 -0.0001890439333705391 0 0.013858793083130034 -0.00037682035303264347 0 0.01394642575193328 -0.00044456406861774386 0 0.013851599090359205 -4.9280459553608433e-05 0 0.013984173338241996 -0.0001890439333705391 0 0.013858793083130034 -0.00037682035303264347 0 0.01399857822615061 1.5710189582292577e-05 0 0.013984173338241996 -0.0001890439333705391 0 0.01405598707770697 -0.00010866782028753337 0 0.014054507360825638 -0.00029504938100685207 0 0.013984173338241996 -0.0001890439333705391 0 0.014104642451308897 -0.00019001302054825979 0 0.01415318961591068 -0.00019802992272422516 0 0.014104642451308897 -0.00019001302054825979 0 0.014177080722796847 -0.00018236526905546297 0 0.013984173338241996 -0.0001890439333705391 0 0.014104642451308897 -0.00019001302054825979 0 0.01405598707770697 -0.00010866782028753337 0 0.014104642451308897 -0.00019001302054825979 0 0.014177080722796847 -0.00018236526905546297 0 0.01405598707770697 -0.00010866782028753337 0 0.01399857822615061 1.5710189582292577e-05 0 0.01405598707770697 -0.00010866782028753337 0 0.014077991974853422 -6.9892259002367501e-05 0 0.014177080722796847 -0.00018236526905546297 0 0.01405598707770697 -0.00010866782028753337 0 0.014077991974853422 -6.9892259002367501e-05 0 0.014077991974853422 -6.9892259002367501e-05 0 0.014224035331547693 -8.5165337258447191e-05 0 0.014178174482346503 -4.2264883681719962e-05 0 0.014177080722796847 -0.00018236526905546297 0 0.014077991974853422 -6.9892259002367501e-05 0 0.014224035331547693 -8.5165337258447191e-05 0 0.014177080722796847 -0.00018236526905546297 0 0.014224035331547693 -8.5165337258447191e-05 0 0.014349281469709131 -0.00015011265825896645 0 0.014224035331547693 -8.5165337258447191e-05 0 0.014401599113471095 -2.4544010136234992e-05 0 0.014349281469709131 -0.00015011265825896645 0 0.014401599113471095 -2.4544010136234992e-05 0 0.014500150784577889 -0.00014323649951417648 0 0.014769929244212807 -6.3123418937262619e-05 0 0.014401599113471095 -2.4544010136234992e-05 0 0.014500150784577889 -0.00014323649951417648 0 0.014349281469709131 -0.00015011265825896645 0 0.014177080722796847 -0.00018236526905546297 0 0.014349281469709131 -0.00015011265825896645 0 0.01446357686688322 -0.00028512298450416977 0 0.01476338282936341 -0.0004039106702890164 0 0.01405606264536766 -0.00013130218570253082 0 0.014500150784577889 -0.00014323649951417648 0 0.014349281469709131 -0.00015011265825896645 0 0.01446357686688322 -0.00028512298450416977 0 0.014500150784577889 -0.00014323649951417648 0 0.01446357686688322 -0.00028512298450416977 0 0.014653847398292955 -0.00036231951496710449 0 0.014460082447808052 -0.00053136828824873407 0 0.014177080722796847 -0.00018236526905546297 0 0.01446357686688322 -0.00028512298450416977 0 0.022815689957559785 -0.0018330430406391792 0 0.020198205336684288 -0.0003990765916959482 0 0.014500150784577889 -0.00014323649951417648 0 0.015004853086457758 -0.0009959064468467887 0 0.014900019883107648 -0.00049034152204482755 0 0.014013171255880728 0.00013306537599793201 0 0.016685670990764415 -0.0010554879337790492 0 0.015343934439435764 -0.00078144648038866817 0 0.014900019883107648 -0.00049034152204482755 0 0.014769929244212807 -6.3123418937262619e-05 0 0.015343934439435764 -0.00078144648038866817 0 0.015004853086457758 -0.0009959064468467887 0 0.014900019883107648 -0.00049034152204482755 0 0.022815689957559785 -0.0018330430406391792 0 0.016685670990764415 -0.0010554879337790492 0 0.027233256867105475 -0.0020879168381678962 0 0.026909873168783863 -0.0015397408466493222 0 0.027465939944353233 -0.0014712756641811105 0 0.014500150784577889 -0.00014323649951417648 0 0.014900019883107648 -0.00049034152204482755 0 0.014769929244212807 -6.3123418937262619e-05 0 0.024758425584886737 -0.00069680438356804959 0 0.030411923747238046 -0.0011358560251433117 0 0.026909873168783863 -0.0015397408466493222 0 0.026547756325289763 -0.00094661660386870347 0 0.02749687708550964 -0.00099084002483988318 0 0.014401599113471095 -2.4544010136234992e-05 0 0.014769929244212807 -6.3123418937262619e-05 0 0.014526941239222543 0.00014007619073711891 0 0.020198205336684288 -0.0003990765916959482 0 0.024758425584886737 -0.00069680438356804959 0 0.032596195409838095 -0.0012109388429634351 0 0.033291568598367974 -0.0022869741858895544 0 0.032133892376968301 -0.0025133593513307407 0 0.024758425584886737 -0.00069680438356804959 0 0.029422303989040596 -0.001447338225727576 0 0.032596195409838095 -0.0012109388429634351 0 0.031543565931216384 -0.0020412274768984847 0 0.032133892376968301 -0.0025133593513307407 0 0.032596195409838095 -0.0012109388429634351 0 0.031543565931216384 -0.0020412274768984847 0 0.031099272655638808 -0.0011290840522751239 0 0.023348285899077493 8.4664466021218225e-05 0 0.023957843078349101 -0.00097756899694773948 0 0.02431942668879563 -0.00012179922661729045 0 0.014172317498761855 -0.00033404744675101365 0 0.014077991974853422 -6.9892259002367501e-05 0 0.014178174482346503 -4.2264883681719962e-05 0 0.01875047777073784 -0.00077119379422990232 0 0.017953298329799302 -0.00049771006952258187 0 0.014401599113471095 -2.4544010136234992e-05 0 0.014526941239222543 0.00014007619073711891 0 0.014178174482346503 -4.2264883681719962e-05 0 0.024758425584886737 -0.00069680438356804959 0 0.017953298329799302 -0.00049771006952258187 0 0.014224035331547693 -8.5165337258447191e-05 0 0.014401599113471095 -2.4544010136234992e-05 0 0.014178174482346503 -4.2264883681719962e-05 0 0.024765071776850226 -0.00094507097517537763 0 0.023957843078349101 -0.00097756899694773948 0 0.02431942668879563 -0.00012179922661729045 0 0.023348285899077493 8.4664466021218225e-05 0 0.02431942668879563 -0.00012179922661729045 0 0.023878670586795988 0.00037841963277833392 0 0.033291568598367974 -0.0022869741858895544 0 0.034143481148785883 -0.0031696682869755228 0 0.032864718027635097 -0.0030317812226986944 0 0.032954604309195973 -0.0037242843107951843 0 0.034143481148785883 -0.0031696682869755228 0 0.032864718027635097 -0.0030317812226986944 0 0.029422303989040596 -0.001447338225727576 0 0.028966020094645724 -0.001373771773017095 0 0.031543565931216384 -0.0020412274768984847 0 0.032133892376968301 -0.0025133593513307407 0 0.031211338819908677 -0.0029553851402920606 0 0.033291568598367974 -0.0022869741858895544 0 0.032133892376968301 -0.0025133593513307407 0 0.032864718027635097 -0.0030317812226986944 0 0.032133892376968301 -0.0025133593513307407 0 0.031805413503352135 -0.0035028379266238028 0 0.031211338819908677 -0.0029553851402920606 0 0.032133892376968301 -0.0025133593513307407 0 0.032864718027635097 -0.0030317812226986944 0 0.031805413503352135 -0.0035028379266238028 0 0.031805413503352135 -0.0035028379266238028 0 0.030904126515650901 -0.003588878098236509 0 0.031211338819908677 -0.0029553851402920606 0 0.030904126515650901 -0.003588878098236509 0 0.031211338819908677 -0.0029553851402920606 0 0.030583889719850908 -0.0029984056773077312 0 0.031543565931216384 -0.0020412274768984847 0 0.031211338819908677 -0.0029553851402920606 0 0.030601444368445543 -0.002489520807171589 0 0.031211338819908677 -0.0029553851402920606 0 0.030583889719850908 -0.0029984056773077312 0 0.030601444368445543 -0.002489520807171589 0 0.030235869141997232 -0.0028187504731256121 0 0.030583889719850908 -0.0029984056773077312 0 0.030601444368445543 -0.002489520807171589 0 0.030235869141997232 -0.0028187504731256121 0 0.030583889719850908 -0.0029984056773077312 0 0.030132829276945629 -0.0031690258879321243 0 0.030583889719850908 -0.0029984056773077312 0 0.030274317386047415 -0.0036737936564232437 0 0.030132829276945629 -0.0031690258879321243 0 0.030904126515650901 -0.003588878098236509 0 0.030583889719850908 -0.0029984056773077312 0 0.030274317386047415 -0.0036737936564232437 0 0.029833792360088724 -0.0039348497741803377 0 0.030274317386047415 -0.0036737936564232437 0 0.029724667687994397 -0.0034277506108296137 0 0.030274317386047415 -0.0036737936564232437 0 0.029724667687994397 -0.0034277506108296137 0 0.030132829276945629 -0.0031690258879321243 0 0.029833792360088724 -0.0039348497741803377 0 0.029499049168045174 -0.0038459798971553195 0 0.029724667687994397 -0.0034277506108296137 0 0.029499049168045174 -0.0038459798971553195 0 0.029724667687994397 -0.0034277506108296137 0 0.029277600926778176 -0.0036221297455937603 0 0.029499049168045174 -0.0038459798971553195 0 0.029152332716733575 -0.0040003211232369001 0 0.029277600926778176 -0.0036221297455937603 0 0.029724667687994397 -0.0034277506108296137 0 0.029277600926778176 -0.0036221297455937603 0 0.029371742134228669 -0.0032804770933579186 0 0.029724667687994397 -0.0034277506108296137 0 0.029568735384083542 -0.0030431466570180893 0 0.029872504019021424 -0.0029523683940086156 0 0.029724667687994397 -0.0034277506108296137 0 0.029371742134228669 -0.0032804770933579186 0 0.029568735384083542 -0.0030431466570180893 0 0.029568735384083542 -0.0030431466570180893 0 0.029872504019021424 -0.0029523683940086156 0 0.029520730860329865 -0.0027687189773432418 0 0.029568735384083542 -0.0030431466570180893 0 0.029298553909516606 -0.0030369369527124559 0 0.029520730860329865 -0.0027687189773432418 0 0.029371742134228669 -0.0032804770933579186 0 0.029568735384083542 -0.0030431466570180893 0 0.029298553909516606 -0.0030369369527124559 0 0.029724667687994397 -0.0034277506108296137 0 0.030132829276945629 -0.0031690258879321243 0 0.029872504019021424 -0.0029523683940086156 0 0.030235869141997232 -0.0028187504731256121 0 0.030132829276945629 -0.0031690258879321243 0 0.029872504019021424 -0.0029523683940086156 0 0.030235869141997232 -0.0028187504731256121 0 0.029872504019021424 -0.0029523683940086156 0 0.029992037437303627 -0.002584084099469633 0 0.029872504019021424 -0.0029523683940086156 0 0.029992037437303627 -0.002584084099469633 0 0.029520730860329865 -0.0027687189773432418 0 0.027943849339237544 -0.0019513642291109847 0 0.028206880948094835 -0.0013146199356708385 0 0.027731968872574862 -0.0015810087835678021 0 0.029025764058352558 -0.0022470116937267351 0 0.028246217188997193 -0.0020873995967249318 0 0.027943849339237544 -0.0019513642291109847 0 0.027731968872574862 -0.0015810087835678021 0 0.027298446752087334 -0.001646576593421019 0 0.029992037437303627 -0.002584084099469633 0 0.029520730860329865 -0.0027687189773432418 0 0.029199193233116757 -0.0024514561564815841 0 0.029298553909516606 -0.0030369369527124559 0 0.029520730860329865 -0.0027687189773432418 0 0.029035057820832922 -0.0028944226538259975 0 0.029520730860329865 -0.0027687189773432418 0 0.029035057820832922 -0.0028944226538259975 0 0.029199193233116757 -0.0024514561564815841 0 0.02739074985860358 -0.0015639720147514091 0 0.027731968872574862 -0.0015810087835678021 0 0.027298446752087334 -0.001646576593421019 0 0.02739074985860358 -0.0015639720147514091 0 0.027298446752087334 -0.001646576593421019 0 0.027419436945127745 -0.0019310429749759095 0 0.02739074985860358 -0.0015639720147514091 0 0.027419436945127745 -0.0019310429749759095 0 0.026983484695892464 -0.0021081715314229242 0 0.02739074985860358 -0.0015639720147514091 0 0.026207235850037102 -0.0019601644219503951 0 0.026983484695892464 -0.0021081715314229242 0 0.02739074985860358 -0.0015639720147514091 0 0.027731968872574862 -0.0015810087835678021 0 0.02811621960528058 -0.0012892858083012383 0 0.02737728177077671 -0.001548498594188245 0 0.02705345793205579 -0.0017128578519728704 0 0.028206880948094835 -0.0013146199356708385 0 0.027731968872574862 -0.0015810087835678021 0 0.02811621960528058 -0.0012892858083012383 0 0.027760462603227568 -0.0012575183568825003 0 0.030411923747238046 -0.0011358560251433117 0 0.028206880948094835 -0.0013146199356708385 0 0.027863121342238246 -0.0013370330152848689 0 0.02811621960528058 -0.0012892858083012383 0 0.028206880948094835 -0.0013146199356708385 0 0.027863121342238246 -0.0013370330152848689 0 0.02749687708550964 -0.00099084002483988318 0 0.027863121342238246 -0.0013370330152848689 0 0.02749687708550964 -0.00099084002483988318 0 0.027465939944353233 -0.0014712756641811105 0 0.026909873168783863 -0.0015397408466493222 0 0.02749687708550964 -0.00099084002483988318 0 0.027465939944353233 -0.0014712756641811105 0 0.031543565931216384 -0.0020412274768984847 0 0.031099272655638808 -0.0011290840522751239 0 0.030601444368445543 -0.002489520807171589 0 0.029025764058352558 -0.0022470116937267351 0 0.030477168729139241 -0.0025171980609680544 0 0.027943849339237544 -0.0019513642291109847 0 0.028206880948094835 -0.0013146199356708385 0 0.030601444368445543 -0.002489520807171589 0 0.030235869141997232 -0.0028187504731256121 0 0.029992037437303627 -0.002584084099469633 0 0.030601444368445543 -0.002489520807171589 0 0.028206880948094835 -0.0013146199356708385 0 0.031099272655638808 -0.0011290840522751239 0 0.030601444368445543 -0.002489520807171589 0 0.027471072821502875 -0.0034892145444300206 0 0.027814904971603049 -0.0042065461342934195 0 0.027396681790312426 -0.0034517272800102384 0 0.02787386365140921 -0.0039944207663645181 0 0.027993792986632137 -0.0037120791816660798 0 0.027396681790312426 -0.0034517272800102384 0 0.027776661380557909 -0.0044438465047206624 0 0.027233163399491261 -0.0040556712277315388 0 0.02787386365140921 -0.0039944207663645181 0 0.027993792986632137 -0.0037120791816660798 0 0.028169428578936638 -0.003983001715658312 0 0.027993792986632137 -0.0037120791816660798 0 0.028455463025865421 -0.0035138804904280966 0 0.028447982493819326 -0.0038930961509093605 0 0.027993792986632137 -0.0037120791816660798 0 0.028169428578936638 -0.003983001715658312 0 0.028447982493819326 -0.0038930961509093605 0 0.027396681790312426 -0.0034517272800102384 0 0.027993792986632137 -0.0037120791816660798 0 0.028026257266076576 -0.0031229017570079138 0 0.027993792986632137 -0.0037120791816660798 0 0.028455463025865421 -0.0035138804904280966 0 0.028026257266076576 -0.0031229017570079138 0 0.028455463025865421 -0.0035138804904280966 0 0.028585454018105805 -0.0031486995412380319 0 0.028026257266076576 -0.0031229017570079138 0 0.028455463025865421 -0.0035138804904280966 0 0.028585454018105805 -0.0031486995412380319 0 0.02899427660547594 -0.0032776663170276041 0 0.028447982493819326 -0.0038930961509093605 0 0.028810317941610718 -0.0039388413656167966 0 0.028865585950028892 -0.0036226065751566523 0 0.028455463025865421 -0.0035138804904280966 0 0.028447982493819326 -0.0038930961509093605 0 0.028865585950028892 -0.0036226065751566523 0 0.029152332716733575 -0.0040003211232369001 0 0.028810317941610718 -0.0039388413656167966 0 0.028865585950028892 -0.0036226065751566523 0 0.029152332716733575 -0.0040003211232369001 0 0.029277600926778176 -0.0036221297455937603 0 0.028865585950028892 -0.0036226065751566523 0 0.029277600926778176 -0.0036221297455937603 0 0.028865585950028892 -0.0036226065751566523 0 0.02899427660547594 -0.0032776663170276041 0 0.028455463025865421 -0.0035138804904280966 0 0.028865585950028892 -0.0036226065751566523 0 0.02899427660547594 -0.0032776663170276041 0 0.029277600926778176 -0.0036221297455937603 0 0.029371742134228669 -0.0032804770933579186 0 0.02899427660547594 -0.0032776663170276041 0 0.028585454018105805 -0.0031486995412380319 0 0.02899427660547594 -0.0032776663170276041 0 0.029035057820832922 -0.0028944226538259975 0 0.029371742134228669 -0.0032804770933579186 0 0.029298553909516606 -0.0030369369527124559 0 0.02899427660547594 -0.0032776663170276041 0 0.029298553909516606 -0.0030369369527124559 0 0.02899427660547594 -0.0032776663170276041 0 0.029035057820832922 -0.0028944226538259975 0 0.028585454018105805 -0.0031486995412380319 0 0.029035057820832922 -0.0028944226538259975 0 0.028559357633317774 -0.0026943394692006189 0 0.029035057820832922 -0.0028944226538259975 0 0.029199193233116757 -0.0024514561564815841 0 0.028559357633317774 -0.0026943394692006189 0 0.029199193233116757 -0.0024514561564815841 0 0.028031867039486982 -0.002302333668335225 0 0.028559357633317774 -0.0026943394692006189 0 0.028246217188997193 -0.0020873995967249318 0 0.028045706945839063 -0.0022393149121186355 0 0.027419436945127745 -0.0019310429749759095 0 0.028031867039486982 -0.002302333668335225 0 0.027493058209390148 -0.0022718509447721721 0 0.027298446752087334 -0.001646576593421019 0 0.027419436945127745 -0.0019310429749759095 0 0.028031867039486982 -0.002302333668335225 0 0.028585454018105805 -0.0031486995412380319 0 0.028559357633317774 -0.0026943394692006189 0 0.028026257266076576 -0.0031229017570079138 0 0.028031867039486982 -0.002302333668335225 0 0.028559357633317774 -0.0026943394692006189 0 0.028026257266076576 -0.0031229017570079138 0 0.027396681790312426 -0.0034517272800102384 0 0.028026257266076576 -0.0031229017570079138 0 0.027353375446332286 -0.0027954132078891643 0 0.028031867039486982 -0.002302333668335225 0 0.028026257266076576 -0.0031229017570079138 0 0.027353375446332286 -0.0027954132078891643 0 0.027353375446332286 -0.0027954132078891643 0 0.026374202262102762 -0.0024346703858074571 0 0.026501329333677243 -0.0031032903351594478 0 0.027396681790312426 -0.0034517272800102384 0 0.027353375446332286 -0.0027954132078891643 0 0.026501329333677243 -0.0031032903351594478 0 0.017231400304639773 -0.0047620868900335274 0 0.01848316974195274 -0.0055745132913506057 0 0.016727429944527347 -0.005710576211765914 0 0.027353375446332286 -0.0027954132078891643 0 0.027694574418994412 -0.0021676319790019153 0 0.026374202262102762 -0.0024346703858074571 0 0.023082225411617089 -0.0038684673788305715 0 0.02155667193941074 -0.0040876906268320036 0 0.028031867039486982 -0.002302333668335225 0 0.027353375446332286 -0.0027954132078891643 0 0.027694574418994412 -0.0021676319790019153 0 0.017231400304639773 -0.0047620868900335274 0 0.01848316974195274 -0.0055745132913506057 0 0.018427634017878905 -0.0038937694190205995 0 0.01848316974195274 -0.0055745132913506057 0 0.020639952057327413 -0.0050117911351904524 0 0.018427634017878905 -0.0038937694190205995 0 0.023082225411617089 -0.0038684673788305715 0 0.024159152606491364 -0.0037936827437499389 0 0.028031867039486982 -0.002302333668335225 0 0.027694574418994412 -0.0021676319790019153 0 0.027729931331212779 -0.0025555930222522531 0 0.028031867039486982 -0.002302333668335225 0 0.027493058209390148 -0.0022718509447721721 0 0.027729931331212779 -0.0025555930222522531 0 0.027493058209390148 -0.0022718509447721721 0 0.027729931331212779 -0.0025555930222522531 0 0.027101152505713488 -0.0025755159208213337 0 0.024159152606491364 -0.0037936827437499389 0 0.024834043073891005 -0.0037538113698464652 0 0.020639952057327413 -0.0050117911351904524 0 0.021584508377426148 -0.0025388049658921436 0 0.022860540242199426 -0.004380935203486311 0 0.020639952057327413 -0.0050117911351904524 0 0.021584508377426148 -0.0025388049658921436 0 0.019786070015612431 -0.0027389200337977621 0 0.021584508377426148 -0.0025388049658921436 0 0.019786070015612431 -0.0027389200337977621 0 0.019679058377490441 -0.0012015125586029548 0 0.020639952057327413 -0.0050117911351904524 0 0.019786070015612431 -0.0027389200337977621 0 0.018427634017878905 -0.0038937694190205995 0 0.018427634017878905 -0.0038937694190205995 0 0.016953297294572751 -0.0029456676984902963 0 0.018193536205063872 -0.0010731639090038074 0 0.019786070015612431 -0.0027389200337977621 0 0.018427634017878905 -0.0038937694190205995 0 0.018193536205063872 -0.0010731639090038074 0 0.01559626812872769 -0.0043988831571927286 0 0.016185919352201952 -0.0036196807293711669 0 0.017231400304639773 -0.0047620868900335274 0 0.016953297294572751 -0.0029456676984902963 0 0.015645231699138801 -0.0050408273633994992 0 0.017231400304639773 -0.0047620868900335274 0 0.018427634017878905 -0.0038937694190205995 0 0.016953297294572751 -0.0029456676984902963 0 0.025327107881160712 -0.0031011263789338704 0 0.025419944989863372 -0.0025397283438219555 0 0.026081900749021562 -0.0027343906210553406 0 0.025327107881160712 -0.0031011263789338704 0 0.026081900749021562 -0.0027343906210553406 0 0.025293510071929443 -0.0034497117703864125 0 0.022815689957559785 -0.0018330430406391792 0 0.02709939244198668 -0.0019896106323736939 0 0.025012769830509519 -0.0030218788300577395 0 0.025327107881160712 -0.0031011263789338704 0 0.025419944989863372 -0.0025397283438219555 0 0.027233256867105475 -0.0020879168381678962 0 0.027465939944353233 -0.0014712756641811105 0 0.02778635275201153 -0.0017170623745563914 0 0.027863121342238246 -0.0013370330152848689 0 0.027465939944353233 -0.0014712756641811105 0 0.02778635275201153 -0.0017170623745563914 0 0.027863121342238246 -0.0013370330152848689 0 0.02778635275201153 -0.0017170623745563914 0 0.02811621960528058 -0.0012892858083012383 0 0.025419944989863372 -0.0025397283438219555 0 0.026207235850037102 -0.0019601644219503951 0 0.026081900749021562 -0.0027343906210553406 0 0.02709939244198668 -0.0019896106323736939 0 0.02705345793205579 -0.0017128578519728704 0 0.026207235850037102 -0.0019601644219503951 0 0.026983484695892464 -0.0021081715314229242 0 0.026081900749021562 -0.0027343906210553406 0 0.027493058209390148 -0.0022718509447721721 0 0.026983484695892464 -0.0021081715314229242 0 0.027101152505713488 -0.0025755159208213337 0 0.026983484695892464 -0.0021081715314229242 0 0.027101152505713488 -0.0025755159208213337 0 0.026081900749021562 -0.0027343906210553406 0 0.027419436945127745 -0.0019310429749759095 0 0.027493058209390148 -0.0022718509447721721 0 0.026983484695892464 -0.0021081715314229242 0 0.027729931331212779 -0.0025555930222522531 0 0.027101152505713488 -0.0025755159208213337 0 0.026826464035263231 -0.0032051457029815401 0 0.027101152505713488 -0.0025755159208213337 0 0.026081900749021562 -0.0027343906210553406 0 0.026826464035263231 -0.0032051457029815401 0 0.026081900749021562 -0.0027343906210553406 0 0.026826464035263231 -0.0032051457029815401 0 0.025293510071929443 -0.0034497117703864125 0 0.024834043073891005 -0.0037538113698464652 0 0.025286435620759544 -0.0034966153785080823 0 0.022860540242199426 -0.004380935203486311 0 0.023820899991784567 -0.0022485310919370025 0 0.025293510071929443 -0.0034497117703864125 0 0.021584508377426148 -0.0025388049658921436 0 0.022860540242199426 -0.004380935203486311 0 0.023820899991784567 -0.0022485310919370025 0 0.023820899991784567 -0.0022485310919370025 0 0.025395467939778715 -0.0020934122054639464 0 0.025293510071929443 -0.0034497117703864125 0 0.025395467939778715 -0.0020934122054639464 0 0.025293510071929443 -0.0034497117703864125 0 0.025508319358668211 -0.0032325089833791761 0 0.025327107881160712 -0.0031011263789338704 0 0.025293510071929443 -0.0034497117703864125 0 0.025508319358668211 -0.0032325089833791761 0 0.022815689957559785 -0.0018330430406391792 0 0.02311151994311578 -0.0024425441670080325 0 0.025012769830509519 -0.0030218788300577395 0 0.025327107881160712 -0.0031011263789338704 0 0.025508319358668211 -0.0032325089833791761 0 0.02069838553316496 -0.0016454895208247043 0 0.020709572815084606 -0.0016382997866190693 0 0.020709280075958205 -0.001622609073416876 0 0.020706476876225306 -0.0016471419593686518 0 0.02069838553316496 -0.0016454895208247043 0 0.020709572815084606 -0.0016382997866190693 0 0.023084674489082576 -0.0019043689762132917 0 0.02311151994311578 -0.0024425441670080325 0 0.020689492936916565 -0.0016058792712240373 0 0.020709572815084606 -0.0016382997866190693 0 0.020709280075958205 -0.001622609073416876 0 0.016651186378380797 -0.0012123324227982849 0 0.017047297744301134 -0.0010530167816286404 0 0.01699576258696919 -0.0016196485243939731 0 0.017047297744301134 -0.0010530167816286404 0 0.017173415905308267 -0.0018333520698955439 0 0.017527780933443898 -0.0018072482096487433 0 0.014635304293519934 -0.00067499057504523017 0 0.014745531913350721 -0.00080731248003910918 0 0.014272419027741975 -0.00082282079110061485 0 0.019270062044318324 -0.0014642878895889031 0 0.018563882762567669 -0.0014111206401718737 0 0.017047297744301134 -0.0010530167816286404 0 0.01699576258696919 -0.0016196485243939731 0 0.017173415905308267 -0.0018333520698955439 0 0.015601862845748356 -0.00084335284258677987 0 0.015878919624188206 -0.0010848153724019893 0 0.015878919624188206 -0.0010848153724019893 0 0.016144522099379069 -0.00096602688579178826 0 0.014357490559465768 -0.00088235179959161045 0 0.014329569248302346 -0.00090140200524847368 0 0.014338182393999956 -0.00092117314601957974 0 0.014357490559465768 -0.00088235179959161045 0 0.014329569248302346 -0.00090140200524847368 0 0.014312803756030973 -0.00088841514953006979 0 0.014329569248302346 -0.00090140200524847368 0 0.014315228150634079 -0.00091648794918530469 0 0.014312803756030973 -0.00088841514953006979 0 0.017542534398232851 -0.00081338582203330657 0 0.017554186369077653 -0.00065263941487556738 0 0.017561992264925923 -0.00058600402283174387 0 0.017700728844904319 -0.00073020315257911017 0 0.017625800595849908 -0.00073402897243923934 0 0.01760951579681477 -0.00061000408245301158 0 0.01824975419069351 -0.0013416085693736409 0 0.018005657610073392 -0.0013577545859437244 0 0.017880305834201783 -0.0008075151197945138 0 0.018563882762567669 -0.0014111206401718737 0 0.017627856830549439 -0.00059861502884009463 0 0.014357490559465768 -0.00088235179959161045 0 0.014338182393999956 -0.00092117314601957974 0 0.014352077192766145 -0.00093242968361787186 0 0.016144522099379069 -0.00096602688579178826 0 0.01590572587625556 -0.00072672857971372543 0 0.017625800595849908 -0.00073402897243923934 0 0.017552010179752397 -0.00058674301688522133 0 0.01760951579681477 -0.00061000408245301158 0 0.016144522099379069 -0.00096602688579178826 0 0.017749097682454543 -0.00072000817860119748 0 0.016144522099379069 -0.00096602688579178826 0 0.018563882762567669 -0.0014111206401718737 0 0.018563882762567669 -0.0014111206401718737 0 0.021674248468638434 -0.00091814126883036447 0 0.023084674489082576 -0.0019043689762132917 0 0.021674248468638434 -0.00091814126883036447 0 0.023820899991784567 -0.0022485310919370025 0 0.025395467939778715 -0.0020934122054639464 0 0.024548819387073793 -0.00053264178905804507 0 0.020689492936916565 -0.0016058792712240373 0 0.020709280075958205 -0.001622609073416876 0 0.020681052048959214 -0.0015527710101167157 0 0.020689492936916565 -0.0016058792712240373 0 0.020681052048959214 -0.0015527710101167157 0 0.020664444016092673 -0.0015521071194520009 0 0.021674248468638434 -0.00091814126883036447 0 0.022800509776903032 -0.0006006646364479848 0 0.023820899991784567 -0.0022485310919370025 0 0.024548819387073793 -0.00053264178905804507 0 0.022912302217832969 -0.00059520724664177942 0 0.021584508377426148 -0.0025388049658921436 0 0.022912302217832969 -0.00059520724664177942 0 0.021087572207667719 -0.00079786598215385936 0 0.021584508377426148 -0.0025388049658921436 0 0.023820899991784567 -0.0022485310919370025 0 0.022912302217832969 -0.00059520724664177942 0 0.022800509776903032 -0.0006006646364479848 0 0.021077806715403945 -0.00077336707761702778 0 0.021953709140528771 -0.00063930144059059883 0 0.021434270803746852 4.2583719398898934e-05 0 0.022280832840243285 0.00050649347294056139 0 0.021953709140528771 -0.00063930144059059883 0 0.021434270803746852 4.2583719398898934e-05 0 0.021087572207667719 -0.00079786598215385936 0 0.022902212080096719 -0.00056557092006275997 0 0.021953709140528771 -0.00063930144059059883 0 0.022280832840243285 0.00050649347294056139 0 0.018005657610073392 -0.0013577545859437244 0 0.017880305834201783 -0.0008075151197945138 0 0.017634013100682869 -0.00075838653373365916 0 0.021674248468638434 -0.00091814126883036447 0 0.019779814167463834 -8.6036298115397224e-05 0 0.017627856830549439 -0.00059861502884009463 0 0.017585895299569273 -0.00050425491650892104 0 0.017552010179752397 -0.00058674301688522133 0 0.017545030725764899 -0.0004874517745042187 0 0.017533740456924341 -0.00043333439774423767 0 0.017880305834201783 -0.0008075151197945138 0 0.017634013100682869 -0.00075838653373365916 0 0.017533740456924341 -0.00043333439774423767 0 0.017552010179752397 -0.00058674301688522133 0 0.017545030725764899 -0.0004874517745042187 0 0.01760951579681477 -0.00061000408245301158 0 0.017496282184275389 -0.00046735011884060815 0 0.017749097682454543 -0.00072000817860119748 0 0.019779814167463834 -8.6036298115397224e-05 0 0.019741673472498493 0.00066551550105553917 0 0.022280832840243285 0.00050649347294056139 0 0.021260975271910863 0.0008922866913381966 0 0.021591186408715303 0.001523463930769753 0 0.021434270803746852 4.2583719398898934e-05 0 0.022280832840243285 0.00050649347294056139 0 0.021260975271910863 0.0008922866913381966 0 0.017634013100682869 -0.00075838653373365916 0 0.017363935730058167 -0.00037509613779095947 0 0.017533740456924341 -0.00043333439774423767 0 0.017363935730058167 -0.00037509613779095947 0 0.017533740456924341 -0.00043333439774423767 0 0.017525919477910597 -0.00033985767343593304 0 0.015976634508032262 -0.00060182413806362395 0 0.01590572587625556 -0.00072672857971372543 0 0.014332051577462085 -0.00095305536655352849 0 0.014331953859051609 -0.00094801400417634542 0 0.014352077192766145 -0.00093242968361787186 0 0.017545030725764899 -0.0004874517745042187 0 0.017525919477910597 -0.00033985767343593304 0 0.017561992264925923 -0.00058600402283174387 0 0.017545030725764899 -0.0004874517745042187 0 0.017533740456924341 -0.00043333439774423767 0 0.017525919477910597 -0.00033985767343593304 0 0.014331953859051609 -0.00094801400417634542 0 0.014316711484323046 -0.00094347087386407915 0 0.014338182393999956 -0.00092117314601957974 0 0.014331953859051609 -0.00094801400417634542 0 0.014316711484323046 -0.00094347087386407915 0 0.01431690100790209 -0.00095443416733287975 0 0.013739965133239775 -0.00076541912150903605 0 0.013816262185206143 -0.00071744832623115513 0 0.014316711484323046 -0.00094347087386407915 0 0.014315228150634079 -0.00091648794918530469 0 0.014338182393999956 -0.00092117314601957974 0 0.014329569248302346 -0.00090140200524847368 0 0.014315228150634079 -0.00091648794918530469 0 0.014338182393999956 -0.00092117314601957974 0 0.014331953859051609 -0.00094801400417634542 0 0.014338182393999956 -0.00092117314601957974 0 0.014352077192766145 -0.00093242968361787186 0 0.017545030725764899 -0.0004874517745042187 0 0.017554186369077653 -0.00065263941487556738 0 0.017561992264925923 -0.00058600402283174387 0 0.014167220377122675 -0.0062171439731165679 0 0.01421465509338715 -0.0053110395000499112 0 0.013697380510985659 -0.0060655361407539127 0 0.014149351604792667 -0.0057596862884751517 0 0.014167220377122675 -0.0062171439731165679 0 0.013880487707630229 -0.0060965092876257574 0 0.014167220377122675 -0.0062171439731165679 0 0.013880487707630229 -0.0060965092876257574 0 0.013697380510985659 -0.0060655361407539127 0 0.016185919352201952 -0.0036196807293711669 0 0.017321370885249845 -0.0025026311710960266 0 0.018193536205063872 -0.0010731639090038074 0 0.019679058377490441 -0.0012015125586029548 0 0.019376177109602433 0.00046930552424372747 0 0.014167220377122675 -0.0062171439731165679 0 0.015101702799391143 -0.0054104781309040955 0 0.01421465509338715 -0.0053110395000499112 0 0.019679058377490441 -0.0012015125586029548 0 0.020558326935165308 0.00024394753088702106 0 0.019376177109602433 0.00046930552424372747 0 0.019786070015612431 -0.0027389200337977621 0 0.018193536205063872 -0.0010731639090038074 0 0.019679058377490441 -0.0012015125586029548 0 0.021584508377426148 -0.0025388049658921436 0 0.019679058377490441 -0.0012015125586029548 0 0.021087572207667719 -0.00079786598215385936 0 0.021434270803746852 4.2583719398898934e-05 0 0.021087572207667719 -0.00079786598215385936 0 0.020558326935165308 0.00024394753088702106 0 0.019679058377490441 -0.0012015125586029548 0 0.021087572207667719 -0.00079786598215385936 0 0.020558326935165308 0.00024394753088702106 0 0.021260975271910863 0.0008922866913381966 0 0.020558326935165308 0.00024394753088702106 0 0.020292707052979968 0.0018002325950808946 0 0.021434270803746852 4.2583719398898934e-05 0 0.021260975271910863 0.0008922866913381966 0 0.020558326935165308 0.00024394753088702106 0 0.021716607628561115 0.0012094036432032797 0 0.01743517451359761 -0.00077504864284412285 0 0.021260975271910863 0.0008922866913381966 0 0.021591186408715303 0.001523463930769753 0 0.02048495231122429 0.0015292918933112742 0 0.016028110068835335 -0.0040723910919590635 0 0.014823647769644713 -0.0042489247041580499 0 0.015276278132296829 -0.0033484618512463994 0 0.016028110068835335 -0.0040723910919590635 0 0.015101702799391143 -0.0054104781309040955 0 0.014823647769644713 -0.0042489247041580499 0 0.020558326935165308 0.00024394753088702106 0 0.020292707052979968 0.0018002325950808946 0 0.019376177109602433 0.00046930552424372747 0 0.01743517451359761 -0.00077504864284412285 0 0.017321370885249845 -0.0025026311710960266 0 0.015101702799391143 -0.0054104781309040955 0 0.014823647769644713 -0.0042489247041580499 0 0.01421465509338715 -0.0053110395000499112 0 0.014823647769644713 -0.0042489247041580499 0 0.014018588377946279 -0.0040257158821877369 0 0.014290885621964389 -0.0032773406900388686 0 0.014823647769644713 -0.0042489247041580499 0 0.014018588377946279 -0.0040257158821877369 0 0.01421465509338715 -0.0053110395000499112 0 0.014018588377946279 -0.0040257158821877369 0 0.01421465509338715 -0.0053110395000499112 0 0.013109008876782133 -0.004944817542252641 0 0.01421465509338715 -0.0053110395000499112 0 0.013109008876782133 -0.004944817542252641 0 0.013697380510985659 -0.0060655361407539127 0 0.014009210914645985 -0.0021974445116769007 0 0.013465566455674708 -0.0024807999212155926 0 0.012380554951678198 -0.0025966214387082294 0 0.0041686153552470996 -0.0059791619611786872 0 0.003574831204234746 -0.0061286444549266492 0 0.0037184486707510095 -0.0059215533201329145 0 0.0076017941248541394 -0.0048795334492426345 0 0.0082505569581031186 -0.0042925374427139487 0 0.0041686153552470996 -0.0059791619611786872 0 0.0036662111781399654 -0.005694172788647792 0 0.0037184486707510095 -0.0059215533201329145 0 0.013465566455674708 -0.0024807999212155926 0 0.013550475434395779 -0.0027795357199597811 0 0.014102718298520117 -0.0023747515596913632 0 0.014216069524266217 -0.0024363433453934123 0 0.01012453304365782 -0.0033918053427634846 0 0.014081530477249294 -0.0024991202890061927 0 0.012316525850990726 -0.0028358696981624957 0 0.014009210914645985 -0.0021974445116769007 0 0.013465566455674708 -0.0024807999212155926 0 0.014200809908955345 -0.0023818572133083786 0 0.013550475434395779 -0.0027795357199597811 0 0.014102718298520117 -0.0023747515596913632 0 0.014220184452128646 -0.0024829247072402989 0 0.013633027809358289 -0.0038986841205582855 0 0.013118830287553954 -0.003423143792833469 0 0.014018588377946279 -0.0040257158821877369 0 0.013154944582802527 -0.0031877227978638453 0 0.012216828237192787 -0.0037423796527684267 0 0.013465566455674708 -0.0024807999212155926 0 0.013550475434395779 -0.0027795357199597811 0 0.013154944582802527 -0.0031877227978638453 0 0.013465566455674708 -0.0024807999212155926 0 0.013154944582802527 -0.0031877227978638453 0 0.012380554951678198 -0.0025966214387082294 0 0.013550475434395779 -0.0027795357199597811 0 0.013154944582802527 -0.0031877227978638453 0 0.01373108046935554 -0.0032818048086796559 0 0.014018588377946279 -0.0040257158821877369 0 0.013154944582802527 -0.0031877227978638453 0 0.01373108046935554 -0.0032818048086796559 0 0.014018588377946279 -0.0040257158821877369 0 0.01373108046935554 -0.0032818048086796559 0 0.014290885621964389 -0.0032773406900388686 0 0.013550475434395779 -0.0027795357199597811 0 0.01373108046935554 -0.0032818048086796559 0 0.014290885621964389 -0.0032773406900388686 0 0.013550475434395779 -0.0027795357199597811 0 0.014290885621964389 -0.0032773406900388686 0 0.014447863127814988 -0.0025074272915340192 0 0.014823647769644713 -0.0042489247041580499 0 0.014290885621964389 -0.0032773406900388686 0 0.015276278132296829 -0.0033484618512463994 0 0.014290885621964389 -0.0032773406900388686 0 0.014447863127814988 -0.0025074272915340192 0 0.015276278132296829 -0.0033484618512463994 0 0.012316525850990726 -0.0028358696981624957 0 0.013956282673375937 -0.0025793742825506827 0 0.01012453304365782 -0.0033918053427634846 0 0.0087292819301895575 -0.0035908880923775535 0 0.012316525850990726 -0.0028358696981624957 0 0.0087292819301895575 -0.0035908880923775535 0 0.012515844541760128 -0.0016348531052704229 0 0.012733228249448817 -0.0015491675290966137 0 0.01276906676295135 -0.0018352278560666523 0 0.011448160823004471 -0.0033543274234254902 0 0.01109141032344786 -0.0030306021103439491 0 0.0089547253249494963 -0.0038372942249332328 0 0.01012453304365782 -0.0033918053427634846 0 0.012316525850990726 -0.0028358696981624957 0 0.0076017941248541394 -0.0048795334492426345 0 0.01012453304365782 -0.0033918053427634846 0 0.0043530109111439711 -0.0062123599861801963 0 0.0046602562527446913 -0.0060828568548808243 0 0.0043708615399439951 -0.0059412509467181513 0 0.0076017941248541394 -0.0048795334492426345 0 0.0040563057642662593 -0.0062179033035664024 0 0.0046121727734999467 -0.0060974545109079162 0 0.0046214810156107768 -0.0061128735507479035 0 0.0046602562527446913 -0.0060828568548808243 0 0.0046214810156107768 -0.0061128735507479035 0 0.0046602562527446913 -0.0060828568548808243 0 0.004763981282735941 -0.0061266070624644408 0 0.0046602562527446913 -0.0060828568548808243 0 0.004763981282735941 -0.0061266070624644408 0 0.0047969144447566892 -0.0059698082443915401 0 0.0085037478863654817 -0.0027632138165177901 0 0.0073557312006804158 -0.0029776658459554667 0 0.007461603410232171 -0.0031484360895077759 0 0.012733228249448817 -0.0015491675290966137 0 0.012987101685041805 -0.0016880896336163552 0 0.013073205804360851 -0.001488760516207846 0 0.0087292819301895575 -0.0035908880923775535 0 0.0093790174236144282 -0.0026486153106996578 0 0.0087292819301895575 -0.0035908880923775535 0 0.0056283196326262393 -0.0029859675230099409 0 0.012733228249448817 -0.0015491675290966137 0 0.012987101685041805 -0.0016880896336163552 0 0.01276906676295135 -0.0018352278560666523 0 0.004763981282735941 -0.0061266070624644408 0 0.0051734892065745854 -0.0059749430777321982 0 0.0047969144447566892 -0.0059698082443915401 0 0.013030351249486351 -0.0020316840515362399 0 0.012987101685041805 -0.0016880896336163552 0 0.01276906676295135 -0.0018352278560666523 0 0.01743517451359761 -0.00077504864284412285 0 0.013956282673375937 -0.0025793742825506827 0 0.013030351249486351 -0.0020316840515362399 0 0.012987101685041805 -0.0016880896336163552 0 0.013206912659109784 -0.0016889522801708128 0 0.021591186408715303 0.001523463930769753 0 0.02048495231122429 0.0015292918933112742 0 0.020992905363885001 0.0024021928776139499 0 0.01743517451359761 -0.00077504864284412285 0 0.016601790417151659 -5.5809234291821682e-05 0 0.016601790417151659 -5.5809234291821682e-05 0 0.014546863523284246 -0.00071061486825094958 0 0.013106258348770253 -0.001493956690724523 0 0.013090918559197784 -0.0015288111896353321 0 0.01310467319127521 -0.0015580172396355894 0 0.013099289478002207 -0.001546227649636077 0 0.013088642450495657 -0.0015440618540101716 0 0.013047850221500705 -0.0015684522509216603 0 0.013106258348770253 -0.001493956690724523 0 0.013087302708809477 -0.001517089830946865 0 0.013090918559197784 -0.0015288111896353321 0 0.0093790174236144282 -0.0026486153106996578 0 0.011273572241969072 -0.0012632346348455037 0 0.0079534080819973051 -0.0021884787357819764 0 0.007894559568708619 -0.0021003105481030983 0 0.0084305395312442959 -0.0020940180261370162 0 0.016601790417151659 -5.5809234291821682e-05 0 0.015327682096914669 -0.00077583926755545355 0 0.015327682096914669 -0.00077583926755545355 0 0.015156976869008399 -0.0007301380944032237 0 0.013090918559197784 -0.0015288111896353321 0 0.01310467319127521 -0.0015580172396355894 0 0.013098340718875098 -0.0015452724078164415 0 0.012987101685041805 -0.0016880896336163552 0 0.013206912659109784 -0.0016889522801708128 0 0.01310467319127521 -0.0015580172396355894 0 0.012987101685041805 -0.0016880896336163552 0 0.01310467319127521 -0.0015580172396355894 0 0.013073205804360851 -0.001488760516207846 0 0.01310467319127521 -0.0015580172396355894 0 0.013098501636983579 -0.0015318277394748194 0 0.013073205804360851 -0.001488760516207846 0 0.01310467319127521 -0.0015580172396355894 0 0.013098501636983579 -0.0015318277394748194 0 0.013098340718875098 -0.0015452724078164415 0 0.00979185987307769 -0.0027302636091598238 0 0.0093790174236144282 -0.0026486153106996578 0 0.0093790174236144282 -0.0026486153106996578 0 0.0056283196326262393 -0.0029859675230099409 0 0.013090918559197784 -0.0015288111896353321 0 0.013088642450495657 -0.0015440618540101716 0 0.013047850221500705 -0.0015684522509216603 0 0.013098501636983579 -0.0015318277394748194 0 0.013099289478002207 -0.001546227649636077 0 0.013088642450495657 -0.0015440618540101716 0 0.013098501636983579 -0.0015318277394748194 0 0.013088642450495657 -0.0015440618540101716 0 0.013098340718875098 -0.0015452724078164415 0 0.013090918559197784 -0.0015288111896353321 0 0.013088642450495657 -0.0015440618540101716 0 0.013098340718875098 -0.0015452724078164415 0 0.0022001363701768212 -0.0015867487276724742 0 0.0026869394503227827 -0.0011606594732878437 0 0.0032743809511977351 -0.0012912295644634253 0 0.0056283196326262393 -0.0029859675230099409 0 0.0067445353500423634 -0.0013109837878507462 0 0.0022001363701768212 -0.0015867487276724742 0 0.0022611283646473872 -0.0011985169048786717 0 0.0026869394503227827 -0.0011606594732878437 0 0.0022611283646473872 -0.0011985169048786717 0 0.0026869394503227827 -0.0011606594732878437 0 0.0028948734172314756 -0.0005689294221304103 0 0.0021687184132433237 -0.00084927239387089216 0 0.0024377198433755314 -0.0008866612990069485 0 0.0022815055452271751 -0.00058266485751616766 0 0.0023002568020263083 -0.0011309682308705919 0 0.0026338776109247485 -0.00077017704151770554 0 0.0022611283646473872 -0.0011985169048786717 0 0.0021687184132433237 -0.00084927239387089216 0 0.0024377198433755314 -0.0008866612990069485 0 0.0021687184132433237 -0.00084927239387089216 0 0.0018578137125991974 -0.00091663894981773293 0 0.0019424049346606046 -0.00062292417644404521 0 0.0022611283646473872 -0.0011985169048786717 0 0.0021687184132433237 -0.00084927239387089216 0 0.0018578137125991974 -0.00091663894981773293 0 0.0048556673138858801 -0.0054942693447446135 0 0.004807064847461834 -0.0057885285009508939 0 0.0046188359908950066 -0.0056435194792684232 0 0.0022001363701768212 -0.0015867487276724742 0 0.0022611283646473872 -0.0011985169048786717 0 0.0018578137125991974 -0.00091663894981773293 0 0.0056283196326262393 -0.0029859675230099409 0 0.0031639107793300656 -0.0033147568032975364 0 0.0051734892065745854 -0.0059749430777321982 0 0.0048556673138858801 -0.0054942693447446135 0 0.004807064847461834 -0.0057885285009508939 0 0.0051734892065745854 -0.0059749430777321982 0 0.004807064847461834 -0.0057885285009508939 0 0.0047969144447566892 -0.0059698082443915401 0 0.004807064847461834 -0.0057885285009508939 0 0.0047969144447566892 -0.0059698082443915401 0 0.00461906445157826 -0.0058648706067011957 0 0.0046602562527446913 -0.0060828568548808243 0 0.0047969144447566892 -0.0059698082443915401 0 0.00461906445157826 -0.0058648706067011957 0 0.0046602562527446913 -0.0060828568548808243 0 0.00461906445157826 -0.0058648706067011957 0 0.0043708615399439951 -0.0059412509467181513 0 0.00461906445157826 -0.0058648706067011957 0 0.0046188359908950066 -0.0056435194792684232 0 0.0043391524420462232 -0.0056730462885530254 0 0.00461906445157826 -0.0058648706067011957 0 0.0043708615399439951 -0.0059412509467181513 0 0.0043391524420462232 -0.0056730462885530254 0 0.004807064847461834 -0.0057885285009508939 0 0.00461906445157826 -0.0058648706067011957 0 0.0046188359908950066 -0.0056435194792684232 0 0.0048556673138858801 -0.0054942693447446135 0 0.0046188359908950066 -0.0056435194792684232 0 0.0044551620087867963 -0.0053871473734447657 0 0.0048556673138858801 -0.0054942693447446135 0 0.0044551620087867963 -0.0053871473734447657 0 0.0045038418189764281 -0.0049632317871628568 0 0.0046188359908950066 -0.0056435194792684232 0 0.0044551620087867963 -0.0053871473734447657 0 0.0043391524420462232 -0.0056730462885530254 0 0.0044551620087867963 -0.0053871473734447657 0 0.0039305544415837428 -0.0053503692785879433 0 0.0043391524420462232 -0.0056730462885530254 0 0.0039305544415837428 -0.0053503692785879433 0 0.0043391524420462232 -0.0056730462885530254 0 0.0038672608519130028 -0.0058699206328649096 0 0.0043708615399439951 -0.0059412509467181513 0 0.0043391524420462232 -0.0056730462885530254 0 0.0038672608519130028 -0.0058699206328649096 0 0.0076017941248541394 -0.0048795334492426345 0 0.0033191976497890432 -0.0057379547580397351 0 0.0043530109111439711 -0.0062123599861801963 0 0.0043708615399439951 -0.0059412509467181513 0 0.0038672608519130028 -0.0058699206328649096 0 0.01431690100790209 -0.00095443416733287975 0 0.014313372865970952 -0.0009581574462601785 0 0.014298640221380972 -0.00096059217611443089 0 0.013816262185206143 -0.00071744832623115513 0 0.012763384244755944 -0.0011593886492904612 0 0.013025657493474705 -0.00059103663337881595 0 0.013065433708673168 -0.00057050991688380463 0 0.013001908768939844 -0.0006058871827636362 0 0.013025657493474705 -0.00059103663337881595 0 0.013071962989248551 -0.00057245091686228115 0 0.013065433708673168 -0.00057050991688380463 0 0.013025657493474705 -0.00059103663337881595 0 0.013071962989248551 -0.00057245091686228115 0 0.013013417207608411 -0.00060059822444716846 0 0.013197031462721106 -0.00058887371248917038 0 0.013065433708673168 -0.00057050991688380463 0 0.013153617645723958 -0.00054704743297967788 0 0.013071962989248551 -0.00057245091686228115 0 0.013065433708673168 -0.00057050991688380463 0 0.013153617645723958 -0.00054704743297967788 0 0.014331953859051609 -0.00094801400417634542 0 0.01431690100790209 -0.00095443416733287975 0 0.014313372865970952 -0.0009581574462601785 0 0.014332051577462085 -0.00095305536655352849 0 0.01431081222232013 -0.00095932662494514504 0 0.014313372865970952 -0.0009581574462601785 0 0.014332051577462085 -0.00095305536655352849 0 0.014331953859051609 -0.00094801400417634542 0 0.014313372865970952 -0.0009581574462601785 0 0.015976634508032262 -0.00060182413806362395 0 0.015327682096914669 -0.00077583926755545355 0 0.019741673472498493 0.00066551550105553917 0 0.016601790417151659 -5.5809234291821682e-05 0 0.017363935730058167 -0.00037509613779095947 0 0.017525919477910597 -0.00033985767343593304 0 0.017081957593710839 5.3856010386132073e-05 0 0.017525919477910597 -0.00033985767343593304 0 0.017081957593710839 5.3856010386132073e-05 0 0.01712463208113648 0.00012973595406552574 0 0.014332051577462085 -0.00095305536655352849 0 0.01431234839616753 -0.00095947327417089635 0 0.01431081222232013 -0.00095932662494514504 0 0.01431081222232013 -0.00095932662494514504 0 0.014313372865970952 -0.0009581574462601785 0 0.014299366224561929 -0.00096264261224067048 0 0.015327682096914669 -0.00077583926755545355 0 0.011273572241969072 -0.0012632346348455037 0 0.01431234839616753 -0.00095947327417089635 0 0.01431081222232013 -0.00095932662494514504 0 0.014299366224561929 -0.00096264261224067048 0 0.013087016540648908 -0.0015219640961244077 0 0.013090918559197784 -0.0015288111896353321 0 0.013047850221500705 -0.0015684522509216603 0 0.014313372865970952 -0.0009581574462601785 0 0.014299366224561929 -0.00096264261224067048 0 0.014298640221380972 -0.00096059217611443089 0 0.011273572241969072 -0.0012632346348455037 0 0.012763384244755944 -0.0011593886492904612 0 0.0093123517041206385 -0.0011567918504863334 0 0.0094851995313733842 -0.00085430441149816775 0 0.010312825640545401 -0.00096618859751218566 0 0.010102445857796665 -0.00061938844104345578 0 0.0094851995313733842 -0.00085430441149816775 0 0.010312825640545401 -0.00096618859751218566 0 0.0076715468890039247 0.00068158287805952854 0 0.0067445353500423634 -0.0013109837878507462 0 0.0076715468890039247 0.00068158287805952854 0 0.012763384244755944 -0.0011593886492904612 0 0.007894559568708619 -0.0021003105481030983 0 0.0084305395312442959 -0.0020940180261370162 0 0.0085753251167157967 -0.0018399374008456633 0 0.011273572241969072 -0.0012632346348455037 0 0.0067445353500423634 -0.0013109837878507462 0 0.0026869394503227827 -0.0011606594732878437 0 0.0032743809511977351 -0.0012912295644634253 0 0.0028948734172314756 -0.0005689294221304103 0 0.0032743809511977351 -0.0012912295644634253 0 0.0028948734172314756 -0.0005689294221304103 0 0.0038258966180273473 -0.00038238383078395837 0 0.0028948734172314756 -0.0005689294221304103 0 0.0038258966180273473 -0.00038238383078395837 0 0.0035697387069222853 5.7231163510681382e-05 0 0.0026338776109247485 -0.00077017704151770554 0 0.0031767859211280559 -7.1287045430771989e-05 0 0.0067445353500423634 -0.0013109837878507462 0 0.0041562885888405433 0.00090677611336543009 0 0.0064729244200976378 4.2772621435242725e-05 0 0.0057842980805698592 -0.00022343504502714452 0 0.0061997633121748117 0.00050202901343431993 0 0.0076715468890039247 0.00068158287805952854 0 0.0041562885888405433 0.00090677611336543009 0 0.0041562885888405433 0.00090677611336543009 0 0.0031767859211280559 -7.1287045430771989e-05 0 0.0031833942246661377 0.0030006902456534931 0 0.0034975261381775136 0.0024272940146473497 0 0.0027979593521302751 0.0022398844828266738 0 0.012945056936524754 -0.00058784572143516956 0 0.012996405305697923 -0.00060570926400638052 0 0.012968831152349692 -0.00062897802317153097 0 0.0076715468890039247 0.00068158287805952854 0 0.0086287468140317982 0.0012084378755016401 0 0.0031833942246661377 0.0030006902456534931 0 0.0027979593521302751 0.0022398844828266738 0 0.001804036820427753 0.002505292833702519 0 0.013025657493474705 -0.00059103663337881595 0 0.012996405305697923 -0.00060570926400638052 0 0.013001908768939844 -0.0006058871827636362 0 0.012945056936524754 -0.00058784572143516956 0 0.012996405305697923 -0.00060570926400638052 0 0.012965080139358117 -0.00061270083349834075 0 0.013046767079080434 -0.00083270620663597787 0 0.012763384244755944 -0.0011593886492904612 0 0.012996405305697923 -0.00060570926400638052 0 0.012993717159237873 -0.0006096609737390044 0 0.012968831152349692 -0.00062897802317153097 0 0.013025657493474705 -0.00059103663337881595 0 0.012993717159237873 -0.0006096609737390044 0 0.013013417207608411 -0.00060059822444716846 0 0.013025657493474705 -0.00059103663337881595 0 0.012996405305697923 -0.00060570926400638052 0 0.012993717159237873 -0.0006096609737390044 0 0.012993717159237873 -0.0006096609737390044 0 0.012968831152349692 -0.00062897802317153097 0 0.012930787188320792 -0.00063247203231657273 0 0.012968831152349692 -0.00062897802317153097 0 0.012930787188320792 -0.00063247203231657273 0 0.012823675653403407 -0.00069402769315889557 0 0.0086287468140317982 0.0012084378755016401 0 0.0011262306075070804 0.00040748247533592359 0 0.012930787188320792 -0.00063247203231657273 0 0.012802708605827077 -0.00064860247716304418 0 0.012823675653403407 -0.00069402769315889557 0 0.0079363888809213957 -0.0011627160081913712 0 0.0011262306075070804 0.00040748247533592359 0 5.5668798318250389e-05 -0.00027186657116924493 0 0.00089983324981391343 -0.0011009947911885846 0 4.9435920235100951e-06 -0.00092390964198004236 0 0.012930787188320792 -0.00063247203231657273 0 0.012961267164640394 -0.00062682617803733079 0 0.012802708605827077 -0.00064860247716304418 0 0.014178861319453329 0.00011665500699409478 0 0.0079363888809213957 -0.0011627160081913712 0 0.012930787188320792 -0.00063247203231657273 0 0.012961267164640394 -0.00062682617803733079 0 0.013013417207608411 -0.00060059822444716846 0 0.012993717159237873 -0.0006096609737390044 0 0.012930787188320792 -0.00063247203231657273 0 0.013013417207608411 -0.00060059822444716846 0 0.013071962989248551 -0.00057245091686228115 0 0.013013417207608411 -0.00060059822444716846 0 0.013061011548542605 -0.00058075194482980219 0 0.012961267164640394 -0.00062682617803733079 0 0.013013417207608411 -0.00060059822444716846 0 0.013061011548542605 -0.00058075194482980219 0 0.013071962989248551 -0.00057245091686228115 0 0.013061011548542605 -0.00058075194482980219 0 0.013153617645723958 -0.00054704743297967788 0 0.012961267164640394 -0.00062682617803733079 0 0.013061011548542605 -0.00058075194482980219 0 0.01307849573759156 -0.00056823441770140854 0 0.012961267164640394 -0.00062682617803733079 0 0.01307849573759156 -0.00056823441770140854 0 0.012948645907623804 -0.00060885314402951273 0 0.01307849573759156 -0.00056823441770140854 0 0.013020293765428327 -0.0005398105613944182 0 0.012948645907623804 -0.00060885314402951273 0 0.01307849573759156 -0.00056823441770140854 0 0.013020293765428327 -0.0005398105613944182 0 0.013157821422472224 -0.00051277299999363595 0 0.01307849573759156 -0.00056823441770140854 0 0.013205754377981105 -0.00053389076768412392 0 0.013157821422472224 -0.00051277299999363595 0 0.013061011548542605 -0.00058075194482980219 0 0.01307849573759156 -0.00056823441770140854 0 0.013153617645723958 -0.00054704743297967788 0 0.01307849573759156 -0.00056823441770140854 0 0.013205754377981105 -0.00053389076768412392 0 0.013153617645723958 -0.00054704743297967788 0 0.013205754377981105 -0.00053389076768412392 0 0.013153617645723958 -0.00054704743297967788 0 0.013261771168955848 -0.00054585345767281903 0 0.012793528838436449 -0.0004763058620552675 0 0.012912172751364293 -0.00055371376701508161 0 0.01302900765702401 -0.0004444393184200369 0 0.012978574433704758 -0.00076371789267500447 0 0.013003249432323061 -0.00075958739012175222 0 0.013020293765428327 -0.0005398105613944182 0 0.012912172751364293 -0.00055371376701508161 0 0.01302900765702401 -0.0004444393184200369 0 0.013020293765428327 -0.0005398105613944182 0 0.013157821422472224 -0.00051277299999363595 0 0.01302900765702401 -0.0004444393184200369 0 0.013020293765428327 -0.0005398105613944182 0 0.012912172751364293 -0.00055371376701508161 0 0.012948645907623804 -0.00060885314402951273 0 0.012912172751364293 -0.00055371376701508161 0 0.012948645907623804 -0.00060885314402951273 0 0.012779820530844699 -0.0006746108000575769 0 0.012948645907623804 -0.00060885314402951273 0 0.012779820530844699 -0.0006746108000575769 0 0.012897934023651348 -0.00066104424529122229 0 0.012793528838436449 -0.0004763058620552675 0 0.012779820530844699 -0.0006746108000575769 0 0.012583022188887984 -0.00053522638781078856 0 0.012793528838436449 -0.0004763058620552675 0 0.012912172751364293 -0.00055371376701508161 0 0.012779820530844699 -0.0006746108000575769 0 0.0045202723160943153 -0.001378117785862071 0 0.0044692504896692627 -0.0011894806538274266 0 0.0046268092531028286 -0.0012505383147386948 0 0.0045202723160943153 -0.001378117785862071 0 0.0043259890751678586 -0.0011656353003182439 0 0.0044692504896692627 -0.0011894806538274266 0 0.012961267164640394 -0.00062682617803733079 0 0.012897934023651348 -0.00066104424529122229 0 0.012884851062468863 -0.0007343107166228797 0 0.0085151593690899179 -0.0010393362385305918 0 0.0079363888809213957 -0.0011627160081913712 0 0.012779820530844699 -0.0006746108000575769 0 0.012897934023651348 -0.00066104424529122229 0 0.012884851062468863 -0.0007343107166228797 0 0.012961267164640394 -0.00062682617803733079 0 0.012948645907623804 -0.00060885314402951273 0 0.012897934023651348 -0.00066104424529122229 0 0.0043259890751678586 -0.0011656353003182439 0 0.0044692504896692627 -0.0011894806538274266 0 0.004409080672221539 -0.0010583200618169463 0 0.0079363888809213957 -0.0011627160081913712 0 0.0015924132426492867 -0.0014009144163890817 0 5.5668798318250389e-05 -0.00027186657116924493 0 -0.00063715628133885764 -0.0010283549151188086 0 4.9435920235100951e-06 -0.00092390964198004236 0 0.0044692504896692627 -0.0011894806538274266 0 0.0044971071871112191 -0.0011333788230397524 0 0.0046268092531028286 -0.0012505383147386948 0 0.0044692504896692627 -0.0011894806538274266 0 0.0044971071871112191 -0.0011333788230397524 0 0.004409080672221539 -0.0010583200618169463 0 0.0044971071871112191 -0.0011333788230397524 0 0.004409080672221539 -0.0010583200618169463 0 0.0044568902850031086 -0.0010887385552455333 0 0.0044971071871112191 -0.0011333788230397524 0 0.0045981710121845978 -0.0011099731809509521 0 0.0044568902850031086 -0.0010887385552455333 0 0.004188795885526812 -0.0007868894383704654 0 0.0037939892056138517 -0.00044990431459478256 0 0.003689997622376733 -0.00032240243751596043 0 0.0033201300189854366 -0.00020016079875937964 0 0.0032318124425425826 0.00017774844646506748 0 0.0044971071871112191 -0.0011333788230397524 0 0.0045981710121845978 -0.0011099731809509521 0 0.0046268092531028286 -0.0012505383147386948 0 0.003689997622376733 -0.00032240243751596043 0 0.0033201300189854366 -0.00020016079875937964 0 0.0033384627904010657 -0.0005945746292055317 0 0.003689997622376733 -0.00032240243751596043 0 0.0038458677936244333 -0.00065824120441424167 0 0.0033384627904010657 -0.0005945746292055317 0 0.0030255147743615206 -0.00015349067125763495 0 0.0033201300189854366 -0.00020016079875937964 0 0.0032318124425425826 0.00017774844646506748 0 0.0030255147743615206 -0.00015349067125763495 0 0.0033201300189854366 -0.00020016079875937964 0 0.0033384627904010657 -0.0005945746292055317 0 0.0030255147743615206 -0.00015349067125763495 0 0.0026020392994848627 -0.00040529334935138884 0 0.0029460968252711913 -0.00066296318505739533 0 0.0030255147743615206 -0.00015349067125763495 0 0.0029460968252711913 -0.00066296318505739533 0 0.0033384627904010657 -0.0005945746292055317 0 0.0030255147743615206 -0.00015349067125763495 0 0.0032318124425425826 0.00017774844646506748 0 0.0029844181319294764 0.00021077574029131814 0 0.0032318124425425826 0.00017774844646506748 0 0.0029844181319294764 0.00021077574029131814 0 0.0030703142824679733 6.6852776448056596e-05 0 0.0045981710121845978 -0.0011099731809509521 0 0.004805022192111999 -0.0013204677102513713 0 0.0046268092531028286 -0.0012505383147386948 0 0.0045202723160943153 -0.001378117785862071 0 0.004805022192111999 -0.0013204677102513713 0 0.0046268092531028286 -0.0012505383147386948 0 0.0013098262206187269 9.4213406817144928e-07 0 0.0014577495958034638 1.9817959994211763e-05 0 -0.00013245892664318274 -2.3915913651191039e-06 0 0.0013098262206187269 9.4213406817144928e-07 0 0.0014577495958034638 1.9817959994211763e-05 0 0.0025609676580391682 0.00014546543766827061 0 0.0017527936943366545 -0.00023308384717316374 0 0.0014577495958034638 1.9817959994211763e-05 0 -0.00013245892664318274 -2.3915913651191039e-06 0 0.0017527936943366545 -0.00023308384717316374 0 0.0014577495958034638 1.9817959994211763e-05 0 0.0023357460422644472 2.8639691347964389e-06 0 0.0014577495958034638 1.9817959994211763e-05 0 0.0023357460422644472 2.8639691347964389e-06 0 0.0025609676580391682 0.00014546543766827061 0 0.0030255147743615206 -0.00015349067125763495 0 0.0023357460422644472 2.8639691347964389e-06 0 0.0026020392994848627 -0.00040529334935138884 0 0.0030255147743615206 -0.00015349067125763495 0 0.0023357460422644472 2.8639691347964389e-06 0 0.0029844181319294764 0.00021077574029131814 0 0.0017527936943366545 -0.00023308384717316374 0 0.0023357460422644472 2.8639691347964389e-06 0 0.0026020392994848627 -0.00040529334935138884 0 0.0023357460422644472 2.8639691347964389e-06 0 0.0029844181319294764 0.00021077574029131814 0 0.0025609676580391682 0.00014546543766827061 0 0.0029844181319294764 0.00021077574029131814 0 0.0025609676580391682 0.00014546543766827061 0 0.0035390110043138482 6.2584104437151956e-05 0 0.0013098262206187269 9.4213406817144928e-07 0 0.0025609676580391682 0.00014546543766827061 0 0.003711835056103101 2.1406618634012131e-07 0 0.0025609676580391682 0.00014546543766827061 0 0.003711835056103101 2.1406618634012131e-07 0 0.0035390110043138482 6.2584104437151956e-05 0 0.003711835056103101 2.1406618634012131e-07 0 0.0035390110043138482 6.2584104437151956e-05 0 0.0049656916549605107 0.0001971624867968149 0 0.0027776775630176174 7.4050468212653365e-05 0 0.00639477458524768 -0.00088687974414014374 0 0.0029844181319294764 0.00021077574029131814 0 0.0035390110043138482 6.2584104437151956e-05 0 0.0030703142824679733 6.6852776448056596e-05 0 0.0035390110043138482 6.2584104437151956e-05 0 0.0046473715346822689 0.00019418028697288354 0 0.0048120131506194964 0.00010293469230687014 0 0.0046473715346822689 0.00019418028697288354 0 0.0049656916549605107 0.0001971624867968149 0 0.0052402570826419817 0.0001867348185640501 0 0.0046473715346822689 0.00019418028697288354 0 0.0048120131506194964 0.00010293469230687014 0 0.0052402570826419817 0.0001867348185640501 0 0.0035390110043138482 6.2584104437151956e-05 0 0.0046473715346822689 0.00019418028697288354 0 0.0049656916549605107 0.0001971624867968149 0 0.003711835056103101 2.1406618634012131e-07 0 0.0049656916549605107 0.0001971624867968149 0 0.006112909717055511 5.9464582847000778e-07 0 0.0085151593690899179 -0.0010393362385305918 0 0.010213105887821218 -0.00058923782854969397 0 0.0045202723160943153 -0.001378117785862071 0 0.004805022192111999 -0.0013204677102513713 0 0.0048438269662148641 -0.0016533255928603808 0 0.0037939892056138517 -0.00044990431459478256 0 0.00639477458524768 -0.00088687974414014374 0 0.004805022192111999 -0.0013204677102513713 0 0.0049944132888766557 -0.0015907834779640257 0 0.0048438269662148641 -0.0016533255928603808 0 0.00639477458524768 -0.00088687974414014374 0 0.010213105887821218 -0.00058923782854969397 0 0.00639477458524768 -0.00088687974414014374 0 0.0093249254926493479 -0.00048234341232859904 0 0.012534827561123832 -0.001040214316168257 0 0.012509139952240973 -0.0011190475853773692 0 0.012674862507403534 -0.0012508683213985252 0 0.012534827561123832 -0.001040214316168257 0 0.012509139952240973 -0.0011190475853773692 0 0.012448755462746064 -0.0010738722045627808 0 0.011713897880183663 -0.0014307337766343794 0 0.010213105887821218 -0.00058923782854969397 0 0.012509139952240973 -0.0011190475853773692 0 0.012492395209651133 -0.00115283552092191 0 0.012547304620907522 -0.0012039206997702702 0 0.012441356861432124 -0.0011578032847896873 0 0.012492395209651133 -0.00115283552092191 0 0.012489642205074168 -0.0011905601224717424 0 0.012978574433704758 -0.00076371789267500447 0 0.010213105887821218 -0.00058923782854969397 0 0.012441356861432124 -0.0011578032847896873 0 0.012492395209651133 -0.00115283552092191 0 0.012494551223279447 -0.00111350060112753 0 0.012509139952240973 -0.0011190475853773692 0 0.012492395209651133 -0.00115283552092191 0 0.012494551223279447 -0.00111350060112753 0 0.012979496861466754 -0.0011865969746644028 0 0.013097460756072691 -0.0010362554734978035 0 0.012489642205074168 -0.0011905601224717424 0 0.012553476022716139 -0.0012699010969893529 0 0.012445254881091473 -0.0012057827724857256 0 0.012489642205074168 -0.0011905601224717424 0 0.012547304620907522 -0.0012039206997702702 0 0.012553476022716139 -0.0012699010969893529 0 0.012492395209651133 -0.00115283552092191 0 0.012489642205074168 -0.0011905601224717424 0 0.012547304620907522 -0.0012039206997702702 0 0.012547304620907522 -0.0012039206997702702 0 0.012553476022716139 -0.0012699010969893529 0 0.012674862507403534 -0.0012508683213985252 0 0.012509139952240973 -0.0011190475853773692 0 0.012547304620907522 -0.0012039206997702702 0 0.012674862507403534 -0.0012508683213985252 0 0.013171822864773496 -0.00099549638537263247 0 0.013473412492448928 -0.0011276514633874134 0 0.01264889468875262 -0.0012542690587989565 0 0.013171822864773496 -0.00099549638537263247 0 0.013473412492448928 -0.0011276514633874134 0 0.013478958919721836 -0.00082372957335637663 0 0.012979496861466754 -0.0011865969746644028 0 0.012663407879522045 -0.0012250841746848651 0 0.013473412492448928 -0.0011276514633874134 0 0.013687094427950157 -0.00085710116946335576 0 0.013764021197122186 -0.0008420165410841946 0 0.013473412492448928 -0.0011276514633874134 0 0.013687094427950157 -0.00085710116946335576 0 0.013478958919721836 -0.00082372957335637663 0 0.0049656916549605107 0.0001971624867968149 0 0.006112909717055511 5.9464582847000778e-07 0 0.0065075360446645771 7.0476949529587086e-05 0 0.0049656916549605107 0.0001971624867968149 0 0.0065075360446645771 7.0476949529587086e-05 0 0.0052402570826419817 0.0001867348185640501 0 0.012674862507403534 -0.0012508683213985252 0 0.01264889468875262 -0.0012542690587989565 0 0.012446442302311294 -0.0012581084307010538 0 0.0093249254926493479 -0.00048234341232859904 0 0.0099075249051136828 -0.00052641215367332404 0 0.012553476022716139 -0.0012699010969893529 0 0.012674862507403534 -0.0012508683213985252 0 0.01264889468875262 -0.0012542690587989565 0 0.0065075360446645771 7.0476949529587086e-05 0 0.0052402570826419817 0.0001867348185640501 0 0.0076280647347166299 -0.00018936967041598431 0 0.0065075360446645771 7.0476949529587086e-05 0 0.0076280647347166299 -0.00018936967041598431 0 0.008514301388814146 -2.7346270016430228e-07 0 0.006112909717055511 5.9464582847000778e-07 0 0.0065075360446645771 7.0476949529587086e-05 0 0.008514301388814146 -2.7346270016430228e-07 0 0.0076280647347166299 -0.00018936967041598431 0 0.008514301388814146 -2.7346270016430228e-07 0 0.010915678319930996 -6.365831926460066e-07 0 0.0099075249051136828 -0.00052641215367332404 0 0.010916454431021259 2.8709786418715453e-07 0 0.012446442302311294 -0.0012581084307010538 0 0.013038125150503697 -0.00080524647347202365 0 0.012415503301806328 -0.00050939780887206338 0 0.013171822864773496 -0.00099549638537263247 0 0.01264889468875262 -0.0012542690587989565 0 0.013038125150503697 -0.00080524647347202365 0 0.01264889468875262 -0.0012542690587989565 0 0.012446442302311294 -0.0012581084307010538 0 0.013038125150503697 -0.00080524647347202365 0 0.013405527961444286 0.000140907787321002 0 0.012415503301806328 -0.00050939780887206338 0 0.01318259884985493 -0.00028877328993495276 0 0.013038125150503697 -0.00080524647347202365 0 0.012415503301806328 -0.00050939780887206338 0 0.01318259884985493 -0.00028877328993495276 0 0.012446442302311294 -0.0012581084307010538 0 0.012415503301806328 -0.00050939780887206338 0 0.010923200117053177 -1.485983774510362e-06 0 0.013405527961444286 0.000140907787321002 0 0.012415503301806328 -0.00050939780887206338 0 0.010923200117053177 -1.485983774510362e-06 0 0.013687094427950157 -0.00085710116946335576 0 0.013478958919721836 -0.00082372957335637663 0 0.013754487699835588 -0.00066263931417950264 0 0.013478958919721836 -0.00082372957335637663 0 0.013574861256815056 -0.00035323562913521455 0 0.013754487699835588 -0.00066263931417950264 0 0.013171822864773496 -0.00099549638537263247 0 0.013038125150503697 -0.00080524647347202365 0 0.013478958919721836 -0.00082372957335637663 0 0.013038125150503697 -0.00080524647347202365 0 0.013478958919721836 -0.00082372957335637663 0 0.013574861256815056 -0.00035323562913521455 0 0.013038125150503697 -0.00080524647347202365 0 0.01318259884985493 -0.00028877328993495276 0 0.013574861256815056 -0.00035323562913521455 0 0.013574861256815056 -0.00035323562913521455 0 0.013858793083130034 -0.00037682035303264347 0 0.013754487699835588 -0.00066263931417950264 0 0.013858793083130034 -0.00037682035303264347 0 0.013852242810909918 -0.00060597162689825972 0 0.01394642575193328 -0.00044456406861774386 0 0.013858793083130034 -0.00037682035303264347 0 0.013754487699835588 -0.00066263931417950264 0 0.013852242810909918 -0.00060597162689825972 0 0.013754487699835588 -0.00066263931417950264 0 0.013852242810909918 -0.00060597162689825972 0 0.013784695240325292 -0.00075475147402831618 0 0.013687094427950157 -0.00085710116946335576 0 0.013754487699835588 -0.00066263931417950264 0 0.013784695240325292 -0.00075475147402831618 0 0.013852242810909918 -0.00060597162689825972 0 0.013795750247378722 -0.00069244662503959039 0 0.013859752362149421 -0.00062775120949834333 0 0.013852242810909918 -0.00060597162689825972 0 0.013795750247378722 -0.00069244662503959039 0 0.013784695240325292 -0.00075475147402831618 0 0.013795750247378722 -0.00069244662503959039 0 0.013706408731303325 -0.00071307883572587784 0 0.013732550892803189 -0.00071791565625236979 0 0.013852242810909918 -0.00060597162689825972 0 0.01394642575193328 -0.00044456406861774386 0 0.013859752362149421 -0.00062775120949834333 0 0.01394642575193328 -0.00044456406861774386 0 0.014022188925788754 -0.00049667901596039032 0 0.013859752362149421 -0.00062775120949834333 0 0.014022188925788754 -0.00049667901596039032 0 0.014272419027741975 -0.00082282079110061485 0 0.014260564424491376 -0.00090672281942519913 0 0.014022188925788754 -0.00049667901596039032 0 0.014258908019535657 -0.00054358187198964576 0 0.014272419027741975 -0.00082282079110061485 0 0.013983317505078478 -0.00051190284300998794 0 0.013937338782931939 -0.00079480916519578625 0 0.014022188925788754 -0.00049667901596039032 0 0.013859752362149421 -0.00062775120949834333 0 0.013616080648734411 -0.00075098822538011872 0 0.014635304293519934 -0.00067499057504523017 0 0.014396436552094802 -0.00062587646900029794 0 0.014272419027741975 -0.00082282079110061485 0 0.014396436552094802 -0.00062587646900029794 0 0.014258908019535657 -0.00054358187198964576 0 0.014272419027741975 -0.00082282079110061485 0 0.014420108839008102 -0.00044369770204568944 0 0.014635304293519934 -0.00067499057504523017 0 0.014396436552094802 -0.00062587646900029794 0 0.014420108839008102 -0.00044369770204568944 0 0.014396436552094802 -0.00062587646900029794 0 0.014258908019535657 -0.00054358187198964576 0 0.014357490559465768 -0.00088235179959161045 0 0.014272419027741975 -0.00082282079110061485 0 0.014312803756030973 -0.00088841514953006979 0 0.016144522099379069 -0.00096602688579178826 0 0.013634460959966161 -0.00083026557751344793 0 0.014272419027741975 -0.00082282079110061485 0 0.014260564424491376 -0.00090672281942519913 0 0.014312803756030973 -0.00088841514953006979 0 0.014315228150634079 -0.00091648794918530469 0 0.014260564424491376 -0.00090672281942519913 0 0.014312803756030973 -0.00088841514953006979 0 0.013795750247378722 -0.00069244662503959039 0 0.013859752362149421 -0.00062775120949834333 0 0.013706408731303325 -0.00071307883572587784 0 0.013859752362149421 -0.00062775120949834333 0 0.013700923844864363 -0.00070881300771493403 0 0.013706408731303325 -0.00071307883572587784 0 0.013859752362149421 -0.00062775120949834333 0 0.013616080648734411 -0.00075098822538011872 0 0.013700923844864363 -0.00070881300771493403 0 0.013616080648734411 -0.00075098822538011872 0 0.013700923844864363 -0.00070881300771493403 0 0.013606208182562496 -0.00070666913843352879 0 0.013700923844864363 -0.00070881300771493403 0 0.013706408731303325 -0.00071307883572587784 0 0.013606208182562496 -0.00070666913843352879 0 0.013616080648734411 -0.00075098822538011872 0 0.013606208182562496 -0.00070666913843352879 0 0.01341784583794662 -0.00063453536465321039 0 0.013706408731303325 -0.00071307883572587784 0 0.013571993391730241 -0.00068317125728714861 0 0.013641638560549485 -0.00069214974043620159 0 0.013706408731303325 -0.00071307883572587784 0 0.013641638560549485 -0.00069214974043620159 0 0.013732550892803189 -0.00071791565625236979 0 0.013706408731303325 -0.00071307883572587784 0 0.013606208182562496 -0.00070666913843352879 0 0.013571993391730241 -0.00068317125728714861 0 0.013606208182562496 -0.00070666913843352879 0 0.013571993391730241 -0.00068317125728714861 0 0.01341784583794662 -0.00063453536465321039 0 0.0135227287097362 -0.00065041434929860012 0 0.01341784583794662 -0.00063453536465321039 0 0.013352438333161206 -0.00052911826658355663 0 0.013571993391730241 -0.00068317125728714861 0 0.0135227287097362 -0.00065041434929860012 0 0.01341784583794662 -0.00063453536465321039 0 0.013641638560549485 -0.00069214974043620159 0 0.013636397056911173 -0.00066080580024563634 0 0.013732550892803189 -0.00071791565625236979 0 0.0135227287097362 -0.00065041434929860012 0 0.013641638560549485 -0.00069214974043620159 0 0.013636397056911173 -0.00066080580024563634 0 0.013571993391730241 -0.00068317125728714861 0 0.0135227287097362 -0.00065041434929860012 0 0.013641638560549485 -0.00069214974043620159 0 0.014316711484323046 -0.00094347087386407915 0 0.014315228150634079 -0.00091648794918530469 0 0.014260564424491376 -0.00090672281942519913 0 0.013197031462721106 -0.00058887371248917038 0 0.013616080648734411 -0.00075098822538011872 0 0.01341784583794662 -0.00063453536465321039 0 0.013739965133239775 -0.00076541912150903605 0 0.013937338782931939 -0.00079480916519578625 0 0.013197031462721106 -0.00058887371248917038 0 0.013153617645723958 -0.00054704743297967788 0 0.013261771168955848 -0.00054585345767281903 0 0.013197031462721106 -0.00058887371248917038 0 0.01341784583794662 -0.00063453536465321039 0 0.013261771168955848 -0.00054585345767281903 0 0.01341784583794662 -0.00063453536465321039 0 0.013261771168955848 -0.00054585345767281903 0 0.013352438333161206 -0.00052911826658355663 0 0.013205754377981105 -0.00053389076768412392 0 0.013261771168955848 -0.00054585345767281903 0 0.013352438333161206 -0.00052911826658355663 0 0.013636397056911173 -0.00066080580024563634 0 0.013352438333161206 -0.00052911826658355663 0 0.01368561782789593 -0.00054507921172293895 0 0.0135227287097362 -0.00065041434929860012 0 0.013636397056911173 -0.00066080580024563634 0 0.013352438333161206 -0.00052911826658355663 0 0.013205754377981105 -0.00053389076768412392 0 0.013352438333161206 -0.00052911826658355663 0 0.013157821422472224 -0.00051277299999363595 0 0.013352438333161206 -0.00052911826658355663 0 0.013157821422472224 -0.00051277299999363595 0 0.013041896900690199 -0.00045939052791650842 0 0.013442136890064882 -0.00049330704676775884 0 0.013003249432323061 -0.00075958739012175222 0 0.01306610554410843 -0.00064731272823261726 0 0.013003249432323061 -0.00075958739012175222 0 0.01368561782789593 -0.00054507921172293895 0 0.013764021197122186 -0.0008420165410841946 0 0.013739227615543833 -0.00071868340073908776 0 0.013003249432323061 -0.00075958739012175222 0 0.013097460756072691 -0.0010362554734978035 0 0.013636397056911173 -0.00066080580024563634 0 0.01368561782789593 -0.00054507921172293895 0 0.013739227615543833 -0.00071868340073908776 0 0.012441356861432124 -0.0011578032847896873 0 0.012406624657496505 -0.0011762232777121442 0 0.012445254881091473 -0.0012057827724857256 0 0.012441356861432124 -0.0011578032847896873 0 0.012489642205074168 -0.0011905601224717424 0 0.012445254881091473 -0.0012057827724857256 0 0.013764021197122186 -0.0008420165410841946 0 0.013784695240325292 -0.00075475147402831618 0 0.013739227615543833 -0.00071868340073908776 0 0.013687094427950157 -0.00085710116946335576 0 0.013764021197122186 -0.0008420165410841946 0 0.013784695240325292 -0.00075475147402831618 0 0.013795750247378722 -0.00069244662503959039 0 0.013784695240325292 -0.00075475147402831618 0 0.013732550892803189 -0.00071791565625236979 0 0.013784695240325292 -0.00075475147402831618 0 0.013732550892803189 -0.00071791565625236979 0 0.013739227615543833 -0.00071868340073908776 0 0.013636397056911173 -0.00066080580024563634 0 0.013732550892803189 -0.00071791565625236979 0 0.013739227615543833 -0.00071868340073908776 0 0.016918153400229771 -0.0041269474298220692 0 0.021450107489473937 -0.0060075412305129802 0 0.019931832360363749 -0.0028959492594363393 0 0.017478891266063015 -0.0074784835191751674 0 0.016918153400229771 -0.0041269474298220692 0 0.021450107489473937 -0.0060075412305129802 0 0.017478891266063015 -0.0074784835191751674 0 0.021450107489473937 -0.0060075412305129802 0 0.020096487351202393 -0.0097416242874364921 0 0.017478891266063015 -0.0074784835191751674 0 0.016918153400229771 -0.0041269474298220692 0 0.01444588746253524 -0.0070007941791070932 0 0.021450107489473937 -0.0060075412305129802 0 0.019931832360363749 -0.0028959492594363393 0 0.023336346366844507 -0.0029244278206586182 0 0.021450107489473937 -0.0060075412305129802 0 0.023336346366844507 -0.0029244278206586182 0 0.024866182464116947 -0.0054161038284637891 0 0.021450107489473937 -0.0060075412305129802 0 0.024866182464116947 -0.0054161038284637891 0 0.024857510943587222 -0.0095545540952640066 0 0.020096487351202393 -0.0097416242874364921 0 0.024857510943587222 -0.0095545540952640066 0 0.022152339639773377 -0.012686808006374442 0 0.020096487351202393 -0.0097416242874364921 0 0.018024008851581706 -0.014329226777057367 0 0.022152339639773377 -0.012686808006374442 0 0.021450107489473937 -0.0060075412305129802 0 0.020096487351202393 -0.0097416242874364921 0 0.024857510943587222 -0.0095545540952640066 0 0.024857510943587222 -0.0095545540952640066 0 0.025965568164321187 -0.012422564554259236 0 0.022152339639773377 -0.012686808006374442 0 0.020096487351202393 -0.0097416242874364921 0 0.015496277774872546 -0.010395412298636234 0 0.018024008851581706 -0.014329226777057367 0 0.017478891266063015 -0.0074784835191751674 0 0.020096487351202393 -0.0097416242874364921 0 0.015496277774872546 -0.010395412298636234 0 0.017478891266063015 -0.0074784835191751674 0 0.015496277774872546 -0.010395412298636234 0 0.01444588746253524 -0.0070007941791070932 0 0.0120564304202839 -0.0094361783688564592 0 0.015496277774872546 -0.010395412298636234 0 0.010411674962134469 -0.012010003694258153 0 0.015496277774872546 -0.010395412298636234 0 0.010411674962134469 -0.012010003694258153 0 0.018024008851581706 -0.014329226777057367 0 0.0120564304202839 -0.0094361783688564592 0 0.010046105974675382 -0.012762423212725157 0 0.011136027849805465 -0.0068555502798935625 0 0.010123448827327327 -0.0096258732064372771 0 0.0078405047903086309 -0.0077225659033676982 0 0.0120564304202839 -0.0094361783688564592 0 0.015496277774872546 -0.010395412298636234 0 0.01444588746253524 -0.0070007941791070932 0 0.0078405047903086309 -0.0077225659033676982 0 0.0082980891507119809 -0.0055842089561612971 0 0.0069917193137327104 -0.0067475197716717937 0 0.0069032274034153086 -0.0056359872288626236 0 0.0081725343884764545 -0.0045722950490374621 0 0.0054583729551587025 -0.0059371122532467548 0 0.0051162701099495339 -0.0058494288284837116 0 0.0049662942825796086 -0.0057896981265724333 0 0.0049829025979185888 -0.0059474727246359941 0 0.0078405047903086309 -0.0077225659033676982 0 0.0054583729551587025 -0.0059371122532467548 0 0.0050454047072821841 -0.0058430892872692163 0 0.0051162701099495339 -0.0058494288284837116 0 0.0054583729551587025 -0.0059371122532467548 0 0.0069917193137327104 -0.0067475197716717937 0 0.0069032274034153086 -0.0056359872288626236 0 0.0054583729551587025 -0.0059371122532467548 0 0.0063139190658435254 -0.0054758746458216422 0 0.006006537262996642 -0.0051244004343048016 0 0.0054583729551587025 -0.0059371122532467548 0 0.0069032274034153086 -0.0056359872288626236 0 0.0063139190658435254 -0.0054758746458216422 0 0.010046105974675382 -0.012762423212725157 0 0.0081725343884764545 -0.0045722950490374621 0 0.011136027849805465 -0.0068555502798935625 0 0.006006537262996642 -0.0051244004343048016 0 0.0065716134765240897 -0.0045873106380959318 0 0.0058708000643684774 -0.0046622362879249297 0 0.0063139190658435254 -0.0054758746458216422 0 0.006006537262996642 -0.0051244004343048016 0 0.0067737240598333588 -0.0051219516566361383 0 0.0069032274034153086 -0.0056359872288626236 0 0.0063139190658435254 -0.0054758746458216422 0 0.0067737240598333588 -0.0051219516566361383 0 0.006006537262996642 -0.0051244004343048016 0 0.0067737240598333588 -0.0051219516566361383 0 0.0065716134765240897 -0.0045873106380959318 0 0.0067737240598333588 -0.0051219516566361383 0 0.0081725343884764545 -0.0045722950490374621 0 0.0065716134765240897 -0.0045873106380959318 0 0.0069032274034153086 -0.0056359872288626236 0 0.0067737240598333588 -0.0051219516566361383 0 0.0081725343884764545 -0.0045722950490374621 0 0.0081725343884764545 -0.0045722950490374621 0 0.013121123800277119 -0.0039323718122585439 0 0.0082629465844490622 -0.0024775344800141643 0 0.0081725343884764545 -0.0045722950490374621 0 0.0064663014589739585 -0.003638304345285775 0 0.0082629465844490622 -0.0024775344800141643 0 0.0081725343884764545 -0.0045722950490374621 0 0.0065716134765240897 -0.0045873106380959318 0 0.0064663014589739585 -0.003638304345285775 0 0.0065716134765240897 -0.0045873106380959318 0 0.0064663014589739585 -0.003638304345285775 0 0.0058708000643684774 -0.0046622362879249297 0 0.0120564304202839 -0.0094361783688564592 0 0.01444588746253524 -0.0070007941791070932 0 0.011136027849805465 -0.0068555502798935625 0 0.01444588746253524 -0.0070007941791070932 0 0.011136027849805465 -0.0068555502798935625 0 0.013121123800277119 -0.0039323718122585439 0 0.0081725343884764545 -0.0045722950490374621 0 0.011136027849805465 -0.0068555502798935625 0 0.013121123800277119 -0.0039323718122585439 0 0.016918153400229771 -0.0041269474298220692 0 0.01444588746253524 -0.0070007941791070932 0 0.013121123800277119 -0.0039323718122585439 0 0.013121123800277119 -0.0039323718122585439 0 0.0090904261723103088 -0.00039681789404817571 0 0.010677744149789163 0.0042609531358252075 0 0.012289955369265226 -0.0024770570826670845 0 0.015419953986115661 0.00068206910663384953 0 0.016918153400229771 -0.0041269474298220692 0 0.013121123800277119 -0.0039323718122585439 0 0.015222717749410627 -0.0011446585160920094 0 0.013121123800277119 -0.0039323718122585439 0 0.015222717749410627 -0.0011446585160920094 0 0.012742125540772396 0.0016465868613106934 0 0.015419953986115661 0.00068206910663384953 0 0.0092316313975695299 -0.0028204263520010936 0 0.0090904261723103088 -0.00039681789404817571 0 0.010677744149789163 0.0042609531358252075 0 0.004620665032906977 0.00044576355533267628 0 0.0090904261723103088 -0.00039681789404817571 0 0.0082629465844490622 -0.0024775344800141643 0 0.004620665032906977 0.00044576355533267628 0 0.0064663014589739585 -0.003638304345285775 0 0.0082629465844490622 -0.0024775344800141643 0 0.004620665032906977 0.00044576355533267628 0 0.013121123800277119 -0.0039323718122585439 0 0.0090904261723103088 -0.00039681789404817571 0 0.0082629465844490622 -0.0024775344800141643 0 0.014834571293330196 -0.0055096024559189829 0 0.014913059015368874 -0.0055106392598991165 0 0.014762758926649569 -0.0056190643883707436 0 0.014834571293330196 -0.0055096024559189829 0 0.014913059015368874 -0.0055106392598991165 0 0.014896052919712306 -0.0054558317373409613 0 0.015419953986115661 0.00068206910663384953 0 0.020178262261569616 -1.9684636784531656e-05 0 0.024920358743434446 0.0067291637991691465 0 0.023624293176438552 0.0062546529122173913 0 0.025030960825268223 0.0055492317303356704 0 0.024920358743434446 0.0067291637991691465 0 0.025030960825268223 0.0055492317303356704 0 0.025454891232404207 0.0057048192718010052 0 0.015419953986115661 0.00068206910663384953 0 0.021043605397447294 0.0055076850736173969 0 0.016186842371051401 0.0011615245250902063 0 0.012742125540772396 0.0016465868613106934 0 0.017009450793939857 0.0038778864258813784 0 0.015222717749410627 -0.0011446585160920094 0 0.016186842371051401 0.0011615245250902063 0 0.012742125540772396 0.0016465868613106934 0 0.017009450793939857 0.0038778864258813784 0 0.019357701735904325 0.0023341644210095928 0 0.021608702123528268 0.005682510576173621 0 0.016186842371051401 0.0011615245250902063 0 0.017009450793939857 0.0038778864258813784 0 0.019357701735904325 0.0023341644210095928 0 0.019357701735904325 0.0023341644210095928 0 0.017535903951322832 -0.0008351706504649833 0 0.02042864413419742 -0.00036667347858880198 0 0.019357701735904325 0.0023341644210095928 0 0.02042864413419742 -0.00036667347858880198 0 0.021307965455836027 0.0015655695491659147 0 0.016186842371051401 0.0011615245250902063 0 0.019357701735904325 0.0023341644210095928 0 0.017535903951322832 -0.0008351706504649833 0 0.015222717749410627 -0.0011446585160920094 0 0.016186842371051401 0.0011615245250902063 0 0.017535903951322832 -0.0008351706504649833 0 0.017535903951322832 -0.0008351706504649833 0 0.019931832360363749 -0.0028959492594363393 0 0.02042864413419742 -0.00036667347858880198 0 0.016918153400229771 -0.0041269474298220692 0 0.015222717749410627 -0.0011446585160920094 0 0.017535903951322832 -0.0008351706504649833 0 0.016918153400229771 -0.0041269474298220692 0 0.017535903951322832 -0.0008351706504649833 0 0.019931832360363749 -0.0028959492594363393 0 0.019931832360363749 -0.0028959492594363393 0 0.023336346366844507 -0.0029244278206586182 0 0.02042864413419742 -0.00036667347858880198 0 0.023336346366844507 -0.0029244278206586182 0 0.02042864413419742 -0.00036667347858880198 0 0.02314306546668745 9.3560188199492491e-06 0 0.023336346366844507 -0.0029244278206586182 0 0.02314306546668745 9.3560188199492491e-06 0 0.025252915074678844 -0.0016329174776543475 0 0.026878625295976948 4.1996748468702505e-05 0 0.025441181626085673 0.0020514228241026835 0 0.02314306546668745 9.3560188199492491e-06 0 0.021831359925961035 0.0035021309278012781 0 0.026912213204482071 -4.0115846722896371e-05 0 0.021831359925961035 0.0035021309278012781 0 0.026912213204482071 -4.0115846722896371e-05 0 0.021521143989727001 0.005766044481115987 0 0.026912213204482071 -4.0115846722896371e-05 0 0.029163025357528974 -0.0012122005884530683 0 0.028119796364599953 -0.00094815848731207193 0 0.02042864413419742 -0.00036667347858880198 0 0.02314306546668745 9.3560188199492491e-06 0 0.021307965455836027 0.0015655695491659147 0 0.02314306546668745 9.3560188199492491e-06 0 0.021307965455836027 0.0015655695491659147 0 0.021831359925961035 0.0035021309278012781 0 0.019357701735904325 0.0023341644210095928 0 0.021307965455836027 0.0015655695491659147 0 0.021831359925961035 0.0035021309278012781 0 0.019357701735904325 0.0023341644210095928 0 0.021831359925961035 0.0035021309278012781 0 0.021608702123528268 0.005682510576173621 0 0.026912213204482071 -4.0115846722896371e-05 0 0.02753946502808198 -0.00054651683830192444 0 0.028119796364599953 -0.00094815848731207193 0 0.027613343945196465 -0.00051959859953763722 0 0.027657657145573986 -0.00031205363896577056 0 0.026912213204482071 -4.0115846722896371e-05 0 0.02753946502808198 -0.00054651683830192444 0 0.027988882672633737 -0.00027852919585278713 0 0.02753946502808198 -0.00054651683830192444 0 0.027069491777830277 -0.00055523107671516644 0 0.027268369233469581 -0.00018905960535154655 0 0.031289104798119534 -0.0042189165889869621 0 0.030713616794330722 -0.0032957530341308564 0 0.030579077353159231 -0.0039358844720888929 0 0.031289104798119534 -0.0042189165889869621 0 0.030579077353159231 -0.0039358844720888929 0 0.030501779675421854 -0.0047380767861937376 0 0.031289104798119534 -0.0042189165889869621 0 0.030713616794330722 -0.0032957530341308564 0 0.031219992346407151 -0.0025379701867370512 0 0.029269130404360643 -0.0020727375665020886 0 0.028629314449082646 -0.0025930822629244522 0 0.027069491777830277 -0.00055523107671516644 0 0.027268369233469581 -0.00018905960535154655 0 0.027158650845137602 0.00016018186725688877 0 0.030713616794330722 -0.0032957530341308564 0 0.030200212806831314 -0.0024042368701840755 0 0.031219992346407151 -0.0025379701867370512 0 0.027657657145573986 -0.00031205363896577056 0 0.028629314449082646 -0.0025930822629244522 0 0.026709311968821904 -0.0029472915254862638 0 0.027988882672633737 -0.00027852919585278713 0 0.030044642196806182 -0.0038850132142669983 0 0.023336346366844507 -0.0029244278206586182 0 0.026709311968821904 -0.0029472915254862638 0 0.025252915074678844 -0.0016329174776543475 0 0.023336346366844507 -0.0029244278206586182 0 0.026709311968821904 -0.0029472915254862638 0 0.024866182464116947 -0.0054161038284637891 0 0.02314306546668745 9.3560188199492491e-06 0 0.026912213204482071 -4.0115846722896371e-05 0 0.025252915074678844 -0.0016329174776543475 0 0.026912213204482071 -4.0115846722896371e-05 0 0.026709311968821904 -0.0029472915254862638 0 0.025252915074678844 -0.0016329174776543475 0 0.026912213204482071 -4.0115846722896371e-05 0 0.026709311968821904 -0.0029472915254862638 0 0.027988882672633737 -0.00027852919585278713 0 0.029101103359082919 -0.0042218611930230415 0 0.029829448251004548 -0.0040137705125012843 0 0.028868802740079611 -0.0032045656130262894 0 0.029829448251004548 -0.0040137705125012843 0 0.030579077353159231 -0.0039358844720888929 0 0.030225805882194659 -0.0033143633350321963 0 0.029829448251004548 -0.0040137705125012843 0 0.030579077353159231 -0.0039358844720888929 0 0.030501779675421854 -0.0047380767861937376 0 0.030713616794330722 -0.0032957530341308564 0 0.030579077353159231 -0.0039358844720888929 0 0.030225805882194659 -0.0033143633350321963 0 0.029829448251004548 -0.0040137705125012843 0 0.030225805882194659 -0.0033143633350321963 0 0.02963506543572136 -0.0030293229599324379 0 0.030713616794330722 -0.0032957530341308564 0 0.030225805882194659 -0.0033143633350321963 0 0.030200212806831314 -0.0024042368701840755 0 0.030225805882194659 -0.0033143633350321963 0 0.02963506543572136 -0.0030293229599324379 0 0.030200212806831314 -0.0024042368701840755 0 0.028868802740079611 -0.0032045656130262894 0 0.029066270806827974 -0.0021508274811729597 0 0.028248546209436291 -0.002454160321937971 0 0.02963506543572136 -0.0030293229599324379 0 0.029066270806827974 -0.0021508274811729597 0 0.030200212806831314 -0.0024042368701840755 0 0.02963506543572136 -0.0030293229599324379 0 0.028868802740079611 -0.0032045656130262894 0 0.029066270806827974 -0.0021508274811729597 0 0.029829448251004548 -0.0040137705125012843 0 0.02963506543572136 -0.0030293229599324379 0 0.028868802740079611 -0.0032045656130262894 0 0.029066270806827974 -0.0021508274811729597 0 0.028710114881715761 -0.0012777414144777403 0 0.028024306240423253 -0.0015921867333451437 0 0.029066270806827974 -0.0021508274811729597 0 0.029732741139516808 -0.0013251929450539882 0 0.028710114881715761 -0.0012777414144777403 0 0.029066270806827974 -0.0021508274811729597 0 0.030200212806831314 -0.0024042368701840755 0 0.029732741139516808 -0.0013251929450539882 0 0.030200212806831314 -0.0024042368701840755 0 0.029732741139516808 -0.0013251929450539882 0 0.030606730837031443 -0.0013192579198308119 0 0.029732741139516808 -0.0013251929450539882 0 0.030606730837031443 -0.0013192579198308119 0 0.029952013987794276 -2.4665128173282228e-05 0 0.029190472487024034 -0.0035261459507181015 0 0.027127450742350619 -0.0018735156572633792 0 0.029732741139516808 -0.0013251929450539882 0 0.029318610893018973 -0.00060169357244027589 0 0.029952013987794276 -2.4665128173282228e-05 0 0.029732741139516808 -0.0013251929450539882 0 0.029318610893018973 -0.00060169357244027589 0 0.028710114881715761 -0.0012777414144777403 0 0.029318610893018973 -0.00060169357244027589 0 0.028125542251428572 -0.00070094312945296374 0 0.028710114881715761 -0.0012777414144777403 0 0.02737312267997357 -0.0063219309368985829 0 0.024866182464116947 -0.0054161038284637891 0 0.024857510943587222 -0.0095545540952640066 0 0.026709311968821904 -0.0029472915254862638 0 0.02737312267997357 -0.0063219309368985829 0 0.024866182464116947 -0.0054161038284637891 0 0.026709311968821904 -0.0029472915254862638 0 0.02737312267997357 -0.0063219309368985829 0 0.030044642196806182 -0.0038850132142669983 0 0.028629314449082646 -0.0025930822629244522 0 0.029113779268456031 -0.0082152364077881165 0 0.026878171068485286 -0.0040042617684099158 0 0.027246671117839759 -0.004941088278029024 0 0.026873261468408679 -0.0050900697580133847 0 0.028629314449082646 -0.0025930822629244522 0 0.029190472487024034 -0.0035261459507181015 0 0.030200212806831314 -0.0024042368701840755 0 0.031219992346407151 -0.0025379701867370512 0 0.030606730837031443 -0.0013192579198308119 0 0.02737312267997357 -0.0063219309368985829 0 0.030044642196806182 -0.0038850132142669983 0 0.030365395084657357 -0.0099208300169839215 0 0.027246671117839759 -0.004941088278029024 0 0.026873261468408679 -0.0050900697580133847 0 0.027624503397377761 -0.0058369950607512376 0 0.030365395084657357 -0.0099208300169839215 0 0.024857510943587222 -0.0095545540952640066 0 0.025965568164321187 -0.012422564554259236 0 0.030365395084657357 -0.0099208300169839215 0 0.025965568164321187 -0.012422564554259236 0 0.027995413076833064 -0.014128833977758392 0 0.02737312267997357 -0.0063219309368985829 0 0.030365395084657357 -0.0099208300169839215 0 0.024857510943587222 -0.0095545540952640066 0 0.025965568164321187 -0.012422564554259236 0 0.026114602960903659 -0.01434185710918999 0 0.024600701093462633 -0.014102911637017344 0 0.024828145740458264 -0.016391074120169883 0 0.026896593109719109 -0.015611567889178009 0 0.027166186230505766 -0.017219702369434271 0 0.024600701093462633 -0.014102911637017344 0 0.02483165977360368 -0.016436416284397536 0 0.025252142938661029 -0.015529493204148098 0 0.026114602960903659 -0.01434185710918999 0 0.024600701093462633 -0.014102911637017344 0 0.025252142938661029 -0.015529493204148098 0 0.026114602960903659 -0.01434185710918999 0 0.025252142938661029 -0.015529493204148098 0 0.026896593109719109 -0.015611567889178009 0 0.024828145740458264 -0.016391074120169883 0 0.025252142938661029 -0.015529493204148098 0 0.026896593109719109 -0.015611567889178009 0 0.019546574807289895 -0.012134079911783951 0 0.020127674881224456 -0.012844581060351563 0 0.026896593109719109 -0.015611567889178009 0 0.030517578694317898 -0.01593178531235151 0 0.027166186230505766 -0.017219702369434271 0 0.026896593109719109 -0.015611567889178009 0 0.027995413076833064 -0.014128833977758392 0 0.030517578694317898 -0.01593178531235151 0 0.026114602960903659 -0.01434185710918999 0 0.026896593109719109 -0.015611567889178009 0 0.027995413076833064 -0.014128833977758392 0 0.025965568164321187 -0.012422564554259236 0 0.026114602960903659 -0.01434185710918999 0 0.027995413076833064 -0.014128833977758392 0 0.029113779268456031 -0.0082152364077881165 0 0.022290057925834033 -0.0089688411261232698 0 0.017789548122702083 -0.0046695103807686995 0 0.020089297912140786 -0.0070711685487344772 0 0.025269406812771834 -0.0018005642949526024 0 0.022290057925834033 -0.0089688411261232698 0 0.027127450742350619 -0.0018735156572633792 0 0.030365395084657357 -0.0099208300169839215 0 0.027995413076833064 -0.014128833977758392 0 0.030517578694317898 -0.01593178531235151 0 0.026873261468408679 -0.0050900697580133847 0 0.026871807508775897 -0.0061445857842347823 0 0.027624503397377761 -0.0058369950607512376 0 0.01759894483787126 -0.0092084499463973742 0 0.017634364429391571 -0.009084433851082525 0 0.017785480316628785 -0.0091498009909773484 0 0.01759894483787126 -0.0092084499463973742 0 0.017634364429391571 -0.009084433851082525 0 0.017581855563131812 -0.0091017490999343378 0 0.009430404240812788 -0.0050605204112536438 0 -0.0031270274391205916 -0.0039677754374820989 0 0.0052168511694190185 -0.0033219523740656469 0 0.0057071024447882335 -0.0034988826057975081 0 0.003567294119622665 -0.0055098834652310353 0 0.022290057925834033 -0.0089688411261232698 0 0.019200632942787999 -0.010556390389888766 0 0.011407379273274074 -0.00651235040571254 0 0.013600893904787656 -0.0061379630593086211 0 0.011398732052385695 -0.0071905591987057186 0 0.011992197217486185 -0.0069636039082400661 0 0.012006780433945629 -0.0074063623086110895 0 0.011407379273274074 -0.00651235040571254 0 0.009430404240812788 -0.0050605204112536438 0 0.015382952841003284 -0.0033822190509251769 0 0.013962760627387872 -0.0047722481154109184 0 0.018272231324003782 -0.0038038402025002281 0 0.022290057925834033 -0.0089688411261232698 0 0.013600893904787656 -0.0061379630593086211 0 0.017789548122702083 -0.0046695103807686995 0 0.020089297912140786 -0.0070711685487344772 0 0.017913237995105392 -0.0078931245905169891 0 0.016291390442994533 -0.0045002970240274123 0 0.013600893904787656 -0.0061379630593086211 0 0.014039860412466848 -0.0035914672410868576 0 0.011461078642633378 -0.0045659209424826512 0 0.011514888829785483 -0.0060681986774150281 0 0.016291390442994533 -0.0045002970240274123 0 0.009430404240812788 -0.0050605204112536438 0 0.013600893904787656 -0.0061379630593086211 0 0.009430404240812788 -0.0050605204112536438 0 0.012765507673325467 -0.0071261076249314551 0 0.010040774456399851 -0.0092799393333925593 0 0.010689220060471207 -0.0079240722438157773 0 0.014274051745392211 -0.0076674932468255739 0 0.012765507673325467 -0.0071261076249314551 0 0.010040774456399851 -0.0092799393333925593 0 0.0052168511694190185 -0.0033219523740656469 0 0.003567294119622665 -0.0055098834652310353 0 0.0017970219947985107 -0.0046017297151364454 0 0.011407379273274074 -0.00651235040571254 0 0.0065149699084144858 -0.0077326255936265801 0 0.019546574807289895 -0.012134079911783951 0 0.013498887941339608 -0.010394489014700695 0 0.019200632942787999 -0.010556390389888766 0 0.013498887941339608 -0.010394489014700695 0 0.019546574807289895 -0.012134079911783951 0 0.019200632942787999 -0.010556390389888766 0 0.016919004721163224 -0.0097781233743506127 0 0.018731904990256773 -0.010432647757505031 0 0.016137814047854891 -0.011422589507894406 0 0.011407379273274074 -0.00651235040571254 0 0.019200632942787999 -0.010556390389888766 0 0.029373507856374301 -2.559906075413688e-05 0 0.027127450742350619 -0.0018735156572633792 0 0.029318610893018973 -0.00060169357244027589 0 0.028125542251428572 -0.00070094312945296374 0 0.030109930948725386 0.00019553762105237752 0 0.028125542251428572 -0.00070094312945296374 0 0.028468307260077999 -9.1008058702607181e-05 0 0.029438976302056611 -0.00012378895291516984 0 0.024157368278860596 -0.00085944904297610876 0 0.023252493324574127 -0.003462110830632339 0 0.026308685256215152 -0.0026723742578448769 0 0.024157368278860596 -0.00085944904297610876 0 0.019881752223332994 -0.0019949458046074663 0 0.023252493324574127 -0.003462110830632339 0 0.026391774069299937 -0.00053260068510781915 0 0.023849775423630461 -0.00203164834958888 0 0.028468307260077999 -9.1008058702607181e-05 0 0.029271547407069588 0.00021013485786663339 0 0.029438976302056611 -0.00012378895291516984 0 0.023849775423630461 -0.00203164834958888 0 0.027127450742350619 -0.0018735156572633792 0 0.029893034249768306 0.00012335626896909608 0 0.027127450742350619 -0.0018735156572633792 0 0.018730730737135912 -0.0053087490869003729 0 0.024917484216956311 -0.0029709199274272763 0 0.023691626473904461 -0.00026668586171150945 0 0.016291390442994533 -0.0045002970240274123 0 0.027127450742350619 -0.0018735156572633792 0 0.009430404240812788 -0.0050605204112536438 0 0.0089869361057509974 -5.9980498379866366e-05 0 0.0078481965783790825 -0.0038266417946442935 0 0.0087044977920232528 -0.0041137055105476749 0 0.0086318926611662159 -0.0041370016685753483 0 0.013962760627387872 -0.0047722481154109184 0 0.018272231324003782 -0.0038038402025002281 0 0.022260333786631156 -0.0075977571109560414 0 0.015382952841003284 -0.0033822190509251769 0 0.019712673962730985 -0.0017633497261591424 0 0.018272231324003782 -0.0038038402025002281 0 0.016291390442994533 -0.0045002970240274123 0 0.023849775423630461 -0.00203164834958888 0 0.018272231324003782 -0.0038038402025002281 0 0.021306651502355431 -0.0047255862779511859 0 0.022260333786631156 -0.0075977571109560414 0 0.019881752223332994 -0.0019949458046074663 0 0.020415741372647473 -0.0032946461374129734 0 0.023252493324574127 -0.003462110830632339 0 0.018272231324003782 -0.0038038402025002281 0 0.020415741372647473 -0.0032946461374129734 0 0.021306651502355431 -0.0047255862779511859 0 0.019712673962730985 -0.0017633497261591424 0 0.018272231324003782 -0.0038038402025002281 0 0.020415741372647473 -0.0032946461374129734 0 0.023849775423630461 -0.00203164834958888 0 0.022894712356309535 -0.0019342685907928418 0 -0.0002035137361049333 0.0048440845859833541 0 0.00088911362755497486 0.0052006471431959266 0 0.0010665428591721663 0.0064251603494211267 0 0.023252493324574127 -0.003462110830632339 0 0.022260333786631156 -0.0075977571109560414 0 0.026308685256215152 -0.0026723742578448769 0 0.0089869361057509974 -5.9980498379866366e-05 0 0.013768017824128764 0.0017212837228515316 0 0.020415741372647473 -0.0032946461374129734 0 0.021306651502355431 -0.0047255862779511859 0 0.023252493324574127 -0.003462110830632339 0 0.021306651502355431 -0.0047255862779511859 0 0.023252493324574127 -0.003462110830632339 0 0.022260333786631156 -0.0075977571109560414 0 0.0089869361057509974 -5.9980498379866366e-05 0 -0.0025540613079874657 0.0057753051456502493 0 -0.0002035137361049333 0.0048440845859833541 0 0.00088911362755497486 0.0052006471431959266 0 0.0012824805980101704 0.0042213557672558452 0 0.0004923515054177088 0.0043285122409357883 0 -0.00067947102206532609 0.0047992371732759661 0 0.0012824805980101704 0.0042213557672558452 0 -0.00090732594002667733 0.0045418683007745955 0 -0.00060522329851600033 0.0035947796376220834 0 -0.001212195542498126 0.0030522624029901513 0 0.0004923515054177088 0.0043285122409357883 0 -0.00037311623939716891 0.0041105755082238484 0 -0.00016269962380202678 0.0032894630608227365 0 0.0004923515054177088 0.0043285122409357883 0 -0.00067947102206532609 0.0047992371732759661 0 -0.00037311623939716891 0.0041105755082238484 0 0.0089869361057509974 -5.9980498379866366e-05 0 0.0029499916232928742 -0.00047530678138784803 0 0.0087044977920232528 -0.0041137055105476749 0 0.0086318926611662159 -0.0041370016685753483 0 0.0086094769305189566 -0.004191884250753162 0 0.0031354285673831465 -0.00092272384574552783 0 0.0029499916232928742 -0.00047530678138784803 0 -0.00067947102206532609 0.0047992371732759661 0 -0.00090732594002667733 0.0045418683007745955 0 -0.00037311623939716891 0.0041105755082238484 0 -0.00090732594002667733 0.0045418683007745955 0 -0.00037311623939716891 0.0041105755082238484 0 -0.00060522329851600033 0.0035947796376220834 0 -0.00037311623939716891 0.0041105755082238484 0 -0.00060522329851600033 0.0035947796376220834 0 -0.00016269962380202678 0.0032894630608227365 0 0.0078481965783790825 -0.0038266417946442935 0 0.0086318926611662159 -0.0041370016685753483 0 0.0082049636315466457 -0.0042426227355658744 0 0.0029499916232928742 -0.00047530678138784803 0 -0.0033428681598094627 0.0020539986764710528 0 -0.0056360024672355551 0.0015008852125211018 0 -0.0060867764231733491 0.00074794425950853896 0 -0.0059362137029913276 0.00018604783340039023 0 -0.0056360024672355551 0.0015008852125211018 0 -0.0060867764231733491 0.00074794425950853896 0 -0.0067095557649245923 0.00041012628351720366 0 0.0029499916232928742 -0.00047530678138784803 0 0.00077171859438422501 -0.0020625899867085041 0 0.0086132484507142996 -0.0042053367256503693 0 0.0082049636315466457 -0.0042426227355658744 0 0.0081686668257517966 -0.0046412305161009065 0 0.0086318926611662159 -0.0041370016685753483 0 0.0086132484507142996 -0.0042053367256503693 0 0.0082049636315466457 -0.0042426227355658744 0 0.0082049636315466457 -0.0042426227355658744 0 0.0081686668257517966 -0.0046412305161009065 0 0.0077648224445147325 -0.0044225831167875786 0 -0.0060867764231733491 0.00074794425950853896 0 -0.0059362137029913276 0.00018604783340039023 0 -0.0061371962129174373 -0.0010821824634523218 0 -0.0060867764231733491 0.00074794425950853896 0 -0.0067095557649245923 0.00041012628351720366 0 -0.0063832498659040313 -0.0011551859453172979 0 -0.0033428681598094627 0.0020539986764710528 0 -0.0050234356408073401 -0.00014148969037458382 0 -0.001212195542498126 0.0030522624029901513 0 -0.00057469872411985794 0.002548041166056694 0 -0.0014730012367090619 0.0016330483279689784 0 -0.0067095557649245923 0.00041012628351720366 0 -0.0076918006751553252 -0.00067178835387703172 0 -0.0063832498659040313 -0.0011551859453172979 0 -0.0063255863652432152 0.00023979279203451052 0 -0.0050234356408073401 -0.00014148969037458382 0 0.0004923515054177088 0.0043285122409357883 0 0.00013299040974568615 0.0021736464601253293 0 -0.00016269962380202678 0.0032894630608227365 0 0.00045466797863511063 0.0041673280049067726 0 0.00018159575502121677 0.0024953450457382027 0 -0.00063946573645680014 0.0031206373011846769 0 -0.00057469872411985794 0.002548041166056694 0 -0.00016269962380202678 0.0032894630608227365 0 -0.00060522329851600033 0.0035947796376220834 0 -0.001212195542498126 0.0030522624029901513 0 -0.00063946573645680014 0.0031206373011846769 0 -0.00060522329851600033 0.0035947796376220834 0 -0.00063946573645680014 0.0031206373011846769 0 -0.00016269962380202678 0.0032894630608227365 0 -0.001212195542498126 0.0030522624029901513 0 -0.00063946573645680014 0.0031206373011846769 0 -0.00057469872411985794 0.002548041166056694 0 -0.00057469872411985794 0.002548041166056694 0 0.00013299040974568615 0.0021736464601253293 0 -0.00058102927707448775 0.0016638038478224554 0 -0.00057469872411985794 0.002548041166056694 0 0.00013299040974568615 0.0021736464601253293 0 -0.00016269962380202678 0.0032894630608227365 0 -0.0031270274391205916 -0.0039677754374820989 0 -0.0030906530696131404 -0.0048024551228741568 0 -0.0073955011907923017 -0.001868404183467309 0 -0.0068197864518854505 -0.0019895549494823059 0 -0.0074471953149967528 -0.0024628596449906212 0 -0.0067016691154262306 -0.0013478479012889787 0 -0.0073955011907923017 -0.001868404183467309 0 -0.0068197864518854505 -0.0019895549494823059 0 0.009430404240812788 -0.0050605204112536438 0 0.00028482090525301499 -0.0028598759292257007 0 0.0078481965783790825 -0.0038266417946442935 0 0.0082049636315466457 -0.0042426227355658744 0 0.0077648224445147325 -0.0044225831167875786 0 0.00028482090525301499 -0.0028598759292257007 0 -0.0028587060262749262 -0.0030663229165504833 0 -0.0068197864518854505 -0.0019895549494823059 0 -0.0069207992005156293 -0.0025666671064047651 0 -0.0074471953149967528 -0.0024628596449906212 0 0.0081686668257517966 -0.0046412305161009065 0 0.0077648224445147325 -0.0044225831167875786 0 0.0076747119330525908 -0.0050832509226399871 0 0.00077171859438422501 -0.0020625899867085041 0 -0.0028587060262749262 -0.0030663229165504833 0 -0.0073955011907923017 -0.001868404183467309 0 -0.0074471953149967528 -0.0024628596449906212 0 -0.0079433859750247405 -0.0023817115855683363 0 0.0014723755746869252 -0.0074472078095618576 0 0.0006165635257380542 -0.0070030899943622216 0 -0.00058031891176513238 -0.0093123704780245301 0 -0.0074471953149967528 -0.0024628596449906212 0 -0.0079433859750247405 -0.0023817115855683363 0 -0.007870951541300077 -0.0028079236603452671 0 0.0014187994078469312 -0.007183912353552882 0 -0.0040303864188539033 -0.0061744701710587753 0 0.0014575430161728872 -0.007393799957553444 0 0.00096796037820552747 -0.0078983697607555251 0 0.001668807314733475 -0.0081815149012244952 0 0.0021761630486332936 -0.007290358385448302 0 0.0014575430161728872 -0.007393799957553444 0 0.001668807314733475 -0.0081815149012244952 0 -0.0030906530696131404 -0.0048024551228741568 0 -0.0040303864188539033 -0.0061744701710587753 0 0.0021761630486332936 -0.007290358385448302 0 0.0014575430161728872 -0.007393799957553444 0 0.0017514688051648813 -0.0066900374011361679 0 0.011060295862790268 -0.011867527318481072 0 0.011547036368272597 -0.011140826085162219 0 0.010317105263147931 -0.011588798965315148 0 0.011880742828522176 -0.011070706381337028 0 0.010547395743344762 -0.011534429423631538 0 0.0068077179964535902 -0.0092491074792265225 0 0.0065149699084144858 -0.0077326255936265801 0 0.0014723755746869252 -0.0074472078095618576 0 0.0006165635257380542 -0.0070030899943622216 0 0.0017970219947985107 -0.0046017297151364454 0 0.003567294119622665 -0.0055098834652310353 0 0.0014723755746869252 -0.0074472078095618576 0 0.0017970219947985107 -0.0046017297151364454 0 0.011060295862790268 -0.011867527318481072 0 0.012355699192864493 -0.011300617266858793 0 0.011547036368272597 -0.011140826085162219 0 0.0014187994078469312 -0.007183912353552882 0 0.0065149699084144858 -0.0077326255936265801 0 0.0021761630486332936 -0.007290358385448302 0 0.0017514688051648813 -0.0066900374011361679 0 0.0026852637177654896 -0.0063508577171050894 0 0.01427992328874637 -0.010301568738540301 0 0.012302095006166306 -0.010995995739729394 0 0.011621022031536327 -0.0081676708682713612 0 0.0065149699084144858 -0.0077326255936265801 0 0.013498887941339608 -0.010394489014700695 0 0.012355699192864493 -0.011300617266858793 0 0.012634373619863829 -0.010703295780766557 0 0.011547036368272597 -0.011140826085162219 0 0.013498887941339608 -0.010394489014700695 0 0.011880742828522176 -0.011070706381337028 0 0.012302095006166306 -0.010995995739729394 0 0.010546780739399427 -0.0098732913201164466 0 0.011621022031536327 -0.0081676708682713612 0 0.012302095006166306 -0.010995995739729394 0 0.010546780739399427 -0.0098732913201164466 0 0.010317105263147931 -0.011588798965315148 0 0.010546780739399427 -0.0098732913201164466 0 0.011621022031536327 -0.0081676708682713612 0 0.0096278486950326266 -0.0084878986552365514 0 0.0147878798030605 -0.009294673285270047 0 0.01427992328874637 -0.010301568738540301 0 0.011621022031536327 -0.0081676708682713612 0 0.02483165977360368 -0.016436416284397536 0 0.018024008851581706 -0.014329226777057367 0 0.022152339639773377 -0.012686808006374442 0 0.019546574807289895 -0.012134079911783951 0 0.01525054832743338 -0.011633364817662036 0 0.025965568164321187 -0.012422564554259236 0 0.024600701093462633 -0.014102911637017344 0 0.022152339639773377 -0.012686808006374442 0 0.024600701093462633 -0.014102911637017344 0 0.02483165977360368 -0.016436416284397536 0 0.022152339639773377 -0.012686808006374442 0 0.0078405047903086309 -0.0077225659033676982 0 0.0040357615124681449 -0.0050440870750228239 0 0.0041992689575374095 -0.0043906621756629608 0 0.0042929943982978865 -0.0051476412661112404 0 0.0038125969989855507 -0.0049828831892636226 0 0.0050454047072821841 -0.0058430892872692163 0 0.0049662942825796086 -0.0057896981265724333 0 0.0047222708137583174 -0.0057908872379097143 0 0.0050454047072821841 -0.0058430892872692163 0 0.0051162701099495339 -0.0058494288284837116 0 0.0049662942825796086 -0.0057896981265724333 0 0.0084714275379241272 -0.0070587932642677204 0 0.011621022031536327 -0.0081676708682713612 0 0.0096278486950326266 -0.0084878986552365514 0 0.0078405047903086309 -0.0077225659033676982 0 0.0068051869234267781 -0.0073800009603728093 0 0.0078405047903086309 -0.0077225659033676982 0 0.01525054832743338 -0.011633364817662036 0 0.0084714275379241272 -0.0070587932642677204 0 0.0096278486950326266 -0.0084878986552365514 0 0.0089134553819385769 -0.010063412384244162 0 0.010546780739399427 -0.0098732913201164466 0 0.0096278486950326266 -0.0084878986552365514 0 0.0089134553819385769 -0.010063412384244162 0 0.010546780739399427 -0.0098732913201164466 0 0.0089134553819385769 -0.010063412384244162 0 0.010317105263147931 -0.011588798965315148 0 0.0042929943982978865 -0.0051476412661112404 0 0.0038125969989855507 -0.0049828831892636226 0 0.0039201137039319572 -0.0056327734536413881 0 0.0038125969989855507 -0.0049828831892636226 0 0.0039201137039319572 -0.0056327734536413881 0 0.0032640677288457627 -0.0056134714965378188 0 0.0039201137039319572 -0.0056327734536413881 0 0.0044655561426941732 -0.0060940633754977738 0 0.0034674585101420502 -0.0065557115665339219 0 0.0042929943982978865 -0.0051476412661112404 0 0.0039201137039319572 -0.0056327734536413881 0 0.0044655561426941732 -0.0060940633754977738 0 0.0014575430161728872 -0.007393799957553444 0 0.0017514688051648813 -0.0066900374011361679 0 0.00087314265302371131 -0.0070304731405907471 0 0.0068077179964535902 -0.0092491074792265225 0 0.0028219693209922355 -0.0085440834862582048 0 0.0068051869234267781 -0.0073800009603728093 0 0.0028219693209922355 -0.0085440834862582048 0 0.011060295862790268 -0.011867527318481072 0 0.0093480756542690113 -0.012630024444321462 0 0.010317105263147931 -0.011588798965315148 0 0.0089134553819385769 -0.010063412384244162 0 0.0093480756542690113 -0.012630024444321462 0 0.010317105263147931 -0.011588798965315148 0 -0.0048493715423375602 -0.009185907066693243 0 -0.0038936380731980857 -0.0076196073014036672 0 -0.0051071821068540656 -0.0073344257156793607 0 0.0028219693209922355 -0.0085440834862582048 0 -0.0021668670741525858 -0.0075956745249526492 0 0.0014575430161728872 -0.007393799957553444 0 0.00087314265302371131 -0.0070304731405907471 0 0.00096796037820552747 -0.0078983697607555251 0 0.0028219693209922355 -0.0085440834862582048 0 -0.00011973010472009325 -0.007431960587308638 0 -0.0048493715423375602 -0.009185907066693243 0 -0.0038936380731980857 -0.0076196073014036672 0 -0.0024958148827122087 -0.0084383201507121416 0 -0.0038936380731980857 -0.0076196073014036672 0 -0.0024958148827122087 -0.0084383201507121416 0 -0.0028496793067008183 -0.0069806433619949079 0 -0.00011973010472009325 -0.007431960587308638 0 0.0013400272330476414 -0.0068190733293120994 0 -0.0024958148827122087 -0.0084383201507121416 0 0.001095712655992084 -0.0067502775410909393 0 -0.0014060896016870397 -0.0067168805438401367 0 0.0034674585101420502 -0.0065557115665339219 0 0.0032640677288457627 -0.0056134714965378188 0 0.0022753998713415978 -0.0064577360032012495 0 0.0034674585101420502 -0.0065557115665339219 0 0.0022753998713415978 -0.0064577360032012495 0 0.001095712655992084 -0.0067502775410909393 0 0.0034825417270952343 -0.0058572492761531777 0 0.0025254067434745718 -0.0064200771150848693 0 0.0037939062763881269 -0.0060769425443754745 0 0.0027902241058718569 -0.006109770880287353 0 0.0022753998713415978 -0.0064577360032012495 0 0.0039201137039319572 -0.0056327734536413881 0 0.0034674585101420502 -0.0065557115665339219 0 0.0032640677288457627 -0.0056134714965378188 0 0.0037939062763881269 -0.0060769425443754745 0 0.0027902241058718569 -0.006109770880287353 0 0.0034221914556037177 -0.0057972896389249656 0 0.0027902241058718569 -0.006109770880287353 0 0.0026598146221373667 -0.0060174509820684289 0 0.0034221914556037177 -0.0057972896389249656 0 0.0027902241058718569 -0.006109770880287353 0 0.0020197383354708235 -0.0062617057251704265 0 0.0026598146221373667 -0.0060174509820684289 0 0.0027902241058718569 -0.006109770880287353 0 0.0022753998713415978 -0.0064577360032012495 0 0.0020197383354708235 -0.0062617057251704265 0 0.001526816701583372 -0.0063236204761950646 0 0.0020197383354708235 -0.0062617057251704265 0 0.001095712655992084 -0.0067502775410909393 0 0.0022753998713415978 -0.0064577360032012495 0 0.0020197383354708235 -0.0062617057251704265 0 0.001095712655992084 -0.0067502775410909393 0 0.0019258559193061021 -0.0061207698552004433 0 0.0020197383354708235 -0.0062617057251704265 0 0.0026598146221373667 -0.0060174509820684289 0 0.001526816701583372 -0.0063236204761950646 0 0.0019258559193061021 -0.0061207698552004433 0 0.0020197383354708235 -0.0062617057251704265 0 0.0019258559193061021 -0.0061207698552004433 0 0.0022629022815898302 -0.0057617037838432776 0 0.0017352601502286316 -0.0056413721517628431 0 0.0019258559193061021 -0.0061207698552004433 0 0.0025231342841813423 -0.005993547706615485 0 0.0022629022815898302 -0.0057617037838432776 0 0.0030026875348157238 -0.0058142758762934439 0 0.0025231342841813423 -0.005993547706615485 0 0.0026598146221373667 -0.0060174509820684289 0 0.0019258559193061021 -0.0061207698552004433 0 0.0025231342841813423 -0.005993547706615485 0 0.0026598146221373667 -0.0060174509820684289 0 0.0030026875348157238 -0.0058142758762934439 0 0.0025231342841813423 -0.005993547706615485 0 0.0028258360624262139 -0.0058893529213894869 0 0.0030026875348157238 -0.0058142758762934439 0 0.0026598146221373667 -0.0060174509820684289 0 0.0034914623165320305 -0.0055534906712815055 0 0.0026598146221373667 -0.0060174509820684289 0 0.0034914623165320305 -0.0055534906712815055 0 0.0034221914556037177 -0.0057972896389249656 0 0.0034914623165320305 -0.0055534906712815055 0 0.0034128447911679401 -0.0054938964993645539 0 0.0040429439664727996 -0.0050334876724855201 0 0.0030026875348157238 -0.0058142758762934439 0 0.0034914623165320305 -0.0055534906712815055 0 0.0034128447911679401 -0.0054938964993645539 0 0.0030026875348157238 -0.0058142758762934439 0 0.0034128447911679401 -0.0054938964993645539 0 0.0028258360624262139 -0.0058893529213894869 0 0.0040429439664727996 -0.0050334876724855201 0 0.0042856328905858361 -0.0050491996211231398 0 0.0047797689321819317 -0.0042983449315026016 0 0.0034128447911679401 -0.0054938964993645539 0 0.0040429439664727996 -0.0050334876724855201 0 0.003987179782611064 -0.0050225437794324101 0 0.0040429439664727996 -0.0050334876724855201 0 0.003987179782611064 -0.0050225437794324101 0 0.0047797689321819317 -0.0042983449315026016 0 0.0040429439664727996 -0.0050334876724855201 0 0.0039787453492243817 -0.0053380474571531975 0 0.0042856328905858361 -0.0050491996211231398 0 0.0034914623165320305 -0.0055534906712815055 0 0.0040429439664727996 -0.0050334876724855201 0 0.0039787453492243817 -0.0053380474571531975 0 0.0034914623165320305 -0.0055534906712815055 0 0.0039787453492243817 -0.0053380474571531975 0 0.0039411153495856237 -0.005607590924848348 0 0.0039787453492243817 -0.0053380474571531975 0 0.0039411153495856237 -0.005607590924848348 0 0.0042902907740349858 -0.0054970369211383577 0 0.0039411153495856237 -0.005607590924848348 0 0.004459561093237893 -0.0056804623690748868 0 0.0042902907740349858 -0.0054970369211383577 0 0.0049662942825796086 -0.0057896981265724333 0 0.004459561093237893 -0.0056804623690748868 0 0.0048252624052659782 -0.0056986907399189778 0 0.0047222708137583174 -0.0057908872379097143 0 0.004459561093237893 -0.0056804623690748868 0 0.0040656621650074984 -0.0057688152813630779 0 0.0049662942825796086 -0.0057896981265724333 0 0.0047222708137583174 -0.0057908872379097143 0 0.004459561093237893 -0.0056804623690748868 0 0.0039411153495856237 -0.005607590924848348 0 0.004459561093237893 -0.0056804623690748868 0 0.0040656621650074984 -0.0057688152813630779 0 0.0037939062763881269 -0.0060769425443754745 0 0.0040656621650074984 -0.0057688152813630779 0 0.0034221914556037177 -0.0057972896389249656 0 0.0040357615124681449 -0.0050440870750228239 0 0.0034825417270952343 -0.0058572492761531777 0 0.0047222708137583174 -0.0057908872379097143 0 0.0037939062763881269 -0.0060769425443754745 0 0.0040656621650074984 -0.0057688152813630779 0 0.0034914623165320305 -0.0055534906712815055 0 0.0039411153495856237 -0.005607590924848348 0 0.0034221914556037177 -0.0057972896389249656 0 0.0039411153495856237 -0.005607590924848348 0 0.0040656621650074984 -0.0057688152813630779 0 0.0034221914556037177 -0.0057972896389249656 0 0.0036662111781399654 -0.005694172788647792 0 0.0033423642605020783 -0.005541753332098805 0 0.0032029123312726174 -0.0057605461847828167 0 0.0036662111781399654 -0.005694172788647792 0 0.0032029123312726174 -0.0057605461847828167 0 0.0034793052888582722 -0.0058914290369821111 0 0.0036662111781399654 -0.005694172788647792 0 0.0034793052888582722 -0.0058914290369821111 0 0.0037184486707510095 -0.0059215533201329145 0 0.0039305544415837428 -0.0053503692785879433 0 0.0038672608519130028 -0.0058699206328649096 0 0.0033423642605020783 -0.005541753332098805 0 0.0033191976497890432 -0.0057379547580397351 0 0.0035184966846021023 -0.0056091595629819248 0 0.0033423642605020783 -0.005541753332098805 0 0.0032029123312726174 -0.0057605461847828167 0 0.0028346038476561616 -0.0057065945390369788 0 0.0032029123312726174 -0.0057605461847828167 0 0.002849550754338172 -0.0058459346558762592 0 0.003186486138996377 -0.0058985932694532667 0 0.0032029123312726174 -0.0057605461847828167 0 0.003186486138996377 -0.0058985932694532667 0 0.0034793052888582722 -0.0058914290369821111 0 0.0032029123312726174 -0.0057605461847828167 0 0.002849550754338172 -0.0058459346558762592 0 0.0028346038476561616 -0.0057065945390369788 0 0.002849550754338172 -0.0058459346558762592 0 0.0029242540199425977 -0.0058899660317380488 0 0.003186486138996377 -0.0058985932694532667 0 0.002849550754338172 -0.0058459346558762592 0 0.0028258360624262139 -0.0058893529213894869 0 0.0029242540199425977 -0.0058899660317380488 0 0.002849550754338172 -0.0058459346558762592 0 0.0028346038476561616 -0.0057065945390369788 0 0.0026248939513886177 -0.0058795049878314024 0 0.0028346038476561616 -0.0057065945390369788 0 0.0022629022815898302 -0.0057617037838432776 0 0.0028207700446633019 -0.0053046201158637278 0 0.0033423642605020783 -0.005541753332098805 0 0.0028346038476561616 -0.0057065945390369788 0 0.0028207700446633019 -0.0053046201158637278 0 0.0025231342841813423 -0.005993547706615485 0 0.0022629022815898302 -0.0057617037838432776 0 0.0026248939513886177 -0.0058795049878314024 0 0.0028346038476561616 -0.0057065945390369788 0 0.0022629022815898302 -0.0057617037838432776 0 0.0026248939513886177 -0.0058795049878314024 0 0.0025231342841813423 -0.005993547706615485 0 0.0026248939513886177 -0.0058795049878314024 0 0.0028258360624262139 -0.0058893529213894869 0 0.002849550754338172 -0.0058459346558762592 0 0.0026248939513886177 -0.0058795049878314024 0 0.0028258360624262139 -0.0058893529213894869 0 0.0036693380626909261 -0.0055735350616167145 0 0.0027123292375373169 -0.0053862724196587089 0 0.0028258360624262139 -0.0058893529213894869 0 0.0028552520286715538 -0.005819310112529545 0 0.0029242540199425977 -0.0058899660317380488 0 0.0034128447911679401 -0.0054938964993645539 0 0.0028258360624262139 -0.0058893529213894869 0 0.0028552520286715538 -0.005819310112529545 0 0.003987179782611064 -0.0050225437794324101 0 0.0035533457275295985 -0.0047622363699905022 0 0.0047797689321819317 -0.0042983449315026016 0 0.0057717470145769462 -0.0037065958316937269 0 0.0049253813029957365 -0.004134854535187046 0 0.0034128447911679401 -0.0054938964993645539 0 0.003987179782611064 -0.0050225437794324101 0 0.0036837169721637584 -0.0051147607678557775 0 0.003987179782611064 -0.0050225437794324101 0 0.0036837169721637584 -0.0051147607678557775 0 0.0035533457275295985 -0.0047622363699905022 0 0.0027123292375373169 -0.0053862724196587089 0 0.0068189656472895386 -0.0041076361540719033 0 0.0057717470145769462 -0.0037065958316937269 0 0.0068189656472895386 -0.0041076361540719033 0 0.0078889269674699732 -0.0025281716220446099 0 0.010425497774979907 -0.0018690378886049249 0 0.0096581119357783806 -0.0036282859680186745 0 0.0036837169721637584 -0.0051147607678557775 0 0.0035533457275295985 -0.0047622363699905022 0 0.0031390619705137309 -0.0049213071176169177 0 0.0028552520286715538 -0.005819310112529545 0 0.0029242540199425977 -0.0058899660317380488 0 0.0030944830426004868 -0.006126946833370033 0 0.0029242540199425977 -0.0058899660317380488 0 0.003186486138996377 -0.0058985932694532667 0 0.0030944830426004868 -0.006126946833370033 0 0.003186486138996377 -0.0058985932694532667 0 0.0030944830426004868 -0.006126946833370033 0 0.003574831204234746 -0.0061286444549266492 0 0.010371637769473736 -0.0032112123953492674 0 0.012216828237192787 -0.0037423796527684267 0 0.012380554951678198 -0.0025966214387082294 0 0.0068189656472895386 -0.0041076361540719033 0 0.013118830287553954 -0.003423143792833469 0 0.0068189656472895386 -0.0041076361540719033 0 0.0082505569581031186 -0.0042925374427139487 0 0.010425497774979907 -0.0018690378886049249 0 0.012818357215015369 -0.0031086383898482734 0 0.011411218684147845 -0.0036986736297008722 0 0.010425497774979907 -0.0018690378886049249 0 0.011411218684147845 -0.0036986736297008722 0 0.0096581119357783806 -0.0036282859680186745 0 0.013154944582802527 -0.0031877227978638453 0 0.012216828237192787 -0.0037423796527684267 0 0.012380554951678198 -0.0025966214387082294 0 0.003186486138996377 -0.0058985932694532667 0 0.003574831204234746 -0.0061286444549266492 0 0.0034793052888582722 -0.0058914290369821111 0 0.003574831204234746 -0.0061286444549266492 0 0.0034793052888582722 -0.0058914290369821111 0 0.0037184486707510095 -0.0059215533201329145 0 0.013109008876782133 -0.004944817542252641 0 0.013011813311542761 -0.0066122157659897268 0 0.013697380510985659 -0.0060655361407539127 0 0.012818357215015369 -0.0031086383898482734 0 0.013109008876782133 -0.004944817542252641 0 0.011411218684147845 -0.0036986736297008722 0 0.014018588377946279 -0.0040257158821877369 0 0.012818357215015369 -0.0031086383898482734 0 0.013109008876782133 -0.004944817542252641 0 0.013109008876782133 -0.004944817542252641 0 0.011411218684147845 -0.0036986736297008722 0 0.010713954805035553 -0.0051173933994047094 0 0.011411218684147845 -0.0036986736297008722 0 0.010713954805035553 -0.0051173933994047094 0 0.0096581119357783806 -0.0036282859680186745 0 0.013109008876782133 -0.004944817542252641 0 0.010713954805035553 -0.0051173933994047094 0 0.013011813311542761 -0.0066122157659897268 0 0.010713954805035553 -0.0051173933994047094 0 0.0076739173715965467 -0.0073990948314108154 0 0.013011813311542761 -0.0066122157659897268 0 0.010713954805035553 -0.0051173933994047094 0 0.0074630038557524855 -0.0047910546575336832 0 0.0076739173715965467 -0.0073990948314108154 0 0.0078889269674699732 -0.0025281716220446099 0 0.0096581119357783806 -0.0036282859680186745 0 0.0074630038557524855 -0.0047910546575336832 0 0.010713954805035553 -0.0051173933994047094 0 0.0096581119357783806 -0.0036282859680186745 0 0.0074630038557524855 -0.0047910546575336832 0 0.0074630038557524855 -0.0047910546575336832 0 0.0047797689321819317 -0.0042983449315026016 0 0.0051492503320004143 -0.005469866460416189 0 0.0078889269674699732 -0.0025281716220446099 0 0.0074630038557524855 -0.0047910546575336832 0 0.0047797689321819317 -0.0042983449315026016 0 0.0074630038557524855 -0.0047910546575336832 0 0.0076739173715965467 -0.0073990948314108154 0 0.0051492503320004143 -0.005469866460416189 0 0.014705968587639598 -0.0061692422663236247 0 0.014844847856713651 -0.005639129586836533 0 0.014793131812636308 -0.0055910782021029795 0 0.014705968587639598 -0.0061692422663236247 0 0.014200398523198795 -0.0058836221823453695 0 0.014793131812636308 -0.0055910782021029795 0 0.011021549530256466 -0.0066679720406977771 0 0.012899474595771839 -0.0066787369799896149 0 0.014705968587639598 -0.0061692422663236247 0 0.013011813311542761 -0.0066122157659897268 0 0.014200398523198795 -0.0058836221823453695 0 0.014200398523198795 -0.0058836221823453695 0 0.013880487707630229 -0.0060965092876257574 0 0.014652813806279632 -0.0056217389400636947 0 0.013011813311542761 -0.0066122157659897268 0 0.014200398523198795 -0.0058836221823453695 0 0.013880487707630229 -0.0060965092876257574 0 0.013011813311542761 -0.0066122157659897268 0 0.013880487707630229 -0.0060965092876257574 0 0.013697380510985659 -0.0060655361407539127 0 0.0043252751432736334 -0.0052105714797759575 0 0.0043424818398258057 -0.0050770232221708953 0 0.0046119955653071611 -0.0062866516129019773 0 0.0044692766747589895 -0.005073912663264026 0 0.004270358768969809 -0.0052924857333500755 0 0.0046223628171296735 -0.0053438220483132959 0 0.0044692766747589895 -0.005073912663264026 0 0.004270358768969809 -0.0052924857333500755 0 0.0043252751432736334 -0.0052105714797759575 0 0.004270358768969809 -0.0052924857333500755 0 0.0041517193616297894 -0.0052922177264547385 0 0.0043018045418759003 -0.0055321834472293113 0 0.004270358768969809 -0.0052924857333500755 0 0.0043252751432736334 -0.0052105714797759575 0 0.0043018045418759003 -0.0055321834472293113 0 0.0047962874857145456 -0.0051241706722383335 0 0.0066155790554890855 -0.00424607541453187 0 0.0044692766747589895 -0.005073912663264026 0 0.0043252751432736334 -0.0052105714797759575 0 0.0043462286904146939 -0.0046873571736351085 0 0.0044692766747589895 -0.005073912663264026 0 0.0043462286904146939 -0.0046873571736351085 0 0.0048208365945688779 -0.0048499678050828651 0 0.0042327115546357029 -0.0035872830026648498 0 0.0066155790554890855 -0.00424607541453187 0 0.0043462286904146939 -0.0046873571736351085 0 0.0048208365945688779 -0.0048499678050828651 0 0.0053216843320876752 -0.0045281557217843283 0 0.0064663014589739585 -0.003638304345285775 0 0.0043462286904146939 -0.0046873571736351085 0 0.0053216843320876752 -0.0045281557217843283 0 0.0064663014589739585 -0.003638304345285775 0 0.0053216843320876752 -0.0045281557217843283 0 0.0058708000643684774 -0.0046622362879249297 0 0.006006537262996642 -0.0051244004343048016 0 0.0058708000643684774 -0.0046622362879249297 0 0.0051515818006567984 -0.005176979615974563 0 0.0053216843320876752 -0.0045281557217843283 0 0.0058708000643684774 -0.0046622362879249297 0 0.0051515818006567984 -0.005176979615974563 0 0.0044692766747589895 -0.005073912663264026 0 0.0051515818006567984 -0.005176979615974563 0 0.0046223628171296735 -0.0053438220483132959 0 0.0044692766747589895 -0.005073912663264026 0 0.0048208365945688779 -0.0048499678050828651 0 0.0051515818006567984 -0.005176979615974563 0 0.0048208365945688779 -0.0048499678050828651 0 0.0053216843320876752 -0.0045281557217843283 0 0.0051515818006567984 -0.005176979615974563 0 0.0046223628171296735 -0.0053438220483132959 0 0.0048252624052659782 -0.0056986907399189778 0 0.0042902907740349858 -0.0054970369211383577 0 0.0051515818006567984 -0.005176979615974563 0 0.0046223628171296735 -0.0053438220483132959 0 0.0048252624052659782 -0.0056986907399189778 0 0.0054583729551587025 -0.0059371122532467548 0 0.006006537262996642 -0.0051244004343048016 0 0.0051515818006567984 -0.005176979615974563 0 0.0054583729551587025 -0.0059371122532467548 0 0.0051515818006567984 -0.005176979615974563 0 0.0048252624052659782 -0.0056986907399189778 0 0.0054583729551587025 -0.0059371122532467548 0 0.0049662942825796086 -0.0057896981265724333 0 0.0048252624052659782 -0.0056986907399189778 0 0.004459561093237893 -0.0056804623690748868 0 0.0048252624052659782 -0.0056986907399189778 0 0.0042902907740349858 -0.0054970369211383577 0 0.004270358768969809 -0.0052924857333500755 0 0.0046223628171296735 -0.0053438220483132959 0 0.0042902907740349858 -0.0054970369211383577 0 0.004270358768969809 -0.0052924857333500755 0 0.0042902907740349858 -0.0054970369211383577 0 0.0041517193616297894 -0.0052922177264547385 0 0.0039787453492243817 -0.0053380474571531975 0 0.0042902907740349858 -0.0054970369211383577 0 0.0041517193616297894 -0.0052922177264547385 0 0.0042856328905858361 -0.0050491996211231398 0 0.0051492503320004143 -0.005469866460416189 0 0.0043018045418759003 -0.0055321834472293113 0 0.0039787453492243817 -0.0053380474571531975 0 0.0042856328905858361 -0.0050491996211231398 0 0.0041517193616297894 -0.0052922177264547385 0 0.0042856328905858361 -0.0050491996211231398 0 0.0041517193616297894 -0.0052922177264547385 0 0.0043018045418759003 -0.0055321834472293113 0 0.0042856328905858361 -0.0050491996211231398 0 0.0047797689321819317 -0.0042983449315026016 0 0.0051492503320004143 -0.005469866460416189 0 0.0051492503320004143 -0.005469866460416189 0 0.0043018045418759003 -0.0055321834472293113 0 0.0046119955653071611 -0.0062866516129019773 0 0.0076739173715965467 -0.0073990948314108154 0 0.0051492503320004143 -0.005469866460416189 0 0.0046119955653071611 -0.0062866516129019773 0 0.0043252751432736334 -0.0052105714797759575 0 0.0043018045418759003 -0.0055321834472293113 0 0.0046119955653071611 -0.0062866516129019773 0 0.0066155790554890855 -0.00424607541453187 0 0.010322401634255771 -0.0061905668375706992 0 0.014618033643693067 -0.0056633879036574334 0 0.01472559851376846 -0.0057566235722438259 0 0.014581759109914985 -0.005697541178408227 0 0.014437087418550244 -0.0056346940396661879 0 0.014618033643693067 -0.0056633879036574334 0 0.014581759109914985 -0.005697541178408227 0 0.011021549530256466 -0.0066679720406977771 0 0.010322401634255771 -0.0061905668375706992 0 0.014705968587639598 -0.0061692422663236247 0 0.01472559851376846 -0.0057566235722438259 0 0.014581759109914985 -0.005697541178408227 0 0.01472559851376846 -0.0057566235722438259 0 0.014844847856713651 -0.005639129586836533 0 0.014752893480817353 -0.0056350976270110329 0 0.014705968587639598 -0.0061692422663236247 0 0.01472559851376846 -0.0057566235722438259 0 0.014844847856713651 -0.005639129586836533 0 0.014618033643693067 -0.0056633879036574334 0 0.01472559851376846 -0.0057566235722438259 0 0.014752893480817353 -0.0056350976270110329 0 0.014844847856713651 -0.005639129586836533 0 0.014752893480817353 -0.0056350976270110329 0 0.014867418041507733 -0.0055486324016260791 0 0.014618033643693067 -0.0056633879036574334 0 0.014752893480817353 -0.0056350976270110329 0 0.014658329463867336 -0.0056043116407574044 0 0.014752893480817353 -0.0056350976270110329 0 0.014658329463867336 -0.0056043116407574044 0 0.014786613526189502 -0.0055598223028047039 0 0.014754466532371826 -0.0055461187232049604 0 0.014658329463867336 -0.0056043116407574044 0 0.014786613526189502 -0.0055598223028047039 0 0.014754466532371826 -0.0055461187232049604 0 0.014658329463867336 -0.0056043116407574044 0 0.01472767014987242 -0.00555578042863707 0 0.014618033643693067 -0.0056633879036574334 0 0.014658329463867336 -0.0056043116407574044 0 0.014578889455049475 -0.0056300552392724822 0 0.014658329463867336 -0.0056043116407574044 0 0.014578889455049475 -0.0056300552392724822 0 0.014614988645935948 -0.0056067289824976553 0 0.014437087418550244 -0.0056346940396661879 0 0.014578889455049475 -0.0056300552392724822 0 0.014614988645935948 -0.0056067289824976553 0 0.014437087418550244 -0.0056346940396661879 0 0.014618033643693067 -0.0056633879036574334 0 0.014578889455049475 -0.0056300552392724822 0 0.0064663014589739585 -0.003638304345285775 0 -0.0011137304058240884 -0.0029789451280811713 0 0.004620665032906977 0.00044576355533267628 0 0.014437087418550244 -0.0056346940396661879 0 0.014614988645935948 -0.0056067289824976553 0 0.014762758926649569 -0.0056190643883707436 0 0.0066155790554890855 -0.00424607541453187 0 0.0092316313975695299 -0.0028204263520010936 0 0.014614988645935948 -0.0056067289824976553 0 0.014762758926649569 -0.0056190643883707436 0 0.01472767014987242 -0.00555578042863707 0 0.014834571293330196 -0.0055096024559189829 0 0.014762758926649569 -0.0056190643883707436 0 0.01472767014987242 -0.00555578042863707 0 0.014658329463867336 -0.0056043116407574044 0 0.014614988645935948 -0.0056067289824976553 0 0.01472767014987242 -0.00555578042863707 0 0.014754466532371826 -0.0055461187232049604 0 0.01472767014987242 -0.00555578042863707 0 0.014796610088049512 -0.0055146283013590685 0 0.014834571293330196 -0.0055096024559189829 0 0.014796610088049512 -0.0055146283013590685 0 0.014857826131597146 -0.0054767760778278536 0 0.014834571293330196 -0.0055096024559189829 0 0.01472767014987242 -0.00555578042863707 0 0.014796610088049512 -0.0055146283013590685 0 0.014796610088049512 -0.0055146283013590685 0 0.014857826131597146 -0.0054767760778278536 0 0.014823577268458784 -0.0055122086393771079 0 0.014857826131597146 -0.0054767760778278536 0 0.014885255725522739 -0.0054831938772697221 0 0.014904804594164909 -0.0054507568971000186 0 0.014754466532371826 -0.0055461187232049604 0 0.014796610088049512 -0.0055146283013590685 0 0.014823577268458784 -0.0055122086393771079 0 0.014857826131597146 -0.0054767760778278536 0 0.014823577268458784 -0.0055122086393771079 0 0.014885255725522739 -0.0054831938772697221 0 0.021933767792261985 -0.0047909582413078588 0 0.024390308147421415 0.00037520616749881652 0 0.014885255725522739 -0.0054831938772697221 0 0.014933816175965132 -0.0055087031813443373 0 0.014904804594164909 -0.0054507568971000186 0 0.014885255725522739 -0.0054831938772697221 0 0.014928673421499727 -0.0054892575671852076 0 0.014933816175965132 -0.0055087031813443373 0 0.014885255725522739 -0.0054831938772697221 0 0.014928673421499727 -0.0054892575671852076 0 0.014875707062078419 -0.0055107036549564151 0 0.014928673421499727 -0.0054892575671852076 0 0.014875707062078419 -0.0055107036549564151 0 0.014989684284462861 -0.0054769900389188145 0 0.014823577268458784 -0.0055122086393771079 0 0.014885255725522739 -0.0054831938772697221 0 0.014875707062078419 -0.0055107036549564151 0 0.014823577268458784 -0.0055122086393771079 0 0.014875707062078419 -0.0055107036549564151 0 0.014786613526189502 -0.0055598223028047039 0 0.014754466532371826 -0.0055461187232049604 0 0.014823577268458784 -0.0055122086393771079 0 0.014786613526189502 -0.0055598223028047039 0 0.014752893480817353 -0.0056350976270110329 0 0.014786613526189502 -0.0055598223028047039 0 0.014867418041507733 -0.0055486324016260791 0 0.014875707062078419 -0.0055107036549564151 0 0.014786613526189502 -0.0055598223028047039 0 0.014867418041507733 -0.0055486324016260791 0 0.014844847856713651 -0.005639129586836533 0 0.014867418041507733 -0.0055486324016260791 0 0.014969450315412577 -0.0054910641118098421 0 0.014969450315412577 -0.0054910641118098421 0 0.014989684284462861 -0.0054769900389188145 0 0.015057989656189577 -0.00544912967558069 0 0.014969450315412577 -0.0054910641118098421 0 0.015057989656189577 -0.00544912967558069 0 0.015098959392503821 -0.0053872658579673756 0 0.014875707062078419 -0.0055107036549564151 0 0.014867418041507733 -0.0055486324016260791 0 0.014989684284462861 -0.0054769900389188145 0 0.014867418041507733 -0.0055486324016260791 0 0.014969450315412577 -0.0054910641118098421 0 0.014989684284462861 -0.0054769900389188145 0 0.014989684284462861 -0.0054769900389188145 0 0.015057989656189577 -0.00544912967558069 0 0.01517149877655434 -0.0054789489623185486 0 0.015057989656189577 -0.00544912967558069 0 0.01517149877655434 -0.0054789489623185486 0 0.015098959392503821 -0.0053872658579673756 0 0.014989684284462861 -0.0054769900389188145 0 0.015146365965300841 -0.005581596498242053 0 0.01517149877655434 -0.0054789489623185486 0 0.015146365965300841 -0.005581596498242053 0 0.01517149877655434 -0.0054789489623185486 0 0.015461859139434707 -0.0056833447644487342 0 0.014989684284462861 -0.0054769900389188145 0 0.015146365965300841 -0.005581596498242053 0 0.01503646916771894 -0.0055769780612697963 0 0.022382246025109246 -0.0046156597005331179 0 0.021933767792261985 -0.0047909582413078588 0 0.030119818934577106 -0.0037832637601661794 0 0.029276298622595762 -0.0038419960935797211 0 0.029458993380087398 -0.0028899731851894342 0 0.029276298622595762 -0.0038419960935797211 0 0.029458993380087398 -0.0028899731851894342 0 0.028814652990519829 -0.0029203550074032359 0 0.014928673421499727 -0.0054892575671852076 0 0.014989684284462861 -0.0054769900389188145 0 0.01503646916771894 -0.0055769780612697963 0 0.014928673421499727 -0.0054892575671852076 0 0.01503646916771894 -0.0055769780612697963 0 0.014933816175965132 -0.0055087031813443373 0 0.014149351604792667 -0.0057596862884751517 0 0.015173634991363457 -0.0052856289296801355 0 0.015645231699138801 -0.0050408273633994992 0 0.014149351604792667 -0.0057596862884751517 0 0.014652813806279632 -0.0056217389400636947 0 0.015173634991363457 -0.0052856289296801355 0 0.01559626812872769 -0.0043988831571927286 0 0.015555199847261673 -0.0050226401365414232 0 0.014149351604792667 -0.0057596862884751517 0 0.013880487707630229 -0.0060965092876257574 0 0.014652813806279632 -0.0056217389400636947 0 0.014652813806279632 -0.0056217389400636947 0 0.015173634991363457 -0.0052856289296801355 0 0.015048498810920628 -0.0053840201316718008 0 0.015173634991363457 -0.0052856289296801355 0 0.015048498810920628 -0.0053840201316718008 0 0.015380950440472187 -0.0052904357141574038 0 0.015048498810920628 -0.0053840201316718008 0 0.014793131812636308 -0.0055910782021029795 0 0.015098959392503821 -0.0053872658579673756 0 0.015048498810920628 -0.0053840201316718008 0 0.015098959392503821 -0.0053872658579673756 0 0.015380950440472187 -0.0052904357141574038 0 0.014652813806279632 -0.0056217389400636947 0 0.015048498810920628 -0.0053840201316718008 0 0.014793131812636308 -0.0055910782021029795 0 0.014200398523198795 -0.0058836221823453695 0 0.014652813806279632 -0.0056217389400636947 0 0.014793131812636308 -0.0055910782021029795 0 0.014844847856713651 -0.005639129586836533 0 0.014969450315412577 -0.0054910641118098421 0 0.014793131812636308 -0.0055910782021029795 0 0.014969450315412577 -0.0054910641118098421 0 0.014793131812636308 -0.0055910782021029795 0 0.015098959392503821 -0.0053872658579673756 0 0.01517149877655434 -0.0054789489623185486 0 0.015098959392503821 -0.0053872658579673756 0 0.015385777959642459 -0.0054424304596680118 0 0.01517149877655434 -0.0054789489623185486 0 0.015385777959642459 -0.0054424304596680118 0 0.015461859139434707 -0.0056833447644487342 0 0.015385777959642459 -0.0054424304596680118 0 0.016069862007331046 -0.0055531987321886921 0 0.015461859139434707 -0.0056833447644487342 0 0.015385777959642459 -0.0054424304596680118 0 0.015380950440472187 -0.0052904357141574038 0 0.016069862007331046 -0.0055531987321886921 0 0.015098959392503821 -0.0053872658579673756 0 0.015385777959642459 -0.0054424304596680118 0 0.015380950440472187 -0.0052904357141574038 0 0.015380950440472187 -0.0052904357141574038 0 0.015645231699138801 -0.0050408273633994992 0 0.016069862007331046 -0.0055531987321886921 0 0.015173634991363457 -0.0052856289296801355 0 0.015380950440472187 -0.0052904357141574038 0 0.015645231699138801 -0.0050408273633994992 0 0.016727429944527347 -0.005710576211765914 0 0.015645231699138801 -0.0050408273633994992 0 0.016069862007331046 -0.0055531987321886921 0 0.02155667193941074 -0.0040876906268320036 0 0.021019774066304717 -0.0041944755630714172 0 0.017231400304639773 -0.0047620868900335274 0 0.016727429944527347 -0.005710576211765914 0 0.015645231699138801 -0.0050408273633994992 0 0.027396681790312426 -0.0034517272800102384 0 0.026501329333677243 -0.0031032903351594478 0 0.026644336484751487 -0.0036644466556078727 0 0.026374202262102762 -0.0024346703858074571 0 0.026501329333677243 -0.0031032903351594478 0 0.025534243821197896 -0.0029263272857877201 0 0.026501329333677243 -0.0031032903351594478 0 0.025534243821197896 -0.0029263272857877201 0 0.02589653630389082 -0.003352941456385932 0 0.026501329333677243 -0.0031032903351594478 0 0.02589653630389082 -0.003352941456385932 0 0.026644336484751487 -0.0036644466556078727 0 0.021019774066304717 -0.0041944755630714172 0 0.019508240790476881 -0.0045262612637838196 0 0.025534243821197896 -0.0029263272857877201 0 0.02589653630389082 -0.003352941456385932 0 0.025335077060302098 -0.0031056448060647912 0 0.025335077060302098 -0.0031056448060647912 0 0.025362789657720396 -0.003802061184056411 0 0.024757553495326073 -0.0033131365175319495 0 0.02589653630389082 -0.003352941456385932 0 0.025335077060302098 -0.0031056448060647912 0 0.025362789657720396 -0.003802061184056411 0 0.02692315102019649 -0.0046293648385375202 0 0.026350292963465371 -0.0043442965274811327 0 0.0275837278173327 -0.0052315488116842779 0 0.027668635258247927 -0.004632070990921125 0 0.026557425982121057 -0.0044384268972974253 0 0.027668635258247927 -0.004632070990921125 0 0.026557425982121057 -0.0044384268972974253 0 0.027241239454456584 -0.0043047021268198069 0 0.025362789657720396 -0.003802061184056411 0 0.026557425982121057 -0.0044384268972974253 0 0.026264707847437188 -0.0038918236191216541 0 0.02589653630389082 -0.003352941456385932 0 0.025362789657720396 -0.003802061184056411 0 0.026264707847437188 -0.0038918236191216541 0 0.026264707847437188 -0.0038918236191216541 0 0.026644336484751487 -0.0036644466556078727 0 0.026766654618819316 -0.0041701336195163171 0 0.02589653630389082 -0.003352941456385932 0 0.026264707847437188 -0.0038918236191216541 0 0.026644336484751487 -0.0036644466556078727 0 0.026766654618819316 -0.0041701336195163171 0 0.027502026789529076 -0.0045617543941965325 0 0.026842677342463404 -0.0043695706162768426 0 0.026557425982121057 -0.0044384268972974253 0 0.026264707847437188 -0.0038918236191216541 0 0.026766654618819316 -0.0041701336195163171 0 0.026557425982121057 -0.0044384268972974253 0 0.026766654618819316 -0.0041701336195163171 0 0.026842677342463404 -0.0043695706162768426 0 0.026766654618819316 -0.0041701336195163171 0 0.027233163399491261 -0.0040556712277315388 0 0.027502026789529076 -0.0045617543941965325 0 0.027776661380557909 -0.0044438465047206624 0 0.027233163399491261 -0.0040556712277315388 0 0.027502026789529076 -0.0045617543941965325 0 0.027396681790312426 -0.0034517272800102384 0 0.026644336484751487 -0.0036644466556078727 0 0.027233163399491261 -0.0040556712277315388 0 0.026644336484751487 -0.0036644466556078727 0 0.026766654618819316 -0.0041701336195163171 0 0.027233163399491261 -0.0040556712277315388 0 0.030437090276434414 -0.0047852245875450042 0 0.029485763740569208 -0.0048411386772500668 0 0.030042713279008437 -0.004426158229383974 0 0.029803878213141774 -0.0044486863313223067 0 0.029827699624168508 -0.0041444064970557418 0 0.028989100260478209 -0.0055089556722820376 0 0.029597725611547762 -0.0050902586168575532 0 0.029435168581291631 -0.004877698496961097 0 0.030042713279008437 -0.004426158229383974 0 0.02978710451803419 -0.0045005757957748034 0 0.029803878213141774 -0.0044486863313223067 0 0.02978710451803419 -0.0045005757957748034 0 0.029803878213141774 -0.0044486863313223067 0 0.02968503740067965 -0.004418147474380605 0 0.029803878213141774 -0.0044486863313223067 0 0.02968503740067965 -0.004418147474380605 0 0.029422737995508305 -0.0042479050175210243 0 0.029665967605391728 -0.002585176925573539 0 0.029803878213141774 -0.0044486863313223067 0 0.029422737995508305 -0.0042479050175210243 0 0.02941355857700307 -0.0031881989180097773 0 0.029777469244979309 -0.0043254146268331501 0 0.029276298622595762 -0.0038419960935797211 0 0.029803878213141774 -0.0044486863313223067 0 0.029827699624168508 -0.0041444064970557418 0 0.030119818934577106 -0.0037832637601661794 0 0.030042713279008437 -0.004426158229383974 0 0.029827699624168508 -0.0041444064970557418 0 0.030119818934577106 -0.0037832637601661794 0 0.029276298622595762 -0.0038419960935797211 0 0.029827699624168508 -0.0041444064970557418 0 0.030119818934577106 -0.0037832637601661794 0 0.030042713279008437 -0.004426158229383974 0 0.03040776326179364 -0.0042690424403795599 0 0.015146365965300841 -0.005581596498242053 0 0.01503646916771894 -0.0055769780612697963 0 0.015227070368493953 -0.0057361765092634985 0 0.022382246025109246 -0.0046156597005331179 0 0.024168480352932543 -0.0044492384163576162 0 0.015146365965300841 -0.005581596498242053 0 0.015461859139434707 -0.0056833447644487342 0 0.015227070368493953 -0.0057361765092634985 0 0.019508240790476881 -0.0045262612637838196 0 0.024168480352932543 -0.0044492384163576162 0 0.0275837278173327 -0.0052315488116842779 0 0.02829703827966374 -0.0057973174415310389 0 0.028635707043813522 -0.0051548524686828101 0 0.02692315102019649 -0.0046293648385375202 0 0.024168480352932543 -0.0044492384163576162 0 0.028989100260478209 -0.0055089556722820376 0 0.02829703827966374 -0.0057973174415310389 0 0.028635707043813522 -0.0051548524686828101 0 0.030437090276434414 -0.0047852245875450042 0 0.024168480352932543 -0.0044492384163576162 0 0.028635707043813522 -0.0051548524686828101 0 0.02882544835972304 -0.0045836765680431065 0 0.029113766341173776 -0.0048327770733004975 0 0.0275837278173327 -0.0052315488116842779 0 0.028635707043813522 -0.0051548524686828101 0 0.028304868517589545 -0.0047342739284008594 0 0.0275837278173327 -0.0052315488116842779 0 0.027668635258247927 -0.004632070990921125 0 0.028304868517589545 -0.0047342739284008594 0 0.027668635258247927 -0.004632070990921125 0 0.028304868517589545 -0.0047342739284008594 0 0.028154479207398032 -0.004422291340395134 0 0.028304868517589545 -0.0047342739284008594 0 0.028154479207398032 -0.004422291340395134 0 0.02856371359378667 -0.0043914624009434699 0 0.028635707043813522 -0.0051548524686828101 0 0.028304868517589545 -0.0047342739284008594 0 0.02882544835972304 -0.0045836765680431065 0 0.028304868517589545 -0.0047342739284008594 0 0.02882544835972304 -0.0045836765680431065 0 0.02856371359378667 -0.0043914624009434699 0 0.02882544835972304 -0.0045836765680431065 0 0.029222426018152375 -0.004456825733816866 0 0.028926630858087818 -0.004190758971522616 0 0.029222426018152375 -0.004456825733816866 0 0.029113766341173776 -0.0048327770733004975 0 0.029438676160049165 -0.0046353304893928474 0 0.02882544835972304 -0.0045836765680431065 0 0.029222426018152375 -0.004456825733816866 0 0.029113766341173776 -0.0048327770733004975 0 0.028989100260478209 -0.0055089556722820376 0 0.028635707043813522 -0.0051548524686828101 0 0.029113766341173776 -0.0048327770733004975 0 0.028989100260478209 -0.0055089556722820376 0 0.029113766341173776 -0.0048327770733004975 0 0.029435168581291631 -0.004877698496961097 0 0.029113766341173776 -0.0048327770733004975 0 0.029435168581291631 -0.004877698496961097 0 0.029438676160049165 -0.0046353304893928474 0 0.029597725611547762 -0.0050902586168575532 0 0.02970824753586741 -0.0046736286585233417 0 0.029838794074185226 -0.0045432522797008929 0 0.029597725611547762 -0.0050902586168575532 0 0.029435168581291631 -0.004877698496961097 0 0.02970824753586741 -0.0046736286585233417 0 0.029435168581291631 -0.004877698496961097 0 0.02970824753586741 -0.0046736286585233417 0 0.029438676160049165 -0.0046353304893928474 0 0.02970824753586741 -0.0046736286585233417 0 0.029438676160049165 -0.0046353304893928474 0 0.029636481663260088 -0.0043842569977071925 0 0.02970824753586741 -0.0046736286585233417 0 0.029636481663260088 -0.0043842569977071925 0 0.029928173338355828 -0.00448426321714276 0 0.029222426018152375 -0.004456825733816866 0 0.029438676160049165 -0.0046353304893928474 0 0.029636481663260088 -0.0043842569977071925 0 0.029636481663260088 -0.0043842569977071925 0 0.029928173338355828 -0.00448426321714276 0 0.029995184525739703 -0.0040703721008078777 0 0.029977998468265609 -0.0043152331274465194 0 0.030179434486796823 -0.0039182547302626727 0 0.030021352633450377 -0.0041346601419396702 0 0.030289319251299143 -0.0038563161287866231 0 0.030103498676453504 -0.0036435943157448452 0 0.029928173338355828 -0.00448426321714276 0 0.029904718531105486 -0.0045337361998052444 0 0.030255776759747346 -0.0042224745770917298 0 0.029904718531105486 -0.0045337361998052444 0 0.029838794074185226 -0.0045432522797008929 0 0.029741801380077773 -0.0043114988291307723 0 0.030021352633450377 -0.0041346601419396702 0 0.030155055901682989 -0.0041989770025861826 0 0.029876520126324465 -0.0042763824508637365 0 0.029485763740569208 -0.0048411386772500668 0 0.029875005236413451 -0.0045866826858866894 0 0.02970824753586741 -0.0046736286585233417 0 0.029928173338355828 -0.00448426321714276 0 0.029838794074185226 -0.0045432522797008929 0 0.029928173338355828 -0.00448426321714276 0 0.029904718531105486 -0.0045337361998052444 0 0.029838794074185226 -0.0045432522797008929 0 0.030477754047839679 -0.0041247869574509988 0 0.030498845489492488 -0.0038816619652395391 0 0.030902725824934824 -0.0037447140361625891 0 0.030477754047839679 -0.0041247869574509988 0 0.030498845489492488 -0.0038816619652395391 0 0.030155055901682989 -0.0041989770025861826 0 0.030021352633450377 -0.0041346601419396702 0 0.030289319251299143 -0.0038563161287866231 0 0.030155055901682989 -0.0041989770025861826 0 0.030498845489492488 -0.0038816619652395391 0 0.030289319251299143 -0.0038563161287866231 0 0.030155055901682989 -0.0041989770025861826 0 0.030477754047839679 -0.0041247869574509988 0 0.030155055901682989 -0.0041989770025861826 0 0.0301543754673919 -0.0042890118895249022 0 0.030155055901682989 -0.0041989770025861826 0 0.0301543754673919 -0.0042890118895249022 0 0.029968930199035543 -0.0042781638735619508 0 0.0301543754673919 -0.0042890118895249022 0 0.029968930199035543 -0.0042781638735619508 0 0.029853694898057805 -0.0043134869993077122 0 0.030155055901682989 -0.0041989770025861826 0 0.029968930199035543 -0.0042781638735619508 0 0.029876520126324465 -0.0042763824508637365 0 0.029968930199035543 -0.0042781638735619508 0 0.029903457254363906 -0.0041306859966141482 0 0.029693324924993016 -0.0040937408683747543 0 0.029968930199035543 -0.0042781638735619508 0 0.029903457254363906 -0.0041306859966141482 0 0.029876520126324465 -0.0042763824508637365 0 0.029693324924993016 -0.0040937408683747543 0 0.029385964333336963 -0.0040764887743824536 0 0.029853694898057805 -0.0043134869993077122 0 0.029968930199035543 -0.0042781638735619508 0 0.029693324924993016 -0.0040937408683747543 0 0.029853694898057805 -0.0043134869993077122 0 0.02978710451803419 -0.0045005757957748034 0 0.029838794074185226 -0.0045432522797008929 0 0.02968503740067965 -0.004418147474380605 0 0.029741801380077773 -0.0043114988291307723 0 0.02968503740067965 -0.004418147474380605 0 0.029422737995508305 -0.0042479050175210243 0 0.029838794074185226 -0.0045432522797008929 0 0.029741801380077773 -0.0043114988291307723 0 0.02968503740067965 -0.004418147474380605 0 0.029904718531105486 -0.0045337361998052444 0 0.029741801380077773 -0.0043114988291307723 0 0.029876520126324465 -0.0042763824508637365 0 0.029977998468265609 -0.0043152331274465194 0 0.029891159324659682 -0.0042976063980786983 0 0.029741801380077773 -0.0043114988291307723 0 0.029876520126324465 -0.0042763824508637365 0 0.030101266378797106 -0.0040116230995476511 0 0.029903457254363906 -0.0041306859966141482 0 0.029876520126324465 -0.0042763824508637365 0 0.030101266378797106 -0.0040116230995476511 0 0.029665967605391728 -0.002585176925573539 0 0.029422737995508305 -0.0042479050175210243 0 0.028166802701823312 -0.0012934696913543468 0 0.029285834726493102 -0.0041279309371280342 0 0.028122329582184045 -0.0027330861360168449 0 0.029741801380077773 -0.0043114988291307723 0 0.029422737995508305 -0.0042479050175210243 0 0.030101266378797106 -0.0040116230995476511 0 0.02941355857700307 -0.0031881989180097773 0 0.028968033668483436 -0.0011146008293203369 0 0.029422737995508305 -0.0042479050175210243 0 0.028166802701823312 -0.0012934696913543468 0 0.026157446852378474 -0.0015796664757889204 0 0.029665967605391728 -0.002585176925573539 0 0.028166802701823312 -0.0012934696913543468 0 0.028551031860852311 0.00062375350767447126 0 0.028166802701823312 -0.0012934696913543468 0 0.028551031860852311 0.00062375350767447126 0 0.026157446852378474 -0.0015796664757889204 0 0.029458993380087398 -0.0028899731851894342 0 0.028814652990519829 -0.0029203550074032359 0 0.028434992926485856 -0.0017203702025306922 0 0.028551031860852311 0.00062375350767447126 0 0.026190924121757938 0.0018923725291307709 0 0.026157446852378474 -0.0015796664757889204 0 0.028122329582184045 -0.0027330861360168449 0 0.026597312497448063 -0.00031701185624735651 0 0.026190924121757938 0.0018923725291307709 0 0.026157446852378474 -0.0015796664757889204 0 0.023181254687060313 0.0021508392305224907 0 0.029903457254363906 -0.0041306859966141482 0 0.030101266378797106 -0.0040116230995476511 0 0.029834683037924449 -0.0037676139661956425 0 0.029903457254363906 -0.0041306859966141482 0 0.029693324924993016 -0.0040937408683747543 0 0.029834683037924449 -0.0037676139661956425 0 0.029693324924993016 -0.0040937408683747543 0 0.029182893317104719 -0.0035071788317169138 0 0.029385964333336963 -0.0040764887743824536 0 0.029693324924993016 -0.0040937408683747543 0 0.029834683037924449 -0.0037676139661956425 0 0.029182893317104719 -0.0035071788317169138 0 0.029182893317104719 -0.0035071788317169138 0 0.030027018968423365 -0.0029086572085872905 0 0.029020046571500941 -0.0024208891464942107 0 0.029834683037924449 -0.0037676139661956425 0 0.029182893317104719 -0.0035071788317169138 0 0.030027018968423365 -0.0029086572085872905 0 0.030101266378797106 -0.0040116230995476511 0 0.029834683037924449 -0.0037676139661956425 0 0.030027018968423365 -0.0029086572085872905 0 0.023181254687060313 0.0021508392305224907 0 0.023467012910326747 0.0045270384741692661 0 0.025074459955853317 0.0039468762282381369 0 0.023181254687060313 0.0021508392305224907 0 0.021608702123528268 0.005682510576173621 0 0.023467012910326747 0.0045270384741692661 0 0.026597312497448063 -0.00031701185624735651 0 0.025441181626085673 0.0020514228241026835 0 0.030027018968423365 -0.0029086572085872905 0 0.029020046571500941 -0.0024208891464942107 0 0.029163025357528974 -0.0012122005884530683 0 0.029020046571500941 -0.0024208891464942107 0 0.028608660867625559 -0.0015754414756524557 0 0.028133903575098967 -0.0016789112641690097 0 0.029020046571500941 -0.0024208891464942107 0 0.028608660867625559 -0.0015754414756524557 0 0.029163025357528974 -0.0012122005884530683 0 0.028608660867625559 -0.0015754414756524557 0 0.029163025357528974 -0.0012122005884530683 0 0.028119796364599953 -0.00094815848731207193 0 0.021831359925961035 0.0035021309278012781 0 0.021608702123528268 0.005682510576173621 0 0.021521143989727001 0.005766044481115987 0 0.023624293176438552 0.0062546529122173913 0 0.021608702123528268 0.005682510576173621 0 0.023184175296541175 0.0054851893811743773 0 0.021043605397447294 0.0055076850736173969 0 0.021114152093988387 0.005433872068558155 0 0.023181254687060313 0.0021508392305224907 0 0.021608702123528268 0.005682510576173621 0 0.021521143989727001 0.005766044481115987 0 0.023467012910326747 0.0045270384741692661 0 0.023184175296541175 0.0054851893811743773 0 0.024015070742870025 0.0053946710744356575 0 0.021608702123528268 0.005682510576173621 0 0.023467012910326747 0.0045270384741692661 0 0.023184175296541175 0.0054851893811743773 0 0.023624293176438552 0.0062546529122173913 0 0.023184175296541175 0.0054851893811743773 0 0.024015070742870025 0.0053946710744356575 0 0.023624293176438552 0.0062546529122173913 0 0.024015070742870025 0.0053946710744356575 0 0.025030960825268223 0.0055492317303356704 0 0.024015070742870025 0.0053946710744356575 0 0.025030960825268223 0.0055492317303356704 0 0.025074459955853317 0.0039468762282381369 0 0.023467012910326747 0.0045270384741692661 0 0.024015070742870025 0.0053946710744356575 0 0.025074459955853317 0.0039468762282381369 0 0.025030960825268223 0.0055492317303356704 0 0.027239092727100202 0.0040179665864556232 0 0.025074459955853317 0.0039468762282381369 0 0.014834571293330196 -0.0055096024559189829 0 0.014857826131597146 -0.0054767760778278536 0 0.014896052919712306 -0.0054558317373409613 0 0.014857826131597146 -0.0054767760778278536 0 0.014896052919712306 -0.0054558317373409613 0 0.014904804594164909 -0.0054507568971000186 0 0.020178262261569616 -1.9684636784531656e-05 0 0.024390308147421415 0.00037520616749881652 0 0.025030960825268223 0.0055492317303356704 0 0.025454891232404207 0.0057048192718010052 0 0.025693314940630044 0.004723492187502054 0 0.024867595350667321 0.0056655269838525764 0 0.024390308147421415 0.00037520616749881652 0 0.028551031860852311 0.00062375350767447126 0 0.026190924121757938 0.0018923725291307709 0 0.027239092727100202 0.0040179665864556232 0 0.028968033668483436 -0.0011146008293203369 0 0.024390308147421415 0.00037520616749881652 0 0.026190924121757938 0.0018923725291307709 0 0.023181254687060313 0.0021508392305224907 0 0.025074459955853317 0.0039468762282381369 0 0.026190924121757938 0.0018923725291307709 0 0.027239092727100202 0.0040179665864556232 0 0.025074459955853317 0.0039468762282381369 0 0.030501779675421854 -0.0047380767861937376 0 0.031248885692315584 -0.0055383777072574528 0 0.030643679313840631 -0.0058165022094542997 0 0.029889768798629032 -0.0052852105752524128 0 0.030501779675421854 -0.0047380767861937376 0 0.030643679313840631 -0.0058165022094542997 0 0.029889768798629032 -0.0052852105752524128 0 0.030643679313840631 -0.0058165022094542997 0 0.03000206454351767 -0.0060319385254205861 0 0.029948364666480348 -0.0053969665477932964 0 0.029929086865152933 -0.0066280300073469252 0 0.029889768798629032 -0.0052852105752524128 0 0.029900144348079933 -0.0072406298432500004 0 0.028951728123967967 -0.0057972999762722814 0 0.029101103359082919 -0.0042218611930230415 0 0.029829448251004548 -0.0040137705125012843 0 0.029889768798629032 -0.0052852105752524128 0 0.029101103359082919 -0.0042218611930230415 0 0.029889768798629032 -0.0052852105752524128 0 0.028723179898361841 -0.0047818581247270515 0 0.029829448251004548 -0.0040137705125012843 0 0.029889768798629032 -0.0052852105752524128 0 0.030501779675421854 -0.0047380767861937376 0 0.031289104798119534 -0.0042189165889869621 0 0.030501779675421854 -0.0047380767861937376 0 0.031248885692315584 -0.0055383777072574528 0 0.029269130404360643 -0.0020727375665020886 0 0.029452339636389321 -0.0039881956141655265 0 0.02753946502808198 -0.00054651683830192444 0 0.028119796364599953 -0.00094815848731207193 0 0.028133903575098967 -0.0016789112641690097 0 0.02753946502808198 -0.00054651683830192444 0 0.027069491777830277 -0.00055523107671516644 0 0.028133903575098967 -0.0016789112641690097 0 0.027069491777830277 -0.00055523107671516644 0 0.028133903575098967 -0.0016789112641690097 0 0.027658598377119439 -0.0023922923056767758 0 0.028608660867625559 -0.0015754414756524557 0 0.028119796364599953 -0.00094815848731207193 0 0.028133903575098967 -0.0016789112641690097 0 0.029020046571500941 -0.0024208891464942107 0 0.028133903575098967 -0.0016789112641690097 0 0.027658598377119439 -0.0023922923056767758 0 0.031248885692315584 -0.0055383777072574528 0 0.031106216039217548 -0.0063434799389688011 0 0.030643679313840631 -0.0058165022094542997 0 0.031106216039217548 -0.0063434799389688011 0 0.030881014168631836 -0.0063687015405369538 0 0.030643679313840631 -0.0058165022094542997 0 0.029452339636389321 -0.0039881956141655265 0 0.029851450939654609 -0.004969412497620028 0 0.029182893317104719 -0.0035071788317169138 0 0.029020046571500941 -0.0024208891464942107 0 0.027658598377119439 -0.0023922923056767758 0 0.029182893317104719 -0.0035071788317169138 0 0.027658598377119439 -0.0023922923056767758 0 0.028600282514273823 -0.0037713744833307505 0 0.029182893317104719 -0.0035071788317169138 0 0.028600282514273823 -0.0037713744833307505 0 0.029385964333336963 -0.0040764887743824536 0 0.031106216039217548 -0.0063434799389688011 0 0.030881014168631836 -0.0063687015405369538 0 0.031084976986913433 -0.006184523295367653 0 0.030881014168631836 -0.0063687015405369538 0 0.030350510949200122 -0.0066534145438055413 0 0.030741634295290362 -0.0073706256354808385 0 0.030881014168631836 -0.0063687015405369538 0 0.030643679313840631 -0.0058165022094542997 0 0.03000206454351767 -0.0060319385254205861 0 0.030881014168631836 -0.0063687015405369538 0 0.03000206454351767 -0.0060319385254205861 0 0.030350510949200122 -0.0066534145438055413 0 0.029929086865152933 -0.0066280300073469252 0 0.029805842866521146 -0.0080762949339702114 0 0.03000206454351767 -0.0060319385254205861 0 0.030350510949200122 -0.0066534145438055413 0 0.029937353269672774 -0.0069030824587805384 0 0.030350510949200122 -0.0066534145438055413 0 0.03026152095593693 -0.0073859792798445598 0 0.029937353269672774 -0.0069030824587805384 0 0.030350510949200122 -0.0066534145438055413 0 0.03026152095593693 -0.0073859792798445598 0 0.030741634295290362 -0.0073706256354808385 0 0.030881014168631836 -0.0063687015405369538 0 0.031265471236114464 -0.0059822464449056706 0 0.031084976986913433 -0.006184523295367653 0 0.030931183774916479 -0.0063797855306275885 0 0.03094764345637642 -0.0066730733790855371 0 0.031265471236114464 -0.0059822464449056706 0 0.031350658422566333 -0.0059659324229130693 0 0.031084976986913433 -0.006184523295367653 0 0.03094764345637642 -0.0066730733790855371 0 0.030622818905161012 -0.0071312966433214851 0 0.031265471236114464 -0.0059822464449056706 0 0.031350658422566333 -0.0059659324229130693 0 0.030823926416482416 -0.00629643236578694 0 0.030386105791844798 -0.0076987099509998238 0 0.030330625423652481 -0.0079361086263825889 0 0.030422082981591412 -0.0079756121520073789 0 0.030741634295290362 -0.0073706256354808385 0 0.030386105791844798 -0.0076987099509998238 0 0.030422082981591412 -0.0079756121520073789 0 0.030265621456843746 -0.0077150215538394368 0 0.030386105791844798 -0.0076987099509998238 0 0.030330625423652481 -0.0079361086263825889 0 0.03026152095593693 -0.0073859792798445598 0 0.030265621456843746 -0.0077150215538394368 0 0.030386105791844798 -0.0076987099509998238 0 0.03026152095593693 -0.0073859792798445598 0 0.030741634295290362 -0.0073706256354808385 0 0.030386105791844798 -0.0076987099509998238 0 0.029385964333336963 -0.0040764887743824536 0 0.029725497552535663 -0.0043264564678907672 0 0.029853694898057805 -0.0043134869993077122 0 0.028600282514273823 -0.0037713744833307505 0 0.029385964333336963 -0.0040764887743824536 0 0.029725497552535663 -0.0043264564678907672 0 0.031106216039217548 -0.0063434799389688011 0 0.031084976986913433 -0.006184523295367653 0 0.030816461659662335 -0.0059420259897174608 0 0.031350658422566333 -0.0059659324229130693 0 0.031084976986913433 -0.006184523295367653 0 0.030816461659662335 -0.0059420259897174608 0 0.029851450939654609 -0.004969412497620028 0 0.03029208286950822 -0.0050569736849739857 0 0.031350658422566333 -0.0059659324229130693 0 0.031155391182427019 -0.0053338148967942501 0 0.031486920253552007 -0.0049569202943712974 0 0.031350658422566333 -0.0059659324229130693 0 0.031155391182427019 -0.0053338148967942501 0 0.030816461659662335 -0.0059420259897174608 0 0.029725497552535663 -0.0043264564678907672 0 0.029853694898057805 -0.0043134869993077122 0 0.03080466795160109 -0.0043513377272576892 0 0.030477754047839679 -0.0041247869574509988 0 0.0301543754673919 -0.0042890118895249022 0 0.03080466795160109 -0.0043513377272576892 0 0.0301543754673919 -0.0042890118895249022 0 0.029853694898057805 -0.0043134869993077122 0 0.03080466795160109 -0.0043513377272576892 0 0.03029208286950822 -0.0050569736849739857 0 0.030709205118459496 -0.0043576881596107866 0 0.031155391182427019 -0.0053338148967942501 0 0.030816461659662335 -0.0059420259897174608 0 0.03080466795160109 -0.0043513377272576892 0 0.031155391182427019 -0.0053338148967942501 0 0.031486920253552007 -0.0049569202943712974 0 0.03080466795160109 -0.0043513377272576892 0 0.031599323924397744 -0.0040503863222006451 0 0.03080466795160109 -0.0043513377272576892 0 0.031324422943304869 -0.0037796725927235404 0 0.031486920253552007 -0.0049569202943712974 0 0.031599323924397744 -0.0040503863222006451 0 0.03080466795160109 -0.0043513377272576892 0 0.03080466795160109 -0.0043513377272576892 0 0.031324422943304869 -0.0037796725927235404 0 0.030902725824934824 -0.0037447140361625891 0 0.030477754047839679 -0.0041247869574509988 0 0.03080466795160109 -0.0043513377272576892 0 0.030902725824934824 -0.0037447140361625891 0 0.030823926416482416 -0.00629643236578694 0 0.03079423626468808 -0.0065234266503795615 0 0.030475302924899132 -0.0066084426822893344 0 0.030622818905161012 -0.0071312966433214851 0 0.030345340355355348 -0.0071070655095068777 0 0.030422082981591412 -0.0079756121520073789 0 0.030150337428648338 -0.0076741200593909665 0 0.030404371252786021 -0.0079536474211753128 0 0.030330625423652481 -0.0079361086263825889 0 0.030422082981591412 -0.0079756121520073789 0 0.030404371252786021 -0.0079536474211753128 0 0.031350658422566333 -0.0059659324229130693 0 0.031486920253552007 -0.0049569202943712974 0 0.032257584952385697 -0.0044814623354249364 0 0.031350658422566333 -0.0059659324229130693 0 0.030823926416482416 -0.00629643236578694 0 0.03079423626468808 -0.0065234266503795615 0 0.031381888889068177 -0.0059089449463452593 0 0.031504722785793852 -0.005468733556646968 0 0.031599323924397744 -0.0040503863222006451 0 0.032257584952385697 -0.0044814623354249364 0 0.03214216770975848 -0.0036820919039309043 0 0.031486920253552007 -0.0049569202943712974 0 0.031599323924397744 -0.0040503863222006451 0 0.032257584952385697 -0.0044814623354249364 0 0.031504722785793852 -0.005468733556646968 0 0.031488561577986574 -0.0049137815595261891 0 0.030150337428648338 -0.0076741200593909665 0 0.030838642513478093 -0.0073017815049701744 0 0.030404371252786021 -0.0079536474211753128 0 0.03079423626468808 -0.0065234266503795615 0 0.030475302924899132 -0.0066084426822893344 0 0.030201800147742035 -0.0065753897314387907 0 0.030150337428648338 -0.0076741200593909665 0 0.0304045972017024 -0.006397698077834791 0 0.030838642513478093 -0.0073017815049701744 0 0.030345340355355348 -0.0071070655095068777 0 0.030401577444658347 -0.0064712223637774938 0 0.030475302924899132 -0.0066084426822893344 0 0.030201800147742035 -0.0065753897314387907 0 0.0304045972017024 -0.006397698077834791 0 0.032257584952385697 -0.0044814623354249364 0 0.032673954598034002 -0.0032908089786223846 0 0.03214216770975848 -0.0036820919039309043 0 0.032673954598034002 -0.0032908089786223846 0 0.03214216770975848 -0.0036820919039309043 0 0.032226752371207049 -0.0032004205193588244 0 0.03214216770975848 -0.0036820919039309043 0 0.032226752371207049 -0.0032004205193588244 0 0.031798211947167171 -0.0035575775698688137 0 0.032673954598034002 -0.0032908089786223846 0 0.032226752371207049 -0.0032004205193588244 0 0.03248642549412719 -0.0027892103608389029 0 0.032226752371207049 -0.0032004205193588244 0 0.03248642549412719 -0.0027892103608389029 0 0.03217388429431433 -0.0028865603117574053 0 0.032673954598034002 -0.0032908089786223846 0 0.03248642549412719 -0.0027892103608389029 0 0.032729915962281163 -0.0025580293601783761 0 0.031488561577986574 -0.0049137815595261891 0 0.03103778039891078 -0.00346618150578135 0 0.030201800147742035 -0.0065753897314387907 0 0.0304045972017024 -0.006397698077834791 0 0.030040808702404505 -0.0046880280534787912 0 0.0304045972017024 -0.006397698077834791 0 0.030040808702404505 -0.0046880280534787912 0 0.03088643846334067 -0.0057228143306920463 0 0.03248642549412719 -0.0027892103608389029 0 0.032729915962281163 -0.0025580293601783761 0 0.032592964724492211 -0.0024572476088703626 0 0.03248642549412719 -0.0027892103608389029 0 0.032499589667414529 -0.0025851922048538705 0 0.03217388429431433 -0.0028865603117574053 0 0.03248642549412719 -0.0027892103608389029 0 0.032592964724492211 -0.0024572476088703626 0 0.032499589667414529 -0.0025851922048538705 0 0.032592964724492211 -0.0024572476088703626 0 0.032748988754573834 -0.002296183106283615 0 0.032499589667414529 -0.0025851922048538705 0 0.032592964724492211 -0.0024572476088703626 0 0.032663299719763207 -0.0022988292345442378 0 0.032550991104159141 -0.0024552671131789759 0 0.032663299719763207 -0.0022988292345442378 0 0.033254642229381966 -0.0019879590129184711 0 0.032411071104478321 -0.0026206095901485532 0 0.032592964724492211 -0.0024572476088703626 0 0.032663299719763207 -0.0022988292345442378 0 0.032748988754573834 -0.002296183106283615 0 0.032663299719763207 -0.0022988292345442378 0 0.032550991104159141 -0.0024552671131789759 0 0.032411071104478321 -0.0026206095901485532 0 0.03103778039891078 -0.00346618150578135 0 0.034244512792435435 -0.0026105251037867863 0 0.032729915962281163 -0.0025580293601783761 0 0.032550991104159141 -0.0024552671131789759 0 0.032603623057061923 -0.0024204096232188404 0 0.032729915962281163 -0.0025580293601783761 0 0.032592964724492211 -0.0024572476088703626 0 0.032550991104159141 -0.0024552671131789759 0 0.031813446460516169 -0.0023064413533998638 0 0.033254642229381966 -0.0019879590129184711 0 0.031244595772779549 -0.0019315369485078759 0 0.032258180776664154 -0.0023986553733564373 0 0.031813446460516169 -0.0023064413533998638 0 0.033254642229381966 -0.0019879590129184711 0 0.033465042784544083 -0.0019635732727243753 0 0.034956517671932343 -0.0022750446368473838 0 0.031813446460516169 -0.0023064413533998638 0 0.031757264474204516 -0.0026072962392956834 0 0.031198672135364112 -0.0024655590913759675 0 0.032258180776664154 -0.0023986553733564373 0 0.031813446460516169 -0.0023064413533998638 0 0.031757264474204516 -0.0026072962392956834 0 0.032663299719763207 -0.0022988292345442378 0 0.033254642229381966 -0.0019879590129184711 0 0.032748988754573834 -0.002296183106283615 0 0.033254642229381966 -0.0019879590129184711 0 0.032748988754573834 -0.002296183106283615 0 0.032346690404772643 -0.0025795705652535846 0 0.032258180776664154 -0.0023986553733564373 0 0.033254642229381966 -0.0019879590129184711 0 0.032346690404772643 -0.0025795705652535846 0 0.032748988754573834 -0.002296183106283615 0 0.032346690404772643 -0.0025795705652535846 0 0.032499589667414529 -0.0025851922048538705 0 0.032346690404772643 -0.0025795705652535846 0 0.032499589667414529 -0.0025851922048538705 0 0.03217388429431433 -0.0028865603117574053 0 0.032346690404772643 -0.0025795705652535846 0 0.031770114282115743 -0.002938748635981917 0 0.03217388429431433 -0.0028865603117574053 0 0.031770114282115743 -0.002938748635981917 0 0.031757264474204516 -0.0026072962392956834 0 0.03115810926912185 -0.002860886442141154 0 0.032346690404772643 -0.0025795705652535846 0 0.031770114282115743 -0.002938748635981917 0 0.031757264474204516 -0.0026072962392956834 0 0.032258180776664154 -0.0023986553733564373 0 0.032346690404772643 -0.0025795705652535846 0 0.031757264474204516 -0.0026072962392956834 0 0.031770114282115743 -0.002938748635981917 0 0.031617919087400935 -0.0033092429888800187 0 0.031143982305219635 -0.0032299265774868571 0 0.031770114282115743 -0.002938748635981917 0 0.031143982305219635 -0.0032299265774868571 0 0.03115810926912185 -0.002860886442141154 0 0.032226752371207049 -0.0032004205193588244 0 0.03217388429431433 -0.0028865603117574053 0 0.031617919087400935 -0.0033092429888800187 0 0.031770114282115743 -0.002938748635981917 0 0.03217388429431433 -0.0028865603117574053 0 0.031617919087400935 -0.0033092429888800187 0 0.032226752371207049 -0.0032004205193588244 0 0.031617919087400935 -0.0033092429888800187 0 0.031798211947167171 -0.0035575775698688137 0 0.031617919087400935 -0.0033092429888800187 0 0.031324422943304869 -0.0037796725927235404 0 0.031798211947167171 -0.0035575775698688137 0 0.031599323924397744 -0.0040503863222006451 0 0.03214216770975848 -0.0036820919039309043 0 0.031798211947167171 -0.0035575775698688137 0 0.031599323924397744 -0.0040503863222006451 0 0.031324422943304869 -0.0037796725927235404 0 0.031798211947167171 -0.0035575775698688137 0 0.031617919087400935 -0.0033092429888800187 0 0.030902725824934824 -0.0037447140361625891 0 0.031143982305219635 -0.0032299265774868571 0 0.031617919087400935 -0.0033092429888800187 0 0.031324422943304869 -0.0037796725927235404 0 0.030902725824934824 -0.0037447140361625891 0 0.030498845489492488 -0.0038816619652395391 0 0.030902725824934824 -0.0037447140361625891 0 0.030695589755188369 -0.0035734751171899327 0 0.030902725824934824 -0.0037447140361625891 0 0.030695589755188369 -0.0035734751171899327 0 0.031143982305219635 -0.0032299265774868571 0 0.030498845489492488 -0.0038816619652395391 0 0.030289319251299143 -0.0038563161287866231 0 0.030695589755188369 -0.0035734751171899327 0 0.030289319251299143 -0.0038563161287866231 0 0.030695589755188369 -0.0035734751171899327 0 0.030611026114794583 -0.0032270307939440295 0 0.030611026114794583 -0.0032270307939440295 0 0.031143982305219635 -0.0032299265774868571 0 0.03115810926912185 -0.002860886442141154 0 0.030695589755188369 -0.0035734751171899327 0 0.030611026114794583 -0.0032270307939440295 0 0.031143982305219635 -0.0032299265774868571 0 0.029928173338355828 -0.00448426321714276 0 0.029995184525739703 -0.0040703721008078777 0 0.030255776759747346 -0.0042224745770917298 0 0.030289319251299143 -0.0038563161287866231 0 0.030611026114794583 -0.0032270307939440295 0 0.030103498676453504 -0.0036435943157448452 0 0.030611026114794583 -0.0032270307939440295 0 0.030103498676453504 -0.0036435943157448452 0 0.030300251009158025 -0.0029858882949597701 0 0.030179434486796823 -0.0039182547302626727 0 0.030425142180674776 -0.0032512600811209673 0 0.029995184525739703 -0.0040703721008078777 0 0.030255776759747346 -0.0042224745770917298 0 0.030522025622733977 -0.0035283336243157513 0 0.029995184525739703 -0.0040703721008078777 0 0.030522025622733977 -0.0035283336243157513 0 0.029969793638225613 -0.0035663300227728066 0 0.030522025622733977 -0.0035283336243157513 0 0.029969793638225613 -0.0035663300227728066 0 0.030176230204479137 -0.002913282691800335 0 0.030425142180674776 -0.0032512600811209673 0 0.030640040636270044 -0.0026455263303628725 0 0.030522025622733977 -0.0035283336243157513 0 0.030712206873430997 -0.002587559001381138 0 0.030176230204479137 -0.002913282691800335 0 0.030300251009158025 -0.0029858882949597701 0 0.030723714176721432 -0.0025299493223415468 0 0.030793736682314436 -0.002711507262827895 0 0.030611026114794583 -0.0032270307939440295 0 0.030300251009158025 -0.0029858882949597701 0 0.030793736682314436 -0.002711507262827895 0 0.030300251009158025 -0.0029858882949597701 0 0.030723714176721432 -0.0025299493223415468 0 0.030712206873430997 -0.002587559001381138 0 0.030723714176721432 -0.0025299493223415468 0 0.030712206873430997 -0.002587559001381138 0 0.030809950815687867 -0.0023044799135433108 0 0.030712206873430997 -0.002587559001381138 0 0.030866239644094864 -0.0023979220852141827 0 0.030176230204479137 -0.002913282691800335 0 0.03115810926912185 -0.002860886442141154 0 0.030793736682314436 -0.002711507262827895 0 0.031198672135364112 -0.0024655590913759675 0 0.031757264474204516 -0.0026072962392956834 0 0.03115810926912185 -0.002860886442141154 0 0.031198672135364112 -0.0024655590913759675 0 0.030611026114794583 -0.0032270307939440295 0 0.03115810926912185 -0.002860886442141154 0 0.030793736682314436 -0.002711507262827895 0 0.030723714176721432 -0.0025299493223415468 0 0.030917444951565707 -0.0023610420655096804 0 0.030809950815687867 -0.0023044799135433108 0 0.030793736682314436 -0.002711507262827895 0 0.030917444951565707 -0.0023610420655096804 0 0.031198672135364112 -0.0024655590913759675 0 0.030723714176721432 -0.0025299493223415468 0 0.030793736682314436 -0.002711507262827895 0 0.030917444951565707 -0.0023610420655096804 0 0.030917444951565707 -0.0023610420655096804 0 0.031198672135364112 -0.0024655590913759675 0 0.031244595772779549 -0.0019315369485078759 0 0.031813446460516169 -0.0023064413533998638 0 0.031198672135364112 -0.0024655590913759675 0 0.031244595772779549 -0.0019315369485078759 0 0.030917444951565707 -0.0023610420655096804 0 0.031244595772779549 -0.0019315369485078759 0 0.030809950815687867 -0.0023044799135433108 0 0.034956517671932343 -0.0022750446368473838 0 0.034011543097540994 -0.0028388681289088814 0 0.038849552756421289 -0.0024073013521133764 0 0.039312178511293372 -0.0029051957572865284 0 0.037375566850028727 -0.003637280700264743 0 0.039312178511293372 -0.0029051957572865284 0 0.039259293045185002 -0.0015877596430001555 0 0.037375566850028727 -0.003637280700264743 0 0.039259293045185002 -0.0015877596430001555 0 0.037375566850028727 -0.003637280700264743 0 0.03584765496682174 -0.0012887394926668005 0 0.039259293045185002 -0.0015877596430001555 0 0.040169115910917978 -0.0018556160068494225 0 0.0401895750576719 -0.0012366446654707222 0 0.039312178511293372 -0.0029051957572865284 0 0.039259293045185002 -0.0015877596430001555 0 0.040169115910917978 -0.0018556160068494225 0 0.034011543097540994 -0.0028388681289088814 0 0.031486822614140625 -0.0022421101724994846 0 0.030866239644094864 -0.0023979220852141827 0 0.030809950815687867 -0.0023044799135433108 0 0.031353678513331956 -0.0021649510493886139 0 0.030712206873430997 -0.002587559001381138 0 0.030866239644094864 -0.0023979220852141827 0 0.030809950815687867 -0.0023044799135433108 0 0.037375566850028727 -0.003637280700264743 0 0.03584765496682174 -0.0012887394926668005 0 0.031353678513331956 -0.0021649510493886139 0 0.039259293045185002 -0.0015877596430001555 0 0.03584765496682174 -0.0012887394926668005 0 0.035674016138528407 0.00081516753562375151 0 0.03584765496682174 -0.0012887394926668005 0 0.033857717483090938 -0.00017025054846592189 0 0.035674016138528407 0.00081516753562375151 0 0.033857717483090938 -0.00017025054846592189 0 0.031353678513331956 -0.0021649510493886139 0 0.030880641315286537 -0.0011156008991184988 0 0.03584765496682174 -0.0012887394926668005 0 0.033857717483090938 -0.00017025054846592189 0 0.031353678513331956 -0.0021649510493886139 0 0.033857717483090938 -0.00017025054846592189 0 0.03091629431564635 -0.00057076947909015931 0 0.030880641315286537 -0.0011156008991184988 0 0.033857717483090938 -0.00017025054846592189 0 0.033324545696907459 0.0004874223528064943 0 0.033549937626770235 0.0013910867842559882 0 0.033857717483090938 -0.00017025054846592189 0 0.035674016138528407 0.00081516753562375151 0 0.033549937626770235 0.0013910867842559882 0 0.038292501581625477 -0.00022866999412294689 0 0.037542686256929775 0.00015400222718797054 0 0.040835237569809939 -0.00093055739343866071 0 0.040955025436026207 -0.001097248998401263 0 0.040274348462596282 -0.0011395929924820792 0 0.040835237569809939 -0.00093055739343866071 0 0.040955025436026207 -0.001097248998401263 0 0.041424828331452591 -0.0010324723666291038 0 0.040955025436026207 -0.001097248998401263 0 0.041424828331452591 -0.0010324723666291038 0 0.041512323736988023 -0.0011529159482751778 0 0.041424828331452591 -0.0010324723666291038 0 0.04153914275447209 -0.0011442915930051504 0 0.041512323736988023 -0.0011529159482751778 0 0.0401895750576719 -0.0012366446654707222 0 0.040848417274822177 -0.00091753587785023535 0 0.040811449802695396 -0.0013781073863514141 0 0.0401895750576719 -0.0012366446654707222 0 0.040588155561035046 -0.0010367483909607617 0 0.040848417274822177 -0.00091753587785023535 0 0.040169115910917978 -0.0018556160068494225 0 0.0401895750576719 -0.0012366446654707222 0 0.040811449802695396 -0.0013781073863514141 0 0.039320703499647211 -0.0014292457545810767 0 0.038292501581625477 -0.00022866999412294689 0 0.039259293045185002 -0.0015877596430001555 0 0.040835237569809939 -0.00093055739343866071 0 0.040274348462596282 -0.0011395929924820792 0 0.039259293045185002 -0.0015877596430001555 0 0.0401895750576719 -0.0012366446654707222 0 0.040274348462596282 -0.0011395929924820792 0 0.0401895750576719 -0.0012366446654707222 0 0.040274348462596282 -0.0011395929924820792 0 0.040588155561035046 -0.0010367483909607617 0 0.040955025436026207 -0.001097248998401263 0 0.040274348462596282 -0.0011395929924820792 0 0.040588155561035046 -0.0010367483909607617 0 0.040955025436026207 -0.001097248998401263 0 0.040588155561035046 -0.0010367483909607617 0 0.041134995581427261 -0.00094232606326601174 0 0.040588155561035046 -0.0010367483909607617 0 0.040848417274822177 -0.00091753587785023535 0 0.041134995581427261 -0.00094232606326601174 0 0.040848417274822177 -0.00091753587785023535 0 0.041031901533063429 -0.00081243845330207271 0 0.041134995581427261 -0.00094232606326601174 0 0.040848417274822177 -0.00091753587785023535 0 0.041622514373867665 -0.00089277673787757682 0 0.041031901533063429 -0.00081243845330207271 0 0.042455208225197778 -0.0011273211191557596 0 0.042235773471719203 -0.00092439505699822954 0 0.040811449802695396 -0.0013781073863514141 0 0.041622514373867665 -0.00089277673787757682 0 0.041790148493803428 -0.0016172654579599476 0 0.040848417274822177 -0.00091753587785023535 0 0.040811449802695396 -0.0013781073863514141 0 0.041622514373867665 -0.00089277673787757682 0 0.041622514373867665 -0.00089277673787757682 0 0.042913803095618507 -0.0018441720574063664 0 0.041790148493803428 -0.0016172654579599476 0 0.042455208225197778 -0.0011273211191557596 0 0.042918761061896717 -0.0018334098738343842 0 0.043223521648804657 -0.0012018414163266968 0 0.043401757517973615 -0.001479766719086704 0 0.042913803095618507 -0.0018441720574063664 0 0.043223521648804657 -0.0012018414163266968 0 0.0434824463489423 -0.0010299868946598238 0 0.043379142714293821 -0.0010238125092212212 0 0.043223521648804657 -0.0012018414163266968 0 0.0434824463489423 -0.0010299868946598238 0 0.043517565123959781 -0.0011984804878227163 0 0.0434824463489423 -0.0010299868946598238 0 0.043517565123959781 -0.0011984804878227163 0 0.043771805005490008 -0.00094668572247446909 0 0.043771805005490008 -0.00094668572247446909 0 0.043755076407011428 -0.0014332789815496003 0 0.044099506558908159 -0.0011308583476314937 0 0.043517565123959781 -0.0011984804878227163 0 0.043771805005490008 -0.00094668572247446909 0 0.043755076407011428 -0.0014332789815496003 0 0.043223521648804657 -0.0012018414163266968 0 0.043517565123959781 -0.0011984804878227163 0 0.043401757517973615 -0.001479766719086704 0 0.043517565123959781 -0.0011984804878227163 0 0.043755076407011428 -0.0014332789815496003 0 0.043401757517973615 -0.001479766719086704 0 0.043401757517973615 -0.001479766719086704 0 0.042913803095618507 -0.0018441720574063664 0 0.043533273665538545 -0.0019025721637543911 0 0.043755076407011428 -0.0014332789815496003 0 0.043401757517973615 -0.001479766719086704 0 0.043533273665538545 -0.0019025721637543911 0 0.043755076407011428 -0.0014332789815496003 0 0.043533273665538545 -0.0019025721637543911 0 0.04402377171549382 -0.0016387717438616774 0 0.033813413630449922 -0.0038082987264635134 0 0.033989078027397014 -0.0038178108377344365 0 0.03410532107614192 -0.0036565648114706968 0 0.038422302638217609 -0.0030850128894649655 0 0.04012984890290177 -0.0012836633594684463 0 0.033027639769047976 -0.00321589811869998 0 0.034244512792435435 -0.0026105251037867863 0 0.033813413630449922 -0.0038082987264635134 0 0.03385400563574803 -0.0037318858760083066 0 0.033989078027397014 -0.0038178108377344365 0 0.032550991104159141 -0.0024552671131789759 0 0.032411071104478321 -0.0026206095901485532 0 0.032603623057061923 -0.0024204096232188404 0 0.033813413630449922 -0.0038082987264635134 0 0.03385400563574803 -0.0037318858760083066 0 0.034186177130132389 -0.0037565300856251056 0 0.03385400563574803 -0.0037318858760083066 0 0.034186177130132389 -0.0037565300856251056 0 0.034569894352531078 -0.0031070691416854013 0 0.033027639769047976 -0.00321589811869998 0 0.034609677876733511 -0.0031088131914980628 0 0.033254642229381966 -0.0019879590129184711 0 0.032411071104478321 -0.0026206095901485532 0 0.034569894352531078 -0.0031070691416854013 0 0.034186177130132389 -0.0037565300856251056 0 0.034569894352531078 -0.0031070691416854013 0 0.034757019819211581 -0.0043978055881507619 0 0.033254642229381966 -0.0019879590129184711 0 0.038849552756421289 -0.0024073013521133764 0 0.034569894352531078 -0.0031070691416854013 0 0.038849552756421289 -0.0024073013521133764 0 0.039312178511293372 -0.0029051957572865284 0 0.034757019819211581 -0.0043978055881507619 0 0.038849552756421289 -0.0024073013521133764 0 0.034569894352531078 -0.0031070691416854013 0 0.034757019819211581 -0.0043978055881507619 0 0.039165886501616134 -0.0030157635030917999 0 0.038401232148201875 -0.0032978298412717683 0 0.039312178511293372 -0.0029051957572865284 0 0.040169115910917978 -0.0018556160068494225 0 0.041847453214114469 -0.0024450603185816253 0 0.040169115910917978 -0.0018556160068494225 0 0.040811449802695396 -0.0013781073863514141 0 0.041847453214114469 -0.0024450603185816253 0 0.040811449802695396 -0.0013781073863514141 0 0.041790148493803428 -0.0016172654579599476 0 0.041847453214114469 -0.0024450603185816253 0 0.033813413630449922 -0.0038082987264635134 0 0.034186177130132389 -0.0037565300856251056 0 0.034757019819211581 -0.0043978055881507619 0 0.038422302638217609 -0.0030850128894649655 0 0.038401232148201875 -0.0032978298412717683 0 0.042913803095618507 -0.0018441720574063664 0 0.041790148493803428 -0.0016172654579599476 0 0.041847453214114469 -0.0024450603185816253 0 0.042913803095618507 -0.0018441720574063664 0 0.043533273665538545 -0.0019025721637543911 0 0.041847453214114469 -0.0024450603185816253 0 0.028883384813647935 -0.0049754259664814655 0 0.028721229677454829 -0.0049158037084612452 0 0.029137751124212796 -0.0049375738167229738 0 0.029012830990448095 -0.0048891003575251904 0 0.028721229677454829 -0.0049158037084612452 0 0.029137751124212796 -0.0049375738167229738 0 0.029012830990448095 -0.0048891003575251904 0 0.02925965751726909 -0.0049247654048709911 0 0.029137751124212796 -0.0049375738167229738 0 0.029012830990448095 -0.0048891003575251904 0 0.028716196733501526 -0.0048951151605723274 0 0.028721229677454829 -0.0049158037084612452 0 0.028716196733501526 -0.0048951151605723274 0 0.028354975790806897 -0.0048659615831148735 0 0.028748165954165794 -0.0049838666184130326 0 0.029012830990448095 -0.0048891003575251904 0 0.028716196733501526 -0.0048951151605723274 0 0.028937694125470741 -0.004914807362676776 0 0.028716196733501526 -0.0048951151605723274 0 0.028721229677454829 -0.0049158037084612452 0 0.028354975790806897 -0.0048659615831148735 0 0.028716196733501526 -0.0048951151605723274 0 0.028748165954165794 -0.0049838666184130326 0 0.028937694125470741 -0.004914807362676776 0 0.028298148924271131 -0.0048601341840269008 0 0.028721229677454829 -0.0049158037084612452 0 0.028354975790806897 -0.0048659615831148735 0 0.028298148924271131 -0.0048601341840269008 0 0.028883384813647935 -0.0049754259664814655 0 0.028721229677454829 -0.0049158037084612452 0 0.028298148924271131 -0.0048601341840269008 0 0.028354975790806897 -0.0048659615831148735 0 0.02811096938866162 -0.0047732144304887432 0 0.028354975790806897 -0.0048659615831148735 0 0.02811096938866162 -0.0047732144304887432 0 0.027736115649892482 -0.0046021944743511057 0 0.028298148924271131 -0.0048601341840269008 0 0.02811096938866162 -0.0047732144304887432 0 0.027881595814280066 -0.0046641916512722235 0 0.02811096938866162 -0.0047732144304887432 0 0.027881595814280066 -0.0046641916512722235 0 0.027736115649892482 -0.0046021944743511057 0 0.027881595814280066 -0.0046641916512722235 0 0.027736115649892482 -0.0046021944743511057 0 0.027502026789529076 -0.0045617543941965325 0 0.027776661380557909 -0.0044438465047206624 0 0.027881595814280066 -0.0046641916512722235 0 0.027502026789529076 -0.0045617543941965325 0 0.027491264254840213 -0.0044906410222144474 0 0.027272363080334251 -0.0042386749187382005 0 0.027502026789529076 -0.0045617543941965325 0 0.026842677342463404 -0.0043695706162768426 0 0.02660809782859698 -0.0041901095822788987 0 0.027736115649892482 -0.0046021944743511057 0 0.027502026789529076 -0.0045617543941965325 0 0.027860160716449187 -0.0043031708067549071 0 0.026842677342463404 -0.0043695706162768426 0 0.02660809782859698 -0.0041901095822788987 0 0.026709772963606063 -0.0043273430916660601 0 0.027736115649892482 -0.0046021944743511057 0 0.027783530029818045 -0.0040132856815966239 0 0.027860160716449187 -0.0043031708067549071 0 0.027846063007711842 -0.0045806103010470021 0 0.028273359688093636 -0.0044382733817728507 0 0.028354975790806897 -0.0048659615831148735 0 0.027736115649892482 -0.0046021944743511057 0 0.028748165954165794 -0.0049838666184130326 0 0.027272363080334251 -0.0042386749187382005 0 0.027883455440621374 -0.0034771669343180958 0 0.027783530029818045 -0.0040132856815966239 0 0.027860160716449187 -0.0043031708067549071 0 0.028168155703556994 -0.0036035135412639131 0 0.02660809782859698 -0.0041901095822788987 0 0.026864802653912469 -0.0042566898642005446 0 0.027298186025558419 -0.0039931930414145436 0 0.02660809782859698 -0.0041901095822788987 0 0.026864802653912469 -0.0042566898642005446 0 0.026709772963606063 -0.0043273430916660601 0 0.026557425982121057 -0.0044384268972974253 0 0.026864802653912469 -0.0042566898642005446 0 0.027241239454456584 -0.0043047021268198069 0 0.026557425982121057 -0.0044384268972974253 0 0.026864802653912469 -0.0042566898642005446 0 0.026709772963606063 -0.0043273430916660601 0 0.026557425982121057 -0.0044384268972974253 0 0.026842677342463404 -0.0043695706162768426 0 0.026709772963606063 -0.0043273430916660601 0 0.027668635258247927 -0.004632070990921125 0 0.027241239454456584 -0.0043047021268198069 0 0.027804824810335083 -0.0042287701022146662 0 0.026864802653912469 -0.0042566898642005446 0 0.027241239454456584 -0.0043047021268198069 0 0.027298186025558419 -0.0039931930414145436 0 0.027241239454456584 -0.0043047021268198069 0 0.027298186025558419 -0.0039931930414145436 0 0.027804824810335083 -0.0042287701022146662 0 0.027298186025558419 -0.0039931930414145436 0 0.027937142321263375 -0.0037876815669000102 0 0.027804824810335083 -0.0042287701022146662 0 0.02660809782859698 -0.0041901095822788987 0 0.027298186025558419 -0.0039931930414145436 0 0.027606777120184733 -0.0032975762921471281 0 0.027298186025558419 -0.0039931930414145436 0 0.027606777120184733 -0.0032975762921471281 0 0.027937142321263375 -0.0037876815669000102 0 0.027783530029818045 -0.0040132856815966239 0 0.028168155703556994 -0.0036035135412639131 0 0.0280041983133614 -0.003254592776200306 0 0.028168155703556994 -0.0036035135412639131 0 0.0280041983133614 -0.003254592776200306 0 0.028300362774746776 -0.0030728637121625667 0 0.028748165954165794 -0.0049838666184130326 0 0.029164640094491386 -0.0049584160330721095 0 0.028937694125470741 -0.004914807362676776 0 0.028273359688093636 -0.0044382733817728507 0 0.028596539890440604 -0.0041025648458562032 0 0.029164640094491386 -0.0049584160330721095 0 0.028937694125470741 -0.004914807362676776 0 0.029086785216788542 -0.0049130857596216019 0 0.029012830990448095 -0.0048891003575251904 0 0.028937694125470741 -0.004914807362676776 0 0.029086785216788542 -0.0049130857596216019 0 0.029012830990448095 -0.0048891003575251904 0 0.029086785216788542 -0.0049130857596216019 0 0.029170773688653812 -0.0049063018403575414 0 0.029086785216788542 -0.0049130857596216019 0 0.029222621095965316 -0.0049330610318545041 0 0.029170773688653812 -0.0049063018403575414 0 0.028596539890440604 -0.0041025648458562032 0 0.028913263306096917 -0.003717492007820648 0 0.029164640094491386 -0.0049584160330721095 0 0.029222621095965316 -0.0049330610318545041 0 0.029365950560148481 -0.0050083996382204576 0 0.029164640094491386 -0.0049584160330721095 0 0.029086785216788542 -0.0049130857596216019 0 0.029222621095965316 -0.0049330610318545041 0 0.0280041983133614 -0.003254592776200306 0 0.028300362774746776 -0.0030728637121625667 0 0.028358316644091754 -0.0025228928564618247 0 0.028300362774746776 -0.0030728637121625667 0 0.028676800099833821 -0.0029096880746412651 0 0.028358316644091754 -0.0025228928564618247 0 0.028676800099833821 -0.0029096880746412651 0 0.028934410693610253 -0.0024740728482637126 0 0.028358316644091754 -0.0025228928564618247 0 0.028676800099833821 -0.0029096880746412651 0 0.029115375545043697 -0.002965345715188558 0 0.028934410693610253 -0.0024740728482637126 0 0.028676800099833821 -0.0029096880746412651 0 0.028849095042881578 -0.003338581176448543 0 0.028327735470864764 -0.0033983661641700186 0 0.028676800099833821 -0.0029096880746412651 0 0.028849095042881578 -0.003338581176448543 0 0.029115375545043697 -0.002965345715188558 0 0.027606777120184733 -0.0032975762921471281 0 0.028676800099833821 -0.0029096880746412651 0 0.028327735470864764 -0.0033983661641700186 0 0.027883455440621374 -0.0034771669343180958 0 0.028619116961399328 -0.0029434879629556057 0 0.028168155703556994 -0.0036035135412639131 0 0.028300362774746776 -0.0030728637121625667 0 0.028676800099833821 -0.0029096880746412651 0 0.027606777120184733 -0.0032975762921471281 0 0.028327735470864764 -0.0033983661641700186 0 0.027937142321263375 -0.0037876815669000102 0 0.028327735470864764 -0.0033983661641700186 0 0.027937142321263375 -0.0037876815669000102 0 0.028517761329263772 -0.0036956865419474445 0 0.027937142321263375 -0.0037876815669000102 0 0.028426920396772387 -0.0041174995256652476 0 0.028517761329263772 -0.0036956865419474445 0 0.027937142321263375 -0.0037876815669000102 0 0.027804824810335083 -0.0042287701022146662 0 0.028426920396772387 -0.0041174995256652476 0 0.028154479207398032 -0.004422291340395134 0 0.027804824810335083 -0.0042287701022146662 0 0.028426920396772387 -0.0041174995256652476 0 0.027668635258247927 -0.004632070990921125 0 0.028154479207398032 -0.004422291340395134 0 0.027804824810335083 -0.0042287701022146662 0 0.028926630858087818 -0.004190758971522616 0 0.028740970677259177 -0.0039373453940271218 0 0.029083554444850189 -0.0037432060945103412 0 0.02882544835972304 -0.0045836765680431065 0 0.028926630858087818 -0.004190758971522616 0 0.02856371359378667 -0.0043914624009434699 0 0.028154479207398032 -0.004422291340395134 0 0.02856371359378667 -0.0043914624009434699 0 0.028426920396772387 -0.0041174995256652476 0 0.028926630858087818 -0.004190758971522616 0 0.02856371359378667 -0.0043914624009434699 0 0.028426920396772387 -0.0041174995256652476 0 0.028926630858087818 -0.004190758971522616 0 0.028426920396772387 -0.0041174995256652476 0 0.028740970677259177 -0.0039373453940271218 0 0.028849095042881578 -0.003338581176448543 0 0.028517761329263772 -0.0036956865419474445 0 0.029083554444850189 -0.0037432060945103412 0 0.028740970677259177 -0.0039373453940271218 0 0.028517761329263772 -0.0036956865419474445 0 0.029083554444850189 -0.0037432060945103412 0 0.028426920396772387 -0.0041174995256652476 0 0.028740970677259177 -0.0039373453940271218 0 0.028517761329263772 -0.0036956865419474445 0 0.028849095042881578 -0.003338581176448543 0 0.028327735470864764 -0.0033983661641700186 0 0.028517761329263772 -0.0036956865419474445 0 0.029083554444850189 -0.0037432060945103412 0 0.029301834909773825 -0.0041558040102186904 0 0.029600116830972693 -0.0039134012768479009 0 0.029083554444850189 -0.0037432060945103412 0 0.029600116830972693 -0.0039134012768479009 0 0.02949572597669298 -0.0033285807854684249 0 0.028926630858087818 -0.004190758971522616 0 0.029083554444850189 -0.0037432060945103412 0 0.029301834909773825 -0.0041558040102186904 0 0.029222426018152375 -0.004456825733816866 0 0.029636481663260088 -0.0043842569977071925 0 0.029301834909773825 -0.0041558040102186904 0 0.029222426018152375 -0.004456825733816866 0 0.028926630858087818 -0.004190758971522616 0 0.029301834909773825 -0.0041558040102186904 0 0.029636481663260088 -0.0043842569977071925 0 0.029995184525739703 -0.0040703721008078777 0 0.029600116830972693 -0.0039134012768479009 0 0.029636481663260088 -0.0043842569977071925 0 0.029301834909773825 -0.0041558040102186904 0 0.029600116830972693 -0.0039134012768479009 0 0.029969793638225613 -0.0035663300227728066 0 0.029600116830972693 -0.0039134012768479009 0 0.02949572597669298 -0.0033285807854684249 0 0.029995184525739703 -0.0040703721008078777 0 0.029969793638225613 -0.0035663300227728066 0 0.029600116830972693 -0.0039134012768479009 0 0.029969793638225613 -0.0035663300227728066 0 0.02949572597669298 -0.0033285807854684249 0 0.030176230204479137 -0.002913282691800335 0 0.028849095042881578 -0.003338581176448543 0 0.02949572597669298 -0.0033285807854684249 0 0.029115375545043697 -0.002965345715188558 0 0.028849095042881578 -0.003338581176448543 0 0.029083554444850189 -0.0037432060945103412 0 0.02949572597669298 -0.0033285807854684249 0 0.02949572597669298 -0.0033285807854684249 0 0.029115375545043697 -0.002965345715188558 0 0.029619549128654766 -0.0026818504193922696 0 0.029115375545043697 -0.002965345715188558 0 0.029619549128654766 -0.0026818504193922696 0 0.028934410693610253 -0.0024740728482637126 0 0.030866239644094864 -0.0023979220852141827 0 0.030176230204479137 -0.002913282691800335 0 0.030256688237238916 -0.00239181722608337 0 0.02949572597669298 -0.0033285807854684249 0 0.029619549128654766 -0.0026818504193922696 0 0.030176230204479137 -0.002913282691800335 0 0.029619549128654766 -0.0026818504193922696 0 0.030176230204479137 -0.002913282691800335 0 0.030256688237238916 -0.00239181722608337 0 0.031353678513331956 -0.0021649510493886139 0 0.030256688237238916 -0.00239181722608337 0 0.029971722729006941 -0.0016602166315813442 0 0.030866239644094864 -0.0023979220852141827 0 0.031353678513331956 -0.0021649510493886139 0 0.030256688237238916 -0.00239181722608337 0 0.029619549128654766 -0.0026818504193922696 0 0.030256688237238916 -0.00239181722608337 0 0.029392755734119713 -0.0021297882528057677 0 0.029619549128654766 -0.0026818504193922696 0 0.029392755734119713 -0.0021297882528057677 0 0.028934410693610253 -0.0024740728482637126 0 0.030256688237238916 -0.00239181722608337 0 0.029392755734119713 -0.0021297882528057677 0 0.029971722729006941 -0.0016602166315813442 0 0.029392755734119713 -0.0021297882528057677 0 0.029971722729006941 -0.0016602166315813442 0 0.028806385364637328 -0.0016447711156438766 0 0.031056613113010011 -0.0012600151800358443 0 0.029306534526374117 -0.0031392423728914928 0 0.029829123355029265 -0.00090489119261822596 0 0.029971722729006941 -0.0016602166315813442 0 0.028806385364637328 -0.0016447711156438766 0 0.029829123355029265 -0.00090489119261822596 0 0.029651984137816639 0.00019688172048682115 0 0.028806385364637328 -0.0016447711156438766 0 0.030960750512818953 -0.0036803915953236648 0 0.030063452809576056 -0.0039092770130497254 0 0.030074549635485535 -0.004499132426320258 0 0.031353678513331956 -0.0021649510493886139 0 0.029971722729006941 -0.0016602166315813442 0 0.030880641315286537 -0.0011156008991184988 0 0.029829123355029265 -0.00090489119261822596 0 0.03091629431564635 -0.00057076947909015931 0 0.030880641315286537 -0.0011156008991184988 0 0.029829123355029265 -0.00090489119261822596 0 0.029971722729006941 -0.0016602166315813442 0 0.030880641315286537 -0.0011156008991184988 0 0.033807891111245832 0.0003266962614315013 0 0.031056613113010011 -0.0012600151800358443 0 0.033857717483090938 -0.00017025054846592189 0 0.03091629431564635 -0.00057076947909015931 0 0.029651984137816639 0.00019688172048682115 0 0.033857717483090938 -0.00017025054846592189 0 0.033324545696907459 0.0004874223528064943 0 0.032722730287471108 0.00078909335275860373 0 0.033324545696907459 0.0004874223528064943 0 0.032722730287471108 0.00078909335275860373 0 0.032908296783826493 0.00076365277841069579 0 0.029829123355029265 -0.00090489119261822596 0 0.03091629431564635 -0.00057076947909015931 0 0.029651984137816639 0.00019688172048682115 0 0.032722730287471108 0.00078909335275860373 0 0.032813451729184054 0.00085456793980825247 0 0.032908296783826493 0.00076365277841069579 0 0.032746202959278867 0.00082176924059790008 0 0.032813451729184054 0.00085456793980825247 0 0.032722903883849006 0.00085370164467899812 0 0.032813451729184054 0.00085456793980825247 0 0.032761863240381349 0.00090719832153005693 0 0.032722903883849006 0.00085370164467899812 0 0.032722730287471108 0.00078909335275860373 0 0.032746202959278867 0.00082176924059790008 0 0.032813451729184054 0.00085456793980825247 0 0.032813451729184054 0.00085456793980825247 0 0.032908296783826493 0.00076365277841069579 0 0.033028553975422939 0.00089484855176312928 0 0.032813451729184054 0.00085456793980825247 0 0.032826607767939157 0.00097819931587322505 0 0.033028553975422939 0.00089484855176312928 0 0.032813451729184054 0.00085456793980825247 0 0.032826607767939157 0.00097819931587322505 0 0.032761863240381349 0.00090719832153005693 0 0.033324545696907459 0.0004874223528064943 0 0.032908296783826493 0.00076365277841069579 0 0.033028553975422939 0.00089484855176312928 0 0.033324545696907459 0.0004874223528064943 0 0.033549937626770235 0.0013910867842559882 0 0.033028553975422939 0.00089484855176312928 0 0.033549937626770235 0.0013910867842559882 0 0.033028553975422939 0.00089484855176312928 0 0.032989140593027357 0.001155244989443488 0 0.033549937626770235 0.0013910867842559882 0 0.032989140593027357 0.001155244989443488 0 0.032885360154449456 0.0013461738373590801 0 0.037542686256929775 0.00015400222718797054 0 0.037178894243445032 0.00014462663009373616 0 0.032826607767939157 0.00097819931587322505 0 0.033028553975422939 0.00089484855176312928 0 0.032989140593027357 0.001155244989443488 0 0.032826607767939157 0.00097819931587322505 0 0.032989140593027357 0.001155244989443488 0 0.032801343813513385 0.0011594739272116207 0 0.032989140593027357 0.001155244989443488 0 0.032801343813513385 0.0011594739272116207 0 0.032885360154449456 0.0013461738373590801 0 0.03261294616599706 0.0011587805127604165 0 0.032682549256492423 0.0012319818017032646 0 0.032637097107413034 0.0010911045720282714 0 0.032682549256492423 0.0012319818017032646 0 0.032704710204199107 0.0010638697365905447 0 0.032637097107413034 0.0010911045720282714 0 0.03261294616599706 0.0011587805127604165 0 0.032682549256492423 0.0012319818017032646 0 0.032593504613527835 0.001205169231895298 0 0.032682549256492423 0.0012319818017032646 0 0.032801343813513385 0.0011594739272116207 0 0.032704710204199107 0.0010638697365905447 0 0.032682549256492423 0.0012319818017032646 0 0.032801343813513385 0.0011594739272116207 0 0.032885360154449456 0.0013461738373590801 0 0.032826607767939157 0.00097819931587322505 0 0.032801343813513385 0.0011594739272116207 0 0.032704710204199107 0.0010638697365905447 0 0.032826607767939157 0.00097819931587322505 0 0.032704710204199107 0.0010638697365905447 0 0.032703871454917523 0.00094608279378582461 0 0.032704710204199107 0.0010638697365905447 0 0.032637131420737958 0.00098491979114480083 0 0.032703871454917523 0.00094608279378582461 0 0.032637131420737958 0.00098491979114480083 0 0.032637097107413034 0.0010911045720282714 0 0.032547288184706827 0.0011099142900885086 0 0.032704710204199107 0.0010638697365905447 0 0.032637131420737958 0.00098491979114480083 0 0.032637097107413034 0.0010911045720282714 0 0.032722730287471108 0.00078909335275860373 0 0.032637131420737958 0.00098491979114480083 0 0.032441288902473796 0.0010298882325310379 0 0.031056613113010011 -0.0012600151800358443 0 0.031897209159373496 -0.0019956566715073252 0 0.032637131420737958 0.00098491979114480083 0 0.032703871454917523 0.00094608279378582461 0 0.032722903883849006 0.00085370164467899812 0 0.032722730287471108 0.00078909335275860373 0 0.032637131420737958 0.00098491979114480083 0 0.032722903883849006 0.00085370164467899812 0 0.032826607767939157 0.00097819931587322505 0 0.032761863240381349 0.00090719832153005693 0 0.032703871454917523 0.00094608279378582461 0 0.032761863240381349 0.00090719832153005693 0 0.032703871454917523 0.00094608279378582461 0 0.032722903883849006 0.00085370164467899812 0 0.032722730287471108 0.00078909335275860373 0 0.032746202959278867 0.00082176924059790008 0 0.032722903883849006 0.00085370164467899812 0 0.030960750512818953 -0.0036803915953236648 0 0.030063452809576056 -0.0039092770130497254 0 0.029692868776509125 -0.003327008043443159 0 0.030063452809576056 -0.0039092770130497254 0 0.029692868776509125 -0.003327008043443159 0 0.029549680982972327 -0.0041166466944730978 0 0.031897209159373496 -0.0019956566715073252 0 0.029402474871971045 -0.0048730714449972774 0 0.032441288902473796 0.0010298882325310379 0 0.032547288184706827 0.0011099142900885086 0 0.032526178844862363 0.0012496306987430466 0 0.032637131420737958 0.00098491979114480083 0 0.032441288902473796 0.0010298882325310379 0 0.032547288184706827 0.0011099142900885086 0 0.036495537010423795 -0.0023598043956946789 0 0.036120799285604847 -0.001743369268004169 0 0.036711864975892926 -0.0014607418904419678 0 0.031897209159373496 -0.0019956566715073252 0 0.034686954772297503 0.00027132716433325515 0 0.032547288184706827 0.0011099142900885086 0 0.032593504613527835 0.001205169231895298 0 0.032526178844862363 0.0012496306987430466 0 0.03261294616599706 0.0011587805127604165 0 0.032637097107413034 0.0010911045720282714 0 0.032547288184706827 0.0011099142900885086 0 0.03261294616599706 0.0011587805127604165 0 0.032547288184706827 0.0011099142900885086 0 0.032593504613527835 0.001205169231895298 0 0.031897209159373496 -0.0019956566715073252 0 0.034126439582928117 -0.0039368271673214062 0 0.036495537010423795 -0.0023598043956946789 0 0.036120799285604847 -0.001743369268004169 0 0.035371595623514877 -0.0020370962967182415 0 0.036120799285604847 -0.001743369268004169 0 0.035371595623514877 -0.0020370962967182415 0 0.035903193431879157 -0.0011137206059285869 0 0.029548695264698388 -0.0046422957833911899 0 0.029403087366308478 -0.0047434270646664594 0 0.029386126217148249 -0.0045956858057433327 0 0.029548695264698388 -0.0046422957833911899 0 0.029403087366308478 -0.0047434270646664594 0 0.029479492375429361 -0.0047800254007805592 0 0.029402474871971045 -0.0048730714449972774 0 0.029491560878476052 -0.0046045742460334212 0 0.029403087366308478 -0.0047434270646664594 0 0.029380627471147069 -0.0048218157526377474 0 0.029479492375429361 -0.0047800254007805592 0 0.029380627471147069 -0.0048218157526377474 0 0.029479492375429361 -0.0047800254007805592 0 0.029455377980023699 -0.004795212241620923 0 0.030063452809576056 -0.0039092770130497254 0 0.029549680982972327 -0.0041166466944730978 0 0.030074549635485535 -0.004499132426320258 0 0.029549680982972327 -0.0041166466944730978 0 0.030074549635485535 -0.004499132426320258 0 0.029455377980023699 -0.004795212241620923 0 0.029306534526374117 -0.0031392423728914928 0 0.028913263306096917 -0.003717492007820648 0 0.029392755734119713 -0.0021297882528057677 0 0.028806385364637328 -0.0016447711156438766 0 0.028934410693610253 -0.0024740728482637126 0 0.030074549635485535 -0.004499132426320258 0 0.029365950560148481 -0.0050083996382204576 0 0.029455377980023699 -0.004795212241620923 0 0.028806385364637328 -0.0016447711156438766 0 0.028934410693610253 -0.0024740728482637126 0 0.028358316644091754 -0.0025228928564618247 0 0.029222621095965316 -0.0049330610318545041 0 0.029365950560148481 -0.0050083996382204576 0 0.029316006660939968 -0.0048909686109337002 0 0.029380627471147069 -0.0048218157526377474 0 0.029316006660939968 -0.0048909686109337002 0 0.029455377980023699 -0.004795212241620923 0 0.029365950560148481 -0.0050083996382204576 0 0.029316006660939968 -0.0048909686109337002 0 0.029455377980023699 -0.004795212241620923 0 0.029380627471147069 -0.0048218157526377474 0 0.029316006660939968 -0.0048909686109337002 0 0.029257879740081854 -0.0049047905201053399 0 0.029222621095965316 -0.0049330610318545041 0 0.029316006660939968 -0.0048909686109337002 0 0.029257879740081854 -0.0049047905201053399 0 0.029222621095965316 -0.0049330610318545041 0 0.029257879740081854 -0.0049047905201053399 0 0.029170773688653812 -0.0049063018403575414 0 0.029012830990448095 -0.0048891003575251904 0 0.029170773688653812 -0.0049063018403575414 0 0.029213181701608765 -0.0049219828193425583 0 0.029170773688653812 -0.0049063018403575414 0 0.029289500156258599 -0.0049922108574063911 0 0.029213181701608765 -0.0049219828193425583 0 0.029257879740081854 -0.0049047905201053399 0 0.029170773688653812 -0.0049063018403575414 0 0.029289500156258599 -0.0049922108574063911 0 0.029289500156258599 -0.0049922108574063911 0 0.029409393685324827 -0.0050316675584040974 0 0.029213181701608765 -0.0049219828193425583 0 0.029289500156258599 -0.0049922108574063911 0 0.029305420534731647 -0.0048739495155071914 0 0.029282202066720366 -0.0047586343601658558 0 0.029439807630522358 -0.0047883558502283237 0 0.028982308389028488 -0.0054494776369221976 0 0.029257879740081854 -0.0049047905201053399 0 0.029289500156258599 -0.0049922108574063911 0 0.029305420534731647 -0.0048739495155071914 0 0.029380627471147069 -0.0048218157526377474 0 0.029257879740081854 -0.0049047905201053399 0 0.029305420534731647 -0.0048739495155071914 0 0.029403087366308478 -0.0047434270646664594 0 0.029380627471147069 -0.0048218157526377474 0 0.029305420534731647 -0.0048739495155071914 0 0.028982308389028488 -0.0054494776369221976 0 0.034126439582928117 -0.0039368271673214062 0 0.029403087366308478 -0.0047434270646664594 0 0.029305420534731647 -0.0048739495155071914 0 0.029282202066720366 -0.0047586343601658558 0 0.029403087366308478 -0.0047434270646664594 0 0.029282202066720366 -0.0047586343601658558 0 0.029386126217148249 -0.0045956858057433327 0 0.029473471799745424 -0.0052453565381904337 0 0.029672921974533188 -0.0052975018579769703 0 0.029668584340403557 -0.0053288371922922103 0 0.034126439582928117 -0.0039368271673214062 0 0.036195476506094018 -0.0038731711706870729 0 0.029289500156258599 -0.0049922108574063911 0 0.029473471799745424 -0.0052453565381904337 0 0.029559739087464919 -0.0053207438464977956 0 0.029473471799745424 -0.0052453565381904337 0 0.029668584340403557 -0.0053288371922922103 0 0.029559739087464919 -0.0053207438464977956 0 0.030414831090813207 -0.0056657092277761978 0 0.030487361697581018 -0.0056682324128936763 0 0.029750754860350791 -0.0052104821874433679 0 0.029298202106372816 -0.0061081502426722023 0 0.030075493780595892 -0.0049395243423015975 0 0.031015701751545843 -0.0057757830929588503 0 0.030619238297395227 -0.0057607826533701582 0 0.030665527160487205 -0.0058656391041117641 0 0.036195476506094018 -0.0038731711706870729 0 0.029298202106372816 -0.0061081502426722023 0 0.031015701751545843 -0.0057757830929588503 0 0.030414831090813207 -0.0056657092277761978 0 0.030619238297395227 -0.0057607826533701582 0 0.030414831090813207 -0.0056657092277761978 0 0.030619238297395227 -0.0057607826533701582 0 0.030487361697581018 -0.0056682324128936763 0 0.030619238297395227 -0.0057607826533701582 0 0.030487361697581018 -0.0056682324128936763 0 0.030665527160487205 -0.0058656391041117641 0 0.030863922956211692 -0.0056970675492267198 0 0.030487361697581018 -0.0056682324128936763 0 0.030665527160487205 -0.0058656391041117641 0 0.030682926776643402 -0.0056200454630965808 0 0.030863922956211692 -0.0056970675492267198 0 0.030487361697581018 -0.0056682324128936763 0 0.030350602684448821 -0.0054711463995720175 0 0.030487361697581018 -0.0056682324128936763 0 0.029750754860350791 -0.0052104821874433679 0 0.030682926776643402 -0.0056200454630965808 0 0.030350602684448821 -0.0054711463995720175 0 0.030487361697581018 -0.0056682324128936763 0 0.030350602684448821 -0.0054711463995720175 0 0.029935859332413235 -0.0051868347522489649 0 0.029750754860350791 -0.0052104821874433679 0 0.029750754860350791 -0.0052104821874433679 0 0.029409393685324827 -0.0050316675584040974 0 0.029543563920832305 -0.0049798674614991703 0 0.029827478642371476 -0.0050170101370139459 0 0.029935859332413235 -0.0051868347522489649 0 0.029543563920832305 -0.0049798674614991703 0 0.029935859332413235 -0.0051868347522489649 0 0.029750754860350791 -0.0052104821874433679 0 0.029543563920832305 -0.0049798674614991703 0 0.029559739087464919 -0.0053207438464977956 0 0.029750754860350791 -0.0052104821874433679 0 0.029409393685324827 -0.0050316675584040974 0 0.029289500156258599 -0.0049922108574063911 0 0.029559739087464919 -0.0053207438464977956 0 0.029409393685324827 -0.0050316675584040974 0 0.029409393685324827 -0.0050316675584040974 0 0.02925965751726909 -0.0049247654048709911 0 0.029543563920832305 -0.0049798674614991703 0 0.029409393685324827 -0.0050316675584040974 0 0.029213181701608765 -0.0049219828193425583 0 0.02925965751726909 -0.0049247654048709911 0 0.029012830990448095 -0.0048891003575251904 0 0.029213181701608765 -0.0049219828193425583 0 0.02925965751726909 -0.0049247654048709911 0 0.029358002466445567 -0.0049565766665695564 0 0.028883384813647935 -0.0049754259664814655 0 0.029137751124212796 -0.0049375738167229738 0 0.02925965751726909 -0.0049247654048709911 0 0.029137751124212796 -0.0049375738167229738 0 0.029543563920832305 -0.0049798674614991703 0 0.029358002466445567 -0.0049565766665695564 0 0.029827478642371476 -0.0050170101370139459 0 0.029543563920832305 -0.0049798674614991703 0 0.029358002466445567 -0.0049565766665695564 0 0.029137751124212796 -0.0049375738167229738 0 0.029543563920832305 -0.0049798674614991703 0 0.043881576486309498 0.00027125027895836786 0 0.044002879397157191 0.0002147746887390788 0 0.043848070228512837 0.0002983738275654252 0 0.044002879397157191 0.0002147746887390788 0 0.043848070228512837 0.0002983738275654252 0 0.044038783849829108 0.00020286589405307012 0 0.043848070228512837 0.0002983738275654252 0 0.043928627528191488 0.0002850596614652207 0 0.044038783849829108 0.00020286589405307012 0 0.043848070228512837 0.0002983738275654252 0 0.043750819751520446 0.00037786321700226076 0 0.043928627528191488 0.0002850596614652207 0 0.043848070228512837 0.0002983738275654252 0 0.043739206304162344 0.0003677272562101799 0 0.043614512858040286 0.00042987746544626308 0 0.043848070228512837 0.0002983738275654252 0 0.043614512858040286 0.00042987746544626308 0 0.043750819751520446 0.00037786321700226076 0 0.043881576486309498 0.00027125027895836786 0 0.043848070228512837 0.0002983738275654252 0 0.043739206304162344 0.0003677272562101799 0 0.04382367509346332 0.00044914362572015971 0 0.043881576486309498 0.00027125027895836786 0 0.043739206304162344 0.0003677272562101799 0 0.043739206304162344 0.0003677272562101799 0 0.043612988219233768 0.00051332099780602991 0 0.043614512858040286 0.00042987746544626308 0 0.04382367509346332 0.00044914362572015971 0 0.043739206304162344 0.0003677272562101799 0 0.043612988219233768 0.00051332099780602991 0 0.03762260981516382 -0.0029354265734503199 0 0.037168051134829211 -0.002478529388684556 0 0.043816692978910651 0.00070534723115459074 0 0.043612988219233768 0.00051332099780602991 0 0.04329795248044719 0.00074212243427158788 0 0.031486667483806907 -0.0065806557549765226 0 0.030863922956211692 -0.0056970675492267198 0 0.030665527160487205 -0.0058656391041117641 0 0.043612988219233768 0.00051332099780602991 0 0.04329795248044719 0.00074212243427158788 0 0.043386880417830412 0.0005526713245095409 0 0.036195476506094018 -0.0038731711706870729 0 0.037168051134829211 -0.002478529388684556 0 0.04309523513139623 0.00066283168133269188 0 0.04329795248044719 0.00074212243427158788 0 0.043386880417830412 0.0005526713245095409 0 0.043386880417830412 0.0005526713245095409 0 0.043614512858040286 0.00042987746544626308 0 0.043611357393914363 0.00044945131235944795 0 0.043612988219233768 0.00051332099780602991 0 0.043386880417830412 0.0005526713245095409 0 0.043614512858040286 0.00042987746544626308 0 0.043386880417830412 0.0005526713245095409 0 0.043611357393914363 0.00044945131235944795 0 0.043478108180419382 0.00048638570004270922 0 0.036195476506094018 -0.0038731711706870729 0 0.042674285129413923 -0.00022260323940131643 0 0.04309523513139623 0.00066283168133269188 0 0.043386880417830412 0.0005526713245095409 0 0.043478108180419382 0.00048638570004270922 0 0.0416171884815301 -0.0050714086279207002 0 0.038952610327411791 -0.0042937268341724667 0 0.040624203806606488 -0.0022028360469027765 0 0.040624203806606488 -0.0022028360469027765 0 0.042854119932267294 -0.0014518468208038905 0 0.043011239902113835 -0.0028568978157247253 0 0.0416171884815301 -0.0050714086279207002 0 0.040624203806606488 -0.0022028360469027765 0 0.043011239902113835 -0.0028568978157247253 0 0.042674285129413923 -0.00022260323940131643 0 0.042945042691708749 -0.00016213143727401039 0 0.040624203806606488 -0.0022028360469027765 0 0.042352093636141688 -0.0003914885392709841 0 0.042854119932267294 -0.0014518468208038905 0 0.043611357393914363 0.00044945131235944795 0 0.043478108180419382 0.00048638570004270922 0 0.043766213319758038 0.00043226945852843299 0 0.043611357393914363 0.00044945131235944795 0 0.043766213319758038 0.00043226945852843299 0 0.043789100076124084 0.0004052038575549405 0 0.043766213319758038 0.00043226945852843299 0 0.043789100076124084 0.0004052038575549405 0 0.043886312934538763 0.00042295869369050909 0 0.043611357393914363 0.00044945131235944795 0 0.043750819751520446 0.00037786321700226076 0 0.043789100076124084 0.0004052038575549405 0 0.043614512858040286 0.00042987746544626308 0 0.043611357393914363 0.00044945131235944795 0 0.043750819751520446 0.00037786321700226076 0 0.043855112607452749 0.00038905376596674076 0 0.044055240137656056 0.00032123981951875583 0 0.043789100076124084 0.0004052038575549405 0 0.043928627528191488 0.0002850596614652207 0 0.044006661458692663 0.00021259988494110168 0 0.043750819751520446 0.00037786321700226076 0 0.043789100076124084 0.0004052038575549405 0 0.043928627528191488 0.0002850596614652207 0 0.043789100076124084 0.0004052038575549405 0 0.043996880309230983 0.00042824936726282878 0 0.044154102351631426 0.00043033868115375476 0 0.043996880309230983 0.00042824936726282878 0 0.043950143235314813 0.0004227468801058261 0 0.044062408045675516 0.00043148155611921123 0 0.043996880309230983 0.00042824936726282878 0 0.043886312934538763 0.00042295869369050909 0 0.043950143235314813 0.0004227468801058261 0 0.043789100076124084 0.0004052038575549405 0 0.043996880309230983 0.00042824936726282878 0 0.043886312934538763 0.00042295869369050909 0 0.043841195689159007 0.00042088913888533393 0 0.044157302650653173 0.00046466494471727798 0 0.044062408045675516 0.00043148155611921123 0 0.043841195689159007 0.00042088913888533393 0 0.044094119500567013 0.00040874566879587948 0 0.043887219987637026 4.6404187958962974e-05 0 0.043886312934538763 0.00042295869369050909 0 0.043841195689159007 0.00042088913888533393 0 0.043950143235314813 0.0004227468801058261 0 0.043841195689159007 0.00042088913888533393 0 0.043950143235314813 0.0004227468801058261 0 0.044062408045675516 0.00043148155611921123 0 0.040677759270608287 -0.0001457543964658345 0 0.040847182092651847 -0.00027194782180958417 0 0.041012930070683414 0.0004236041775460864 0 0.044094119500567013 0.00040874566879587948 0 0.044214941028638842 0.00020301360608157795 0 0.04422682853321544 0.00046564063844130353 0 0.043841195689159007 0.00042088913888533393 0 0.044094119500567013 0.00040874566879587948 0 0.044157302650653173 0.00046466494471727798 0 0.04260871713261527 0.00023164718531719139 0 0.04174639540095277 4.513442360596658e-05 0 0.044094119500567013 0.00040874566879587948 0 0.04422682853321544 0.00046564063844130353 0 0.044157302650653173 0.00046466494471727798 0 0.044094119500567013 0.00040874566879587948 0 0.044214941028638842 0.00020301360608157795 0 0.043887219987637026 4.6404187958962974e-05 0 0.040677759270608287 -0.0001457543964658345 0 0.040847182092651847 -0.00027194782180958417 0 0.04034608542270663 -0.00071738203694862149 0 0.04260871713261527 0.00023164718531719139 0 0.04079711161462541 -0.00086117519852200086 0 0.044214941028638842 0.00020301360608157795 0 0.043887219987637026 4.6404187958962974e-05 0 0.043866980094444889 -0.00060940957441209221 0 0.043841195689159007 0.00042088913888533393 0 0.043407822887133359 -0.00037603131182388576 0 0.043887219987637026 4.6404187958962974e-05 0 0.043407822887133359 -0.00037603131182388576 0 0.043887219987637026 4.6404187958962974e-05 0 0.043866980094444889 -0.00060940957441209221 0 0.043766213319758038 0.00043226945852843299 0 0.043886312934538763 0.00042295869369050909 0 0.043841195689159007 0.00042088913888533393 0 0.042352093636141688 -0.0003914885392709841 0 0.043841195689159007 0.00042088913888533393 0 0.043407822887133359 -0.00037603131182388576 0 0.042945042691708749 -0.00016213143727401039 0 0.043727057473417881 0.00045004941924706035 0 0.042352093636141688 -0.0003914885392709841 0 0.043407822887133359 -0.00037603131182388576 0 0.042854119932267294 -0.0014518468208038905 0 0.044134516433442579 -0.00087021080878371541 0 0.042854119932267294 -0.0014518468208038905 0 0.043011239902113835 -0.0028568978157247253 0 0.04079711161462541 -0.00086117519852200086 0 0.03982272449140703 -0.0016515537735129501 0 0.036438685943508284 -0.00020214605943582768 0 0.035903193431879157 -0.0011137206059285869 0 0.036481589871333528 -0.00088737747584127877 0 0.043407822887133359 -0.00037603131182388576 0 0.044134516433442579 -0.00087021080878371541 0 0.042854119932267294 -0.0014518468208038905 0 0.043068294230931302 -0.0012739496170663341 0 0.04079711161462541 -0.00086117519852200086 0 0.035903193431879157 -0.0011137206059285869 0 0.036711864975892926 -0.0014607418904419678 0 0.036481589871333528 -0.00088737747584127877 0 0.036120799285604847 -0.001743369268004169 0 0.035903193431879157 -0.0011137206059285869 0 0.036711864975892926 -0.0014607418904419678 0 0.034126439582928117 -0.0039368271673214062 0 0.03982272449140703 -0.0016515537735129501 0 0.036711864975892926 -0.0014607418904419678 0 0.036481589871333528 -0.00088737747584127877 0 0.036926464296788426 -0.00056574158618629051 0 0.032526178844862363 0.0012496306987430466 0 0.032610595706256962 0.0013114534116870221 0 0.032636704852558616 0.0014144784810544422 0 0.034686954772297503 0.00027132716433325515 0 0.03767289936816972 -0.00058684656024188915 0 0.032682549256492423 0.0012319818017032646 0 0.032593504613527835 0.001205169231895298 0 0.032610595706256962 0.0013114534116870221 0 0.032593504613527835 0.001205169231895298 0 0.032526178844862363 0.0012496306987430466 0 0.032610595706256962 0.0013114534116870221 0 0.032610595706256962 0.0013114534116870221 0 0.032636704852558616 0.0014144784810544422 0 0.032682467867495617 0.0013738707195594406 0 0.034757927516565749 0.00021382664441425698 0 0.037257035680677807 -2.7467049847291964e-05 0 0.040707484214943516 -0.0015148516010336421 0 0.040913390008765767 -0.0012951982991522674 0 0.040866658142628978 -0.0016325068577694017 0 0.040851767869793665 -0.00098059920590942489 0 0.040707484214943516 -0.0015148516010336421 0 0.040913390008765767 -0.0012951982991522674 0 0.040964225521540533 -0.00069126216222048585 0 0.03767289936816972 -0.00058684656024188915 0 0.03767289936816972 -0.00058684656024188915 0 0.037257035680677807 -2.7467049847291964e-05 0 0.040847182092651847 -0.00027194782180958417 0 0.04034608542270663 -0.00071738203694862149 0 0.040679393398717713 -0.00096593451233795689 0 0.036438685943508284 -0.00020214605943582768 0 0.036481589871333528 -0.00088737747584127877 0 0.036926464296788426 -0.00056574158618629051 0 0.04079711161462541 -0.00086117519852200086 0 0.03767289936816972 -0.00058684656024188915 0 0.037257035680677807 -2.7467049847291964e-05 0 0.041679765752317167 -0.001065043023403143 0 0.041386835762775576 -0.0011124208475318642 0 0.041537808030164443 -0.0010888288829139217 0 0.04146427165630788 -0.00095454617453330037 0 0.040913390008765767 -0.0012951982991522674 0 0.040866658142628978 -0.0016325068577694017 0 0.041202495496151299 -0.0011151279991171682 0 0.037257035680677807 -2.7467049847291964e-05 0 0.037178894243445032 0.00014462663009373616 0 0.032682549256492423 0.0012319818017032646 0 0.032663796482398574 0.0013966046978663889 0 0.032885360154449456 0.0013461738373590801 0 0.041386835762775576 -0.0011124208475318642 0 0.04153914275447209 -0.0011442915930051504 0 0.041537808030164443 -0.0010888288829139217 0 0.032682549256492423 0.0012319818017032646 0 0.032610595706256962 0.0013114534116870221 0 0.032663796482398574 0.0013966046978663889 0 0.04153914275447209 -0.0011442915930051504 0 0.041537808030164443 -0.0010888288829139217 0 0.04161114434347641 -0.0011342425625043525 0 0.041537808030164443 -0.0010888288829139217 0 0.04161114434347641 -0.0011342425625043525 0 0.041790844081521013 -0.00094574155268970493 0 0.04146427165630788 -0.00095454617453330037 0 0.041629920300139303 -0.00062660560719843034 0 0.041790844081521013 -0.00094574155268970493 0 0.041537808030164443 -0.0010888288829139217 0 0.04146427165630788 -0.00095454617453330037 0 0.041790844081521013 -0.00094574155268970493 0 0.041679765752317167 -0.001065043023403143 0 0.041571968493814844 -0.00058987341495941523 0 0.041202495496151299 -0.0011151279991171682 0 0.041159198166137417 -0.00074814554442432981 0 0.04156094153698929 -0.00056317212936539364 0 0.040851767869793665 -0.00098059920590942489 0 0.040913390008765767 -0.0012951982991522674 0 0.041202495496151299 -0.0011151279991171682 0 0.040851767869793665 -0.00098059920590942489 0 0.041202495496151299 -0.0011151279991171682 0 0.041159198166137417 -0.00074814554442432981 0 0.041159198166137417 -0.00074814554442432981 0 0.040977727849852236 -0.0004086279597614403 0 0.04156094153698929 -0.00056317212936539364 0 0.040977727849852236 -0.0004086279597614403 0 0.04156094153698929 -0.00056317212936539364 0 0.041363313152920959 -0.00018254142877716835 0 0.040851767869793665 -0.00098059920590942489 0 0.041159198166137417 -0.00074814554442432981 0 0.040977727849852236 -0.0004086279597614403 0 0.040964225521540533 -0.00069126216222048585 0 0.04174639540095277 4.513442360596658e-05 0 0.041629920300139303 -0.00062660560719843034 0 0.041790844081521013 -0.00094574155268970493 0 0.042024899680794259 -0.00047726100724909584 0 0.04156094153698929 -0.00056317212936539364 0 0.041593469578575237 -2.2285868348343955e-05 0 0.041961889047995339 9.65936695954825e-06 0 0.04156094153698929 -0.00056317212936539364 0 0.041593469578575237 -2.2285868348343955e-05 0 0.041363313152920959 -0.00018254142877716835 0 0.041629920300139303 -0.00062660560719843034 0 0.042024899680794259 -0.00047726100724909584 0 0.041961889047995339 9.65936695954825e-06 0 0.041571968493814844 -0.00058987341495941523 0 0.041938999395177132 -2.2351210186750657e-05 0 0.041593469578575237 -2.2285868348343955e-05 0 0.041363313152920959 -0.00018254142877716835 0 0.041347441744666744 0.00029532862527328598 0 0.04174639540095277 4.513442360596658e-05 0 0.042649332033769624 0.00048990997974967274 0 0.041011427098974186 -0.00033297824544722184 0 0.041347441744666744 0.00029532862527328598 0 0.041127828552345792 0.00036439443767384544 0 0.040977727849852236 -0.0004086279597614403 0 0.041363313152920959 -0.00018254142877716835 0 0.041347441744666744 0.00029532862527328598 0 0.04422682853321544 0.00046564063844130353 0 0.044177259843227686 0.00043768847246581911 0 0.044213453838701747 0.00046240942023721449 0 0.04174639540095277 4.513442360596658e-05 0 0.041104399080269492 3.7365909764797038e-05 0 0.044177259843227686 0.00043768847246581911 0 0.044251855318176617 0.00039796044537902282 0 0.044220566560135101 0.00043782217332641424 0 0.044177259843227686 0.00043768847246581911 0 0.044220566560135101 0.00043782217332641424 0 0.044213453838701747 0.00046240942023721449 0 0.044177259843227686 0.00043768847246581911 0 0.044231483258971992 0.00032458258281031473 0 0.044251855318176617 0.00039796044537902282 0 0.041347441744666744 0.00029532862527328598 0 0.041127828552345792 0.00036439443767384544 0 0.041448479258287395 0.00070832812271855465 0 0.041448479258287395 0.00070832812271855465 0 0.041725583095547129 0.00042899208435901777 0 0.042235869224193007 0.0008688900014435885 0 0.041347441744666744 0.00029532862527328598 0 0.041448479258287395 0.00070832812271855465 0 0.041725583095547129 0.00042899208435901777 0 0.041593469578575237 -2.2285868348343955e-05 0 0.041347441744666744 0.00029532862527328598 0 0.041725583095547129 0.00042899208435901777 0 0.041593469578575237 -2.2285868348343955e-05 0 0.041725583095547129 0.00042899208435901777 0 0.041961889047995339 9.65936695954825e-06 0 0.04371234148585338 0.00024178533367258438 0 0.04342142696477972 0.00058474368602892538 0 0.041448479258287395 0.00070832812271855465 0 0.041284738439263849 0.0011935974115151341 0 0.042235869224193007 0.0008688900014435885 0 0.044976737845756107 3.0920079186698908e-05 0 0.045060599700948271 6.1468796118528579e-05 0 0.044872304702733963 0.00019480785705311703 0 0.045000298904195948 6.2694065276576364e-08 0 0.044976737845756107 3.0920079186698908e-05 0 0.044999512738411719 -9.1756481378642259e-08 0 0.045000298904195948 6.2694065276576364e-08 0 0.044976737845756107 3.0920079186698908e-05 0 0.045060599700948271 6.1468796118528579e-05 0 0.04371234148585338 0.00024178533367258438 0 0.044820098193022018 -1.6769375582006086e-05 0 0.045001661273021951 -7.1489209853787013e-06 0 0.044994300866490533 -2.4447607122696111e-06 0 0.045004929999081067 -1.5861346505182433e-05 0 0.045000074140509855 6.1344559269537676e-08 0 0.04371234148585338 0.00024178533367258438 0 0.045000057188697887 -2.3609681219957236e-08 0 0.045001661273021951 -7.1489209853787013e-06 0 0.044994300866490533 -2.4447607122696111e-06 0 0.045000057188697887 -2.3609681219957236e-08 0 0.045001661273021951 -7.1489209853787013e-06 0 0.044999896464299756 5.4834006949256545e-09 0 0.044099165128730133 0.00019760940935044881 0 0.044300838977131343 0.0002347965317522457 0 0.044333073895358351 7.4948377624661292e-05 0 0.042649332033769624 0.00048990997974967274 0 0.04371234148585338 0.00024178533367258438 0 0.041127828552345792 0.00036439443767384544 0 0.041448479258287395 0.00070832812271855465 0 0.041284738439263849 0.0011935974115151341 0 0.044177259843227686 0.00043768847246581911 0 0.044099165128730133 0.00019760940935044881 0 0.044231483258971992 0.00032458258281031473 0 0.044099165128730133 0.00019760940935044881 0 0.044231483258971992 0.00032458258281031473 0 0.044300838977131343 0.0002347965317522457 0 0.044231483258971992 0.00032458258281031473 0 0.044340346871611133 0.0003345922231946806 0 0.044300838977131343 0.0002347965317522457 0 0.044340346871611133 0.0003345922231946806 0 0.044534622383654236 0.00023077475756470701 0 0.044424869393041869 0.00032804293744513575 0 0.044300838977131343 0.0002347965317522457 0 0.044333073895358351 7.4948377624661292e-05 0 0.044534622383654236 0.00023077475756470701 0 0.044340346871611133 0.0003345922231946806 0 0.044300838977131343 0.0002347965317522457 0 0.044534622383654236 0.00023077475756470701 0 0.044820098193022018 -1.6769375582006086e-05 0 0.044819873772488278 1.6992131104823235e-05 0 0.045004929999081067 -1.5861346505182433e-05 0 0.044999896464299756 5.4834006949256545e-09 0 0.044916599699397305 2.8228617578457591e-08 0 0.044333073895358351 7.4948377624661292e-05 0 0.044916599699397305 2.8228617578457591e-08 0 0.044534622383654236 0.00023077475756470701 0 0.045001661273021951 -7.1489209853787013e-06 0 0.045004929999081067 -1.5861346505182433e-05 0 0.044999896464299756 5.4834006949256545e-09 0 0.044916599699397305 2.8228617578457591e-08 0 0.044752911851109453 0.00014233112597317448 0 0.044534622383654236 0.00023077475756470701 0 0.044999896464299756 5.4834006949256545e-09 0 0.044916599699397305 2.8228617578457591e-08 0 0.044999160985922708 9.6752453907876152e-08 0 0.044916599699397305 2.8228617578457591e-08 0 0.044752911851109453 0.00014233112597317448 0 0.044999160985922708 9.6752453907876152e-08 0 0.044752911851109453 0.00014233112597317448 0 0.044534622383654236 0.00023077475756470701 0 0.044526778832750261 0.00029459400011340979 0 0.044534622383654236 0.00023077475756470701 0 0.044424869393041869 0.00032804293744513575 0 0.044526778832750261 0.00029459400011340979 0 0.044424869393041869 0.00032804293744513575 0 0.044526778832750261 0.00029459400011340979 0 0.044382529374536746 0.0003682961877553126 0 0.044526778832750261 0.00029459400011340979 0 0.044363377570633286 0.00037944035566016184 0 0.044468200856695256 0.00033271719232276118 0 0.044526778832750261 0.00029459400011340979 0 0.044363377570633286 0.00037944035566016184 0 0.044382529374536746 0.0003682961877553126 0 0.044363377570633286 0.00037944035566016184 0 0.04428059906577099 0.00041771472343865015 0 0.044382529374536746 0.0003682961877553126 0 0.044363377570633286 0.00037944035566016184 0 0.04428059906577099 0.00041771472343865015 0 0.044215199850024277 0.00042440470856679944 0 0.04428059906577099 0.00041771472343865015 0 0.044382529374536746 0.0003682961877553126 0 0.044320419226428882 0.00039630123261253991 0 0.04428059906577099 0.00041771472343865015 0 0.044320419226428882 0.00039630123261253991 0 0.044222311454396007 0.00044837227554151956 0 0.044424869393041869 0.00032804293744513575 0 0.044382529374536746 0.0003682961877553126 0 0.044320419226428882 0.00039630123261253991 0 0.044340346871611133 0.0003345922231946806 0 0.044320419226428882 0.00039630123261253991 0 0.044251855318176617 0.00039796044537902282 0 0.044340346871611133 0.0003345922231946806 0 0.044424869393041869 0.00032804293744513575 0 0.044320419226428882 0.00039630123261253991 0 0.044231483258971992 0.00032458258281031473 0 0.044340346871611133 0.0003345922231946806 0 0.044251855318176617 0.00039796044537902282 0 0.044251855318176617 0.00039796044537902282 0 0.044245086163377335 0.00043570519973633391 0 0.044220566560135101 0.00043782217332641424 0 0.044320419226428882 0.00039630123261253991 0 0.044251855318176617 0.00039796044537902282 0 0.044245086163377335 0.00043570519973633391 0 0.044320419226428882 0.00039630123261253991 0 0.044245086163377335 0.00043570519973633391 0 0.044222311454396007 0.00044837227554151956 0 0.044222311454396007 0.00044837227554151956 0 0.044213453838701747 0.00046240942023721449 0 0.044157302650653173 0.00046466494471727798 0 0.044245086163377335 0.00043570519973633391 0 0.044220566560135101 0.00043782217332641424 0 0.044213453838701747 0.00046240942023721449 0 0.044245086163377335 0.00043570519973633391 0 0.044222311454396007 0.00044837227554151956 0 0.044213453838701747 0.00046240942023721449 0 0.04422682853321544 0.00046564063844130353 0 0.044213453838701747 0.00046240942023721449 0 0.044157302650653173 0.00046466494471727798 0 0.044157302650653173 0.00046466494471727798 0 0.044062408045675516 0.00043148155611921123 0 0.044187911936525999 0.00044533383101012596 0 0.044062408045675516 0.00043148155611921123 0 0.044215199850024277 0.00042440470856679944 0 0.044145644924095097 0.0004258774491635853 0 0.044062408045675516 0.00043148155611921123 0 0.044215199850024277 0.00042440470856679944 0 0.044187911936525999 0.00044533383101012596 0 0.04428059906577099 0.00041771472343865015 0 0.044215199850024277 0.00042440470856679944 0 0.044187911936525999 0.00044533383101012596 0 0.04428059906577099 0.00041771472343865015 0 0.044222311454396007 0.00044837227554151956 0 0.044187911936525999 0.00044533383101012596 0 0.044222311454396007 0.00044837227554151956 0 0.044157302650653173 0.00046466494471727798 0 0.044187911936525999 0.00044533383101012596 0 0.044145644924095097 0.0004258774491635853 0 0.044154102351631426 0.00043033868115375476 0 0.044305321581090754 0.00039179964000624344 0 0.044215199850024277 0.00042440470856679944 0 0.044145644924095097 0.0004258774491635853 0 0.044305321581090754 0.00039179964000624344 0 0.043996880309230983 0.00042824936726282878 0 0.044062408045675516 0.00043148155611921123 0 0.044145644924095097 0.0004258774491635853 0 0.043996880309230983 0.00042824936726282878 0 0.044145644924095097 0.0004258774491635853 0 0.044154102351631426 0.00043033868115375476 0 0.043928627528191488 0.0002850596614652207 0 0.044006661458692663 0.00021259988494110168 0 0.044092884696827601 0.00018227478692813464 0 0.044092884696827601 0.00018227478692813464 0 0.044183358580405445 0.0001090162631346434 0 0.044230609873530835 0.00011615620474959512 0 0.044006661458692663 0.00021259988494110168 0 0.044092884696827601 0.00018227478692813464 0 0.044183358580405445 0.0001090162631346434 0 0.044055240137656056 0.00032123981951875583 0 0.044532679239086367 0.00012990463642927218 0 0.044006661458692663 0.00021259988494110168 0 0.044183358580405445 0.0001090162631346434 0 0.044219464501386412 3.6225689471023677e-06 0 0.044183358580405445 0.0001090162631346434 0 0.044230609873530835 0.00011615620474959512 0 0.044347265929009769 8.7371395129569893e-05 0 0.044347265929009769 8.7371395129569893e-05 0 0.044522617876416946 8.0496752445737916e-05 0 0.044379360816538475 8.6600223975418145e-05 0 0.044347265929009769 8.7371395129569893e-05 0 0.044420431662656849 8.4218447829163061e-05 0 0.044522617876416946 8.0496752445737916e-05 0 0.044286081995638868 5.2830556289930726e-05 0 0.044532679239086367 0.00012990463642927218 0 0.044183358580405445 0.0001090162631346434 0 0.044347265929009769 8.7371395129569893e-05 0 0.044420431662656849 8.4218447829163061e-05 0 0.044480555351951653 0.00033802785706651208 0 0.044305321581090754 0.00039179964000624344 0 0.044468200856695256 0.00033271719232276118 0 0.044154102351631426 0.00043033868115375476 0 0.044480555351951653 0.00033802785706651208 0 0.044305321581090754 0.00039179964000624344 0 0.044363377570633286 0.00037944035566016184 0 0.044305321581090754 0.00039179964000624344 0 0.044468200856695256 0.00033271719232276118 0 0.044363377570633286 0.00037944035566016184 0 0.044215199850024277 0.00042440470856679944 0 0.044305321581090754 0.00039179964000624344 0 0.044480555351951653 0.00033802785706651208 0 0.044468200856695256 0.00033271719232276118 0 0.044706043148142471 0.00019560845019026666 0 0.044526778832750261 0.00029459400011340979 0 0.044468200856695256 0.00033271719232276118 0 0.044706043148142471 0.00019560845019026666 0 0.044532679239086367 0.00012990463642927218 0 0.044855225639546144 8.974732600931524e-05 0 0.044989972991638177 1.4768555724220542e-05 0 0.044994938649592073 5.17795100747618e-06 0 0.044996747371993086 5.4505947442762314e-06 0 0.044752911851109453 0.00014233112597317448 0 0.044526778832750261 0.00029459400011340979 0 0.044706043148142471 0.00019560845019026666 0 0.044994938649592073 5.17795100747618e-06 0 0.044999991580063577 9.6912933015259461e-10 0 0.045000002862730461 1.4115467027749082e-09 0 0.044752911851109453 0.00014233112597317448 0 0.044706043148142471 0.00019560845019026666 0 0.044999160985922708 9.6752453907876152e-08 0 0.044855225639546144 8.974732600931524e-05 0 0.044999883634592085 -2.5864568188836789e-08 0 0.044994938649592073 5.17795100747618e-06 0 0.045000002862730461 1.4115467027749082e-09 0 0.044996747371993086 5.4505947442762314e-06 0 0.04499980211046585 -5.9405649043479174e-08 0 0.044677411780778407 6.4369162917191829e-05 0 0.044668751827036765 7.2030134339777529e-05 0 0.04499990260926591 7.8810662698476836e-08 0 0.044840303993918654 4.9074858471661737e-05 0 0.04499980211046585 -5.9405649043479174e-08 0 0.044668751827036765 7.2030134339777529e-05 0 0.044999153828761976 2.5740279278973591e-07 0 0.044532679239086367 0.00012990463642927218 0 0.044840303993918654 4.9074858471661737e-05 0 0.044420431662656849 8.4218447829163061e-05 0 0.044677411780778407 6.4369162917191829e-05 0 0.044522617876416946 8.0496752445737916e-05 0 0.044677411780778407 6.4369162917191829e-05 0 0.044522617876416946 8.0496752445737916e-05 0 0.044668751827036765 7.2030134339777529e-05 0 0.044522617876416946 8.0496752445737916e-05 0 0.044668751827036765 7.2030134339777529e-05 0 0.044379360816538475 8.6600223975418145e-05 0 0.044668751827036765 7.2030134339777529e-05 0 0.044438224413971696 0.00011113297283322211 0 0.044379360816538475 8.6600223975418145e-05 0 0.04499983591973835 -2.9181599828048471e-08 0 0.044714016994185674 2.2581794436014484e-05 0 0.044668751827036765 7.2030134339777529e-05 0 0.044999153828761976 2.5740279278973591e-07 0 0.044438224413971696 0.00011113297283322211 0 0.044999999474991198 -2.4781712749033176e-10 0 0.044999996073748307 8.4444727597040551e-11 0 0.044997169049603339 -3.5699599972638996e-07 0 0.044996723477429765 -1.824210943243716e-07 0 0.044999996073748307 8.4444727597040551e-11 0 0.044997169049603339 -3.5699599972638996e-07 0 0.044996723477429765 -1.824210943243716e-07 0 0.044997169049603339 -3.5699599972638996e-07 0 0.044992928807629104 -5.8676360861999243e-08 0 0.044714016994185674 2.2581794436014484e-05 0 0.044601047124404075 6.6520260355391468e-05 0 0.044438224413971696 0.00011113297283322211 0 0.04417757286766448 0.00012239210055179384 0 0.044379360816538475 8.6600223975418145e-05 0 0.04417757286766448 0.00012239210055179384 0 0.044191862648406077 0.00012734966731908813 0 0.044100390861780303 0.00015771515315312167 0 0.04417757286766448 0.00012239210055179384 0 0.044379360816538475 8.6600223975418145e-05 0 0.044191862648406077 0.00012734966731908813 0 0.044230609873530835 0.00011615620474959512 0 0.044347265929009769 8.7371395129569893e-05 0 0.044379360816538475 8.6600223975418145e-05 0 0.044230609873530835 0.00011615620474959512 0 0.044379360816538475 8.6600223975418145e-05 0 0.044191862648406077 0.00012734966731908813 0 0.044092884696827601 0.00018227478692813464 0 0.044191862648406077 0.00012734966731908813 0 0.044038783849829108 0.00020286589405307012 0 0.044092884696827601 0.00018227478692813464 0 0.044230609873530835 0.00011615620474959512 0 0.044191862648406077 0.00012734966731908813 0 0.043928627528191488 0.0002850596614652207 0 0.044092884696827601 0.00018227478692813464 0 0.044038783849829108 0.00020286589405307012 0 0.044002879397157191 0.0002147746887390788 0 0.044038783849829108 0.00020286589405307012 0 0.044100390861780303 0.00015771515315312167 0 0.044191862648406077 0.00012734966731908813 0 0.044038783849829108 0.00020286589405307012 0 0.044100390861780303 0.00015771515315312167 0 0.04399468469804365 -0.00045444110750969226 0 0.043967972844623844 -0.0005264313505280899 0 0.043706704530316269 -0.00074646113362735757 0 0.043967972844623844 -0.0005264313505280899 0 0.043848315876416043 -0.00063156589721709169 0 0.043706704530316269 -0.00074646113362735757 0 0.04366180331008427 -0.00059313232795358737 0 0.04399468469804365 -0.00045444110750969226 0 0.043706704530316269 -0.00074646113362735757 0 0.04366180331008427 -0.00059313232795358737 0 0.043706704530316269 -0.00074646113362735757 0 0.04333197135671462 -0.00099497083395376647 0 0.04366180331008427 -0.00059313232795358737 0 0.04399468469804365 -0.00045444110750969226 0 0.044166853527953284 -0.00021998211280110182 0 0.04399468469804365 -0.00045444110750969226 0 0.043967972844623844 -0.0005264313505280899 0 0.044246230521884124 -0.00034348713449098049 0 0.044115674561705384 -0.00039813099479656214 0 0.043967972844623844 -0.0005264313505280899 0 0.044246230521884124 -0.00034348713449098049 0 0.044115674561705384 -0.00039813099479656214 0 0.043973436575406533 -0.00048620335458303805 0 0.043891512488935816 -0.0004200850225818021 0 0.044115674561705384 -0.00039813099479656214 0 0.043973436575406533 -0.00048620335458303805 0 0.043967972844623844 -0.0005264313505280899 0 0.043973436575406533 -0.00048620335458303805 0 0.043967972844623844 -0.0005264313505280899 0 0.043848315876416043 -0.00063156589721709169 0 0.043848315876416043 -0.00063156589721709169 0 0.043880294936841924 -0.00061747780687016959 0 0.043657627992488068 -0.00081746939253429861 0 0.043973436575406533 -0.00048620335458303805 0 0.043880294936841924 -0.00061747780687016959 0 0.043920924102314921 -0.00045097206071966877 0 0.043973436575406533 -0.00048620335458303805 0 0.043848315876416043 -0.00063156589721709169 0 0.043880294936841924 -0.00061747780687016959 0 0.043771805005490008 -0.00094668572247446909 0 0.043880294936841924 -0.00061747780687016959 0 0.043657627992488068 -0.00081746939253429861 0 0.0434824463489423 -0.0010299868946598238 0 0.043771805005490008 -0.00094668572247446909 0 0.043657627992488068 -0.00081746939253429861 0 0.0434824463489423 -0.0010299868946598238 0 0.043657627992488068 -0.00081746939253429861 0 0.043379142714293821 -0.0010238125092212212 0 0.043657627992488068 -0.00081746939253429861 0 0.043706704530316269 -0.00074646113362735757 0 0.043379142714293821 -0.0010238125092212212 0 0.043848315876416043 -0.00063156589721709169 0 0.043657627992488068 -0.00081746939253429861 0 0.043706704530316269 -0.00074646113362735757 0 0.043706704530316269 -0.00074646113362735757 0 0.043379142714293821 -0.0010238125092212212 0 0.04333197135671462 -0.00099497083395376647 0 0.042235773471719203 -0.00092439505699822954 0 0.042413566447779688 -0.00096300929132238085 0 0.041031901533063429 -0.00081243845330207271 0 0.041134995581427261 -0.00094232606326601174 0 0.04150889767464503 -0.0010620001934826832 0 0.041134995581427261 -0.00094232606326601174 0 0.041367620854960062 -0.0010629414161585366 0 0.041891055861989442 -0.0010921237889767081 0 0.040955025436026207 -0.001097248998401263 0 0.041134995581427261 -0.00094232606326601174 0 0.041367620854960062 -0.0010629414161585366 0 0.041891055861989442 -0.0010921237889767081 0 0.04150889767464503 -0.0010620001934826832 0 0.042734402718677005 -0.00084393127098909533 0 0.041134995581427261 -0.00094232606326601174 0 0.041891055861989442 -0.0010921237889767081 0 0.04150889767464503 -0.0010620001934826832 0 0.04153914275447209 -0.0011442915930051504 0 0.041512323736988023 -0.0011529159482751778 0 0.04161114434347641 -0.0011342425625043525 0 0.040955025436026207 -0.001097248998401263 0 0.041367620854960062 -0.0010629414161585366 0 0.041512323736988023 -0.0011529159482751778 0 0.041367620854960062 -0.0010629414161585366 0 0.041891055861989442 -0.0010921237889767081 0 0.041512323736988023 -0.0011529159482751778 0 0.041891055861989442 -0.0010921237889767081 0 0.041512323736988023 -0.0011529159482751778 0 0.041798145743209454 -0.0010890192926860057 0 0.041891055861989442 -0.0010921237889767081 0 0.041798145743209454 -0.0010890192926860057 0 0.042166400889628482 -0.00094960484786269666 0 0.041798145743209454 -0.0010890192926860057 0 0.04161114434347641 -0.0011342425625043525 0 0.041790844081521013 -0.00094574155268970493 0 0.041512323736988023 -0.0011529159482751778 0 0.041798145743209454 -0.0010890192926860057 0 0.04161114434347641 -0.0011342425625043525 0 0.041790844081521013 -0.00094574155268970493 0 0.042166400889628482 -0.00094960484786269666 0 0.042325412832504218 -0.00064045836105691212 0 0.041798145743209454 -0.0010890192926860057 0 0.041790844081521013 -0.00094574155268970493 0 0.042166400889628482 -0.00094960484786269666 0 0.042166400889628482 -0.00094960484786269666 0 0.042325412832504218 -0.00064045836105691212 0 0.042971112779856192 -0.00045936754015120634 0 0.041790844081521013 -0.00094574155268970493 0 0.042325412832504218 -0.00064045836105691212 0 0.042024899680794259 -0.00047726100724909584 0 0.042413566447779688 -0.00096300929132238085 0 0.042618297764394658 -0.00081308266377235893 0 0.04366180331008427 -0.00059313232795358737 0 0.04333197135671462 -0.00099497083395376647 0 0.042734402718677005 -0.00084393127098909533 0 0.041891055861989442 -0.0010921237889767081 0 0.042166400889628482 -0.00094960484786269666 0 0.042734402718677005 -0.00084393127098909533 0 0.042734402718677005 -0.00084393127098909533 0 0.042971112779856192 -0.00045936754015120634 0 0.043670419463754141 -0.00023010460758079399 0 0.042166400889628482 -0.00094960484786269666 0 0.042734402718677005 -0.00084393127098909533 0 0.042971112779856192 -0.00045936754015120634 0 0.04366180331008427 -0.00059313232795358737 0 0.042734402718677005 -0.00084393127098909533 0 0.043670419463754141 -0.00023010460758079399 0 0.042971112779856192 -0.00045936754015120634 0 0.043670419463754141 -0.00023010460758079399 0 0.043828779854200459 0.00021755771779324021 0 0.043670419463754141 -0.00023010460758079399 0 0.043828779854200459 0.00021755771779324021 0 0.044348253867304337 6.9608307007722821e-05 0 0.043670419463754141 -0.00023010460758079399 0 0.044348253867304337 6.9608307007722821e-05 0 0.044166853527953284 -0.00021998211280110182 0 0.042024899680794259 -0.00047726100724909584 0 0.041961889047995339 9.65936695954825e-06 0 0.042697652437604379 -0.00018107769790514527 0 0.042325412832504218 -0.00064045836105691212 0 0.042024899680794259 -0.00047726100724909584 0 0.042697652437604379 -0.00018107769790514527 0 0.042971112779856192 -0.00045936754015120634 0 0.043828779854200459 0.00021755771779324021 0 0.042697652437604379 -0.00018107769790514527 0 0.042325412832504218 -0.00064045836105691212 0 0.042971112779856192 -0.00045936754015120634 0 0.042697652437604379 -0.00018107769790514527 0 0.043828779854200459 0.00021755771779324021 0 0.042697652437604379 -0.00018107769790514527 0 0.042235869224193007 0.0008688900014435885 0 0.043905982300147195 0.00021600326110618229 0 0.04342142696477972 0.00058474368602892538 0 0.041725583095547129 0.00042899208435901777 0 0.041961889047995339 9.65936695954825e-06 0 0.042235869224193007 0.0008688900014435885 0 0.041961889047995339 9.65936695954825e-06 0 0.042697652437604379 -0.00018107769790514527 0 0.042235869224193007 0.0008688900014435885 0 0.044976737845756107 3.0920079186698908e-05 0 0.044872304702733963 0.00019480785705311703 0 0.044594164003485863 2.7438594896691174e-05 0 0.043828779854200459 0.00021755771779324021 0 0.044872304702733963 0.00019480785705311703 0 0.044594164003485863 2.7438594896691174e-05 0 0.044594164003485863 2.7438594896691174e-05 0 0.044999512738411719 -9.1756481378642259e-08 0 0.044999265605121568 4.373151985518644e-08 0 0.044976737845756107 3.0920079186698908e-05 0 0.044594164003485863 2.7438594896691174e-05 0 0.044999512738411719 -9.1756481378642259e-08 0 0.043828779854200459 0.00021755771779324021 0 0.044594164003485863 2.7438594896691174e-05 0 0.044348253867304337 6.9608307007722821e-05 0 0.044594164003485863 2.7438594896691174e-05 0 0.044348253867304337 6.9608307007722821e-05 0 0.044999265605121568 4.373151985518644e-08 0 0.044348253867304337 6.9608307007722821e-05 0 0.044999265605121568 4.373151985518644e-08 0 0.044999372665555294 5.3235794835738062e-08 0 0.044999372665555294 5.3235794835738062e-08 0 0.044596676376272834 -6.0930139139682531e-05 0 0.044999639138794519 -1.2593406944834952e-08 0 0.044348253867304337 6.9608307007722821e-05 0 0.044999372665555294 5.3235794835738062e-08 0 0.044596676376272834 -6.0930139139682531e-05 0 0.044348253867304337 6.9608307007722821e-05 0 0.044596676376272834 -6.0930139139682531e-05 0 0.044166853527953284 -0.00021998211280110182 0 0.044596676376272834 -6.0930139139682531e-05 0 0.044383277112135279 -0.00023115986918352763 0 0.044166853527953284 -0.00021998211280110182 0 0.04399468469804365 -0.00045444110750969226 0 0.044166853527953284 -0.00021998211280110182 0 0.044246230521884124 -0.00034348713449098049 0 0.044383277112135279 -0.00023115986918352763 0 0.044166853527953284 -0.00021998211280110182 0 0.044246230521884124 -0.00034348713449098049 0 0.04366180331008427 -0.00059313232795358737 0 0.043670419463754141 -0.00023010460758079399 0 0.044166853527953284 -0.00021998211280110182 0 0.044228658732466133 -0.00034930441773820334 0 0.044246230521884124 -0.00034348713449098049 0 0.044487187336501678 -0.00030348990765395112 0 0.044115674561705384 -0.00039813099479656214 0 0.044228658732466133 -0.00034930441773820334 0 0.044046246057329451 -0.00039141898389291764 0 0.044115674561705384 -0.00039813099479656214 0 0.044228658732466133 -0.00034930441773820334 0 0.044246230521884124 -0.00034348713449098049 0 0.044383277112135279 -0.00023115986918352763 0 0.044246230521884124 -0.00034348713449098049 0 0.044487187336501678 -0.00030348990765395112 0 0.044596676376272834 -6.0930139139682531e-05 0 0.044383277112135279 -0.00023115986918352763 0 0.044487187336501678 -0.00030348990765395112 0 0.044486121078173804 -0.00031620210614293225 0 0.044500950405586784 -0.00032906887723222302 0 0.044487187336501678 -0.00030348990765395112 0 0.044828608126357757 -4.5163233941681349e-05 0 0.044911134839561405 -0.00020276940140579927 0 0.044228658732466133 -0.00034930441773820334 0 0.044487187336501678 -0.00030348990765395112 0 0.044122335390930065 -0.00047709914417574999 0 0.044596676376272834 -6.0930139139682531e-05 0 0.044487187336501678 -0.00030348990765395112 0 0.044828608126357757 -4.5163233941681349e-05 0 0.044596676376272834 -6.0930139139682531e-05 0 0.044828608126357757 -4.5163233941681349e-05 0 0.044999639138794519 -1.2593406944834952e-08 0 0.044828608126357757 -4.5163233941681349e-05 0 0.044999639138794519 -1.2593406944834952e-08 0 0.044999907954610452 1.0058090952370446e-08 0 0.044828608126357757 -4.5163233941681349e-05 0 0.044999907954610452 1.0058090952370446e-08 0 0.044969720053102062 -6.7417023700166661e-05 0 0.044999907954610452 1.0058090952370446e-08 0 0.045000070045633181 -1.8070017447835793e-08 0 0.04500468897982899 -3.7142680701574877e-05 0 0.044999907954610452 1.0058090952370446e-08 0 0.044969720053102062 -6.7417023700166661e-05 0 0.04500468897982899 -3.7142680701574877e-05 0 0.044969720053102062 -6.7417023700166661e-05 0 0.04500468897982899 -3.7142680701574877e-05 0 0.045001586733833587 -0.00010021863995317808 0 0.044828608126357757 -4.5163233941681349e-05 0 0.044969720053102062 -6.7417023700166661e-05 0 0.044911134839561405 -0.00020276940140579927 0 0.044969720053102062 -6.7417023700166661e-05 0 0.044911134839561405 -0.00020276940140579927 0 0.045001586733833587 -0.00010021863995317808 0 0.04501837922414989 7.0380599445080616e-07 0 0.045000070045633181 -1.8070017447835793e-08 0 0.044999969121378929 -4.6896316922792659e-08 0 0.04501837922414989 7.0380599445080616e-07 0 0.045000070045633181 -1.8070017447835793e-08 0 0.04500468897982899 -3.7142680701574877e-05 0 0.045020396496842113 -5.6580627850730557e-05 0 0.04500468897982899 -3.7142680701574877e-05 0 0.045001586733833587 -0.00010021863995317808 0 0.04501837922414989 7.0380599445080616e-07 0 0.045020396496842113 -5.6580627850730557e-05 0 0.04500468897982899 -3.7142680701574877e-05 0 0.044298089406986853 -0.00016848688489230003 0 0.044543853511168588 -0.00029357666205752126 0 0.04324105422173561 1.4589687653579177e-05 0 0.043609762462607483 -0.00023324900182209373 0 0.04382255969029842 8.3433306253995863e-05 0 0.045214617093814455 0.00014774953118613628 0 0.044298089406986853 -0.00016848688489230003 0 0.04501837922414989 7.0380599445080616e-07 0 0.045089083806531906 0.00012242325046302015 0 0.044966122429290323 0.00011048749115976117 0 0.044298089406986853 -0.00016848688489230003 0 0.044369113483193667 0.00010217042868905628 0 0.04324105422173561 1.4589687653579177e-05 0 0.043609762462607483 -0.00023324900182209373 0 0.043249561091620183 -0.00040252648482309291 0 0.043609762462607483 -0.00023324900182209373 0 0.043249561091620183 -0.00040252648482309291 0 0.043655716837396823 -0.00051169976936403484 0 0.04324105422173561 1.4589687653579177e-05 0 0.043249561091620183 -0.00040252648482309291 0 0.042930452153828562 -0.00070820788453072674 0 0.043963813079193233 -0.00048250106226080543 0 0.044022886593765666 -0.00047448562292941212 0 0.044011272582612747 -0.00040768715271695014 0 0.044298089406986853 -0.00016848688489230003 0 0.043391437822933435 -0.000583201216544607 0 0.043249561091620183 -0.00040252648482309291 0 0.042942136634679433 -0.00067766625965768343 0 0.042930452153828562 -0.00070820788453072674 0 0.042942136634679433 -0.00067766625965768343 0 0.042930452153828562 -0.00070820788453072674 0 0.042909883135565464 -0.00049249318245147612 0 0.043249561091620183 -0.00040252648482309291 0 0.042942136634679433 -0.00067766625965768343 0 0.043389943772034992 -0.0005974065944511724 0 0.043249561091620183 -0.00040252648482309291 0 0.043655716837396823 -0.00051169976936403484 0 0.043389943772034992 -0.0005974065944511724 0 0.043655716837396823 -0.00051169976936403484 0 0.043389943772034992 -0.0005974065944511724 0 0.043694555652747671 -0.00076531783984081815 0 0.044122335390930065 -0.00047709914417574999 0 0.04404475688395084 -0.00043196151014860101 0 0.044046246057329451 -0.00039141898389291764 0 0.044500950405586784 -0.00032906887723222302 0 0.044543853511168588 -0.00029357666205752126 0 0.044122335390930065 -0.00047709914417574999 0 0.044022886593765666 -0.00047448562292941212 0 0.04404475688395084 -0.00043196151014860101 0 0.044022886593765666 -0.00047448562292941212 0 0.04404475688395084 -0.00043196151014860101 0 0.044011272582612747 -0.00040768715271695014 0 0.044011272582612747 -0.00040768715271695014 0 0.044046246057329451 -0.00039141898389291764 0 0.043891512488935816 -0.0004200850225818021 0 0.04404475688395084 -0.00043196151014860101 0 0.044011272582612747 -0.00040768715271695014 0 0.044046246057329451 -0.00039141898389291764 0 0.044228658732466133 -0.00034930441773820334 0 0.044122335390930065 -0.00047709914417574999 0 0.044046246057329451 -0.00039141898389291764 0 0.044115674561705384 -0.00039813099479656214 0 0.044046246057329451 -0.00039141898389291764 0 0.043891512488935816 -0.0004200850225818021 0 0.043973436575406533 -0.00048620335458303805 0 0.043891512488935816 -0.0004200850225818021 0 0.043920924102314921 -0.00045097206071966877 0 0.043891512488935816 -0.0004200850225818021 0 0.043920924102314921 -0.00045097206071966877 0 0.043775727040349641 -0.000335087938654389 0 0.043891512488935816 -0.0004200850225818021 0 0.043775727040349641 -0.000335087938654389 0 0.042909883135565464 -0.00049249318245147612 0 0.042877273359907452 -0.0003184653001427263 0 0.042874002008596521 -0.00056178466936075938 0 0.043391437822933435 -0.000583201216544607 0 0.043899592304115984 -0.00035446967479212002 0 0.042930452153828562 -0.00070820788453072674 0 0.043891512488935816 -0.0004200850225818021 0 0.042909883135565464 -0.00049249318245147612 0 0.042909883135565464 -0.00049249318245147612 0 0.041938483831129747 -0.00025309684089690356 0 0.042134629930759018 -0.00013692290147853116 0 0.042942136634679433 -0.00067766625965768343 0 0.042909883135565464 -0.00049249318245147612 0 0.041938483831129747 -0.00025309684089690356 0 0.042942136634679433 -0.00067766625965768343 0 0.043389943772034992 -0.0005974065944511724 0 0.043694555652747671 -0.00076531783984081815 0 0.042907620546051177 -0.00064672201261340584 0 0.042820203383948964 -0.00048743107597946385 0 0.041938483831129747 -0.00025309684089690356 0 0.042134629930759018 -0.00013692290147853116 0 0.041935367047609785 -0.00011238659807857467 0 0.042015037014080193 -0.00013957034098473128 0 0.042134629930759018 -0.00013692290147853116 0 0.041753671256464918 -0.00025229050769295415 0 0.042015037014080193 -0.00013957034098473128 0 0.042909883135565464 -0.00049249318245147612 0 0.042134629930759018 -0.00013692290147853116 0 0.042134629930759018 -0.00013692290147853116 0 0.041753671256464918 -0.00025229050769295415 0 0.041787067582356514 -0.00024714040062841734 0 0.042134629930759018 -0.00013692290147853116 0 0.041787067582356514 -0.00024714040062841734 0 0.041935367047609785 -0.00011238659807857467 0 0.041787067582356514 -0.00024714040062841734 0 0.041649187525002365 -0.00047677503576210218 0 0.041550157534654943 -0.00043513124578367732 0 0.041787067582356514 -0.00024714040062841734 0 0.041649187525002365 -0.00047677503576210218 0 0.042018521282555885 -0.00030542740492508629 0 0.041753671256464918 -0.00025229050769295415 0 0.041787067582356514 -0.00024714040062841734 0 0.041550157534654943 -0.00043513124578367732 0 0.041753671256464918 -0.00025229050769295415 0 0.041550157534654943 -0.00043513124578367732 0 0.041393065341844969 -0.00036704462718932702 0 0.043771805005490008 -0.00094668572247446909 0 0.043880294936841924 -0.00061747780687016959 0 0.044074395337879019 -0.00066956066603542064 0 0.043880294936841924 -0.00061747780687016959 0 0.043920924102314921 -0.00045097206071966877 0 0.044074395337879019 -0.00066956066603542064 0 0.043920924102314921 -0.00045097206071966877 0 0.043775727040349641 -0.000335087938654389 0 0.044074395337879019 -0.00066956066603542064 0 0.042015037014080193 -0.00013957034098473128 0 0.041753671256464918 -0.00025229050769295415 0 0.041393065341844969 -0.00036704462718932702 0 0.042877273359907452 -0.0003184653001427263 0 0.042698117078914098 -0.00056845262876733659 0 0.043082297140482895 -0.00026559694929529352 0 0.042965857542453259 -0.00028597191860641884 0 0.043064516694378357 -0.00024276471967705994 0 0.043839595819628444 -0.00054257573353397803 0 0.043504707800946243 -0.00044493067634264715 0 0.044263383792879155 -0.00036312205130730748 0 0.044397052806329544 -0.00028721923827868483 0 0.044350461832806255 -0.00032189276101093076 0 0.043234422708005767 -0.00027064808624922073 0 0.043064516694378357 -0.00024276471967705994 0 0.043504707800946243 -0.00044493067634264715 0 0.043731348888143957 -0.00036368550275999855 0 0.044075303364659577 -0.00037099876668293246 0 0.044263383792879155 -0.00036312205130730748 0 0.044240584623261948 -0.00040747958788735125 0 0.044261650437201858 -0.00045286395149538077 0 0.043234422708005767 -0.00027064808624922073 0 0.042823181701637299 -0.00046101017287706973 0 0.042962971696935033 -0.00059018302265907371 0 0.043234422708005767 -0.00027064808624922073 0 0.042823181701637299 -0.00046101017287706973 0 0.043064516694378357 -0.00024276471967705994 0 0.043731348888143957 -0.00036368550275999855 0 0.043883274974834754 -0.00028301405586199911 0 0.042823181701637299 -0.00046101017287706973 0 0.043064516694378357 -0.00024276471967705994 0 0.042461669616933068 -0.00034105582383109654 0 0.042823181701637299 -0.00046101017287706973 0 0.042461669616933068 -0.00034105582383109654 0 0.042354707121140117 -0.00051339639720443216 0 0.042461669616933068 -0.00034105582383109654 0 0.042018521282555885 -0.00030542740492508629 0 0.042354707121140117 -0.00051339639720443216 0 0.041649187525002365 -0.00047677503576210218 0 0.042018521282555885 -0.00030542740492508629 0 0.041701350812901369 -0.00060498022046226278 0 0.041787067582356514 -0.00024714040062841734 0 0.042018521282555885 -0.00030542740492508629 0 0.041935367047609785 -0.00011238659807857467 0 0.042018521282555885 -0.00030542740492508629 0 0.041935367047609785 -0.00011238659807857467 0 0.042082750906774845 2.2296442525969395e-05 0 0.042461669616933068 -0.00034105582383109654 0 0.042018521282555885 -0.00030542740492508629 0 0.042082750906774845 2.2296442525969395e-05 0 0.043064516694378357 -0.00024276471967705994 0 0.042461669616933068 -0.00034105582383109654 0 0.042082750906774845 2.2296442525969395e-05 0 0.043694555652747671 -0.00076531783984081815 0 0.043839595819628444 -0.00054257573353397803 0 0.043892763924120733 -0.00062703668103523242 0 0.041938483831129747 -0.00025309684089690356 0 0.041935367047609785 -0.00011238659807857467 0 0.042082750906774845 2.2296442525969395e-05 0 0.042820203383948964 -0.00048743107597946385 0 0.042965857542453259 -0.00028597191860641884 0 0.043655716837396823 -0.00051169976936403484 0 0.043694555652747671 -0.00076531783984081815 0 0.043892763924120733 -0.00062703668103523242 0 0.043892763924120733 -0.00062703668103523242 0 0.043858866614465759 -0.00058352981703624471 0 0.044120938593099811 -0.00044795150761918994 0 0.043839595819628444 -0.00054257573353397803 0 0.043892763924120733 -0.00062703668103523242 0 0.043858866614465759 -0.00058352981703624471 0 0.043839595819628444 -0.00054257573353397803 0 0.043858866614465759 -0.00058352981703624471 0 0.043504707800946243 -0.00044493067634264715 0 0.043234422708005767 -0.00027064808624922073 0 0.043504707800946243 -0.00044493067634264715 0 0.043737228472157767 -0.00052949616122900884 0 0.043858866614465759 -0.00058352981703624471 0 0.043504707800946243 -0.00044493067634264715 0 0.043737228472157767 -0.00052949616122900884 0 0.044075303364659577 -0.00037099876668293246 0 0.044428577239276984 -0.0003169387223402453 0 0.043858866614465759 -0.00058352981703624471 0 0.043737228472157767 -0.00052949616122900884 0 0.044322144902103684 -0.00043064213097002472 0 0.043858866614465759 -0.00058352981703624471 0 0.044322144902103684 -0.00043064213097002472 0 0.044120938593099811 -0.00044795150761918994 0 0.044322144902103684 -0.00043064213097002472 0 0.044497157314489166 -0.00020155973427700733 0 0.044120938593099811 -0.00044795150761918994 0 0.044322144902103684 -0.00043064213097002472 0 0.044497157314489166 -0.00020155973427700733 0 0.044747411589243551 -0.00011579098333098573 0 0.044428577239276984 -0.0003169387223402453 0 0.044733489466552714 -0.00011907322429860777 0 0.043655716837396823 -0.00051169976936403484 0 0.043892763924120733 -0.00062703668103523242 0 0.044031733424932377 -0.00030453334611361867 0 0.043892763924120733 -0.00062703668103523242 0 0.044120938593099811 -0.00044795150761918994 0 0.044031733424932377 -0.00030453334611361867 0 0.044497157314489166 -0.00020155973427700733 0 0.044031733424932377 -0.00030453334611361867 0 0.044607783059108654 3.8492374990163477e-05 0 0.044497157314489166 -0.00020155973427700733 0 0.044120938593099811 -0.00044795150761918994 0 0.044031733424932377 -0.00030453334611361867 0 0.043609762462607483 -0.00023324900182209373 0 0.044031733424932377 -0.00030453334611361867 0 0.04382255969029842 8.3433306253995863e-05 0 0.043609762462607483 -0.00023324900182209373 0 0.043655716837396823 -0.00051169976936403484 0 0.044031733424932377 -0.00030453334611361867 0 0.044031733424932377 -0.00030453334611361867 0 0.04382255969029842 8.3433306253995863e-05 0 0.044607783059108654 3.8492374990163477e-05 0 0.044966122429290323 0.00011048749115976117 0 0.044607783059108654 3.8492374990163477e-05 0 0.044884286928245122 -9.1448211196519995e-06 0 0.044369113483193667 0.00010217042868905628 0 0.044585954646920972 5.5078527277869245e-05 0 0.044884286928245122 -9.1448211196519995e-06 0 0.044999969121378929 -4.6896316922792659e-08 0 0.044999327011624415 -7.9522208546103283e-09 0 0.044607783059108654 3.8492374990163477e-05 0 0.044884286928245122 -9.1448211196519995e-06 0 0.044999327011624415 -7.9522208546103283e-09 0 0.04501837922414989 7.0380599445080616e-07 0 0.044884286928245122 -9.1448211196519995e-06 0 0.044999969121378929 -4.6896316922792659e-08 0 0.04501837922414989 7.0380599445080616e-07 0 0.044966122429290323 0.00011048749115976117 0 0.044884286928245122 -9.1448211196519995e-06 0 0.044497157314489166 -0.00020155973427700733 0 0.044747411589243551 -0.00011579098333098573 0 0.04477370657158268 -2.1115506141224984e-05 0 0.044497157314489166 -0.00020155973427700733 0 0.044607783059108654 3.8492374990163477e-05 0 0.04477370657158268 -2.1115506141224984e-05 0 0.044607783059108654 3.8492374990163477e-05 0 0.04477370657158268 -2.1115506141224984e-05 0 0.044999327011624415 -7.9522208546103283e-09 0 0.04477370657158268 -2.1115506141224984e-05 0 0.044999327011624415 -7.9522208546103283e-09 0 0.044999882181017699 3.7117137046015027e-08 0 0.044747411589243551 -0.00011579098333098573 0 0.04477370657158268 -2.1115506141224984e-05 0 0.044999882181017699 3.7117137046015027e-08 0 0.044723143063772328 -0.0001246517033723045 0 0.04499956641062583 -4.6491656448327154e-08 0 0.044867684153390097 -6.7912740587027626e-05 0 0.044733489466552714 -0.00011907322429860777 0 0.044999903234187365 -2.7336064019268624e-08 0 0.044723143063772328 -0.0001246517033723045 0 0.044867684153390097 -6.7912740587027626e-05 0 0.044750475267542902 -0.00018363304434514628 0 0.044867684153390097 -6.7912740587027626e-05 0 0.044903340728063776 -9.4964254813753547e-05 0 0.044750475267542902 -0.00018363304434514628 0 0.044867684153390097 -6.7912740587027626e-05 0 0.044999861524153521 -4.1691283159885496e-08 0 0.044903340728063776 -9.4964254813753547e-05 0 0.04499956641062583 -4.6491656448327154e-08 0 0.044867684153390097 -6.7912740587027626e-05 0 0.044999861524153521 -4.1691283159885496e-08 0 0.044999861524153521 -4.1691283159885496e-08 0 0.04499985954105859 -6.9766853371647923e-08 0 0.044903340728063776 -9.4964254813753547e-05 0 0.04499985954105859 -6.9766853371647923e-08 0 0.044903340728063776 -9.4964254813753547e-05 0 0.044826842363462065 -0.00015307825800218211 0 0.044903340728063776 -9.4964254813753547e-05 0 0.044853575406261385 -0.0001441442719307591 0 0.044750475267542902 -0.00018363304434514628 0 0.044670605768409588 -0.00022468753104571437 0 0.044726981760966567 -0.00018663693054146792 0 0.044903340728063776 -9.4964254813753547e-05 0 0.044853575406261385 -0.0001441442719307591 0 0.044826842363462065 -0.00015307825800218211 0 0.044670605768409588 -0.00022468753104571437 0 0.044512022143811475 -0.00024334497031433289 0 0.044509145469524128 -0.0003185801205035808 0 0.044329967061739223 -0.00038886947451287015 0 0.044411911498911348 -0.00031040822702071145 0 0.044509145469524128 -0.0003185801205035808 0 0.044580624103206616 -0.00025887369338591543 0 0.04447083330018578 -0.00027476144716066607 0 0.044509145469524128 -0.0003185801205035808 0 0.044580624103206616 -0.00025887369338591543 0 0.044750475267542902 -0.00018363304434514628 0 0.044546840524360649 -0.00023848843952292291 0 0.044580624103206616 -0.00025887369338591543 0 0.044750475267542902 -0.00018363304434514628 0 0.044546840524360649 -0.00023848843952292291 0 0.044723143063772328 -0.0001246517033723045 0 0.044750475267542902 -0.00018363304434514628 0 0.044640110914225858 -0.00017280842398761887 0 0.044133463201194566 -0.00024932413730136883 0 0.04459857491661208 -0.00015357001017366419 0 0.044640110914225858 -0.00017280842398761887 0 0.044999482497403299 -1.1729786672944362e-07 0 0.04459857491661208 -0.00015357001017366419 0 0.044640110914225858 -0.00017280842398761887 0 0.044999482497403299 -1.1729786672944362e-07 0 0.044999684074846044 -1.7381420172022543e-07 0 0.044640110914225858 -0.00017280842398761887 0 0.04475778155451203 -0.00013786367050865804 0 0.044560558923889569 -0.00020104809011211661 0 0.044640110914225858 -0.00017280842398761887 0 0.04475778155451203 -0.00013786367050865804 0 0.044999684074846044 -1.7381420172022543e-07 0 0.04475778155451203 -0.00013786367050865804 0 0.044999684074846044 -1.7381420172022543e-07 0 0.044826842363462065 -0.00015307825800218211 0 0.04475778155451203 -0.00013786367050865804 0 0.044826842363462065 -0.00015307825800218211 0 0.044560558923889569 -0.00020104809011211661 0 0.04499985954105859 -6.9766853371647923e-08 0 0.044999684074846044 -1.7381420172022543e-07 0 0.044826842363462065 -0.00015307825800218211 0 0.044853575406261385 -0.0001441442719307591 0 0.044826842363462065 -0.00015307825800218211 0 0.044707712970372106 -9.8251403346164267e-05 0 0.044826842363462065 -0.00015307825800218211 0 0.044707712970372106 -9.8251403346164267e-05 0 0.044560558923889569 -0.00020104809011211661 0 0.044707712970372106 -9.8251403346164267e-05 0 0.044560558923889569 -0.00020104809011211661 0 0.044323485167590326 -0.00017832926159875925 0 0.044640110914225858 -0.00017280842398761887 0 0.044560558923889569 -0.00020104809011211661 0 0.044133463201194566 -0.00024932413730136883 0 0.044560558923889569 -0.00020104809011211661 0 0.044323485167590326 -0.00017832926159875925 0 0.044133463201194566 -0.00024932413730136883 0 0.044133463201194566 -0.00024932413730136883 0 0.043954118021424543 -0.0002097063116208978 0 0.043602406341920023 -0.00024987003627009128 0 0.044323485167590326 -0.00017832926159875925 0 0.044133463201194566 -0.00024932413730136883 0 0.043954118021424543 -0.0002097063116208978 0 0.043509903317610524 -0.00018222354845345425 0 0.043954118021424543 -0.0002097063116208978 0 0.043602406341920023 -0.00024987003627009128 0 0.044323485167590326 -0.00017832926159875925 0 0.043954118021424543 -0.0002097063116208978 0 0.044318605307336605 -2.8804285988260567e-05 0 0.043509903317610524 -0.00018222354845345425 0 0.043954118021424543 -0.0002097063116208978 0 0.044318605307336605 -2.8804285988260567e-05 0 0.043598068744521844 -0.00016372015792840235 0 0.044163894562592371 -0.00023546797977086153 0 0.0437825656920117 -4.3618343130044318e-05 0 0.044110495199888883 -0.00022226517304839666 0 0.044038710654728384 -0.00041285190165146713 0 0.043509903317610524 -0.00018222354845345425 0 0.0437825656920117 -4.3618343130044318e-05 0 0.044038710654728384 -0.00041285190165146713 0 0.044110495199888883 -0.00022226517304839666 0 0.044199445369295029 -0.0003296981153265323 0 0.044299472170968246 -0.0002787708531273966 0 0.044110495199888883 -0.00022226517304839666 0 0.044299472170968246 -0.0002787708531273966 0 0.04420179706554353 -0.00016300397777144215 0 0.044329967061739223 -0.00038886947451287015 0 0.044038710654728384 -0.00041285190165146713 0 0.044199445369295029 -0.0003296981153265323 0 0.044512022143811475 -0.00024334497031433289 0 0.044163894562592371 -0.00023546797977086153 0 0.044110495199888883 -0.00022226517304839666 0 0.044038710654728384 -0.00041285190165146713 0 0.044199445369295029 -0.0003296981153265323 0 0.044707712970372106 -9.8251403346164267e-05 0 0.044323485167590326 -0.00017832926159875925 0 0.044318605307336605 -2.8804285988260567e-05 0 0.044329967061739223 -0.00038886947451287015 0 0.044199445369295029 -0.0003296981153265323 0 0.044299472170968246 -0.0002787708531273966 0 0.044329967061739223 -0.00038886947451287015 0 0.044299472170968246 -0.0002787708531273966 0 0.044411911498911348 -0.00031040822702071145 0 0.044299472170968246 -0.0002787708531273966 0 0.04432296021420698 -0.0002171027547349724 0 0.04439205563196965 -0.00026545124134199602 0 0.044299472170968246 -0.0002787708531273966 0 0.04432296021420698 -0.0002171027547349724 0 0.04420179706554353 -0.00016300397777144215 0 0.04432296021420698 -0.0002171027547349724 0 0.044322694535479545 -0.00014519688819318127 0 0.04420179706554353 -0.00016300397777144215 0 0.039712944408756633 -0.00086474188581932483 0 0.039482528125301605 -0.00096474391511525495 0 0.039388640481726057 -0.00082202302305661474 0 0.043787218007221351 -0.00042784213571350196 0 0.043852442389039729 5.0417694189876029e-05 0 0.043397498252279676 -0.00012315382962274065 0 0.041039976829904817 -0.0010178343543348692 0 0.041473333075139188 -0.00052835835632932069 0 0.039269311600857802 -0.0010588506839496643 0 0.039202697357134289 -0.00074145831408901745 0 0.039388640481726057 -0.00082202302305661474 0 0.043787218007221351 -0.00042784213571350196 0 0.043397498252279676 -0.00012315382962274065 0 0.042886313386102971 -0.00035965312874548197 0 0.041534340891860463 -9.8725964481416676e-05 0 0.037139365121394943 -0.00067217759301706117 0 0.039482528125301605 -0.00096474391511525495 0 0.039269311600857802 -0.0010588506839496643 0 0.039388640481726057 -0.00082202302305661474 0 0.041473333075139188 -0.00052835835632932069 0 0.041534340891860463 -9.8725964481416676e-05 0 0.044322694535479545 -0.00014519688819318127 0 0.044107332713190311 -8.3208063044267594e-05 0 0.04420179706554353 -0.00016300397777144215 0 0.044110495199888883 -0.00022226517304839666 0 0.044107332713190311 -8.3208063044267594e-05 0 0.04420179706554353 -0.00016300397777144215 0 0.044110495199888883 -0.00022226517304839666 0 0.043990133082690952 0.00039321988486675473 0 0.04383363062058461 0.00031902439356639481 0 0.044492339093771767 -0.00032596569812145344 0 0.041534340891860463 -9.8725964481416676e-05 0 0.044636543712007516 -0.00015904742836956714 0 0.041534340891860463 -9.8725964481416676e-05 0 0.0437825656920117 -4.3618343130044318e-05 0 0.044110495199888883 -0.00022226517304839666 0 0.04383363062058461 0.00031902439356639481 0 0.0437825656920117 -4.3618343130044318e-05 0 0.04383363062058461 0.00031902439356639481 0 0.043232720309593201 0.00045802488823843324 0 0.041534340891860463 -9.8725964481416676e-05 0 0.04344502968821555 0.00054363685947009363 0 0.035375314621150344 0.0009851757187713361 0 0.036665949173687269 -0.00026383406303852867 0 0.037662618167116878 0.00087071814275138984 0 0.04402465871235877 0.00041736755970984914 0 0.04383363062058461 0.00031902439356639481 0 0.043232720309593201 0.00045802488823843324 0 0.035375314621150344 0.0009851757187713361 0 0.036665949173687269 -0.00026383406303852867 0 0.035633081017790932 -0.00091263362460659544 0 0.041534340891860463 -9.8725964481416676e-05 0 0.040035163901448387 0.00071787185529410813 0 0.036665949173687269 -0.00026383406303852867 0 0.037662618167116878 0.00087071814275138984 0 0.038089350837853947 -0.00078854994611645963 0 0.043509903317610524 -0.00018222354845345425 0 0.043232720309593201 0.00045802488823843324 0 0.042616445693319668 -0.00012103536318016472 0 0.043509903317610524 -0.00018222354845345425 0 0.0437825656920117 -4.3618343130044318e-05 0 0.043232720309593201 0.00045802488823843324 0 0.044454758556206106 -0.00028312966242050296 0 0.044399499803083421 -0.00029187229801573523 0 0.04447083330018578 -0.00027476144716066607 0 0.044454758556206106 -0.00028312966242050296 0 0.044399499803083421 -0.00029187229801573523 0 0.044366252016190377 -0.00031543625460658196 0 0.044397052806329544 -0.00028721923827868483 0 0.044454758556206106 -0.00028312966242050296 0 0.044350461832806255 -0.00032189276101093076 0 0.044454758556206106 -0.00028312966242050296 0 0.044366252016190377 -0.00031543625460658196 0 0.044350461832806255 -0.00032189276101093076 0 0.044546840524360649 -0.00023848843952292291 0 0.044580624103206616 -0.00025887369338591543 0 0.044454758556206106 -0.00028312966242050296 0 0.044397052806329544 -0.00028721923827868483 0 0.044546840524360649 -0.00023848843952292291 0 0.044454758556206106 -0.00028312966242050296 0 0.044580624103206616 -0.00025887369338591543 0 0.044454758556206106 -0.00028312966242050296 0 0.04447083330018578 -0.00027476144716066607 0 0.04447083330018578 -0.00027476144716066607 0 0.044411911498911348 -0.00031040822702071145 0 0.04439205563196965 -0.00026545124134199602 0 0.044509145469524128 -0.0003185801205035808 0 0.04447083330018578 -0.00027476144716066607 0 0.044411911498911348 -0.00031040822702071145 0 0.044299472170968246 -0.0002787708531273966 0 0.044411911498911348 -0.00031040822702071145 0 0.04439205563196965 -0.00026545124134199602 0 0.04439205563196965 -0.00026545124134199602 0 0.044403789492041712 -0.00027481076231788748 0 0.04437351386694488 -0.00024384378804518845 0 0.04432296021420698 -0.0002171027547349724 0 0.04439205563196965 -0.00026545124134199602 0 0.04437351386694488 -0.00024384378804518845 0 0.04447083330018578 -0.00027476144716066607 0 0.04439205563196965 -0.00026545124134199602 0 0.044403789492041712 -0.00027481076231788748 0 0.044399499803083421 -0.00029187229801573523 0 0.04447083330018578 -0.00027476144716066607 0 0.044403789492041712 -0.00027481076231788748 0 0.044399499803083421 -0.00029187229801573523 0 0.044403789492041712 -0.00027481076231788748 0 0.044375111971116266 -0.00032836825057928817 0 0.044399499803083421 -0.00029187229801573523 0 0.044375111971116266 -0.00032836825057928817 0 0.044332969846600984 -0.00033370580432564391 0 0.044403789492041712 -0.00027481076231788748 0 0.044375111971116266 -0.00032836825057928817 0 0.04437351386694488 -0.00024384378804518845 0 0.044375111971116266 -0.00032836825057928817 0 0.044231060807548232 -0.0002905437401986684 0 0.044307215846506133 -0.0003159561740999545 0 0.044375111971116266 -0.00032836825057928817 0 0.044307215846506133 -0.0003159561740999545 0 0.044332969846600984 -0.00033370580432564391 0 0.044322694535479545 -0.00014519688819318127 0 0.044375111971116266 -0.00032836825057928817 0 0.04437351386694488 -0.00024384378804518845 0 0.044492339093771767 -0.00032596569812145344 0 0.044151221407952336 -0.000303986510384848 0 0.043787218007221351 -0.00042784213571350196 0 0.044375111971116266 -0.00032836825057928817 0 0.044231060807548232 -0.0002905437401986684 0 0.04432296021420698 -0.0002171027547349724 0 0.044322694535479545 -0.00014519688819318127 0 0.04437351386694488 -0.00024384378804518845 0 0.043787218007221351 -0.00042784213571350196 0 0.043852442389039729 5.0417694189876029e-05 0 0.044231060807548232 -0.0002905437401986684 0 0.044256248986303433 -0.00032260671104497341 0 0.044231060807548232 -0.0002905437401986684 0 0.044262740015848998 -0.00033061844731958987 0 0.041039976829904817 -0.0010178343543348692 0 0.044793763700348578 -0.00054170099192441261 0 0.044307215846506133 -0.0003159561740999545 0 0.044281411203259027 -0.00033712984359706756 0 0.044332969846600984 -0.00033370580432564391 0 0.044231060807548232 -0.0002905437401986684 0 0.044307215846506133 -0.0003159561740999545 0 0.044262740015848998 -0.00033061844731958987 0 0.044307215846506133 -0.0003159561740999545 0 0.044262740015848998 -0.00033061844731958987 0 0.044281411203259027 -0.00033712984359706756 0 0.044262740015848998 -0.00033061844731958987 0 0.044281411203259027 -0.00033712984359706756 0 0.044267365959769142 -0.00034985777962948637 0 0.044281411203259027 -0.00033712984359706756 0 0.044234159010721426 -0.00035778736948216978 0 0.044267365959769142 -0.00034985777962948637 0 0.044281411203259027 -0.00033712984359706756 0 0.044275504576677956 -0.00035334782610256049 0 0.044234159010721426 -0.00035778736948216978 0 0.044275504576677956 -0.00035334782610256049 0 0.044222383214038825 -0.00038558099721405808 0 0.044234159010721426 -0.00035778736948216978 0 0.044275504576677956 -0.00035334782610256049 0 0.044332969846600984 -0.00033370580432564391 0 0.044296538349799096 -0.00035828334420213699 0 0.044275504576677956 -0.00035334782610256049 0 0.044222383214038825 -0.00038558099721405808 0 0.044296538349799096 -0.00035828334420213699 0 0.044281411203259027 -0.00033712984359706756 0 0.044275504576677956 -0.00035334782610256049 0 0.044332969846600984 -0.00033370580432564391 0 0.044332969846600984 -0.00033370580432564391 0 0.044366252016190377 -0.00031543625460658196 0 0.044296538349799096 -0.00035828334420213699 0 0.044399499803083421 -0.00029187229801573523 0 0.044332969846600984 -0.00033370580432564391 0 0.044366252016190377 -0.00031543625460658196 0 0.044263383792879155 -0.00036312205130730748 0 0.044350461832806255 -0.00032189276101093076 0 0.044296538349799096 -0.00035828334420213699 0 0.044366252016190377 -0.00031543625460658196 0 0.044350461832806255 -0.00032189276101093076 0 0.044296538349799096 -0.00035828334420213699 0 0.044263383792879155 -0.00036312205130730748 0 0.044296538349799096 -0.00035828334420213699 0 0.044240584623261948 -0.00040747958788735125 0 0.044222383214038825 -0.00038558099721405808 0 0.044296538349799096 -0.00035828334420213699 0 0.044240584623261948 -0.00040747958788735125 0 0.044240584623261948 -0.00040747958788735125 0 0.044164585973952883 -0.00041904551764313782 0 0.044261650437201858 -0.00045286395149538077 0 0.044222383214038825 -0.00038558099721405808 0 0.044240584623261948 -0.00040747958788735125 0 0.044164585973952883 -0.00041904551764313782 0 0.044089822168909464 -0.0004154709306925355 0 0.044164585973952883 -0.00041904551764313782 0 0.044143234999094207 -0.00036592349415973937 0 0.044089822168909464 -0.0004154709306925355 0 0.044164585973952883 -0.00041904551764313782 0 0.044147603804011178 -0.00039238903628002953 0 0.044164585973952883 -0.00041904551764313782 0 0.044143234999094207 -0.00036592349415973937 0 0.044261650437201858 -0.00045286395149538077 0 0.044143234999094207 -0.00036592349415973937 0 0.043864960678021099 9.723684251120379e-05 0 0.044420433882567653 2.4693718177982453e-06 0 0.044089822168909464 -0.0004154709306925355 0 0.044143234999094207 -0.00036592349415973937 0 0.043981146673881311 -0.00044309786785379788 0 0.044143234999094207 -0.00036592349415973937 0 0.043981146673881311 -0.00044309786785379788 0 0.043864960678021099 9.723684251120379e-05 0 0.038777368518013285 -0.0010985517208526474 0 0.037996969372437815 -0.0013158562938224551 0 0.043981146673881311 -0.00044309786785379788 0 0.043864960678021099 9.723684251120379e-05 0 0.040983394680908725 -0.00056718539035032162 0 0.043981146673881311 -0.00044309786785379788 0 0.04066997958141224 -0.0021837866688807716 0 0.040983394680908725 -0.00056718539035032162 0 0.034626549308402435 -0.0021820749078347826 0 0.03484434944752917 -0.0020977190590345412 0 0.034735251669777721 -0.0022262248805117939 0 0.043954390800565749 -0.00046136017121195413 0 0.042380333437716203 -0.0013986802202530233 0 0.043981146673881311 -0.00044309786785379788 0 0.044147603804011178 -0.00039238903628002953 0 0.044274629068840915 -0.00038902887781773574 0 0.044089822168909464 -0.0004154709306925355 0 0.043981146673881311 -0.00044309786785379788 0 0.044147603804011178 -0.00039238903628002953 0 0.044222383214038825 -0.00038558099721405808 0 0.044164585973952883 -0.00041904551764313782 0 0.044147603804011178 -0.00039238903628002953 0 0.044222383214038825 -0.00038558099721405808 0 0.044147603804011178 -0.00039238903628002953 0 0.044234159010721426 -0.00035778736948216978 0 0.044147603804011178 -0.00039238903628002953 0 0.044234159010721426 -0.00035778736948216978 0 0.044274629068840915 -0.00038902887781773574 0 0.044234159010721426 -0.00035778736948216978 0 0.044267365959769142 -0.00034985777962948637 0 0.044274629068840915 -0.00038902887781773574 0 0.044262740015848998 -0.00033061844731958987 0 0.044267365959769142 -0.00034985777962948637 0 0.044274629068840915 -0.00038902887781773574 0 0.04066997958141224 -0.0021837866688807716 0 0.039341136357300736 -0.0017723579440045237 0 0.040983394680908725 -0.00056718539035032162 0 0.037245037870346651 -0.0035056057312659902 0 0.04066997958141224 -0.0021837866688807716 0 0.039341136357300736 -0.0017723579440045237 0 0.041039976829904817 -0.0010178343543348692 0 0.042380333437716203 -0.0013986802202530233 0 0.044256248986303433 -0.00032260671104497341 0 0.044262740015848998 -0.00033061844731958987 0 0.044274629068840915 -0.00038902887781773574 0 0.037245037870346651 -0.0035056057312659902 0 0.039341136357300736 -0.0017723579440045237 0 0.038000945770039193 -0.0021126063813651555 0 0.039341136357300736 -0.0017723579440045237 0 0.038000945770039193 -0.0021126063813651555 0 0.037961192076915624 -0.001558395946668288 0 0.038000945770039193 -0.0021126063813651555 0 0.03798164920775033 -0.001691882728041967 0 0.036471486662503091 -0.0024697183203400562 0 0.036765432679581683 -0.0019633493993776443 0 0.036553612331799934 -0.0019445242778542901 0 0.039341136357300736 -0.0017723579440045237 0 0.037961192076915624 -0.001558395946668288 0 0.040983394680908725 -0.00056718539035032162 0 0.036553612331799934 -0.0019445242778542901 0 0.035449595073797163 -0.0023795730005494809 0 0.036278335353361515 -0.0022874257631269974 0 0.036079671202547722 -0.0023119955289316119 0 0.036199257840034318 -0.0022902120868296982 0 0.03508668786561147 -0.002016426096687546 0 0.034979659843397723 -0.0021773824599204583 0 0.035065639599042069 -0.0023406315789065383 0 0.03508668786561147 -0.002016426096687546 0 0.034979659843397723 -0.0021773824599204583 0 0.03484434944752917 -0.0020977190590345412 0 0.03484434944752917 -0.0020977190590345412 0 0.034870078966663477 -0.0022763427484822538 0 0.034735251669777721 -0.0022262248805117939 0 0.034979659843397723 -0.0021773824599204583 0 0.03484434944752917 -0.0020977190590345412 0 0.034870078966663477 -0.0022763427484822538 0 0.036553612331799934 -0.0019445242778542901 0 0.037996969372437815 -0.0013158562938224551 0 0.034870078966663477 -0.0022763427484822538 0 0.03487490070599459 -0.0024738901273550148 0 0.034725651952595825 -0.0023524865613145092 0 0.034979659843397723 -0.0021773824599204583 0 0.034870078966663477 -0.0022763427484822538 0 0.035065639599042069 -0.0023406315789065383 0 0.034870078966663477 -0.0022763427484822538 0 0.035065639599042069 -0.0023406315789065383 0 0.03487490070599459 -0.0024738901273550148 0 0.035449595073797163 -0.0023795730005494809 0 0.035429421008269582 -0.0024929615278063916 0 0.035065639599042069 -0.0023406315789065383 0 0.03487490070599459 -0.0024738901273550148 0 0.035026159881556593 -0.0026648243107404573 0 0.03487490070599459 -0.0024738901273550148 0 0.034725651952595825 -0.0023524865613145092 0 0.034667191290742069 -0.0025608406686448999 0 0.034550270960039084 -0.0024049107857670661 0 0.034725651952595825 -0.0023524865613145092 0 0.034667191290742069 -0.0025608406686448999 0 0.034550270960039084 -0.0024049107857670661 0 0.034487085154404878 -0.0025995899788860645 0 0.034667191290742069 -0.0025608406686448999 0 0.034550270960039084 -0.0024049107857670661 0 0.034487085154404878 -0.0025995899788860645 0 0.034349263645950999 -0.002514330135775416 0 0.034550270960039084 -0.0024049107857670661 0 0.03455939833001815 -0.0022800540188813905 0 0.034639362023342606 -0.0022803807628008991 0 0.034626549308402435 -0.0021820749078347826 0 0.03455939833001815 -0.0022800540188813905 0 0.034423702228249614 -0.0022546839579550737 0 0.034550270960039084 -0.0024049107857670661 0 0.03455939833001815 -0.0022800540188813905 0 0.034423702228249614 -0.0022546839579550737 0 0.038777368518013285 -0.0010985517208526474 0 0.041595726014700872 -0.0015627766635075964 0 0.034626549308402435 -0.0021820749078347826 0 0.03455939833001815 -0.0022800540188813905 0 0.034639362023342606 -0.0022803807628008991 0 0.034626549308402435 -0.0021820749078347826 0 0.034639362023342606 -0.0022803807628008991 0 0.034735251669777721 -0.0022262248805117939 0 0.034550270960039084 -0.0024049107857670661 0 0.034639362023342606 -0.0022803807628008991 0 0.034725651952595825 -0.0023524865613145092 0 0.034639362023342606 -0.0022803807628008991 0 0.034735251669777721 -0.0022262248805117939 0 0.034725651952595825 -0.0023524865613145092 0 0.034870078966663477 -0.0022763427484822538 0 0.034735251669777721 -0.0022262248805117939 0 0.034725651952595825 -0.0023524865613145092 0 0.036915946454869127 -0.0025274542428327697 0 0.036888995429698222 -0.0014796057516409875 0 0.0364962624846683 -0.002251850892387415 0 0.036915946454869127 -0.0025274542428327697 0 0.037719204475335125 -0.0018702978382835588 0 0.036888995429698222 -0.0014796057516409875 0 0.036915946454869127 -0.0025274542428327697 0 0.037719204475335125 -0.0018702978382835588 0 0.037625397882936853 -0.0027761485729568438 0 0.036915946454869127 -0.0025274542428327697 0 0.0364962624846683 -0.002251850892387415 0 0.036377089483276698 -0.0025962120833665529 0 0.037719204475335125 -0.0018702978382835588 0 0.038089350837853947 -0.00078854994611645963 0 0.036888995429698222 -0.0014796057516409875 0 0.036665949173687269 -0.00026383406303852867 0 0.038089350837853947 -0.00078854994611645963 0 0.036888995429698222 -0.0014796057516409875 0 0.036888995429698222 -0.0014796057516409875 0 0.035633081017790932 -0.00091263362460659544 0 0.0364962624846683 -0.002251850892387415 0 0.036665949173687269 -0.00026383406303852867 0 0.036888995429698222 -0.0014796057516409875 0 0.035633081017790932 -0.00091263362460659544 0 0.037139365121394943 -0.00067217759301706117 0 0.037195635092403007 -0.0017614523884516512 0 0.035633081017790932 -0.00091263362460659544 0 0.0364962624846683 -0.002251850892387415 0 0.035899606278317377 -0.0023630290893877819 0 0.0364962624846683 -0.002251850892387415 0 0.035899606278317377 -0.0023630290893877819 0 0.036377089483276698 -0.0025962120833665529 0 0.039202697357134289 -0.00074145831408901745 0 0.039138271653138552 -0.00042213803483577062 0 0.039425231517855736 -0.00063712171071242591 0 0.03625557675135653 -0.0022802456725450407 0 0.036105511396055744 -0.0022743475093295012 0 0.035999701194005584 -0.0022189372901811467 0 0.037195635092403007 -0.0017614523884516512 0 0.037489699588372789 -0.0014374643953937434 0 0.03625557675135653 -0.0022802456725450407 0 0.036105511396055744 -0.0022743475093295012 0 0.036167627879056981 -0.0023603198133435163 0 0.039202697357134289 -0.00074145831408901745 0 0.039388640481726057 -0.00082202302305661474 0 0.039425231517855736 -0.00063712171071242591 0 0.039712944408756633 -0.00086474188581932483 0 0.039388640481726057 -0.00082202302305661474 0 0.039425231517855736 -0.00063712171071242591 0 0.041039976829904817 -0.0010178343543348692 0 0.037489699588372789 -0.0014374643953937434 0 0.037245037870346651 -0.0035056057312659902 0 0.035999701194005584 -0.0022189372901811467 0 0.036471486662503091 -0.0024697183203400562 0 0.035999701194005584 -0.0022189372901811467 0 0.036471486662503091 -0.0024697183203400562 0 0.03628965588563058 -0.0022848733281275631 0 0.037245037870346651 -0.0035056057312659902 0 0.038000945770039193 -0.0021126063813651555 0 0.036471486662503091 -0.0024697183203400562 0 0.036278335353361515 -0.0022874257631269974 0 0.036471486662503091 -0.0024697183203400562 0 0.03628965588563058 -0.0022848733281275631 0 0.036553612331799934 -0.0019445242778542901 0 0.036690114532258802 -0.0022760088346593307 0 0.036278335353361515 -0.0022874257631269974 0 0.03628965588563058 -0.0022848733281275631 0 0.036199257840034318 -0.0022902120868296982 0 0.036105511396055744 -0.0022743475093295012 0 0.035999701194005584 -0.0022189372901811467 0 0.03628965588563058 -0.0022848733281275631 0 0.036105511396055744 -0.0022743475093295012 0 0.03628965588563058 -0.0022848733281275631 0 0.036199257840034318 -0.0022902120868296982 0 0.036105511396055744 -0.0022743475093295012 0 0.036199257840034318 -0.0022902120868296982 0 0.03612151941460319 -0.002322241962231025 0 0.036079671202547722 -0.0023119955289316119 0 0.036199257840034318 -0.0022902120868296982 0 0.036075882835602674 -0.0023248320668975151 0 0.036199257840034318 -0.0022902120868296982 0 0.036075882835602674 -0.0023248320668975151 0 0.03612151941460319 -0.002322241962231025 0 0.036079671202547722 -0.0023119955289316119 0 0.036075882835602674 -0.0023248320668975151 0 0.035809158664274351 -0.0023152648818058389 0 0.036075882835602674 -0.0023248320668975151 0 0.036057406230787424 -0.0023176442389814499 0 0.035809158664274351 -0.0023152648818058389 0 0.036156334829810961 -0.0023989281283364272 0 0.036215100317693011 -0.0024329164132360264 0 0.036057406230787424 -0.0023176442389814499 0 0.036075882835602674 -0.0023248320668975151 0 0.036156334829810961 -0.0023989281283364272 0 0.036057406230787424 -0.0023176442389814499 0 0.036156334829810961 -0.0023989281283364272 0 0.036167627879056981 -0.0023603198133435163 0 0.036284515685923509 -0.0024992988925076633 0 0.036156334829810961 -0.0023989281283364272 0 0.03612151941460319 -0.002322241962231025 0 0.036167627879056981 -0.0023603198133435163 0 0.036075882835602674 -0.0023248320668975151 0 0.036156334829810961 -0.0023989281283364272 0 0.03612151941460319 -0.002322241962231025 0 0.036105511396055744 -0.0022743475093295012 0 0.03612151941460319 -0.002322241962231025 0 0.036167627879056981 -0.0023603198133435163 0 0.03625557675135653 -0.0022802456725450407 0 0.036167627879056981 -0.0023603198133435163 0 0.036284515685923509 -0.0024992988925076633 0 0.036308420196874656 -0.0024906243497231076 0 0.036377089483276698 -0.0025962120833665529 0 0.036284515685923509 -0.0024992988925076633 0 0.037195635092403007 -0.0017614523884516512 0 0.036565861012212791 -0.0025419491942861639 0 0.037195635092403007 -0.0017614523884516512 0 0.036447544294954573 -0.0022722867009858094 0 0.036377089483276698 -0.0025962120833665529 0 0.036284515685923509 -0.0024992988925076633 0 0.036314613726360946 -0.0025805019263464668 0 0.036377089483276698 -0.0025962120833665529 0 0.036314613726360946 -0.0025805019263464668 0 0.03647859547019381 -0.0027071757567521029 0 0.036215100317693011 -0.0024329164132360264 0 0.036226460779286353 -0.0025660059282605176 0 0.036101799527121448 -0.0020624700284156395 0 0.036284515685923509 -0.0024992988925076633 0 0.036215100317693011 -0.0024329164132360264 0 0.036314613726360946 -0.0025805019263464668 0 0.036156334829810961 -0.0023989281283364272 0 0.036284515685923509 -0.0024992988925076633 0 0.036215100317693011 -0.0024329164132360264 0 0.036215100317693011 -0.0024329164132360264 0 0.036314613726360946 -0.0025805019263464668 0 0.036226460779286353 -0.0025660059282605176 0 0.036314613726360946 -0.0025805019263464668 0 0.036226460779286353 -0.0025660059282605176 0 0.03647859547019381 -0.0027071757567521029 0 0.036226460779286353 -0.0025660059282605176 0 0.035664039874086687 -0.002234954744302796 0 0.036081109657827161 -0.0026632896374764918 0 0.036226460779286353 -0.0025660059282605176 0 0.036632995978646332 -0.0028655031007130826 0 0.036081109657827161 -0.0026632896374764918 0 0.036226460779286353 -0.0025660059282605176 0 0.036632995978646332 -0.0028655031007130826 0 0.03647859547019381 -0.0027071757567521029 0 0.036915946454869127 -0.0025274542428327697 0 0.036377089483276698 -0.0025962120833665529 0 0.03647859547019381 -0.0027071757567521029 0 0.036915946454869127 -0.0025274542428327697 0 0.036632995978646332 -0.0028655031007130826 0 0.03647859547019381 -0.0027071757567521029 0 0.036915946454869127 -0.0025274542428327697 0 0.036632995978646332 -0.0028655031007130826 0 0.037625397882936853 -0.0027761485729568438 0 0.036101799527121448 -0.0020624700284156395 0 0.035699688217111961 -0.00056579186359403846 0 0.034691911851904962 -0.0012022558125020719 0 0.035664039874086687 -0.002234954744302796 0 0.036101799527121448 -0.0020624700284156395 0 0.034691911851904962 -0.0012022558125020719 0 0.036226460779286353 -0.0025660059282605176 0 0.035664039874086687 -0.002234954744302796 0 0.036101799527121448 -0.0020624700284156395 0 0.036215100317693011 -0.0024329164132360264 0 0.036101799527121448 -0.0020624700284156395 0 0.036057406230787424 -0.0023176442389814499 0 0.036101799527121448 -0.0020624700284156395 0 0.035827586212673249 -0.0023318493995527888 0 0.036075372054239545 -0.002443815270364226 0 0.036017073492089366 -0.0021076422363948658 0 0.036104318307576634 -0.0013758487141738438 0 0.036101799527121448 -0.0020624700284156395 0 0.035827586212673249 -0.0023318493995527888 0 0.036057406230787424 -0.0023176442389814499 0 0.035827586212673249 -0.0023318493995527888 0 0.036057406230787424 -0.0023176442389814499 0 0.035809158664274351 -0.0023152648818058389 0 0.035827586212673249 -0.0023318493995527888 0 0.035809158664274351 -0.0023152648818058389 0 0.035381883917850403 -0.0025044558910397251 0 0.035827586212673249 -0.0023318493995527888 0 0.035663149230271966 -0.0026484183054838843 0 0.035381883917850403 -0.0025044558910397251 0 0.035322743688893252 -0.0027969568429008543 0 0.035381883917850403 -0.0025044558910397251 0 0.034889799914594337 -0.0031480879812729621 0 0.035322743688893252 -0.0027969568429008543 0 0.035663149230271966 -0.0026484183054838843 0 0.035238370777296045 -0.0030644236572958351 0 0.035322743688893252 -0.0027969568429008543 0 0.035663149230271966 -0.0026484183054838843 0 0.035381883917850403 -0.0025044558910397251 0 0.035827586212673249 -0.0023318493995527888 0 0.035663149230271966 -0.0026484183054838843 0 0.036075372054239545 -0.002443815270364226 0 0.036104318307576634 -0.0013758487141738438 0 0.033759249041744217 -0.0014388730002450898 0 0.035663149230271966 -0.0026484183054838843 0 0.036075372054239545 -0.002443815270364226 0 0.036038333454220424 -0.0028774805905144745 0 0.035663149230271966 -0.0026484183054838843 0 0.036038333454220424 -0.0028774805905144745 0 0.035655067886081873 -0.0031530481809124693 0 0.035699688217111961 -0.00056579186359403846 0 0.035604737805032281 0.0012887040857996 0 0.034132277981738485 0.00015378851933793108 0 0.033759249041744217 -0.0014388730002450898 0 0.034552187247939244 0.00082551764282555559 0 0.033273395456811933 0.00028733261260925928 0 0.034132277981738485 0.00015378851933793108 0 0.033325773123794068 0.00025059841241414482 0 0.035699688217111961 -0.00056579186359403846 0 0.034691911851904962 -0.0012022558125020719 0 0.034132277981738485 0.00015378851933793108 0 0.034524644869811875 -0.0027905350001151503 0 0.034776172088007797 -0.0028016424648049632 0 0.034579705133076753 -0.0030264970184627994 0 0.034524644869811875 -0.0027905350001151503 0 0.034487085154404878 -0.0025995899788860645 0 0.034267381389705552 -0.0027887103567484314 0 0.034524644869811875 -0.0027905350001151503 0 0.034368870022830941 -0.0029843084441727144 0 0.034267381389705552 -0.0027887103567484314 0 0.034524644869811875 -0.0027905350001151503 0 0.034487085154404878 -0.0025995899788860645 0 0.034667191290742069 -0.0025608406686448999 0 0.034524644869811875 -0.0027905350001151503 0 0.034667191290742069 -0.0025608406686448999 0 0.034776172088007797 -0.0028016424648049632 0 0.03487490070599459 -0.0024738901273550148 0 0.034667191290742069 -0.0025608406686448999 0 0.034776172088007797 -0.0028016424648049632 0 0.03487490070599459 -0.0024738901273550148 0 0.035026159881556593 -0.0026648243107404573 0 0.034776172088007797 -0.0028016424648049632 0 0.035429421008269582 -0.0024929615278063916 0 0.035162574243066916 -0.0027776622845525839 0 0.035026159881556593 -0.0026648243107404573 0 0.034776172088007797 -0.0028016424648049632 0 0.034964081916840216 -0.0029958915626951675 0 0.034776172088007797 -0.0028016424648049632 0 0.034776703197533926 -0.0030147854066202859 0 0.034579705133076753 -0.0030264970184627994 0 0.034776172088007797 -0.0028016424648049632 0 0.034776703197533926 -0.0030147854066202859 0 0.034964081916840216 -0.0029958915626951675 0 0.034776703197533926 -0.0030147854066202859 0 0.034964081916840216 -0.0029958915626951675 0 0.034843315958059125 -0.0031152321950897112 0 0.035162574243066916 -0.0027776622845525839 0 0.034938090573812738 -0.0031449312143380153 0 0.034964081916840216 -0.0029958915626951675 0 0.034843315958059125 -0.0031152321950897112 0 0.034889799914594337 -0.0031480879812729621 0 0.034843315958059125 -0.0031152321950897112 0 0.034715397023549859 -0.003165215897266324 0 0.034818284516596118 -0.0032411511460116453 0 0.034776703197533926 -0.0030147854066202859 0 0.034715397023549859 -0.003165215897266324 0 0.034579705133076753 -0.0030264970184627994 0 0.034776703197533926 -0.0030147854066202859 0 0.034843315958059125 -0.0031152321950897112 0 0.034715397023549859 -0.003165215897266324 0 0.034715397023549859 -0.003165215897266324 0 0.034579705133076753 -0.0030264970184627994 0 0.034491490408374424 -0.0032669347588184369 0 0.034579705133076753 -0.0030264970184627994 0 0.034396372413386937 -0.0031386314496549168 0 0.034491490408374424 -0.0032669347588184369 0 0.034524644869811875 -0.0027905350001151503 0 0.034579705133076753 -0.0030264970184627994 0 0.034368870022830941 -0.0029843084441727144 0 0.034579705133076753 -0.0030264970184627994 0 0.034368870022830941 -0.0029843084441727144 0 0.034396372413386937 -0.0031386314496549168 0 0.034368870022830941 -0.0029843084441727144 0 0.034396372413386937 -0.0031386314496549168 0 0.034226579275200501 -0.0031753364840075948 0 0.034396372413386937 -0.0031386314496549168 0 0.034296819497019577 -0.0032864792330819731 0 0.034491490408374424 -0.0032669347588184369 0 0.034396372413386937 -0.0031386314496549168 0 0.034226579275200501 -0.0031753364840075948 0 0.034296819497019577 -0.0032864792330819731 0 0.039163723402038518 -0.0058512648045727219 0 0.036007873042091368 -0.0049862485733337559 0 0.034226579275200501 -0.0031753364840075948 0 0.034174690425510044 -0.0030706324553403013 0 0.034091955399673191 -0.0033230441789436679 0 0.041979294797411179 -0.0096085782011582632 0 0.04367804891269824 -0.0079217709754713303 0 0.043326264673855731 -0.010278894017637282 0 0.041979294797411179 -0.0096085782011582632 0 0.04367804891269824 -0.0079217709754713303 0 0.041309849662944619 -0.0082210619724893789 0 0.042464781556069635 -0.006730497880126831 0 0.04367804891269824 -0.0079217709754713303 0 0.044006780430661481 -0.0054226761317221562 0 0.042464781556069635 -0.006730497880126831 0 0.04367804891269824 -0.0079217709754713303 0 0.041309849662944619 -0.0082210619724893789 0 0.034368870022830941 -0.0029843084441727144 0 0.034226579275200501 -0.0031753364840075948 0 0.034174690425510044 -0.0030706324553403013 0 0.034368870022830941 -0.0029843084441727144 0 0.034174690425510044 -0.0030706324553403013 0 0.034267381389705552 -0.0027887103567484314 0 0.039163723402038518 -0.0058512648045727219 0 0.039130248483087673 -0.0040241226764874813 0 0.042464781556069635 -0.006730497880126831 0 0.044006780430661481 -0.0054226761317221562 0 0.04261183177808741 -0.005009604417370056 0 0.042464781556069635 -0.006730497880126831 0 0.04261183177808741 -0.005009604417370056 0 0.041081747620816261 -0.0058373267007966832 0 0.04261183177808741 -0.005009604417370056 0 0.042030478740321661 -0.0036594021066706553 0 0.044206472578179216 -0.0028922725573491434 0 0.039130248483087673 -0.0040241226764874813 0 0.039062301690878265 -0.0027292890311204428 0 0.034487085154404878 -0.0025995899788860645 0 0.034267381389705552 -0.0027887103567484314 0 0.034349263645950999 -0.002514330135775416 0 0.044006780430661481 -0.0054226761317221562 0 0.04261183177808741 -0.005009604417370056 0 0.044206472578179216 -0.0028922725573491434 0 0.042030478740321661 -0.0036594021066706553 0 0.039856343409739516 -0.0037185892413679421 0 0.041081747620816261 -0.0058373267007966832 0 0.04261183177808741 -0.005009604417370056 0 0.042030478740321661 -0.0036594021066706553 0 0.041081747620816261 -0.0058373267007966832 0 0.042030478740321661 -0.0036594021066706553 0 0.039856343409739516 -0.0037185892413679421 0 0.041075483617278155 -0.0028839817845835868 0 0.041081747620816261 -0.0058373267007966832 0 0.039817959568301392 -0.0074686491582262593 0 0.038342272855850068 -0.0062962871647202099 0 0.039856343409739516 -0.0037185892413679421 0 0.041081747620816261 -0.0058373267007966832 0 0.038342272855850068 -0.0062962871647202099 0 0.040676494417264716 -0.0030979333236496459 0 0.038827543924277882 -0.0061753333512425913 0 0.039817959568301392 -0.0074686491582262593 0 0.03851923166054759 -0.0080719677719342901 0 0.038342272855850068 -0.0062962871647202099 0 0.039817959568301392 -0.0074686491582262593 0 0.039050107960738462 -0.0090198416977621439 0 0.03851923166054759 -0.0080719677719342901 0 0.042464781556069635 -0.006730497880126831 0 0.041081747620816261 -0.0058373267007966832 0 0.041309849662944619 -0.0082210619724893789 0 0.041081747620816261 -0.0058373267007966832 0 0.039817959568301392 -0.0074686491582262593 0 0.041309849662944619 -0.0082210619724893789 0 0.039817959568301392 -0.0074686491582262593 0 0.041309849662944619 -0.0082210619724893789 0 0.040283345583860902 -0.0091844930616146719 0 0.041309849662944619 -0.0082210619724893789 0 0.040283345583860902 -0.0091844930616146719 0 0.041053939304657949 -0.009469651365554237 0 0.040283345583860902 -0.0091844930616146719 0 0.041053939304657949 -0.009469651365554237 0 0.040613875878731082 -0.010486356895518753 0 0.041979294797411179 -0.0096085782011582632 0 0.041309849662944619 -0.0082210619724893789 0 0.041053939304657949 -0.009469651365554237 0 0.039817959568301392 -0.0074686491582262593 0 0.040283345583860902 -0.0091844930616146719 0 0.039050107960738462 -0.0090198416977621439 0 0.040283345583860902 -0.0091844930616146719 0 0.039050107960738462 -0.0090198416977621439 0 0.039264797048720067 -0.0098333511078339386 0 0.039050107960738462 -0.0090198416977621439 0 0.038436260372282011 -0.0097691624051695243 0 0.039264797048720067 -0.0098333511078339386 0 0.038436260372282011 -0.0097691624051695243 0 0.038061642066323793 -0.0090110779696565679 0 0.037086788991232043 -0.0091389382479526698 0 0.039050107960738462 -0.0090198416977621439 0 0.038436260372282011 -0.0097691624051695243 0 0.038061642066323793 -0.0090110779696565679 0 0.038436260372282011 -0.0097691624051695243 0 0.037086788991232043 -0.0091389382479526698 0 0.037975375551102308 -0.010654360674619187 0 0.039050107960738462 -0.0090198416977621439 0 0.038061642066323793 -0.0090110779696565679 0 0.03851923166054759 -0.0080719677719342901 0 0.038061642066323793 -0.0090110779696565679 0 0.037091704981656412 -0.0089318109490203086 0 0.03851923166054759 -0.0080719677719342901 0 0.038061642066323793 -0.0090110779696565679 0 0.037091704981656412 -0.0089318109490203086 0 0.037086788991232043 -0.0091389382479526698 0 0.032996461575261982 -0.0069426193196076647 0 0.032591555753054204 -0.0071728348936913582 0 0.033198169439448123 -0.0073653601192762005 0 0.033365158828783562 -0.006749523322011829 0 0.032996461575261982 -0.0069426193196076647 0 0.033198169439448123 -0.0073653601192762005 0 0.037091704981656412 -0.0089318109490203086 0 0.037086788991232043 -0.0091389382479526698 0 0.035838982428298416 -0.0071558638481936726 0 0.032996461575261982 -0.0069426193196076647 0 0.032591555753054204 -0.0071728348936913582 0 0.032848093004399427 -0.0065510228975218 0 0.033365158828783562 -0.006749523322011829 0 0.032996461575261982 -0.0069426193196076647 0 0.032848093004399427 -0.0065510228975218 0 0.035431417523965961 -0.008195174863878437 0 0.034489571020313914 -0.0062721632031404158 0 0.033365158828783562 -0.006749523322011829 0 0.032848093004399427 -0.0065510228975218 0 0.033273111918817884 -0.0057617219273307417 0 0.032848093004399427 -0.0065510228975218 0 0.033273111918817884 -0.0057617219273307417 0 0.03250054830610262 -0.0059474522232377761 0 0.037091704981656412 -0.0089318109490203086 0 0.035838982428298416 -0.0071558638481936726 0 0.039330578748194511 -0.0060600149207390309 0 0.037218959403198665 -0.0087634030105706792 0 0.038827543924277882 -0.0061753333512425913 0 0.037091704981656412 -0.0089318109490203086 0 0.03851923166054759 -0.0080719677719342901 0 0.038342272855850068 -0.0062962871647202099 0 0.0304045972017024 -0.006397698077834791 0 0.030838642513478093 -0.0073017815049701744 0 0.031354602882057693 -0.0063315189482432473 0 0.030838642513478093 -0.0073017815049701744 0 0.031957159510942655 -0.0068423506648210191 0 0.031354602882057693 -0.0063315189482432473 0 0.030838642513478093 -0.0073017815049701744 0 0.031957159510942655 -0.0068423506648210191 0 0.031658058240107978 -0.0076314794342837297 0 0.032591555753054204 -0.0071728348936913582 0 0.031957159510942655 -0.0068423506648210191 0 0.031658058240107978 -0.0076314794342837297 0 0.032591555753054204 -0.0071728348936913582 0 0.032848093004399427 -0.0065510228975218 0 0.031957159510942655 -0.0068423506648210191 0 0.032848093004399427 -0.0065510228975218 0 0.031957159510942655 -0.0068423506648210191 0 0.03250054830610262 -0.0059474522232377761 0 0.03250054830610262 -0.0059474522232377761 0 0.031354602882057693 -0.0063315189482432473 0 0.031664223962531428 -0.0052987835965443751 0 0.031957159510942655 -0.0068423506648210191 0 0.03250054830610262 -0.0059474522232377761 0 0.031354602882057693 -0.0063315189482432473 0 0.031354602882057693 -0.0063315189482432473 0 0.03088643846334067 -0.0057228143306920463 0 0.031664223962531428 -0.0052987835965443751 0 0.0304045972017024 -0.006397698077834791 0 0.031354602882057693 -0.0063315189482432473 0 0.03088643846334067 -0.0057228143306920463 0 0.030040808702404505 -0.0046880280534787912 0 0.03088643846334067 -0.0057228143306920463 0 0.031664223962531428 -0.0052987835965443751 0 0.030040808702404505 -0.0046880280534787912 0 0.031664223962531428 -0.0052987835965443751 0 0.031751520746754573 -0.0033638205063696584 0 0.033273111918817884 -0.0057617219273307417 0 0.03250054830610262 -0.0059474522232377761 0 0.033817567475486664 -0.0044048337713173714 0 0.031664223962531428 -0.0052987835965443751 0 0.033817567475486664 -0.0044048337713173714 0 0.031751520746754573 -0.0033638205063696584 0 0.03250054830610262 -0.0059474522232377761 0 0.031664223962531428 -0.0052987835965443751 0 0.033817567475486664 -0.0044048337713173714 0 0.033817567475486664 -0.0044048337713173714 0 0.031751520746754573 -0.0033638205063696584 0 0.03471991064108372 -0.00070413982947086873 0 0.030040808702404505 -0.0046880280534787912 0 0.031751520746754573 -0.0033638205063696584 0 0.030630032666642881 -0.0010743028950863387 0 0.035838982428298416 -0.0071558638481936726 0 0.039330578748194511 -0.0060600149207390309 0 0.037711696558646868 -0.0034567448503818759 0 0.035838982428298416 -0.0071558638481936726 0 0.033817567475486664 -0.0044048337713173714 0 0.037711696558646868 -0.0034567448503818759 0 0.034489571020313914 -0.0062721632031404158 0 0.033796894306669628 -0.0045489532551848677 0 0.033817567475486664 -0.0044048337713173714 0 0.037711696558646868 -0.0034567448503818759 0 0.03471991064108372 -0.00070413982947086873 0 0.041536736364310892 -0.0024259138309017944 0 0.039330578748194511 -0.0060600149207390309 0 0.037711696558646868 -0.0034567448503818759 0 0.041536736364310892 -0.0024259138309017944 0 0.037711696558646868 -0.0034567448503818759 0 0.040332525251298816 -0.0011414747481694127 0 0.040332525251298816 -0.0011414747481694127 0 0.040888247636298072 -0.0010533138164421797 0 0.040983593236548134 -0.0010555677342018134 0 0.040332525251298816 -0.0011414747481694127 0 0.040978215387055858 -0.0010299799029910742 0 0.040888247636298072 -0.0010533138164421797 0 0.037711696558646868 -0.0034567448503818759 0 0.040332525251298816 -0.0011414747481694127 0 0.03471991064108372 -0.00070413982947086873 0 0.040040058948789772 -0.0011444765167912313 0 0.038216152504620841 -0.00069467140996001798 0 0.040978215387055858 -0.0010299799029910742 0 0.041054677932584813 -0.00092629934536424382 0 0.040888247636298072 -0.0010533138164421797 0 0.040888247636298072 -0.0010533138164421797 0 0.040983593236548134 -0.0010555677342018134 0 0.041256926692617477 -0.00095706776148229988 0 0.031751520746754573 -0.0033638205063696584 0 0.03471991064108372 -0.00070413982947086873 0 0.030630032666642881 -0.0010743028950863387 0 0.040978215387055858 -0.0010299799029910742 0 0.040619988557426871 -0.0011040326842554676 0 0.040727856494001541 -0.00090253705146689002 0 0.038216152504620841 -0.00069467140996001798 0 0.034244512792435435 -0.0026105251037867863 0 0.040978215387055858 -0.0010299799029910742 0 0.041054677932584813 -0.00092629934536424382 0 0.040727856494001541 -0.00090253705146689002 0 0.041353364504846238 -0.00081204485341325103 0 0.04012984890290177 -0.0012836633594684463 0 0.034244512792435435 -0.0026105251037867863 0 0.04012984890290177 -0.0012836633594684463 0 0.04012984890290177 -0.0012836633594684463 0 0.042851061575595262 -0.00086745410574669561 0 0.043755076407011428 -0.0014332789815496003 0 0.04402377171549382 -0.0016387717438616774 0 0.044099506558908159 -0.0011308583476314937 0 0.040970359305540549 -0.0009312676622118581 0 0.041185299841986024 -0.00077042957022097503 0 0.041067510268605049 -0.00071806305695651992 0 0.041054677932584813 -0.00092629934536424382 0 0.040970359305540549 -0.0009312676622118581 0 0.041185299841986024 -0.00077042957022097503 0 0.041550157534654943 -0.00043513124578367732 0 0.041393065341844969 -0.00036704462718932702 0 0.041185299841986024 -0.00077042957022097503 0 0.041393065341844969 -0.00036704462718932702 0 0.041185299841986024 -0.00077042957022097503 0 0.041067510268605049 -0.00071806305695651992 0 0.042698117078914098 -0.00056845262876733659 0 0.042851061575595262 -0.00086745410574669561 0 0.043771805005490008 -0.00094668572247446909 0 0.044074395337879019 -0.00066956066603542064 0 0.044099506558908159 -0.0011308583476314937 0 0.040888247636298072 -0.0010533138164421797 0 0.041299984318371528 -0.00079021480564276877 0 0.041256926692617477 -0.00095706776148229988 0 0.041054677932584813 -0.00092629934536424382 0 0.041185299841986024 -0.00077042957022097503 0 0.041299984318371528 -0.00079021480564276877 0 0.041054677932584813 -0.00092629934536424382 0 0.040888247636298072 -0.0010533138164421797 0 0.041299984318371528 -0.00079021480564276877 0 0.041550157534654943 -0.00043513124578367732 0 0.041185299841986024 -0.00077042957022097503 0 0.041402551732927617 -0.00063533127982370559 0 0.041185299841986024 -0.00077042957022097503 0 0.041299984318371528 -0.00079021480564276877 0 0.041402551732927617 -0.00063533127982370559 0 0.041649187525002365 -0.00047677503576210218 0 0.041299984318371528 -0.00079021480564276877 0 0.041402551732927617 -0.00063533127982370559 0 0.041649187525002365 -0.00047677503576210218 0 0.041550157534654943 -0.00043513124578367732 0 0.041402551732927617 -0.00063533127982370559 0 0.041649187525002365 -0.00047677503576210218 0 0.041299984318371528 -0.00079021480564276877 0 0.041701350812901369 -0.00060498022046226278 0 0.042018521282555885 -0.00030542740492508629 0 0.041701350812901369 -0.00060498022046226278 0 0.041971389957605944 -0.00066491200947845332 0 0.041701350812901369 -0.00060498022046226278 0 0.041599895921813013 -0.00080271656443829578 0 0.041971389957605944 -0.00066491200947845332 0 0.041299984318371528 -0.00079021480564276877 0 0.041599895921813013 -0.00080271656443829578 0 0.041256926692617477 -0.00095706776148229988 0 0.041299984318371528 -0.00079021480564276877 0 0.041701350812901369 -0.00060498022046226278 0 0.041599895921813013 -0.00080271656443829578 0 0.041599895921813013 -0.00080271656443829578 0 0.041256926692617477 -0.00095706776148229988 0 0.041570467695201931 -0.0010132988194956314 0 0.04195717404358805 -0.00088296933314217828 0 0.041971389957605944 -0.00066491200947845332 0 0.042436341407186239 -0.00073876191556133215 0 0.04195717404358805 -0.00088296933314217828 0 0.042234899464143792 -0.00095890816288120718 0 0.041925058059515186 -0.0010613497840869924 0 0.04195717404358805 -0.00088296933314217828 0 0.041570467695201931 -0.0010132988194956314 0 0.041925058059515186 -0.0010613497840869924 0 0.041599895921813013 -0.00080271656443829578 0 0.04195717404358805 -0.00088296933314217828 0 0.041570467695201931 -0.0010132988194956314 0 0.041599895921813013 -0.00080271656443829578 0 0.04195717404358805 -0.00088296933314217828 0 0.041971389957605944 -0.00066491200947845332 0 0.041971389957605944 -0.00066491200947845332 0 0.042354707121140117 -0.00051339639720443216 0 0.042436341407186239 -0.00073876191556133215 0 0.042018521282555885 -0.00030542740492508629 0 0.041971389957605944 -0.00066491200947845332 0 0.042354707121140117 -0.00051339639720443216 0 0.042823181701637299 -0.00046101017287706973 0 0.042962971696935033 -0.00059018302265907371 0 0.042436341407186239 -0.00073876191556133215 0 0.042823181701637299 -0.00046101017287706973 0 0.042354707121140117 -0.00051339639720443216 0 0.042436341407186239 -0.00073876191556133215 0 0.042962971696935033 -0.00059018302265907371 0 0.042569664782155778 -0.00094082389093651101 0 0.042867880757662874 -0.0012383937382101373 0 0.044143234999094207 -0.00036592349415973937 0 0.044261650437201858 -0.00045286395149538077 0 0.044420433882567653 2.4693718177982453e-06 0 0.043883274974834754 -0.00028301405586199911 0 0.041595726014700872 -0.0015627766635075964 0 0.042962971696935033 -0.00059018302265907371 0 0.042436341407186239 -0.00073876191556133215 0 0.042569664782155778 -0.00094082389093651101 0 0.042436341407186239 -0.00073876191556133215 0 0.042569664782155778 -0.00094082389093651101 0 0.042234899464143792 -0.00095890816288120718 0 0.04195717404358805 -0.00088296933314217828 0 0.042436341407186239 -0.00073876191556133215 0 0.042234899464143792 -0.00095890816288120718 0 0.042569664782155778 -0.00094082389093651101 0 0.042234899464143792 -0.00095890816288120718 0 0.042244519395954971 -0.0011505487066516356 0 0.042569664782155778 -0.00094082389093651101 0 0.042244519395954971 -0.0011505487066516356 0 0.042867880757662874 -0.0012383937382101373 0 0.042244519395954971 -0.0011505487066516356 0 0.042867880757662874 -0.0012383937382101373 0 0.041771013308397061 -0.0014299180682305146 0 0.044252089315517495 -0.00071872865895427262 0 0.043130361039346948 -0.0018324480496885794 0 0.041771013308397061 -0.0014299180682305146 0 0.042234899464143792 -0.00095890816288120718 0 0.042244519395954971 -0.0011505487066516356 0 0.041925058059515186 -0.0010613497840869924 0 0.041595726014700872 -0.0015627766635075964 0 0.042712625318209893 -0.0011579423784360784 0 0.034550270960039084 -0.0024049107857670661 0 0.034423702228249614 -0.0022546839579550737 0 0.034349263645950999 -0.002514330135775416 0 0.041595726014700872 -0.0015627766635075964 0 0.039062301690878265 -0.0027292890311204428 0 0.044252089315517495 -0.00071872865895427262 0 0.044206472578179216 -0.0028922725573491434 0 0.043130361039346948 -0.0018324480496885794 0 0.043130361039346948 -0.0018324480496885794 0 0.042311695108084926 -0.0024359019459380942 0 0.041771013308397061 -0.0014299180682305146 0 0.042030478740321661 -0.0036594021066706553 0 0.044206472578179216 -0.0028922725573491434 0 0.042311695108084926 -0.0024359019459380942 0 0.044206472578179216 -0.0028922725573491434 0 0.043130361039346948 -0.0018324480496885794 0 0.042311695108084926 -0.0024359019459380942 0 0.041536736364310892 -0.0024259138309017944 0 0.041722335965012902 -0.0012881031326742575 0 0.04148126220922338 -0.0012856583002560011 0 0.039856343409739516 -0.0037185892413679421 0 0.041075483617278155 -0.0028839817845835868 0 0.041722335965012902 -0.0012881031326742575 0 0.040676494417264716 -0.0030979333236496459 0 0.041652936238480445 -0.0014107828790683972 0 0.042311695108084926 -0.0024359019459380942 0 0.041715564951306489 -0.0020061192158151715 0 0.041075483617278155 -0.0028839817845835868 0 0.042030478740321661 -0.0036594021066706553 0 0.042311695108084926 -0.0024359019459380942 0 0.041075483617278155 -0.0028839817845835868 0 0.042311695108084926 -0.0024359019459380942 0 0.041715564951306489 -0.0020061192158151715 0 0.041771013308397061 -0.0014299180682305146 0 0.041715564951306489 -0.0020061192158151715 0 0.041075483617278155 -0.0028839817845835868 0 0.041722335965012902 -0.0012881031326742575 0 0.041536736364310892 -0.0024259138309017944 0 0.040332525251298816 -0.0011414747481694127 0 0.040983593236548134 -0.0010555677342018134 0 0.041536736364310892 -0.0024259138309017944 0 0.040983593236548134 -0.0010555677342018134 0 0.04148126220922338 -0.0012856583002560011 0 0.040983593236548134 -0.0010555677342018134 0 0.041570467695201931 -0.0010132988194956314 0 0.04148126220922338 -0.0012856583002560011 0 0.040983593236548134 -0.0010555677342018134 0 0.041256926692617477 -0.00095706776148229988 0 0.041570467695201931 -0.0010132988194956314 0 0.041570467695201931 -0.0010132988194956314 0 0.041704557128980649 -0.0011611455128648109 0 0.041925058059515186 -0.0010613497840869924 0 0.042244519395954971 -0.0011505487066516356 0 0.041925058059515186 -0.0010613497840869924 0 0.041865286033121396 -0.0012100693373487039 0 0.041704557128980649 -0.0011611455128648109 0 0.041925058059515186 -0.0010613497840869924 0 0.041865286033121396 -0.0012100693373487039 0 0.041704557128980649 -0.0011611455128648109 0 0.041865286033121396 -0.0012100693373487039 0 0.041722335965012902 -0.0012881031326742575 0 0.042244519395954971 -0.0011505487066516356 0 0.041865286033121396 -0.0012100693373487039 0 0.041771013308397061 -0.0014299180682305146 0 0.041865286033121396 -0.0012100693373487039 0 0.041722335965012902 -0.0012881031326742575 0 0.041771013308397061 -0.0014299180682305146 0 0.041715564951306489 -0.0020061192158151715 0 0.041722335965012902 -0.0012881031326742575 0 0.041771013308397061 -0.0014299180682305146 0 0.041570467695201931 -0.0010132988194956314 0 0.041704557128980649 -0.0011611455128648109 0 0.04148126220922338 -0.0012856583002560011 0 0.041704557128980649 -0.0011611455128648109 0 0.041722335965012902 -0.0012881031326742575 0 0.04148126220922338 -0.0012856583002560011 0 0.034833449523575914 -8.4830841136876038e-05 0 0.035500719296042982 -0.00024537770226904843 0 0.036674506727877615 -0.00038263674869368572 0 0.036417770959797972 -4.7806335770901505e-07 0 0.034833449523575914 -8.4830841136876038e-05 0 0.036674506727877615 -0.00038263674869368572 0 0.033814217227184744 3.0293873378752856e-08 0 0.034833449523575914 -8.4830841136876038e-05 0 0.03313159552852335 0.00028263395242117916 0 0.036417770959797972 -4.7806335770901505e-07 0 0.033814217227184744 3.0293873378752856e-08 0 0.034833449523575914 -8.4830841136876038e-05 0 0.034833449523575914 -8.4830841136876038e-05 0 0.035500719296042982 -0.00024537770226904843 0 0.03313159552852335 0.00028263395242117916 0 0.036242715976375732 0.00012185599091059505 0 0.035500719296042982 -0.00024537770226904843 0 0.03313159552852335 0.00028263395242117916 0 0.036242715976375732 0.00012185599091059505 0 0.035500719296042982 -0.00024537770226904843 0 0.036756016192628548 -0.00072487145483597323 0 0.036242715976375732 0.00012185599091059505 0 0.036756016192628548 -0.00072487145483597323 0 0.037626726918476294 -0.00031624446537722149 0 0.035500719296042982 -0.00024537770226904843 0 0.036756016192628548 -0.00072487145483597323 0 0.036674506727877615 -0.00038263674869368572 0 0.036756016192628548 -0.00072487145483597323 0 0.037350526242819947 -0.0010756241203209269 0 0.037626726918476294 -0.00031624446537722149 0 0.036756016192628548 -0.00072487145483597323 0 0.037639558935891576 -0.00054514485906585416 0 0.037350526242819947 -0.0010756241203209269 0 0.036756016192628548 -0.00072487145483597323 0 0.037878949945170375 -0.00047312136057907497 0 0.036674506727877615 -0.00038263674869368572 0 0.036756016192628548 -0.00072487145483597323 0 0.037878949945170375 -0.00047312136057907497 0 0.037639558935891576 -0.00054514485906585416 0 0.037878949945170375 -0.00047312136057907497 0 0.036674506727877615 -0.00038263674869368572 0 0.039020671731548266 -7.013440029716547e-07 0 0.036417770959797972 -4.7806335770901505e-07 0 0.036674506727877615 -0.00038263674869368572 0 0.039020671731548266 -7.013440029716547e-07 0 0.039020671731548266 -7.013440029716547e-07 0 0.039444760207194382 -0.00016016544820449908 0 0.041624861735574177 -9.9187410002159791e-07 0 0.037878949945170375 -0.00047312136057907497 0 0.039020671731548266 -7.013440029716547e-07 0 0.039444760207194382 -0.00016016544820449908 0 0.039444760207194382 -0.00016016544820449908 0 0.041624861735574177 -9.9187410002159791e-07 0 0.040183044579945752 0.00078724988929299998 0 0.044876336810023468 5.2160092811504964e-06 0 0.044996288146705719 -1.1383667057971455e-06 0 0.045000845920247244 2.899434882643689e-07 0 0.041624861735574177 -9.9187410002159791e-07 0 0.040183044579945752 0.00078724988929299998 0 0.044223777048375955 3.6209791147165522e-06 0 0.042462585017770622 0.00027003043179080059 0 0.044227682496937717 8.9171660975738687e-08 0 0.044876336810023468 5.2160092811504964e-06 0 0.044234613947828419 1.8032778484557493e-06 0 0.044996288146705719 -1.1383667057971455e-06 0 0.045000845920247244 2.899434882643689e-07 0 0.044943894571054396 1.3471390071578692e-05 0 0.044967890222778098 2.1580137568946259e-06 0 0.044876336810023468 5.2160092811504964e-06 0 0.045000845920247244 2.899434882643689e-07 0 0.044943894571054396 1.3471390071578692e-05 0 0.042462585017770622 0.00027003043179080059 0 0.041490047224401257 0.00034039839669568569 0 0.041490047224401257 0.00034039839669568569 0 0.041312996033556759 -0.0012182239218831413 0 0.038032925566411531 0.00040531609115944145 0 0.037639558935891576 -0.00054514485906585416 0 0.037037261450587486 -0.0001658966193100094 0 0.039444760207194382 -0.00016016544820449908 0 0.040183044579945752 0.00078724988929299998 0 0.038032925566411531 0.00040531609115944145 0 0.039444760207194382 -0.00016016544820449908 0 0.038032925566411531 0.00040531609115944145 0 0.037639558935891576 -0.00054514485906585416 0 0.037878949945170375 -0.00047312136057907497 0 0.039444760207194382 -0.00016016544820449908 0 0.037639558935891576 -0.00054514485906585416 0 0.037873935523379754 -0.004254786124373253 0 0.038991745775181059 -0.0020431654067639151 0 0.037350526242819947 -0.0010756241203209269 0 0.037639558935891576 -0.00054514485906585416 0 0.037037261450587486 -0.0001658966193100094 0 0.037350526242819947 -0.0010756241203209269 0 0.041312996033556759 -0.0012182239218831413 0 0.036251760667131365 -0.0014466993312519138 0 0.039895540874645571 -0.0033760720607456957 0 0.037873935523379754 -0.004254786124373253 0 0.038991745775181059 -0.0020431654067639151 0 0.042087833029100775 -0.0023458915204390817 0 0.041312996033556759 -0.0012182239218831413 0 0.039895540874645571 -0.0033760720607456957 0 0.040465472792504724 -0.0016640556672522816 0 0.038991745775181059 -0.0020431654067639151 0 0.044377982010224713 -0.0012090907460658828 0 0.045120466159397278 -0.00088956385918163101 0 0.044733839790171155 -0.00051997038010609907 0 0.044377982010224713 -0.0012090907460658828 0 0.044733839790171155 -0.00051997038010609907 0 0.04438115548000101 -0.00037276395342321583 0 0.045120466159397278 -0.00088956385918163101 0 0.045024435458839732 -0.0002714357427409499 0 0.044733839790171155 -0.00051997038010609907 0 0.044943894571054396 1.3471390071578692e-05 0 0.044929066507574916 -6.76539336625559e-06 0 0.044967890222778098 2.1580137568946259e-06 0 0.041312996033556759 -0.0012182239218831413 0 0.045250209917800384 -7.4513370132538141e-05 0 0.045000845920247244 2.899434882643689e-07 0 0.044967890222778098 2.1580137568946259e-06 0 0.044999514436515411 -1.4173902352370994e-07 0 0.045024435458839732 -0.0002714357427409499 0 0.044733839790171155 -0.00051997038010609907 0 0.044815148901227272 -0.00013958029784053055 0 0.044733839790171155 -0.00051997038010609907 0 0.044815148901227272 -0.00013958029784053055 0 0.04438115548000101 -0.00037276395342321583 0 0.045024435458839732 -0.0002714357427409499 0 0.044815148901227272 -0.00013958029784053055 0 0.045000128722977456 -3.4115582240064885e-08 0 0.044815148901227272 -0.00013958029784053055 0 0.045000128722977456 -3.4115582240064885e-08 0 0.044999172954844277 -8.6501157236765285e-08 0 0.045250209917800384 -7.4513370132538141e-05 0 0.044999929252038114 -6.4967299314044455e-08 0 0.044999172954844277 -8.6501157236765285e-08 0 0.04438115548000101 -0.00037276395342321583 0 0.044409346148905661 -0.00027867369746282107 0 0.044999172954844277 -8.6501157236765285e-08 0 0.044409346148905661 -0.00027867369746282107 0 0.04499903858324257 -2.6755243098277602e-07 0 0.044815148901227272 -0.00013958029784053055 0 0.044999172954844277 -8.6501157236765285e-08 0 0.04438115548000101 -0.00037276395342321583 0 0.04438115548000101 -0.00037276395342321583 0 0.044409346148905661 -0.00027867369746282107 0 0.043553177394071219 -0.00082780367988142145 0 0.044409346148905661 -0.00027867369746282107 0 0.043553177394071219 -0.00082780367988142145 0 0.043885339974013025 -0.00059538494781058145 0 0.044377982010224713 -0.0012090907460658828 0 0.04438115548000101 -0.00037276395342321583 0 0.043553177394071219 -0.00082780367988142145 0 0.044377982010224713 -0.0012090907460658828 0 0.043553177394071219 -0.00082780367988142145 0 0.042675753145622192 -0.0017155308866805394 0 0.039895540874645571 -0.0033760720607456957 0 0.042675753145622192 -0.0017155308866805394 0 0.040465472792504724 -0.0016640556672522816 0 0.042087833029100775 -0.0023458915204390817 0 0.042674415877459917 -0.0017959901449755564 0 0.043553177394071219 -0.00082780367988142145 0 0.042675753145622192 -0.0017155308866805394 0 0.043222912862192472 -0.0010069394705977302 0 0.042675753145622192 -0.0017155308866805394 0 0.041932103297409748 -0.00088614268950906283 0 0.042609844296369416 -0.00090578229567473475 0 0.042675753145622192 -0.0017155308866805394 0 0.042609844296369416 -0.00090578229567473475 0 0.043222912862192472 -0.0010069394705977302 0 0.041932103297409748 -0.00088614268950906283 0 0.0418131688394335 -0.00052259970748314455 0 0.042609844296369416 -0.00090578229567473475 0 0.0418131688394335 -0.00052259970748314455 0 0.042159623208622279 -0.00042129368701891983 0 0.042609844296369416 -0.00090578229567473475 0 0.041932103297409748 -0.00088614268950906283 0 0.0418131688394335 -0.00052259970748314455 0 0.041177020563881686 -0.00051459345142956814 0 0.0418131688394335 -0.00052259970748314455 0 0.041177020563881686 -0.00051459345142956814 0 0.04115316553486869 -0.00018198364620221696 0 0.0418131688394335 -0.00052259970748314455 0 0.041530344536205958 -0.00021371088754639858 0 0.042159623208622279 -0.00042129368701891983 0 0.040387904055330076 -0.00048518464577761541 0 0.039287834482285587 -3.9068556120072674e-05 0 0.040507944126416402 -0.0001147642549625798 0 0.040387904055330076 -0.00048518464577761541 0 0.041177020563881686 -0.00051459345142956814 0 0.040507944126416402 -0.0001147642549625798 0 0.041177020563881686 -0.00051459345142956814 0 0.04115316553486869 -0.00018198364620221696 0 0.040507944126416402 -0.0001147642549625798 0 0.041932103297409748 -0.00088614268950906283 0 0.041177020563881686 -0.00051459345142956814 0 0.041052412595170368 -0.00097348153834178662 0 0.040387904055330076 -0.00048518464577761541 0 0.041177020563881686 -0.00051459345142956814 0 0.041052412595170368 -0.00097348153834178662 0 0.040387904055330076 -0.00048518464577761541 0 0.041052412595170368 -0.00097348153834178662 0 0.039383201542042813 -0.00081540395561626746 0 0.042675753145622192 -0.0017155308866805394 0 0.041052412595170368 -0.00097348153834178662 0 0.040465472792504724 -0.0016640556672522816 0 0.041052412595170368 -0.00097348153834178662 0 0.040465472792504724 -0.0016640556672522816 0 0.039383201542042813 -0.00081540395561626746 0 0.042675753145622192 -0.0017155308866805394 0 0.041932103297409748 -0.00088614268950906283 0 0.041052412595170368 -0.00097348153834178662 0 0.040465472792504724 -0.0016640556672522816 0 0.038991745775181059 -0.0020431654067639151 0 0.039383201542042813 -0.00081540395561626746 0 0.038991745775181059 -0.0020431654067639151 0 0.037350526242819947 -0.0010756241203209269 0 0.039383201542042813 -0.00081540395561626746 0 0.037350526242819947 -0.0010756241203209269 0 0.037626726918476294 -0.00031624446537722149 0 0.039383201542042813 -0.00081540395561626746 0 0.040387904055330076 -0.00048518464577761541 0 0.039383201542042813 -0.00081540395561626746 0 0.039287834482285587 -3.9068556120072674e-05 0 0.037626726918476294 -0.00031624446537722149 0 0.039383201542042813 -0.00081540395561626746 0 0.039287834482285587 -3.9068556120072674e-05 0 0.037626726918476294 -0.00031624446537722149 0 0.039287834482285587 -3.9068556120072674e-05 0 0.037768258205648192 0.00098482669843858524 0 0.039287834482285587 -3.9068556120072674e-05 0 0.037768258205648192 0.00098482669843858524 0 0.040369406388091694 0.00042066230684195108 0 0.036242715976375732 0.00012185599091059505 0 0.037626726918476294 -0.00031624446537722149 0 0.037768258205648192 0.00098482669843858524 0 0.036242715976375732 0.00012185599091059505 0 0.037768258205648192 0.00098482669843858524 0 0.034996605874853141 0.0010668207864057066 0 0.033359250846048155 0.00032769309583493509 0 0.035873293240201609 -9.5755397043872532e-05 0 0.029025883917115507 -0.00025250428583396817 0 0.030090398476535236 -0.00035102789966882079 0 0.030182002038011607 -0.0009243514336460028 0 0.029025883917115507 -0.00025250428583396817 0 0.030090398476535236 -0.00035102789966882079 0 0.029473064031883749 -8.1556969365874601e-05 0 0.030090398476535236 -0.00035102789966882079 0 0.030973065365839797 -0.00057905628651196161 0 0.030182002038011607 -0.0009243514336460028 0 0.030090398476535236 -0.00035102789966882079 0 0.030973065365839797 -0.00057905628651196161 0 0.030618346963610318 -0.00016703380072901635 0 0.03614971806979337 -0.00037555049005357535 0 0.035873293240201609 -9.5755397043872532e-05 0 0.04153325069077024 -3.1059602606107723e-05 0 0.041530344536205958 -0.00021371088754639858 0 0.042159623208622279 -0.00042129368701891983 0 0.04153325069077024 -3.1059602606107723e-05 0 0.041530344536205958 -0.00021371088754639858 0 0.04071641030213656 -9.727240449219454e-05 0 0.0418131688394335 -0.00052259970748314455 0 0.041530344536205958 -0.00021371088754639858 0 0.04115316553486869 -0.00018198364620221696 0 0.041530344536205958 -0.00021371088754639858 0 0.04115316553486869 -0.00018198364620221696 0 0.04071641030213656 -9.727240449219454e-05 0 0.0398662757725506 -0.0013184181370173957 0 0.035873293240201609 -9.5755397043872532e-05 0 0.04115316553486869 -0.00018198364620221696 0 0.040369406388091694 0.00042066230684195108 0 0.040507944126416402 -0.0001147642549625798 0 0.039287834482285587 -3.9068556120072674e-05 0 0.040369406388091694 0.00042066230684195108 0 0.040507944126416402 -0.0001147642549625798 0 0.042448576663593737 -0.00029904137484857216 0 0.0427500624516476 -0.00021001237779956223 0 0.042974198125205428 -0.00041603103069734883 0 0.042448576663593737 -0.00029904137484857216 0 0.042178676473359156 9.3462527281903209e-06 0 0.0427500624516476 -0.00021001237779956223 0 0.04153325069077024 -3.1059602606107723e-05 0 0.042448576663593737 -0.00029904137484857216 0 0.042178676473359156 9.3462527281903209e-06 0 0.04153325069077024 -3.1059602606107723e-05 0 0.042448576663593737 -0.00029904137484857216 0 0.042159623208622279 -0.00042129368701891983 0 0.03614971806979337 -0.00037555049005357535 0 0.036720976610807539 -9.6652467239395295e-05 0 0.030973065365839797 -0.00057905628651196161 0 0.031477615349264514 -0.00041789742260701788 0 0.030618346963610318 -0.00016703380072901635 0 0.042178676473359156 9.3462527281903209e-06 0 0.0427500624516476 -0.00021001237779956223 0 0.042742955303431203 0.00012954115727606058 0 0.036720976610807539 -9.6652467239395295e-05 0 0.038524760361314338 -0.0017086089397460441 0 0.043434858807342984 -0.00090511364351485667 0 0.043121958823497328 -0.0020665728629803422 0 0.044076120872246653 -0.0016351971725250662 0 0.043004942757613115 -0.00016122362541839646 0 0.0427500624516476 -0.00021001237779956223 0 0.042742955303431203 0.00012954115727606058 0 0.043330351930338053 -0.00096019291962419788 0 0.038524760361314338 -0.0017086089397460441 0 0.043434858807342984 -0.00090511364351485667 0 0.042967626564338182 -0.0003836895709054221 0 0.042317636081665902 -0.0011089269825601922 0 0.043434858807342984 -0.00090511364351485667 0 0.042317636081665902 -0.0011089269825601922 0 0.043121958823497328 -0.0020665728629803422 0 0.043330351930338053 -0.00096019291962419788 0 0.042912310249463598 -0.00030760139227161771 0 0.042967626564338182 -0.0003836895709054221 0 0.043009783530737519 -0.00033714182594745567 0 0.043173754716868969 -0.00037479307940845285 0 0.043004942757613115 -0.00016122362541839646 0 0.042967626564338182 -0.0003836895709054221 0 0.043009783530737519 -0.00033714182594745567 0 0.043009783530737519 -0.00033714182594745567 0 0.042974198125205428 -0.00041603103069734883 0 0.043173754716868969 -0.00037479307940845285 0 0.0427500624516476 -0.00021001237779956223 0 0.043009783530737519 -0.00033714182594745567 0 0.042974198125205428 -0.00041603103069734883 0 0.043004942757613115 -0.00016122362541839646 0 0.0427500624516476 -0.00021001237779956223 0 0.043009783530737519 -0.00033714182594745567 0 0.042974198125205428 -0.00041603103069734883 0 0.043173754716868969 -0.00037479307940845285 0 0.043250716555318085 -0.00054484501864807177 0 0.043173754716868969 -0.00037479307940845285 0 0.043314329647233869 -0.00034009720398975172 0 0.043007139298957164 -0.00028288702946246763 0 0.042967626564338182 -0.0003836895709054221 0 0.043173754716868969 -0.00037479307940845285 0 0.043007139298957164 -0.00028288702946246763 0 0.04344624619745021 -0.00044871755682601694 0 0.043314329647233869 -0.00034009720398975172 0 0.043691838678315102 -0.00034575253960581343 0 0.043173754716868969 -0.00037479307940845285 0 0.04344624619745021 -0.00044871755682601694 0 0.043314329647233869 -0.00034009720398975172 0 0.043173754716868969 -0.00037479307940845285 0 0.04344624619745021 -0.00044871755682601694 0 0.043250716555318085 -0.00054484501864807177 0 0.04344624619745021 -0.00044871755682601694 0 0.043250716555318085 -0.00054484501864807177 0 0.043668928241275273 -0.00054140780008540737 0 0.043250716555318085 -0.00054484501864807177 0 0.043246435473175263 -0.00075428346245060387 0 0.043668928241275273 -0.00054140780008540737 0 0.043250716555318085 -0.00054484501864807177 0 0.043246435473175263 -0.00075428346245060387 0 0.04283922317365163 -0.00062685846282503762 0 0.042448576663593737 -0.00029904137484857216 0 0.042974198125205428 -0.00041603103069734883 0 0.04283922317365163 -0.00062685846282503762 0 0.042974198125205428 -0.00041603103069734883 0 0.043250716555318085 -0.00054484501864807177 0 0.04283922317365163 -0.00062685846282503762 0 0.04283922317365163 -0.00062685846282503762 0 0.042159623208622279 -0.00042129368701891983 0 0.042609844296369416 -0.00090578229567473475 0 0.042448576663593737 -0.00029904137484857216 0 0.04283922317365163 -0.00062685846282503762 0 0.042159623208622279 -0.00042129368701891983 0 0.043246435473175263 -0.00075428346245060387 0 0.04283922317365163 -0.00062685846282503762 0 0.042609844296369416 -0.00090578229567473475 0 0.043246435473175263 -0.00075428346245060387 0 0.042609844296369416 -0.00090578229567473475 0 0.043222912862192472 -0.0010069394705977302 0 0.043246435473175263 -0.00075428346245060387 0 0.043222912862192472 -0.0010069394705977302 0 0.043646378678369263 -0.00067077923275593544 0 0.043246435473175263 -0.00075428346245060387 0 0.043646378678369263 -0.00067077923275593544 0 0.043668928241275273 -0.00054140780008540737 0 0.043646378678369263 -0.00067077923275593544 0 0.043885339974013025 -0.00059538494781058145 0 0.0442636959634145 -0.00034606255806621613 0 0.043646378678369263 -0.00067077923275593544 0 0.0442636959634145 -0.00034606255806621613 0 0.043668928241275273 -0.00054140780008540737 0 0.043553177394071219 -0.00082780367988142145 0 0.043222912862192472 -0.0010069394705977302 0 0.043885339974013025 -0.00059538494781058145 0 0.043222912862192472 -0.0010069394705977302 0 0.043646378678369263 -0.00067077923275593544 0 0.043885339974013025 -0.00059538494781058145 0 0.044409346148905661 -0.00027867369746282107 0 0.043885339974013025 -0.00059538494781058145 0 0.044431922447641693 -0.00028077346900368837 0 0.043885339974013025 -0.00059538494781058145 0 0.044431922447641693 -0.00028077346900368837 0 0.0442636959634145 -0.00034606255806621613 0 0.044431922447641693 -0.00028077346900368837 0 0.04499903858324257 -2.6755243098277602e-07 0 0.044999198294827084 -1.9899215944367973e-07 0 0.044409346148905661 -0.00027867369746282107 0 0.044431922447641693 -0.00028077346900368837 0 0.04499903858324257 -2.6755243098277602e-07 0 0.044999198294827084 -1.9899215944367973e-07 0 0.044523649003101469 -0.0001938991123347199 0 0.044999256423782177 -1.211011637740726e-07 0 0.044431922447641693 -0.00028077346900368837 0 0.044999198294827084 -1.9899215944367973e-07 0 0.0442636959634145 -0.00034606255806621613 0 0.044999198294827084 -1.9899215944367973e-07 0 0.0442636959634145 -0.00034606255806621613 0 0.044523649003101469 -0.0001938991123347199 0 0.0442636959634145 -0.00034606255806621613 0 0.044523649003101469 -0.0001938991123347199 0 0.044041083492065793 -0.00035573826268813771 0 0.044523649003101469 -0.0001938991123347199 0 0.044041083492065793 -0.00035573826268813771 0 0.044152695070374517 -0.00026985603081928946 0 0.044041083492065793 -0.00035573826268813771 0 0.043691838678315102 -0.00034575253960581343 0 0.044152695070374517 -0.00026985603081928946 0 0.0442636959634145 -0.00034606255806621613 0 0.044041083492065793 -0.00035573826268813771 0 0.043668928241275273 -0.00054140780008540737 0 0.044041083492065793 -0.00035573826268813771 0 0.043668928241275273 -0.00054140780008540737 0 0.043691838678315102 -0.00034575253960581343 0 0.04344624619745021 -0.00044871755682601694 0 0.043668928241275273 -0.00054140780008540737 0 0.043691838678315102 -0.00034575253960581343 0 0.043691838678315102 -0.00034575253960581343 0 0.043501019308008038 -0.00025679490038740355 0 0.04394447874628004 -0.000259473278838742 0 0.043501019308008038 -0.00025679490038740355 0 0.04394447874628004 -0.000259473278838742 0 0.04369510615923123 -0.00025950425600883417 0 0.04394447874628004 -0.000259473278838742 0 0.044540533193748934 -0.00015016990899105473 0 0.044264669542483717 -0.00021261116880884088 0 0.04394447874628004 -0.000259473278838742 0 0.044152695070374517 -0.00026985603081928946 0 0.044540533193748934 -0.00015016990899105473 0 0.043691838678315102 -0.00034575253960581343 0 0.04394447874628004 -0.000259473278838742 0 0.044152695070374517 -0.00026985603081928946 0 0.044523649003101469 -0.0001938991123347199 0 0.044152695070374517 -0.00026985603081928946 0 0.044540533193748934 -0.00015016990899105473 0 0.044540533193748934 -0.00015016990899105473 0 0.044999256423782177 -1.211011637740726e-07 0 0.044999335392830915 -1.4959818506001829e-07 0 0.044523649003101469 -0.0001938991123347199 0 0.044540533193748934 -0.00015016990899105473 0 0.044999256423782177 -1.211011637740726e-07 0 0.044540533193748934 -0.00015016990899105473 0 0.044999335392830915 -1.4959818506001829e-07 0 0.044264669542483717 -0.00021261116880884088 0 0.044999335392830915 -1.4959818506001829e-07 0 0.04459857491661208 -0.00015357001017366419 0 0.044264669542483717 -0.00021261116880884088 0 0.044999482497403299 -1.1729786672944362e-07 0 0.044999335392830915 -1.4959818506001829e-07 0 0.04459857491661208 -0.00015357001017366419 0 0.044133463201194566 -0.00024932413730136883 0 0.044264669542483717 -0.00021261116880884088 0 0.04369510615923123 -0.00025950425600883417 0 0.044133463201194566 -0.00024932413730136883 0 0.04459857491661208 -0.00015357001017366419 0 0.044264669542483717 -0.00021261116880884088 0 0.04394447874628004 -0.000259473278838742 0 0.044264669542483717 -0.00021261116880884088 0 0.04369510615923123 -0.00025950425600883417 0 0.044133463201194566 -0.00024932413730136883 0 0.04369510615923123 -0.00025950425600883417 0 0.043602406341920023 -0.00024987003627009128 0 0.04369510615923123 -0.00025950425600883417 0 0.043602406341920023 -0.00024987003627009128 0 0.043011617133782258 -0.00023495650508030479 0 0.043509903317610524 -0.00018222354845345425 0 0.043602406341920023 -0.00024987003627009128 0 0.043011617133782258 -0.00023495650508030479 0 0.043509903317610524 -0.00018222354845345425 0 0.043011617133782258 -0.00023495650508030479 0 0.042616445693319668 -0.00012103536318016472 0 0.043011617133782258 -0.00023495650508030479 0 0.042818220775962985 -0.00021678255233201649 0 0.042166998580884595 -0.00018369898217543995 0 0.043011617133782258 -0.00023495650508030479 0 0.042616445693319668 -0.00012103536318016472 0 0.042166998580884595 -0.00018369898217543995 0 0.043501019308008038 -0.00025679490038740355 0 0.043011617133782258 -0.00023495650508030479 0 0.042818220775962985 -0.00021678255233201649 0 0.043501019308008038 -0.00025679490038740355 0 0.04369510615923123 -0.00025950425600883417 0 0.043011617133782258 -0.00023495650508030479 0 0.043501019308008038 -0.00025679490038740355 0 0.043247997711935895 -0.00025948668393643739 0 0.042818220775962985 -0.00021678255233201649 0 0.043314329647233869 -0.00034009720398975172 0 0.043691838678315102 -0.00034575253960581343 0 0.043247997711935895 -0.00025948668393643739 0 0.043691838678315102 -0.00034575253960581343 0 0.043501019308008038 -0.00025679490038740355 0 0.043247997711935895 -0.00025948668393643739 0 0.043247997711935895 -0.00025948668393643739 0 0.043007139298957164 -0.00028288702946246763 0 0.042818220775962985 -0.00021678255233201649 0 0.043007139298957164 -0.00028288702946246763 0 0.042818220775962985 -0.00021678255233201649 0 0.042478628399408809 -0.00037261907134343569 0 0.043314329647233869 -0.00034009720398975172 0 0.043247997711935895 -0.00025948668393643739 0 0.043007139298957164 -0.00028288702946246763 0 0.042818220775962985 -0.00021678255233201649 0 0.042478628399408809 -0.00037261907134343569 0 0.042166998580884595 -0.00018369898217543995 0 0.042478628399408809 -0.00037261907134343569 0 0.041903282283180895 -0.00057793237670914919 0 0.042166998580884595 -0.00018369898217543995 0 0.042967626564338182 -0.0003836895709054221 0 0.043007139298957164 -0.00028288702946246763 0 0.042478628399408809 -0.00037261907134343569 0 0.042967626564338182 -0.0003836895709054221 0 0.042478628399408809 -0.00037261907134343569 0 0.042317636081665902 -0.0011089269825601922 0 0.042478628399408809 -0.00037261907134343569 0 0.042317636081665902 -0.0011089269825601922 0 0.041903282283180895 -0.00057793237670914919 0 0.041903282283180895 -0.00057793237670914919 0 0.041236962548529411 6.3778408364735986e-05 0 0.041449529422725104 -0.0015398437506606382 0 0.042317636081665902 -0.0011089269825601922 0 0.041903282283180895 -0.00057793237670914919 0 0.041449529422725104 -0.0015398437506606382 0 0.041903282283180895 -0.00057793237670914919 0 0.041236962548529411 6.3778408364735986e-05 0 0.042166998580884595 -0.00018369898217543995 0 0.037662618167116878 0.00087071814275138984 0 0.038089350837853947 -0.00078854994611645963 0 0.041236962548529411 6.3778408364735986e-05 0 0.043232720309593201 0.00045802488823843324 0 0.041236962548529411 6.3778408364735986e-05 0 0.042616445693319668 -0.00012103536318016472 0 0.040035163901448387 0.00071787185529410813 0 0.041392915108333039 0.00013681924137254716 0 0.041236962548529411 6.3778408364735986e-05 0 0.042616445693319668 -0.00012103536318016472 0 0.042166998580884595 -0.00018369898217543995 0 0.040688671390070222 -0.0017712240403162766 0 0.039646946321400839 -0.0023982994040662891 0 0.039229386848657115 -0.0015262904824969721 0 0.040688671390070222 -0.0017712240403162766 0 0.039646946321400839 -0.0023982994040662891 0 0.040655380476696271 -0.0023709207547661102 0 0.037719204475335125 -0.0018702978382835588 0 0.039229386848657115 -0.0015262904824969721 0 0.037625397882936853 -0.0027761485729568438 0 0.039646946321400839 -0.0023982994040662891 0 0.039229386848657115 -0.0015262904824969721 0 0.037625397882936853 -0.0027761485729568438 0 0.038089350837853947 -0.00078854994611645963 0 0.041236962548529411 6.3778408364735986e-05 0 0.039229386848657115 -0.0015262904824969721 0 0.037719204475335125 -0.0018702978382835588 0 0.038089350837853947 -0.00078854994611645963 0 0.039229386848657115 -0.0015262904824969721 0 0.041236962548529411 6.3778408364735986e-05 0 0.040688671390070222 -0.0017712240403162766 0 0.041449529422725104 -0.0015398437506606382 0 0.041236962548529411 6.3778408364735986e-05 0 0.040688671390070222 -0.0017712240403162766 0 0.039229386848657115 -0.0015262904824969721 0 0.041449529422725104 -0.0015398437506606382 0 0.041480345106385048 -0.0027184517607078524 0 0.041246512557179385 -0.0021539890924994307 0 0.042317636081665902 -0.0011089269825601922 0 0.041449529422725104 -0.0015398437506606382 0 0.041480345106385048 -0.0027184517607078524 0 0.041480345106385048 -0.0027184517607078524 0 0.040824161839230905 -0.0019123034854926226 0 0.03897999271166145 -0.0021240165139646584 0 0.041480345106385048 -0.0027184517607078524 0 0.040824161839230905 -0.0019123034854926226 0 0.041246512557179385 -0.0021539890924994307 0 0.040688671390070222 -0.0017712240403162766 0 0.041449529422725104 -0.0015398437506606382 0 0.041246512557179385 -0.0021539890924994307 0 0.040688671390070222 -0.0017712240403162766 0 0.041246512557179385 -0.0021539890924994307 0 0.040655380476696271 -0.0023709207547661102 0 0.040824161839230905 -0.0019123034854926226 0 0.041246512557179385 -0.0021539890924994307 0 0.041239284558882747 -0.0021453254813886447 0 0.041246512557179385 -0.0021539890924994307 0 0.041239284558882747 -0.0021453254813886447 0 0.040655380476696271 -0.0023709207547661102 0 0.040824161839230905 -0.0019123034854926226 0 0.041239284558882747 -0.0021453254813886447 0 0.040111473384636553 -0.00041428823944532019 0 0.036207152808773069 -0.0011780691053304641 0 0.035434500333975272 -0.00033552124849571947 0 0.031419255079973035 -0.00032554739631136277 0 0.030952613009575282 -0.00017483032311379985 0 0.031032324839379528 7.2282333104772115e-05 0 0.031419255079973035 -0.00032554739631136277 0 0.031032324839379528 7.2282333104772115e-05 0 0.031514694514998907 8.0713964358057938e-05 0 0.033395968945767761 -0.0023613443980454742 0 0.035243411935485441 -0.0032262153968615919 0 0.035313104427462313 -0.0025289984333350564 0 0.032064637351108566 -0.00091592801241729884 0 0.035830994415178216 -0.0023156123270017077 0 0.033395968945767761 -0.0023613443980454742 0 0.035313104427462313 -0.0025289984333350564 0 0.034845331521965665 -0.0020118041170327661 0 0.031419255079973035 -0.00032554739631136277 0 0.031514694514998907 8.0713964358057938e-05 0 0.032083033205664226 -0.00038291802666293217 0 0.041239284558882747 -0.0021453254813886447 0 0.039685546006492871 -0.0035369531239841517 0 0.040655380476696271 -0.0023709207547661102 0 0.036207152808773069 -0.0011780691053304641 0 0.035830994415178216 -0.0023156123270017077 0 0.039646946321400839 -0.0023982994040662891 0 0.039685546006492871 -0.0035369531239841517 0 0.040655380476696271 -0.0023709207547661102 0 0.036632995978646332 -0.0028655031007130826 0 0.037625397882936853 -0.0027761485729568438 0 0.036286911535303112 -0.0029883669184750483 0 0.035830994415178216 -0.0023156123270017077 0 0.037909543713473388 -0.0032046905670022603 0 0.039646946321400839 -0.0023982994040662891 0 0.039685546006492871 -0.0035369531239841517 0 0.037625397882936853 -0.0027761485729568438 0 0.035858424926361487 -0.0030860890102193945 0 0.037625397882936853 -0.0027761485729568438 0 0.036286911535303112 -0.0029883669184750483 0 0.035830994415178216 -0.0023156123270017077 0 0.036001090646467407 -0.002615284031267998 0 0.036632995978646332 -0.0028655031007130826 0 0.036286911535303112 -0.0029883669184750483 0 0.036081109657827161 -0.0026632896374764918 0 0.036286911535303112 -0.0029883669184750483 0 0.036081109657827161 -0.0026632896374764918 0 0.035313104427462313 -0.0025289984333350564 0 0.035243411935485441 -0.0032262153968615919 0 0.036286911535303112 -0.0029883669184750483 0 0.035313104427462313 -0.0025289984333350564 0 0.035664039874086687 -0.002234954744302796 0 0.035313104427462313 -0.0025289984333350564 0 0.034845331521965665 -0.0020118041170327661 0 0.035664039874086687 -0.002234954744302796 0 0.036081109657827161 -0.0026632896374764918 0 0.035313104427462313 -0.0025289984333350564 0 0.034845331521965665 -0.0020118041170327661 0 0.033995330047001927 -0.0014658236589132174 0 0.034691911851904962 -0.0012022558125020719 0 0.035664039874086687 -0.002234954744302796 0 0.034845331521965665 -0.0020118041170327661 0 0.034691911851904962 -0.0012022558125020719 0 0.033395968945767761 -0.0023613443980454742 0 0.034845331521965665 -0.0020118041170327661 0 0.033995330047001927 -0.0014658236589132174 0 0.033395968945767761 -0.0023613443980454742 0 0.033995330047001927 -0.0014658236589132174 0 0.033163323281638991 -0.0012689980868288472 0 0.033995330047001927 -0.0014658236589132174 0 0.033558314985351216 -0.00074304841138773524 0 0.034691911851904962 -0.0012022558125020719 0 0.033558314985351216 -0.00074304841138773524 0 0.034691911851904962 -0.0012022558125020719 0 0.033763743134455175 -0.0002497598994650117 0 0.033995330047001927 -0.0014658236589132174 0 0.033558314985351216 -0.00074304841138773524 0 0.033163323281638991 -0.0012689980868288472 0 0.034691911851904962 -0.0012022558125020719 0 0.034132277981738485 0.00015378851933793108 0 0.033763743134455175 -0.0002497598994650117 0 0.034132277981738485 0.00015378851933793108 0 0.033763743134455175 -0.0002497598994650117 0 0.033449607375437056 0.00023192402777211634 0 0.033558314985351216 -0.00074304841138773524 0 0.033763743134455175 -0.0002497598994650117 0 0.033138688861755035 4.2359109216397e-05 0 0.033763743134455175 -0.0002497598994650117 0 0.033138688861755035 4.2359109216397e-05 0 0.033449607375437056 0.00023192402777211634 0 0.033138688861755035 4.2359109216397e-05 0 0.033449607375437056 0.00023192402777211634 0 0.032883722507165654 0.00033934179721486194 0 0.034132277981738485 0.00015378851933793108 0 0.033449607375437056 0.00023192402777211634 0 0.033325773123794068 0.00025059841241414482 0 0.031298917510710476 0.0010070550283600834 0 0.030857966098426427 0.00047930521637101292 0 0.030474218404320234 0.00079035892414742169 0 0.033138688861755035 4.2359109216397e-05 0 0.032698901859985773 0.00010011663777411809 0 0.032883722507165654 0.00033934179721486194 0 0.032617606572391024 0.0003352814621719396 0 0.032698901859985773 0.00010011663777411809 0 0.032883722507165654 0.00033934179721486194 0 0.033558314985351216 -0.00074304841138773524 0 0.033138688861755035 4.2359109216397e-05 0 0.03280268307678131 -0.00042660279738716605 0 0.033138688861755035 4.2359109216397e-05 0 0.032698901859985773 0.00010011663777411809 0 0.03280268307678131 -0.00042660279738716605 0 0.032698901859985773 0.00010011663777411809 0 0.03280268307678131 -0.00042660279738716605 0 0.031855784620769642 -0.00024069822208137284 0 0.031855784620769642 -0.00024069822208137284 0 0.030650128506681251 0.00022686057275110141 0 0.030857966098426427 0.00047930521637101292 0 0.032617606572391024 0.0003352814621719396 0 0.032698901859985773 0.00010011663777411809 0 0.031855784620769642 -0.00024069822208137284 0 0.031298917510710476 0.0010070550283600834 0 0.031855784620769642 -0.00024069822208137284 0 0.030857966098426427 0.00047930521637101292 0 0.032124015832898457 0.00083870813758939536 0 0.031814894442020444 -0.00035998709697231433 0 0.031855784620769642 -0.00024069822208137284 0 0.031969958439628993 -0.0013394775971706271 0 0.030650128506681251 0.00022686057275110141 0 0.031577774685219738 -0.00055791084910183268 0 0.030695839649416842 0.00019099353608075697 0 0.03280268307678131 -0.00042660279738716605 0 0.031855784620769642 -0.00024069822208137284 0 0.031969958439628993 -0.0013394775971706271 0 0.03280268307678131 -0.00042660279738716605 0 0.031969958439628993 -0.0013394775971706271 0 0.033163323281638991 -0.0012689980868288472 0 0.033558314985351216 -0.00074304841138773524 0 0.03280268307678131 -0.00042660279738716605 0 0.033163323281638991 -0.0012689980868288472 0 0.033395968945767761 -0.0023613443980454742 0 0.031969958439628993 -0.0013394775971706271 0 0.033163323281638991 -0.0012689980868288472 0 0.032064637351108566 -0.00091592801241729884 0 0.031577774685219738 -0.00055791084910183268 0 0.031032324839379528 7.2282333104772115e-05 0 0.031514694514998907 8.0713964358057938e-05 0 0.031014119557831173 0.00031669688200576692 0 0.031032324839379528 7.2282333104772115e-05 0 0.031014119557831173 0.00031669688200576692 0 0.030807480179952964 0.00025803180758193772 0 0.030807480179952964 0.00025803180758193772 0 0.03074219540464675 0.00012300565906500063 0 0.030624983714831605 0.00031827892241414199 0 0.031032324839379528 7.2282333104772115e-05 0 0.030807480179952964 0.00025803180758193772 0 0.03074219540464675 0.00012300565906500063 0 0.03074219540464675 0.00012300565906500063 0 0.030624983714831605 0.00031827892241414199 0 0.030485354888119431 0.00034158104698574351 0 0.03074219540464675 0.00012300565906500063 0 0.030485354888119431 0.00034158104698574351 0 0.030674891474021585 7.882422365224015e-05 0 0.030624983714831605 0.00031827892241414199 0 0.030279660043022551 0.00066200179218587588 0 0.030485354888119431 0.00034158104698574351 0 0.030624983714831605 0.00031827892241414199 0 0.030650128506681251 0.00022686057275110141 0 0.030279660043022551 0.00066200179218587588 0 0.031014119557831173 0.00031669688200576692 0 0.030807480179952964 0.00025803180758193772 0 0.030650128506681251 0.00022686057275110141 0 0.030807480179952964 0.00025803180758193772 0 0.030624983714831605 0.00031827892241414199 0 0.030650128506681251 0.00022686057275110141 0 0.030650128506681251 0.00022686057275110141 0 0.030857966098426427 0.00047930521637101292 0 0.030340120541821211 0.00062323937199039773 0 0.030650128506681251 0.00022686057275110141 0 0.030340120541821211 0.00062323937199039773 0 0.030279660043022551 0.00066200179218587588 0 0.030340120541821211 0.00062323937199039773 0 0.030279660043022551 0.00066200179218587588 0 0.030127290374085118 0.00072173867370278603 0 0.030340120541821211 0.00062323937199039773 0 0.030474218404320234 0.00079035892414742169 0 0.030127290374085118 0.00072173867370278603 0 0.030857966098426427 0.00047930521637101292 0 0.030340120541821211 0.00062323937199039773 0 0.030474218404320234 0.00079035892414742169 0 0.025497566316532997 0.00028673695058956995 0 0.024783734227014739 -0.00043539761538017327 0 0.021000953990734195 -0.00049980024087280684 0 0.020431678905133414 -0.0019004842775489725 0 0.019982905814323718 -0.0014460340806841841 0 0.029904846537537663 0.001052915231770079 0 0.030279660043022551 0.00066200179218587588 0 0.030127290374085118 0.00072173867370278603 0 0.029904846537537663 0.001052915231770079 0 0.030279660043022551 0.00066200179218587588 0 0.02991342271800913 0.00073339579867880958 0 0.029904846537537663 0.001052915231770079 0 0.02991342271800913 0.00073339579867880958 0 0.028871807935393845 0.001326162034656063 0 0.030279660043022551 0.00066200179218587588 0 0.02991342271800913 0.00073339579867880958 0 0.030485354888119431 0.00034158104698574351 0 0.030485354888119431 0.00034158104698574351 0 0.030011435862637298 0.00031881412958402618 0 0.030674891474021585 7.882422365224015e-05 0 0.02991342271800913 0.00073339579867880958 0 0.030011435862637298 0.00031881412958402618 0 0.028870469031335892 0.00042740788677713256 0 0.02991342271800913 0.00073339579867880958 0 0.030485354888119431 0.00034158104698574351 0 0.030011435862637298 0.00031881412958402618 0 0.030011435862637298 0.00031881412958402618 0 0.030214533515938977 0.00010331841010077673 0 0.030674891474021585 7.882422365224015e-05 0 0.030011435862637298 0.00031881412958402618 0 0.030214533515938977 0.00010331841010077673 0 0.029042245647791676 0.00017284500434828402 0 0.029782084631856432 -0.00074727701657640319 0 0.031128401334324228 3.790712367816887e-05 0 0.032453994836596507 -0.0035017504275794043 0 0.030214533515938977 0.00010331841010077673 0 0.029782084631856432 -0.00074727701657640319 0 0.031128401334324228 3.790712367816887e-05 0 0.03376466852437289 -0.0014216964949069709 0 0.031128401334324228 3.790712367816887e-05 0 0.032453994836596507 -0.0035017504275794043 0 0.031340605100288403 0.00010156870195777951 0 0.033431448948895423 0.00016777736125809533 0 0.03376466852437289 -0.0014216964949069709 0 0.031128401334324228 3.790712367816887e-05 0 0.036227214529985563 0.00051207459760741554 0 0.030214533515938977 0.00010331841010077673 0 0.031128401334324228 3.790712367816887e-05 0 0.030674891474021585 7.882422365224015e-05 0 0.031128401334324228 3.790712367816887e-05 0 0.030674891474021585 7.882422365224015e-05 0 0.030716024660347414 -3.8447376629782098e-06 0 0.03074219540464675 0.00012300565906500063 0 0.030674891474021585 7.882422365224015e-05 0 0.030716024660347414 -3.8447376629782098e-06 0 0.030952613009575282 -0.00017483032311379985 0 0.031032324839379528 7.2282333104772115e-05 0 0.03074219540464675 0.00012300565906500063 0 0.030952613009575282 -0.00017483032311379985 0 0.03074219540464675 0.00012300565906500063 0 0.030716024660347414 -3.8447376629782098e-06 0 0.040824161839230905 -0.0019123034854926226 0 0.040111473384636553 -0.00041428823944532019 0 0.03897999271166145 -0.0021240165139646584 0 0.040111473384636553 -0.00041428823944532019 0 0.036227214529985563 0.00051207459760741554 0 0.03897999271166145 -0.0021240165139646584 0 0.035434500333975272 -0.00033552124849571947 0 0.033431448948895423 0.00016777736125809533 0 0.03376466852437289 -0.0014216964949069709 0 0.036227214529985563 0.00051207459760741554 0 0.035986246328371163 -0.0030167727080080003 0 0.036227214529985563 0.00051207459760741554 0 0.035986246328371163 -0.0030167727080080003 0 0.03897999271166145 -0.0021240165139646584 0 0.035986246328371163 -0.0030167727080080003 0 0.03897999271166145 -0.0021240165139646584 0 0.03865090346349187 -0.0050305314777884629 0 0.041480345106385048 -0.0027184517607078524 0 0.03897999271166145 -0.0021240165139646584 0 0.03865090346349187 -0.0050305314777884629 0 0.042317636081665902 -0.0011089269825601922 0 0.041480345106385048 -0.0027184517607078524 0 0.043121958823497328 -0.0020665728629803422 0 0.041352944484372219 -0.0029745479325925359 0 0.04086632570242868 -0.0034257797918866538 0 0.035986246328371163 -0.0030167727080080003 0 0.03865090346349187 -0.0050305314777884629 0 0.035854955793963188 -0.0064468202905873274 0 0.035986246328371163 -0.0030167727080080003 0 0.035854955793963188 -0.0064468202905873274 0 0.032453994836596507 -0.0035017504275794043 0 0.04086632570242868 -0.0034257797918866538 0 0.038524760361314338 -0.0017086089397460441 0 0.031477615349264514 -0.00041789742260701788 0 0.03209337325278739 -0.00020397249026912458 0 0.031219525594368507 0.00024748113753699012 0 0.038524760361314338 -0.0017086089397460441 0 0.031205428647083401 -0.0016482198051216948 0 0.031219525594368507 0.00024748113753699012 0 0.030191437637490763 0.00018293416597600729 0 0.030618346963610318 -0.00016703380072901635 0 0.031477615349264514 -0.00041789742260701788 0 0.031219525594368507 0.00024748113753699012 0 0.030618346963610318 -0.00016703380072901635 0 0.030081067444680774 -0.0002355430220241998 0 0.031205428647083401 -0.0016482198051216948 0 0.030082967971620061 0.00049074633658228951 0 0.031219525594368507 0.00024748113753699012 0 0.030191437637490763 0.00018293416597600729 0 0.03376466852437289 -0.0014216964949069709 0 0.035986246328371163 -0.0030167727080080003 0 0.032453994836596507 -0.0035017504275794043 0 0.02977153380529618 4.4788812024225217e-05 0 0.028981586963587418 0.00019439179086241674 0 0.02939518270340323 0.00025476810227954892 0 0.028981586963587418 0.00019439179086241674 0 0.028599903404610501 0.00018937112606703035 0 0.02939518270340323 0.00025476810227954892 0 0.030082967971620061 0.00049074633658228951 0 0.030191437637490763 0.00018293416597600729 0 0.02939518270340323 0.00025476810227954892 0 0.030191437637490763 0.00018293416597600729 0 0.02977153380529618 4.4788812024225217e-05 0 0.02939518270340323 0.00025476810227954892 0 0.030191437637490763 0.00018293416597600729 0 0.030618346963610318 -0.00016703380072901635 0 0.02977153380529618 4.4788812024225217e-05 0 0.030090398476535236 -0.00035102789966882079 0 0.030618346963610318 -0.00016703380072901635 0 0.02977153380529618 4.4788812024225217e-05 0 0.02977153380529618 4.4788812024225217e-05 0 0.029473064031883749 -8.1556969365874601e-05 0 0.028981586963587418 0.00019439179086241674 0 0.030090398476535236 -0.00035102789966882079 0 0.02977153380529618 4.4788812024225217e-05 0 0.029473064031883749 -8.1556969365874601e-05 0 0.029025883917115507 -0.00025250428583396817 0 0.029473064031883749 -8.1556969365874601e-05 0 0.028981586963587418 0.00019439179086241674 0 0.029025883917115507 -0.00025250428583396817 0 0.028981586963587418 0.00019439179086241674 0 0.028749176183702461 0.00063425568739684595 0 0.033359250846048155 0.00032769309583493509 0 0.031981234473447286 0.0007081110551468723 0 0.028981586963587418 0.00019439179086241674 0 0.028455802046893349 0.00028720804195245562 0 0.028749176183702461 0.00063425568739684595 0 0.028981586963587418 0.00019439179086241674 0 0.028599903404610501 0.00018937112606703035 0 0.028455802046893349 0.00028720804195245562 0 0.028599903404610501 0.00018937112606703035 0 0.028455802046893349 0.00028720804195245562 0 0.027954275316901863 2.1141350814869067e-05 0 0.028599903404610501 0.00018937112606703035 0 0.027954275316901863 2.1141350814869067e-05 0 0.027892488876111236 8.3259794734812841e-05 0 0.028599903404610501 0.00018937112606703035 0 0.027892488876111236 8.3259794734812841e-05 0 0.029042245647791676 0.00017284500434828402 0 0.028599903404610501 0.00018937112606703035 0 0.02939518270340323 0.00025476810227954892 0 0.029042245647791676 0.00017284500434828402 0 0.030081067444680774 -0.0002355430220241998 0 0.029129651221889024 0.00019185781342924199 0 0.030082967971620061 0.00049074633658228951 0 0.02939518270340323 0.00025476810227954892 0 0.029042245647791676 0.00017284500434828402 0 0.030214533515938977 0.00010331841010077673 0 0.029782084631856432 -0.00074727701657640319 0 0.029042245647791676 0.00017284500434828402 0 0.030011435862637298 0.00031881412958402618 0 0.029042245647791676 0.00017284500434828402 0 0.028870469031335892 0.00042740788677713256 0 0.027892488876111236 8.3259794734812841e-05 0 0.029042245647791676 0.00017284500434828402 0 0.028870469031335892 0.00042740788677713256 0 0.027892488876111236 8.3259794734812841e-05 0 0.028870469031335892 0.00042740788677713256 0 0.026599337433111731 0.00049250490495730186 0 0.025963474719460762 0.0007008307503003603 0 0.026463936909895201 0.00053876621533011343 0 0.028870469031335892 0.00042740788677713256 0 0.028871807935393845 0.001326162034656063 0 0.026599337433111731 0.00049250490495730186 0 0.02991342271800913 0.00073339579867880958 0 0.028870469031335892 0.00042740788677713256 0 0.028871807935393845 0.001326162034656063 0 0.023145246258483892 0.00028936356732931108 0 0.023916722326518262 -0.0012404830187891483 0 0.021870137290403598 -0.0017368964397688489 0 0.025497566316532997 0.00028673695058956995 0 0.025963474719460762 0.0007008307503003603 0 0.021000953990734195 -0.00049980024087280684 0 0.023145246258483892 0.00028936356732931108 0 0.021870137290403598 -0.0017368964397688489 0 0.023145246258483892 0.00028936356732931108 0 0.023916722326518262 -0.0012404830187891483 0 0.024990752604421157 -0.00052346023822198457 0 0.025680246509793912 -0.00053863933967841912 0 0.025033579239565836 -0.00099858251139404194 0 0.024857597013594888 -0.0011605513049455429 0 0.024990752604421157 -0.00052346023822198457 0 0.025680246509793912 -0.00053863933967841912 0 0.024857597013594888 -0.0011605513049455429 0 0.023916722326518262 -0.0012404830187891483 0 0.024990752604421157 -0.00052346023822198457 0 0.024857597013594888 -0.0011605513049455429 0 0.024990752604421157 -0.00052346023822198457 0 0.025680246509793912 -0.00053863933967841912 0 0.026599337433111731 0.00049250490495730186 0 0.023145246258483892 0.00028936356732931108 0 0.024990752604421157 -0.00052346023822198457 0 0.026599337433111731 0.00049250490495730186 0 0.025680246509793912 -0.00053863933967841912 0 0.026599337433111731 0.00049250490495730186 0 0.027029848944790453 -4.1319701526460683e-05 0 0.027892488876111236 8.3259794734812841e-05 0 0.026599337433111731 0.00049250490495730186 0 0.027029848944790453 -4.1319701526460683e-05 0 0.027954275316901863 2.1141350814869067e-05 0 0.027892488876111236 8.3259794734812841e-05 0 0.027029848944790453 -4.1319701526460683e-05 0 0.027029848944790453 -4.1319701526460683e-05 0 0.027578845654425917 -0.00044202557159872221 0 0.026545514038672693 -0.00054321359282376346 0 0.027029848944790453 -4.1319701526460683e-05 0 0.027578845654425917 -0.00044202557159872221 0 0.028560974495474695 -0.00014305421695896559 0 0.027578845654425917 -0.00044202557159872221 0 0.026545514038672693 -0.00054321359282376346 0 0.026729543260315194 -0.00067668738556282432 0 0.026545514038672693 -0.00054321359282376346 0 0.025868468048915339 -0.00083604139973900008 0 0.026729543260315194 -0.00067668738556282432 0 0.025680246509793912 -0.00053863933967841912 0 0.027029848944790453 -4.1319701526460683e-05 0 0.026545514038672693 -0.00054321359282376346 0 0.025680246509793912 -0.00053863933967841912 0 0.026545514038672693 -0.00054321359282376346 0 0.025415142080567554 -0.00087028750941114355 0 0.026545514038672693 -0.00054321359282376346 0 0.025868468048915339 -0.00083604139973900008 0 0.025415142080567554 -0.00087028750941114355 0 0.025868468048915339 -0.00083604139973900008 0 0.025415142080567554 -0.00087028750941114355 0 0.025042173265099919 -0.00095966813793820806 0 0.025415142080567554 -0.00087028750941114355 0 0.024641069120270327 -0.00097761854342893659 0 0.024649152343700693 -0.00099563377374661029 0 0.025415142080567554 -0.00087028750941114355 0 0.024641069120270327 -0.00097761854342893659 0 0.025042173265099919 -0.00095966813793820806 0 0.024641069120270327 -0.00097761854342893659 0 0.024649152343700693 -0.00099563377374661029 0 0.023870343938139391 -0.00092930695747645269 0 0.025680246509793912 -0.00053863933967841912 0 0.025415142080567554 -0.00087028750941114355 0 0.025033579239565836 -0.00099858251139404194 0 0.025415142080567554 -0.00087028750941114355 0 0.024649152343700693 -0.00099563377374661029 0 0.025033579239565836 -0.00099858251139404194 0 0.023022181473620982 -0.00050360769430239031 0 0.025200427788040661 -0.00050877798841927424 0 0.023756324277012769 -0.0010188648707282508 0 0.022933450999227945 -0.0010365867124413871 0 0.025093939359609452 -0.001046427820350787 0 0.023400954728619073 1.4435192551109713e-07 0 0.02308157820816889 2.7967861549526991e-05 0 0.02534380275061579 4.0592432474298066e-05 0 0.023756324277012769 -0.0010188648707282508 0 0.022933450999227945 -0.0010365867124413871 0 0.02322812860479501 -0.00085345740399289129 0 0.023756324277012769 -0.0010188648707282508 0 0.024204270411348674 -0.0010067016276537424 0 0.02322812860479501 -0.00085345740399289129 0 0.023756324277012769 -0.0010188648707282508 0 0.024204270411348674 -0.0010067016276537424 0 0.025093939359609452 -0.001046427820350787 0 0.024641069120270327 -0.00097761854342893659 0 0.024204270411348674 -0.0010067016276537424 0 0.023870343938139391 -0.00092930695747645269 0 0.024204270411348674 -0.0010067016276537424 0 0.023870343938139391 -0.00092930695747645269 0 0.02322812860479501 -0.00085345740399289129 0 0.024641069120270327 -0.00097761854342893659 0 0.024204270411348674 -0.0010067016276537424 0 0.025042173265099919 -0.00095966813793820806 0 0.024204270411348674 -0.0010067016276537424 0 0.025042173265099919 -0.00095966813793820806 0 0.025093939359609452 -0.001046427820350787 0 0.025868468048915339 -0.00083604139973900008 0 0.025042173265099919 -0.00095966813793820806 0 0.025093939359609452 -0.001046427820350787 0 0.023400954728619073 1.4435192551109713e-07 0 0.02534380275061579 4.0592432474298066e-05 0 0.026004386397309575 4.1577661385856626e-08 0 0.02534380275061579 4.0592432474298066e-05 0 0.026004386397309575 4.1577661385856626e-08 0 0.027451927964075015 -2.5728632100400279e-05 0 0.025200427788040661 -0.00050877798841927424 0 0.027274290145621931 -0.00031229536042308854 0 0.025868468048915339 -0.00083604139973900008 0 0.025093939359609452 -0.001046427820350787 0 0.026729543260315194 -0.00067668738556282432 0 0.025093939359609452 -0.001046427820350787 0 0.026729543260315194 -0.00067668738556282432 0 0.027039064571420544 -0.00064164682891302443 0 0.027274290145621931 -0.00031229536042308854 0 0.028757087312458053 -9.7880072987179822e-05 0 0.027578845654425917 -0.00044202557159872221 0 0.027039064571420544 -0.00064164682891302443 0 0.029181580422093088 -4.3254125254659336e-05 0 0.027578845654425917 -0.00044202557159872221 0 0.026729543260315194 -0.00067668738556282432 0 0.027039064571420544 -0.00064164682891302443 0 0.026004386397309575 4.1577661385856626e-08 0 0.027451927964075015 -2.5728632100400279e-05 0 0.028607685127246586 -3.6204614908817973e-07 0 0.027451927964075015 -2.5728632100400279e-05 0 0.028607685127246586 -3.6204614908817973e-07 0 0.029181580422093088 -4.3254125254659336e-05 0 0.028607685127246586 -3.6204614908817973e-07 0 0.030798704385004712 0.00021863661502287182 0 0.029181580422093088 -4.3254125254659336e-05 0 0.028607685127246586 -3.6204614908817973e-07 0 0.030798704385004712 0.00021863661502287182 0 0.031210978787915088 5.4436134390495241e-07 0 0.030798704385004712 0.00021863661502287182 0 0.029181580422093088 -4.3254125254659336e-05 0 0.03071793001467648 0.00062707122358567362 0 0.027578845654425917 -0.00044202557159872221 0 0.029181580422093088 -4.3254125254659336e-05 0 0.028560974495474695 -0.00014305421695896559 0 0.027954275316901863 2.1141350814869067e-05 0 0.027029848944790453 -4.1319701526460683e-05 0 0.028560974495474695 -0.00014305421695896559 0 0.028455802046893349 0.00028720804195245562 0 0.028560974495474695 -0.00014305421695896559 0 0.03071793001467648 0.00062707122358567362 0 0.028455802046893349 0.00028720804195245562 0 0.027954275316901863 2.1141350814869067e-05 0 0.028560974495474695 -0.00014305421695896559 0 0.029181580422093088 -4.3254125254659336e-05 0 0.028560974495474695 -0.00014305421695896559 0 0.03071793001467648 0.00062707122358567362 0 0.03071793001467648 0.00062707122358567362 0 0.034996605874853141 0.0010668207864057066 0 0.03313159552852335 0.00028263395242117916 0 0.028455802046893349 0.00028720804195245562 0 0.03071793001467648 0.00062707122358567362 0 0.028749176183702461 0.00063425568739684595 0 0.030993568204252538 0.00058798883758761169 0 0.031981234473447286 0.0007081110551468723 0 0.036242715976375732 0.00012185599091059505 0 0.034996605874853141 0.0010668207864057066 0 0.03313159552852335 0.00028263395242117916 0 0.033814217227184744 3.0293873378752856e-08 0 0.03313159552852335 0.00028263395242117916 0 0.031210978787915088 5.4436134390495241e-07 0 0.030798704385004712 0.00021863661502287182 0 0.03313159552852335 0.00028263395242117916 0 0.031210978787915088 5.4436134390495241e-07 0 0.030798704385004712 0.00021863661502287182 0 0.03071793001467648 0.00062707122358567362 0 0.03313159552852335 0.00028263395242117916 0 0.011522572377433812 -0.00038419871552747162 0 0.012625196667637605 -0.00029027433309333192 0 0.012128100882758092 0.00025328748651586377 0 0.010238270779211129 0.00035860696593982653 0 0.010662388295075518 0.00031982490303459569 0 0.011522572377433812 -0.00038419871552747162 0 0.012625196667637605 -0.00029027433309333192 0 0.012421135521970349 -0.00024991345481659903 0 0.012625196667637605 -0.00029027433309333192 0 0.012128100882758092 0.00025328748651586377 0 0.014209648851678079 1.4900061272903303e-06 0 0.012625196667637605 -0.00029027433309333192 0 0.012331942136003209 -1.6238804465742704e-06 0 0.014209648851678079 1.4900061272903303e-06 0 0.012421135521970349 -0.00024991345481659903 0 0.012331942136003209 -1.6238804465742704e-06 0 0.010451877534916151 1.0465873077611521e-06 0 0.012625196667637605 -0.00029027433309333192 0 0.012421135521970349 -0.00024991345481659903 0 0.012331942136003209 -1.6238804465742704e-06 0 0.0089960109689199777 0.0011188691405505922 0 0.0087552500718153462 0.00096298028269870798 0 0.0085722689849798018 0.00053293582391933153 0 0.0089636437290844338 0.00089599587250861995 0 0.0089960109689199777 0.0011188691405505922 0 0.0087552500718153462 0.00096298028269870798 0 0.0089024055778890564 0.0010347381673634136 0 0.0092775022220266054 0.00088539932325291926 0 0.0093025561433157881 0.0011556121602957087 0 0.0087552500718153462 0.00096298028269870798 0 0.0089024055778890564 0.0010347381673634136 0 0.0092775022220266054 0.00088539932325291926 0 0.0089636437290844338 0.00089599587250861995 0 0.0092775022220266054 0.00088539932325291926 0 0.0099486015904286691 0.00061903194744699654 0 0.0089636437290844338 0.00089599587250861995 0 0.0087552500718153462 0.00096298028269870798 0 0.0092775022220266054 0.00088539932325291926 0 0.011522572377433812 -0.00038419871552747162 0 0.0099486015904286691 0.00061903194744699654 0 0.012128100882758092 0.00025328748651586377 0 0.010238270779211129 0.00035860696593982653 0 0.0099251765877057026 0.0006214911905655404 0 0.0099486015904286691 0.00061903194744699654 0 0.0098877887544283737 0.00085243002684926949 0 0.0096276469278602644 0.00066183537845788899 0 0.0092775022220266054 0.00088539932325291926 0 0.0099486015904286691 0.00061903194744699654 0 0.0096276469278602644 0.00066183537845788899 0 0.0099486015904286691 0.00061903194744699654 0 0.0098877887544283737 0.00085243002684926949 0 0.010564599963312762 0.0015430903865051233 0 0.0099486015904286691 0.00061903194744699654 0 0.011868122728055843 0.0012964955232454554 0 0.010564599963312762 0.0015430903865051233 0 0.0099486015904286691 0.00061903194744699654 0 0.011868122728055843 0.0012964955232454554 0 0.012128100882758092 0.00025328748651586377 0 0.011868122728055843 0.0012964955232454554 0 0.012128100882758092 0.00025328748651586377 0 0.014209648851678079 1.4900061272903303e-06 0 0.015356827102892765 0.00081210318349717752 0 0.014214188441834799 -3.0235932806037769e-08 0 0.018539292904970528 0.00085596321721915949 0 0.016408811089935107 4.8292937876099676e-07 0 0.019260500116908226 0.00019558550521998696 0 0.018539292904970528 0.00085596321721915949 0 0.014215934074659962 1.9350570153042008e-06 0 0.016408811089935107 4.8292937876099676e-07 0 0.016408811089935107 4.8292937876099676e-07 0 0.019260500116908226 0.00019558550521998696 0 0.018603546320097145 2.8650178843893057e-07 0 0.018539292904970528 0.00085596321721915949 0 0.019260500116908226 0.00019558550521998696 0 0.021778543059515383 0.00057594385780128322 0 0.015356827102892765 0.00081210318349717752 0 0.016096587510385719 0.0012768154089469548 0 0.019260500116908226 0.00019558550521998696 0 0.021186437424940349 -0.00029441061657992188 0 0.021778543059515383 0.00057594385780128322 0 0.019260500116908226 0.00019558550521998696 0 0.018603546320097145 2.8650178843893057e-07 0 0.021186437424940349 -0.00029441061657992188 0 0.020796665152752847 -2.2695598332547732e-06 0 0.021186437424940349 -0.00029441061657992188 0 0.022135164624566397 -0.00048334750210513472 0 0.018603546320097145 2.8650178843893057e-07 0 0.020796665152752847 -2.2695598332547732e-06 0 0.021186437424940349 -0.00029441061657992188 0 0.021186437424940349 -0.00029441061657992188 0 0.02264750355198095 -0.00063011677595670027 0 0.022135164624566397 -0.00048334750210513472 0 0.021186437424940349 -0.00029441061657992188 0 0.02264750355198095 -0.00063011677595670027 0 0.02304958287445346 -0.00063036404807981727 0 0.02264750355198095 -0.00063011677595670027 0 0.02322812860479501 -0.00085345740399289129 0 0.022135164624566397 -0.00048334750210513472 0 0.02264750355198095 -0.00063011677595670027 0 0.023870343938139391 -0.00092930695747645269 0 0.02322812860479501 -0.00085345740399289129 0 0.022933450999227945 -0.0010365867124413871 0 0.02322812860479501 -0.00085345740399289129 0 0.022135164624566397 -0.00048334750210513472 0 0.023022181473620982 -0.00050360769430239031 0 0.020797701959121031 -1.0235905866073465e-07 0 0.023400954728619073 1.4435192551109713e-07 0 0.02308157820816889 2.7967861549526991e-05 0 0.020797412629565713 1.5030413056600056e-07 0 0.022933450999227945 -0.0010365867124413871 0 0.020796665152752847 -2.2695598332547732e-06 0 0.022135164624566397 -0.00048334750210513472 0 0.024402848078349814 -0.0010226703766187584 0 0.024351296052548967 -0.0010151064398726322 0 0.023915539831896562 -0.00083266919325870002 0 0.024402848078349814 -0.0010226703766187584 0 0.024674925671220198 -0.0011064759348647828 0 0.024351296052548967 -0.0010151064398726322 0 0.024402848078349814 -0.0010226703766187584 0 0.024674925671220198 -0.0011064759348647828 0 0.024628174998428926 -0.0011842883917497883 0 0.025033579239565836 -0.00099858251139404194 0 0.024674925671220198 -0.0011064759348647828 0 0.024351296052548967 -0.0010151064398726322 0 0.024649152343700693 -0.00099563377374661029 0 0.025033579239565836 -0.00099858251139404194 0 0.024351296052548967 -0.0010151064398726322 0 0.024649152343700693 -0.00099563377374661029 0 0.024351296052548967 -0.0010151064398726322 0 0.023790995614053331 -0.00089447609681750611 0 0.024649152343700693 -0.00099563377374661029 0 0.023870343938139391 -0.00092930695747645269 0 0.023790995614053331 -0.00089447609681750611 0 0.02264750355198095 -0.00063011677595670027 0 0.023870343938139391 -0.00092930695747645269 0 0.023790995614053331 -0.00089447609681750611 0 0.02264750355198095 -0.00063011677595670027 0 0.023790995614053331 -0.00089447609681750611 0 0.02304958287445346 -0.00063036404807981727 0 0.024351296052548967 -0.0010151064398726322 0 0.023790995614053331 -0.00089447609681750611 0 0.023915539831896562 -0.00083266919325870002 0 0.021186437424940349 -0.00029441061657992188 0 0.02304958287445346 -0.00063036404807981727 0 0.022610842850179429 -0.00014720134852666848 0 0.02304958287445346 -0.00063036404807981727 0 0.023344982968236852 -0.00044893786537543884 0 0.023915539831896562 -0.00083266919325870002 0 0.023790995614053331 -0.00089447609681750611 0 0.02304958287445346 -0.00063036404807981727 0 0.023915539831896562 -0.00083266919325870002 0 0.02304958287445346 -0.00063036404807981727 0 0.023344982968236852 -0.00044893786537543884 0 0.022610842850179429 -0.00014720134852666848 0 0.024256543284802472 0.00039145696966217666 0 0.017287824866714738 -0.00071150760307498145 0 0.023344982968236852 -0.00044893786537543884 0 0.023900343898544899 -0.00013478708665107226 0 0.022610842850179429 -0.00014720134852666848 0 0.023344982968236852 -0.00044893786537543884 0 0.023915539831896562 -0.00083266919325870002 0 0.023900343898544899 -0.00013478708665107226 0 0.024402848078349814 -0.0010226703766187584 0 0.024386005361989146 -0.00081342145481077372 0 0.024628174998428926 -0.0011842883917497883 0 0.024402848078349814 -0.0010226703766187584 0 0.023915539831896562 -0.00083266919325870002 0 0.024386005361989146 -0.00081342145481077372 0 0.024054314237665096 -0.00073145833383286287 0 0.020697124359470614 -0.0018290918883424516 0 0.023915539831896562 -0.00083266919325870002 0 0.024386005361989146 -0.00081342145481077372 0 0.024380593418948861 -0.00042260204444223202 0 0.024386005361989146 -0.00081342145481077372 0 0.024380593418948861 -0.00042260204444223202 0 0.024630821308469726 -0.00071061981280334222 0 0.017287824866714738 -0.00071150760307498145 0 0.020697124359470614 -0.0018290918883424516 0 0.010098083887536276 0.0017312038158957706 0 0.010564599963312762 0.0015430903865051233 0 0.010095490902025613 0.0013641586636589074 0 0.017287824866714738 -0.00071150760307498145 0 0.016096587510385719 0.0012768154089469548 0 0.010098083887536276 0.0017312038158957706 0 0.010095490902025613 0.0013641586636589074 0 0.0097958617025299399 0.0011591844896559937 0 0.023900343898544899 -0.00013478708665107226 0 0.022610842850179429 -0.00014720134852666848 0 0.021778543059515383 0.00057594385780128322 0 0.021186437424940349 -0.00029441061657992188 0 0.022610842850179429 -0.00014720134852666848 0 0.021778543059515383 0.00057594385780128322 0 0.0098877887544283737 0.00085243002684926949 0 0.010564599963312762 0.0015430903865051233 0 0.010095490902025613 0.0013641586636589074 0 0.0098877887544283737 0.00085243002684926949 0 0.010095490902025613 0.0013641586636589074 0 0.0097958617025299399 0.0011591844896559937 0 0.012552748648540632 -0.0028577565855730015 0 0.013338659108506885 -0.0035430959690998134 0 0.013195571641727749 -0.0022955582894771428 0 0.012552748648540632 -0.0028577565855730015 0 0.013338659108506885 -0.0035430959690998134 0 0.012992196595502867 -0.0031696858342556496 0 0.01316077559143693 -0.0031811257117267135 0 0.012552748648540632 -0.0028577565855730015 0 0.012992196595502867 -0.0031696858342556496 0 0.013338659108506885 -0.0035430959690998134 0 0.012992196595502867 -0.0031696858342556496 0 0.01325338267353679 -0.0030719804384828804 0 0.017287824866714738 -0.00071150760307498145 0 0.010491534176356633 -0.0010949487708119966 0 0.01316077559143693 -0.0031811257117267135 0 0.012992196595502867 -0.0031696858342556496 0 0.01325338267353679 -0.0030719804384828804 0 0.024386005361989146 -0.00081342145481077372 0 0.024622180513631686 -0.00094253335035254467 0 0.024628174998428926 -0.0011842883917497883 0 0.024622180513631686 -0.00094253335035254467 0 0.024311892863201314 -0.0016414076321899951 0 0.024628174998428926 -0.0011842883917497883 0 0.020697124359470614 -0.0018290918883424516 0 0.025015288249077037 -0.002125114352252181 0 0.017898326536047223 -0.0035244000935986302 0 0.020697124359470614 -0.0018290918883424516 0 0.023231986671924283 -0.0031359743865162549 0 0.024311892863201314 -0.0016414076321899951 0 0.022960466888117939 -0.0022601660434109047 0 0.023231986671924283 -0.0031359743865162549 0 0.024412194724213146 -0.0025750486122604315 0 0.024311892863201314 -0.0016414076321899951 0 0.023916722326518262 -0.0012404830187891483 0 0.024311892863201314 -0.0016414076321899951 0 0.022960466888117939 -0.0022601660434109047 0 0.023916722326518262 -0.0012404830187891483 0 0.024311892863201314 -0.0016414076321899951 0 0.024857597013594888 -0.0011605513049455429 0 0.025033579239565836 -0.00099858251139404194 0 0.024674925671220198 -0.0011064759348647828 0 0.024857597013594888 -0.0011605513049455429 0 0.024674925671220198 -0.0011064759348647828 0 0.024857597013594888 -0.0011605513049455429 0 0.024628174998428926 -0.0011842883917497883 0 0.024311892863201314 -0.0016414076321899951 0 0.024857597013594888 -0.0011605513049455429 0 0.024628174998428926 -0.0011842883917497883 0 0.021870137290403598 -0.0017368964397688489 0 0.022960466888117939 -0.0022601660434109047 0 0.021480839648528302 -0.003472809329968692 0 0.021870137290403598 -0.0017368964397688489 0 0.021480839648528302 -0.003472809329968692 0 0.020198672096167977 -0.002559102661366866 0 0.023916722326518262 -0.0012404830187891483 0 0.021870137290403598 -0.0017368964397688489 0 0.022960466888117939 -0.0022601660434109047 0 0.023231986671924283 -0.0031359743865162549 0 0.022960466888117939 -0.0022601660434109047 0 0.021480839648528302 -0.003472809329968692 0 0.017898326536047223 -0.0035244000935986302 0 0.018280714557091324 -0.0035686372413083712 0 0.013338659108506885 -0.0035430959690998134 0 0.01470762419734677 -0.0039237701732573235 0 0.013195571641727749 -0.0022955582894771428 0 0.01470762419734677 -0.0039237701732573235 0 0.015731117241211963 -0.0016250577951980138 0 0.013195571641727749 -0.0022955582894771428 0 0.015731117241211963 -0.0016250577951980138 0 0.013974675715653966 1.6059255210259184e-07 0 0.013195571641727749 -0.0022955582894771428 0 0.013974675715653966 1.6059255210259184e-07 0 0.013195571641727749 -0.0022955582894771428 0 0.011287146335724906 0.00042625300052677391 0 0.012552748648540632 -0.0028577565855730015 0 0.013195571641727749 -0.0022955582894771428 0 0.01213892659224901 -0.001630509444387334 0 0.013195571641727749 -0.0022955582894771428 0 0.01213892659224901 -0.001630509444387334 0 0.011287146335724906 0.00042625300052677391 0 0.010491534176356633 -0.0010949487708119966 0 0.01124861899808639 -0.00035921031696603762 0 0.0098877887544283737 0.00085243002684926949 0 0.0097958617025299399 0.0011591844896559937 0 0.010011616066871612 0.00042987241546079991 0 0.0098877887544283737 0.00085243002684926949 0 0.010011616066871612 0.00042987241546079991 0 0.0096276469278602644 0.00066183537845788899 0 0.01124861899808639 -0.00035921031696603762 0 0.011359710121635091 0.0004171232009003784 0 0.010011616066871612 0.00042987241546079991 0 0.0096276469278602644 0.00066183537845788899 0 0.011287146335724906 0.00042625300052677391 0 0.0096276469278602644 0.00066183537845788899 0 0.010060354254589465 0.0013098341664927809 0 0.011287146335724906 0.00042625300052677391 0 0.0096276469278602644 0.00066183537845788899 0 0.010060354254589465 0.0013098341664927809 0 0.0093025561433157881 0.0011556121602957087 0 0.0092775022220266054 0.00088539932325291926 0 0.0096276469278602644 0.00066183537845788899 0 0.0093025561433157881 0.0011556121602957087 0 0.0093025561433157881 0.0011556121602957087 0 0.0094721229158580261 0.0016524154324357016 0 0.0089966785491347543 0.0012629305537258182 0 0.0089024055778890564 0.0010347381673634136 0 0.0093025561433157881 0.0011556121602957087 0 0.0089966785491347543 0.0012629305537258182 0 0.010060354254589465 0.0013098341664927809 0 0.0094721229158580261 0.0016524154324357016 0 0.0099668130212515766 0.0022725008757565257 0 0.010060354254589465 0.0013098341664927809 0 0.0093025561433157881 0.0011556121602957087 0 0.0094721229158580261 0.0016524154324357016 0 0.0099668130212515766 0.0022725008757565257 0 0.01444399850480443 0.002041517016696416 0 0.011726067616366789 0.0013098850493619945 0 0.010060354254589465 0.0013098341664927809 0 0.0099668130212515766 0.0022725008757565257 0 0.011726067616366789 0.0013098850493619945 0 0.010264027950744242 0.0022487736362161027 0 0.011899382360531131 0.0017110483222466369 0 0.0099668130212515766 0.0022725008757565257 0 0.0092402459449618165 0.0016477331047712645 0 0.0089945270034804941 0.0024755764708430253 0 0.013974675715653966 1.6059255210259184e-07 0 0.01444399850480443 0.002041517016696416 0 0.011726067616366789 0.0013098850493619945 0 0.010060354254589465 0.0013098341664927809 0 0.011726067616366789 0.0013098850493619945 0 0.011287146335724906 0.00042625300052677391 0 0.013974675715653966 1.6059255210259184e-07 0 0.011726067616366789 0.0013098850493619945 0 0.011287146335724906 0.00042625300052677391 0 0.011287510306086046 -0.0003345907045516353 0 0.012425785143494761 0.00171631833809792 0 0.013554910641721691 9.1158027714745304e-05 0 0.011287510306086046 -0.0003345907045516353 0 0.010470587381790854 0.0021163620284307175 0 0.012425785143494761 0.00171631833809792 0 0.011899382360531131 0.0017110483222466369 0 0.014521390805561085 9.1322918980010678e-05 0 0.013974675715653966 1.6059255210259184e-07 0 0.01444399850480443 0.002041517016696416 0 0.017691423760163527 0.00053412180971599817 0 0.0092402459449618165 0.0016477331047712645 0 0.011287510306086046 -0.0003345907045516353 0 0.010470587381790854 0.0021163620284307175 0 0.0092402459449618165 0.0016477331047712645 0 0.010470587381790854 0.0021163620284307175 0 0.0089945270034804941 0.0024755764708430253 0 0.010470587381790854 0.0021163620284307175 0 0.010977901965107527 0.0035792997951371777 0 0.0089945270034804941 0.0024755764708430253 0 0.012425785143494761 0.00171631833809792 0 0.013862578094849162 0.0038969075103269016 0 0.010977901965107527 0.0035792997951371777 0 0.010470587381790854 0.0021163620284307175 0 0.012425785143494761 0.00171631833809792 0 0.010977901965107527 0.0035792997951371777 0 0.012425785143494761 0.00171631833809792 0 0.014958611472941179 0.0021027889509554368 0 0.013862578094849162 0.0038969075103269016 0 0.014958611472941179 0.0021027889509554368 0 0.015897536411795053 0.0030566293933846477 0 0.013862578094849162 0.0038969075103269016 0 0.015897536411795053 0.0030566293933846477 0 0.01695724345346698 0.0038268577983463707 0 0.013862578094849162 0.0038969075103269016 0 0.015263065782949708 0.0042726408903996493 0 0.013984131763596971 0.0049892879452272231 0 0.014372967201199464 0.0045117792562241544 0 0.014395406501613519 0.0045667536795298237 0 0.01432988906205853 0.0045756124088640847 0 0.017446250223943246 0.0030737261321547985 0 0.016860971641336198 0.0030802702814631076 0 0.01695724345346698 0.0038268577983463707 0 0.013984131763596971 0.0049892879452272231 0 0.013609745018178942 0.004231559482256818 0 0.015263065782949708 0.0042726408903996493 0 0.013609745018178942 0.004231559482256818 0 0.016860971641336198 0.0030802702814631076 0 0.015897536411795053 0.0030566293933846477 0 0.01695724345346698 0.0038268577983463707 0 0.016860971641336198 0.0030802702814631076 0 0.015897536411795053 0.0030566293933846477 0 0.016710231271784573 0.0022780195675576667 0 0.017446250223943246 0.0030737261321547985 0 0.016860971641336198 0.0030802702814631076 0 0.016710231271784573 0.0022780195675576667 0 0.014958611472941179 0.0021027889509554368 0 0.015897536411795053 0.0030566293933846477 0 0.016710231271784573 0.0022780195675576667 0 0.017446250223943246 0.0030737261321547985 0 0.016710231271784573 0.0022780195675576667 0 0.017851931426808517 0.0017990394782672759 0 0.015781826055356298 0.00036591336502670655 0 0.017576346780119195 -0.001382685683935213 0 0.017851931426808517 0.0017990394782672759 0 0.016710231271784573 0.0022780195675576667 0 0.015781826055356298 0.00036591336502670655 0 0.017851931426808517 0.0017990394782672759 0 0.014958611472941179 0.0021027889509554368 0 0.016710231271784573 0.0022780195675576667 0 0.015781826055356298 0.00036591336502670655 0 0.012425785143494761 0.00171631833809792 0 0.014958611472941179 0.0021027889509554368 0 0.013554910641721691 9.1158027714745304e-05 0 0.014958611472941179 0.0021027889509554368 0 0.015781826055356298 0.00036591336502670655 0 0.013554910641721691 9.1158027714745304e-05 0 0.015781826055356298 0.00036591336502670655 0 0.013554910641721691 9.1158027714745304e-05 0 0.014249168058142355 -0.0024192355474251257 0 0.014249168058142355 -0.0024192355474251257 0 0.017576346780119195 -0.001382685683935213 0 0.017437718027934496 -0.0043583544284295861 0 0.017837098472175551 -0.00086568817668040597 0 0.02018251754631455 -0.0018071099844560071 0 0.015781826055356298 0.00036591336502670655 0 0.014249168058142355 -0.0024192355474251257 0 0.017576346780119195 -0.001382685683935213 0 0.016706212829329242 -0.0018550410417485154 0 0.02018251754631455 -0.0018071099844560071 0 0.019605017004276446 -0.0011105883777477365 0 0.020202439265622277 -0.0019872149974667296 0 0.019500900538310776 -0.0024810453253809599 0 0.019605017004276446 -0.0011105883777477365 0 0.018472706956644457 -0.0017272805538362413 0 0.019500900538310776 -0.0024810453253809599 0 0.014521390805561085 9.1322918980010678e-05 0 0.016706212829329242 -0.0018550410417485154 0 0.017691423760163527 0.00053412180971599817 0 0.019605017004276446 -0.0011105883777477365 0 0.018472706956644457 -0.0017272805538362413 0 0.011287510306086046 -0.0003345907045516353 0 0.013554910641721691 9.1158027714745304e-05 0 0.014249168058142355 -0.0024192355474251257 0 0.015731117241211963 -0.0016250577951980138 0 0.017691423760163527 0.00053412180971599817 0 0.018472706956644457 -0.0017272805538362413 0 0.015731117241211963 -0.0016250577951980138 0 0.013974675715653966 1.6059255210259184e-07 0 0.017691423760163527 0.00053412180971599817 0 0.015731117241211963 -0.0016250577951980138 0 0.018472706956644457 -0.0017272805538362413 0 0.018636036608566667 -0.0032465117204188033 0 0.01470762419734677 -0.0039237701732573235 0 0.015731117241211963 -0.0016250577951980138 0 0.018636036608566667 -0.0032465117204188033 0 0.018280714557091324 -0.0035686372413083712 0 0.018661873718325377 -0.0032943995752828933 0 0.018472706956644457 -0.0017272805538362413 0 0.018636036608566667 -0.0032465117204188033 0 0.019500900538310776 -0.0024810453253809599 0 0.018636036608566667 -0.0032465117204188033 0 0.01964855537928575 -0.002566758046147 0 0.019500900538310776 -0.0024810453253809599 0 0.018636036608566667 -0.0032465117204188033 0 0.020198672096167977 -0.002559102661366866 0 0.01964855537928575 -0.002566758046147 0 0.021480839648528302 -0.003472809329968692 0 0.018636036608566667 -0.0032465117204188033 0 0.020198672096167977 -0.002559102661366866 0 0.021870137290403598 -0.0017368964397688489 0 0.020198672096167977 -0.002559102661366866 0 0.020431678905133414 -0.0019004842775489725 0 0.020198672096167977 -0.002559102661366866 0 0.020431678905133414 -0.0019004842775489725 0 0.01964855537928575 -0.002566758046147 0 0.020431678905133414 -0.0019004842775489725 0 0.019982905814323718 -0.0014460340806841841 0 0.01964855537928575 -0.002566758046147 0 0.021000953990734195 -0.00049980024087280684 0 0.021870137290403598 -0.0017368964397688489 0 0.020431678905133414 -0.0019004842775489725 0 0.030474218404320234 0.00079035892414742169 0 0.029951637069387263 0.00044356043018577423 0 0.030127290374085118 0.00072173867370278603 0 0.030778874335220072 0.0014449829405045534 0 0.026180597317784472 -0.00056796092719984929 0 0.019760782514518346 -0.0020251605843411751 0 0.019982905814323718 -0.0014460340806841841 0 0.01964855537928575 -0.002566758046147 0 0.026180597317784472 -0.00056796092719984929 0 0.024783734227014739 -0.00043539761538017327 0 0.026180597317784472 -0.00056796092719984929 0 0.022524362984534391 -0.0016733177578834055 0 0.019760782514518346 -0.0020251605843411751 0 0.01964855537928575 -0.002566758046147 0 0.019793648281244018 -0.0025317681626321701 0 0.01964855537928575 -0.002566758046147 0 0.019793648281244018 -0.0025317681626321701 0 0.019500900538310776 -0.0024810453253809599 0 0.02018251754631455 -0.0018071099844560071 0 0.022524362984534391 -0.0016733177578834055 0 0.020202439265622277 -0.0019872149974667296 0 0.019793648281244018 -0.0025317681626321701 0 0.019500900538310776 -0.0024810453253809599 0 0.027046186131264083 -0.00063517067869184112 0 0.028964922750798247 -0.00025757369399026568 0 0.025403586795392948 -0.00068489150100514316 0 0.025456347320793989 -0.00072307487291633197 0 0.025457640136728708 -0.00070730306878411333 0 0.025403586795392948 -0.00068489150100514316 0 0.025457640136728708 -0.00070730306878411333 0 0.025477670302550492 -0.00069601285853329456 0 0.025457640136728708 -0.00070730306878411333 0 0.025477670302550492 -0.00069601285853329456 0 0.025489355092543936 -0.00071788265762279442 0 0.030440095319613912 0.0006912151908594899 0 0.032335196935917465 0.00027572066102361515 0 0.03200084063721749 0.00073790521568569193 0 0.032494832709079081 0.00022978387149775962 0 0.032468630937632942 0.00029862555941825158 0 0.032442512064628254 0.00030006018174754079 0 0.027046186131264083 -0.00063517067869184112 0 0.033715326080977895 0.00016649904815279769 0 0.030440095319613912 0.0006912151908594899 0 0.03200084063721749 0.00073790521568569193 0 0.031303657877594968 0.0011525430750628839 0 0.032494832709079081 0.00022978387149775962 0 0.032468630937632942 0.00029862555941825158 0 0.032335196935917465 0.00027572066102361515 0 0.032442512064628254 0.00030006018174754079 0 0.032420678423005743 0.00017687586945718981 0 0.032591958510647404 0.00029321617759527871 0 0.032468630937632942 0.00029862555941825158 0 0.032442512064628254 0.00030006018174754079 0 0.032591958510647404 0.00029321617759527871 0 0.025456347320793989 -0.00072307487291633197 0 0.025457640136728708 -0.00070730306878411333 0 0.025489355092543936 -0.00071788265762279442 0 0.028964922750798247 -0.00025757369399026568 0 0.030746028404467961 0.00037901490198234358 0 0.025456347320793989 -0.00072307487291633197 0 0.025489355092543936 -0.00071788265762279442 0 0.025507111105533317 -0.00072282790994354802 0 0.026180597317784472 -0.00056796092719984929 0 0.030746028404467961 0.00037901490198234358 0 0.025491966013728311 -0.00072888150968132776 0 0.025456347320793989 -0.00072307487291633197 0 0.025507111105533317 -0.00072282790994354802 0 0.03274840910232233 0.00039692282686326662 0 0.032800577367161764 0.00034887264986418066 0 0.032591958510647404 0.00029321617759527871 0 0.030746028404467961 0.00037901490198234358 0 0.033180824792033367 0.00047261700088958516 0 0.032617606572391024 0.0003352814621719396 0 0.03274840910232233 0.00039692282686326662 0 0.032883722507165654 0.00033934179721486194 0 0.03274840910232233 0.00039692282686326662 0 0.032800577367161764 0.00034887264986418066 0 0.032883722507165654 0.00033934179721486194 0 0.032124015832898457 0.00083870813758939536 0 0.030746028404467961 0.00037901490198234358 0 0.031298917510710476 0.0010070550283600834 0 0.030546160415368357 0.0017499294404746974 0 0.031314905978857145 0.0021602513521713114 0 0.031298917510710476 0.0010070550283600834 0 0.030474218404320234 0.00079035892414742169 0 0.030546160415368357 0.0017499294404746974 0 0.033449607375437056 0.00023192402777211634 0 0.033095228553526757 0.0003055154495056094 0 0.033325773123794068 0.00025059841241414482 0 0.033095228553526757 0.0003055154495056094 0 0.033056875513071529 0.00022842597920214931 0 0.033325773123794068 0.00025059841241414482 0 0.032800577367161764 0.00034887264986418066 0 0.032883722507165654 0.00033934179721486194 0 0.033095228553526757 0.0003055154495056094 0 0.033449607375437056 0.00023192402777211634 0 0.032883722507165654 0.00033934179721486194 0 0.033095228553526757 0.0003055154495056094 0 0.033095228553526757 0.0003055154495056094 0 0.032805409450733215 0.00029269733205584606 0 0.033056875513071529 0.00022842597920214931 0 0.032800577367161764 0.00034887264986418066 0 0.032805409450733215 0.00029269733205584606 0 0.032591958510647404 0.00029321617759527871 0 0.032800577367161764 0.00034887264986418066 0 0.033095228553526757 0.0003055154495056094 0 0.032805409450733215 0.00029269733205584606 0 0.032805409450733215 0.00029269733205584606 0 0.032827636840631273 0.00023942967434851476 0 0.032618846419103509 0.00026253639517080001 0 0.032805409450733215 0.00029269733205584606 0 0.032827636840631273 0.00023942967434851476 0 0.033056875513071529 0.00022842597920214931 0 0.033056875513071529 0.00022842597920214931 0 0.032910209986767275 0.00010048458996000399 0 0.033325773123794068 0.00025059841241414482 0 0.032827636840631273 0.00023942967434851476 0 0.033056875513071529 0.00022842597920214931 0 0.032872254067610192 0.00022978723472970528 0 0.033056875513071529 0.00022842597920214931 0 0.032872254067610192 0.00022978723472970528 0 0.032910209986767275 0.00010048458996000399 0 0.032872254067610192 0.00022978723472970528 0 0.032728640347200029 0.00034986131437269365 0 0.033018419888581507 0.00055817046709999852 0 0.032872254067610192 0.00022978723472970528 0 0.033018419888581507 0.00055817046709999852 0 0.032910209986767275 0.00010048458996000399 0 0.032827636840631273 0.00023942967434851476 0 0.032872254067610192 0.00022978723472970528 0 0.032728640347200029 0.00034986131437269365 0 0.032591958510647404 0.00029321617759527871 0 0.032618846419103509 0.00026253639517080001 0 0.032335196935917465 0.00027572066102361515 0 0.032805409450733215 0.00029269733205584606 0 0.032591958510647404 0.00029321617759527871 0 0.032618846419103509 0.00026253639517080001 0 0.032827636840631273 0.00023942967434851476 0 0.032728640347200029 0.00034986131437269365 0 0.032618846419103509 0.00026253639517080001 0 0.032728640347200029 0.00034986131437269365 0 0.032618846419103509 0.00026253639517080001 0 0.032335196935917465 0.00027572066102361515 0 0.032468630937632942 0.00029862555941825158 0 0.032591958510647404 0.00029321617759527871 0 0.032335196935917465 0.00027572066102361515 0 0.032728640347200029 0.00034986131437269365 0 0.032335196935917465 0.00027572066102361515 0 0.03200084063721749 0.00073790521568569193 0 0.032728640347200029 0.00034986131437269365 0 0.03200084063721749 0.00073790521568569193 0 0.032474107436757306 0.00090265558560844957 0 0.03200084063721749 0.00073790521568569193 0 0.032474107436757306 0.00090265558560844957 0 0.0320448997320288 0.0012773582318070158 0 0.03200084063721749 0.00073790521568569193 0 0.0320448997320288 0.0012773582318070158 0 0.031303657877594968 0.0011525430750628839 0 0.032728640347200029 0.00034986131437269365 0 0.033018419888581507 0.00055817046709999852 0 0.032474107436757306 0.00090265558560844957 0 0.033018419888581507 0.00055817046709999852 0 0.032474107436757306 0.00090265558560844957 0 0.03272027844270331 0.0019286425267879123 0 0.032326851097871763 -0.00060987071426376314 0 0.032007943280759524 -0.0013308455685147199 0 0.031902529220617953 -0.0010366851062729992 0 0.033557744462374681 -0.00060680217253010807 0 0.026297064905202786 0.0023619504063590959 0 0.026297064905202786 0.0023619504063590959 0 0.021380191375842472 0.0069162601872392402 0 0.01836190688361837 0.0099882782102929842 0 0.018238978579819168 0.0094634326783386291 0 0.01783362407688352 0.0096446250558172696 0 0.025578668710152533 -0.00048826638443224591 0 0.022731880611337567 0.00021935233852508833 0 0.022700918252214642 -0.0013097780773667317 0 0.025578668710152533 -0.00048826638443224591 0 0.022731880611337567 0.00021935233852508833 0 0.024715387416737775 0.0028983915064891889 0 0.022731880611337567 0.00021935233852508833 0 0.024715387416737775 0.0028983915064891889 0 0.022384662657516617 0.0029559887733379892 0 0.022731880611337567 0.00021935233852508833 0 0.022700918252214642 -0.0013097780773667317 0 0.021288176489874328 -0.00047003480504641682 0 0.032474107436757306 0.00090265558560844957 0 0.03272027844270331 0.0019286425267879123 0 0.0320448997320288 0.0012773582318070158 0 0.03272027844270331 0.0019286425267879123 0 0.031665850538606655 0.0017184481775503653 0 0.0320448997320288 0.0012773582318070158 0 0.026297064905202786 0.0023619504063590959 0 0.027821333832899364 0.00031566392591803841 0 0.031665850538606655 0.0017184481775503653 0 0.0320448997320288 0.0012773582318070158 0 0.031303657877594968 0.0011525430750628839 0 0.022700918252214642 -0.0013097780773667317 0 0.020351441412095304 -0.0018928437884957253 0 0.020735156643579049 -0.0011152257074005412 0 0.031665850538606655 0.0017184481775503653 0 0.031303657877594968 0.0011525430750628839 0 0.030366943907344384 0.0014332668021269674 0 0.027821333832899364 0.00031566392591803841 0 0.023927893780063561 -1.6735092433481145e-05 0 0.027046186131264083 -0.00063517067869184112 0 0.023927893780063561 -1.6735092433481145e-05 0 0.030440095319613912 0.0006912151908594899 0 0.031303657877594968 0.0011525430750628839 0 0.030366943907344384 0.0014332668021269674 0 0.023927893780063561 -1.6735092433481145e-05 0 0.023842426770617688 -0.00017362929192531312 0 0.020735156643579049 -0.0011152257074005412 0 0.019979867737190203 -0.0010454157617802253 0 0.020128722038393835 -0.00031185942591342947 0 0.020342595914038072 -0.0017148420540791728 0 0.020319825405565508 -0.0013047053026638764 0 0.020735156643579049 -0.0011152257074005412 0 0.020351441412095304 -0.0018928437884957253 0 0.020342595914038072 -0.0017148420540791728 0 0.020735156643579049 -0.0011152257074005412 0 0.020319825405565508 -0.0013047053026638764 0 0.020735156643579049 -0.0011152257074005412 0 0.019979867737190203 -0.0010454157617802253 0 0.022700918252214642 -0.0013097780773667317 0 0.020735156643579049 -0.0011152257074005412 0 0.021288176489874328 -0.00047003480504641682 0 0.018421313375571013 -0.001860264073639906 0 0.020242772418154958 -0.0029794730474106117 0 0.019561976837930945 -0.0020599582415274736 0 0.02018251754631455 -0.0018071099844560071 0 0.027046186131264083 -0.00063517067869184112 0 0.018421313375571013 -0.001860264073639906 0 0.019561976837930945 -0.0020599582415274736 0 0.019420748100886707 -0.0014735053315346851 0 0.020242772418154958 -0.0029794730474106117 0 0.020338788772188695 -0.0018255631962386743 0 0.019561976837930945 -0.0020599582415274736 0 0.019561976837930945 -0.0020599582415274736 0 0.019904504057433839 -0.0016601767090265304 0 0.019420748100886707 -0.0014735053315346851 0 0.020320657061965029 -0.0018747461247019799 0 0.019561976837930945 -0.0020599582415274736 0 0.019904504057433839 -0.0016601767090265304 0 0.023927893780063561 -1.6735092433481145e-05 0 0.020215434767149838 -0.0014025563587821853 0 0.020320657061965029 -0.0018747461247019799 0 0.020342595914038072 -0.0017148420540791728 0 0.019904504057433839 -0.0016601767090265304 0 0.020319825405565508 -0.0013047053026638764 0 0.019904504057433839 -0.0016601767090265304 0 0.019979867737190203 -0.0010454157617802253 0 0.019904504057433839 -0.0016601767090265304 0 0.019979867737190203 -0.0010454157617802253 0 0.019420748100886707 -0.0014735053315346851 0 0.020342595914038072 -0.0017148420540791728 0 0.020319825405565508 -0.0013047053026638764 0 0.019904504057433839 -0.0016601767090265304 0 0.019979867737190203 -0.0010454157617802253 0 0.019420748100886707 -0.0014735053315346851 0 0.019286937223708216 -0.00073163429180994426 0 0.018421313375571013 -0.001860264073639906 0 0.019420748100886707 -0.0014735053315346851 0 0.019286937223708216 -0.00073163429180994426 0 0.018426584246145801 8.3024999706808109e-05 0 0.018421313375571013 -0.001860264073639906 0 0.019286937223708216 -0.00073163429180994426 0 0.019311745556170396 3.990734339471501e-05 0 0.020128722038393835 -0.00031185942591342947 0 0.019400838709541037 0.0010278998755642681 0 0.018426584246145801 8.3024999706808109e-05 0 0.019286937223708216 -0.00073163429180994426 0 0.019311745556170396 3.990734339471501e-05 0 0.019286937223708216 -0.00073163429180994426 0 0.019311745556170396 3.990734339471501e-05 0 0.020128722038393835 -0.00031185942591342947 0 0.019979867737190203 -0.0010454157617802253 0 0.019286937223708216 -0.00073163429180994426 0 0.020128722038393835 -0.00031185942591342947 0 0.018426584246145801 8.3024999706808109e-05 0 0.019311745556170396 3.990734339471501e-05 0 0.019400838709541037 0.0010278998755642681 0 0.022485303109127296 0.00042796407722859101 0 0.0206287176902686 0.0034903379170079631 0 0.021050255425819953 -0.00033126713182569657 0 0.019629742611723205 0.0016876470626738258 0 0.021288176489874328 -0.00047003480504641682 0 0.020128722038393835 -0.00031185942591342947 0 0.019400838709541037 0.0010278998755642681 0 0.022731880611337567 0.00021935233852508833 0 0.021288176489874328 -0.00047003480504641682 0 0.020553539129021657 0.0031692622005306086 0 0.020735156643579049 -0.0011152257074005412 0 0.021288176489874328 -0.00047003480504641682 0 0.020128722038393835 -0.00031185942591342947 0 0.022731880611337567 0.00021935233852508833 0 0.020032014937769623 0.0037598511986946322 0 0.022384662657516617 0.0029559887733379892 0 0.021288176489874328 -0.00047003480504641682 0 0.020553539129021657 0.0031692622005306086 0 0.019209940710170809 0.0026139309982451857 0 0.020032014937769623 0.0037598511986946322 0 0.022020543705561089 0.004950076179941091 0 0.022384662657516617 0.0029559887733379892 0 0.017837098472175551 -0.00086568817668040597 0 0.017937125920377214 0.0017471093834081149 0 0.018426584246145801 8.3024999706808109e-05 0 0.019400838709541037 0.0010278998755642681 0 0.017851931426808517 0.0017990394782672759 0 0.020553539129021657 0.0031692622005306086 0 0.019209940710170809 0.0026139309982451857 0 0.018518126620142464 0.0048228446590506333 0 0.017123634306521456 0.0057335150218893972 0 0.019209940710170809 0.0026139309982451857 0 0.018518126620142464 0.0048228446590506333 0 0.017446250223943246 0.0030737261321547985 0 0.019400838709541037 0.0010278998755642681 0 0.017851931426808517 0.0017990394782672759 0 0.0206287176902686 0.0034903379170079631 0 0.015354987359634351 0.0056704727630010627 0 0.020553539129021657 0.0031692622005306086 0 0.018518126620142464 0.0048228446590506333 0 0.018309377159450871 0.006237280191751334 0 0.015354987359634351 0.0056704727630010627 0 0.01721146396009552 0.006137748805721625 0 0.015263065782949708 0.0042726408903996493 0 0.019629742611723205 0.0016876470626738258 0 0.017123634306521456 0.0057335150218893972 0 0.018518126620142464 0.0048228446590506333 0 0.017394343061742708 0.0063624177526890764 0 0.018518126620142464 0.0048228446590506333 0 0.018309377159450871 0.006237280191751334 0 0.017394343061742708 0.0063624177526890764 0 0.015354987359634351 0.0056704727630010627 0 0.013984131763596971 0.0049892879452272231 0 0.012831369848117034 0.0054981357284450295 0 0.013121936445895164 0.0054579526630056394 0 0.013071369317305587 0.0055931639678760787 0 0.020032014937769623 0.0037598511986946322 0 0.020608279662344419 0.0068983687737124034 0 0.022020543705561089 0.004950076179941091 0 0.020032014937769623 0.0037598511986946322 0 0.017433612382379352 0.0073353621366370105 0 0.020608279662344419 0.0068983687737124034 0 0.020608279662344419 0.0068983687737124034 0 0.022020543705561089 0.004950076179941091 0 0.023733490723942634 0.0064508401804259556 0 0.01721146396009552 0.006137748805721625 0 0.016171041777438555 0.0059440572230720756 0 0.013121936445895164 0.0054579526630056394 0 0.013396602076404002 0.0054170302328532061 0 0.01334777734460918 0.0055514457275416991 0 0.016171041777438555 0.0059440572230720756 0 0.0089429694624738598 0.0042965427815906841 0 0.016171041777438555 0.0059440572230720756 0 0.011839185614412204 0.006734292658193807 0 0.018340974451250765 0.0088081595023840019 0 0.018238978579819168 0.0094634326783386291 0 0.017430923691512685 0.0090591979877798368 0 0.0097916949630387842 0.0040263317268584564 0 0.0077742589608698447 0.0033251680997888121 0 0.010049777227616224 0.0030513026965294271 0 0.0097916949630387842 0.0040263317268584564 0 0.0077742589608698447 0.0033251680997888121 0 0.0071825033477273901 0.0043017239450842673 0 0.018238978579819168 0.0094634326783386291 0 0.01783362407688352 0.0096446250558172696 0 0.017552974921472567 0.0093878237260857159 0 0.018238978579819168 0.0094634326783386291 0 0.017430923691512685 0.0090591979877798368 0 0.017552974921472567 0.0093878237260857159 0 0.016171041777438555 0.0059440572230720756 0 0.021380191375842472 0.0069162601872392402 0 0.022020543705561089 0.004950076179941091 0 0.023733490723942634 0.0064508401804259556 0 0.024715387416737775 0.0028983915064891889 0 0.022020543705561089 0.004950076179941091 0 0.024715387416737775 0.0028983915064891889 0 0.022384662657516617 0.0029559887733379892 0 0.0060430741762962144 0.0035812470067514588 0 0.0055544628926520933 0.0037046476566979427 0 0.0055798005568594563 0.0033382756334242873 0 0.0052548765167816439 0.0034782491850257596 0 0.0055544628926520933 0.0037046476566979427 0 0.0053285861582727436 0.0037840054905628616 0 0.0052548765167816439 0.0034782491850257596 0 0.0055544628926520933 0.0037046476566979427 0 0.0055798005568594563 0.0033382756334242873 0 0.0063944063791078259 0.0035976946142762052 0 0.0089429694624738598 0.0042965427815906841 0 0.0053491844962556406 0.0038801657028394933 0 0.0054818046495127976 0.003837136832616148 0 0.0057584417965463345 0.0039987809112693989 0 0.0055544628926520933 0.0037046476566979427 0 0.0054818046495127976 0.003837136832616148 0 0.0057584417965463345 0.0039987809112693989 0 0.0055544628926520933 0.0037046476566979427 0 0.0054818046495127976 0.003837136832616148 0 0.0053285861582727436 0.0037840054905628616 0 0.0053491844962556406 0.0038801657028394933 0 0.0054818046495127976 0.003837136832616148 0 0.0053285861582727436 0.0037840054905628616 0 0.0053732693091873354 0.0037735180567617732 0 0.0089429694624738598 0.0042965427815906841 0 0.0060430741762962144 0.0035812470067514588 0 0.0058267091486942559 0.0045758257615599344 0 0.0065685949164713099 0.0044872668099408134 0 0.0060430741762962144 0.0035812470067514588 0 0.0055544628926520933 0.0037046476566979427 0 0.0057584417965463345 0.0039987809112693989 0 0.0089429694624738598 0.0042965427815906841 0 0.0098823510746960871 0.0050377446667494814 0 0.013121936445895164 0.0054579526630056394 0 0.01334777734460918 0.0055514457275416991 0 0.013071369317305587 0.0055931639678760787 0 0.0098823510746960871 0.0050377446667494814 0 0.010290122588014807 0.0053983243162466681 0 0.0065685949164713099 0.0044872668099408134 0 0.007333656681273999 0.0044045132002811689 0 0.0068842065231677543 0.0034903957874679215 0 0.012831369848117034 0.0054981357284450295 0 0.013071369317305587 0.0055931639678760787 0 0.012778836390839394 0.0056338725985775311 0 0.012831369848117034 0.0054981357284450295 0 0.012759618779457882 0.0055875995038187874 0 0.012778836390839394 0.0056338725985775311 0 0.011668135828608407 0.005452350224978697 0 0.010290122588014807 0.0053983243162466681 0 0.013984131763596971 0.0049892879452272231 0 0.011668135828608407 0.005452350224978697 0 0.013712592996134743 0.005209166752190293 0 0.013275658659874224 0.0052704751293832655 0 0.013421247717848169 0.0056109670232665472 0 0.010990380823897592 0.004015079301738801 0 0.010979361853777417 0.0040051179248646379 0 0.010972536017825114 0.0040103740361776066 0 0.010987177299710493 0.003997652624926404 0 0.010990380823897592 0.004015079301738801 0 0.010979361853777417 0.0040051179248646379 0 0.015354987359634351 0.0056704727630010627 0 0.011668135828608407 0.005452350224978697 0 0.0084315810282427628 0.0065910486413196237 0 0.0086011467426056407 0.0055123768811063817 0 0.0077104818591009431 0.0050363448545861509 0 0.010290122588014807 0.0053983243162466681 0 0.0070409888365928668 0.0041822693105551508 0 0.0086011467426056407 0.0055123768811063817 0 0.0077104818591009431 0.0050363448545861509 0 0.0087841402070564286 0.0047931042069184913 0 0.0060430741762962144 0.0035812470067514588 0 0.0065685949164713099 0.0044872668099408134 0 0.0068842065231677543 0.0034903957874679215 0 0.0070409888365928668 0.0041822693105551508 0 0.0067573340578581005 0.0030998922247391487 0 0.0060430741762962144 0.0035812470067514588 0 0.0068842065231677543 0.0034903957874679215 0 0.0064991158365262387 0.0027144874458616005 0 0.0077104818591009431 0.0050363448545861509 0 0.0086493843161854645 0.0037438439571355008 0 0.0087841402070564286 0.0047931042069184913 0 0.0077104818591009431 0.0050363448545861509 0 0.0086493843161854645 0.0037438439571355008 0 0.0069613776703955962 0.0034774101038874553 0 0.0086493843161854645 0.0037438439571355008 0 0.0081063894190670435 0.0026373804456780938 0 0.0090873299435184265 0.0026026763091944599 0 0.0086493843161854645 0.0037438439571355008 0 0.0081063894190670435 0.0026373804456780938 0 0.0069613776703955962 0.0034774101038874553 0 0.0081063894190670435 0.0026373804456780938 0 0.0069613776703955962 0.0034774101038874553 0 0.0073252151792308788 0.0018934703972811504 0 0.0067573340578581005 0.0030998922247391487 0 0.0062116077608518417 0.0019301565310544089 0 0.0058343076933051853 0.0028141135554344671 0 0.0053600446052970829 0.0022076469658301404 0 0.0061854819474466997 0.0018636817412813966 0 0.0064991158365262387 0.0027144874458616005 0 0.0058343076933051853 0.0028141135554344671 0 0.0061854819474466997 0.0018636817412813966 0 0.0060430741762962144 0.0035812470067514588 0 0.0064991158365262387 0.0027144874458616005 0 0.0058343076933051853 0.0028141135554344671 0 0.0060430741762962144 0.0035812470067514588 0 0.0058343076933051853 0.0028141135554344671 0 0.0055798005568594563 0.0033382756334242873 0 0.0058343076933051853 0.0028141135554344671 0 0.0052728530571693648 0.0029721626530054093 0 0.0055798005568594563 0.0033382756334242873 0 0.0052548765167816439 0.0034782491850257596 0 0.0052728530571693648 0.0029721626530054093 0 0.0055798005568594563 0.0033382756334242873 0 0.0058343076933051853 0.0028141135554344671 0 0.0052728530571693648 0.0029721626530054093 0 0.0053600446052970829 0.0022076469658301404 0 0.0052728530571693648 0.0029721626530054093 0 0.0053600446052970829 0.0022076469658301404 0 0.0047052645274040378 0.0025214203110329307 0 0.0053600446052970829 0.0022076469658301404 0 0.0053737236606876109 0.0014176513673824199 0 0.0046694036651027246 0.0015772497810297497 0 0.0053600446052970829 0.0022076469658301404 0 0.0047052645274040378 0.0025214203110329307 0 0.0046694036651027246 0.0015772497810297497 0 0.0053600446052970829 0.0022076469658301404 0 0.0061854819474466997 0.0018636817412813966 0 0.0053737236606876109 0.0014176513673824199 0 0.0061854819474466997 0.0018636817412813966 0 0.0058506141718491838 0.00095194175436651108 0 0.0066803111083166078 0.001137942556678147 0 0.0061854819474466997 0.0018636817412813966 0 0.0058506141718491838 0.00095194175436651108 0 0.0053737236606876109 0.0014176513673824199 0 0.00532500637519544 0.00072758409324327267 0 0.0058506141718491838 0.00095194175436651108 0 0.0053737236606876109 0.0014176513673824199 0 0.0058558110096075359 0.00065040593067934268 0 0.0055517307811632968 0.00037986678855646527 0 0.00532500637519544 0.00072758409324327267 0 0.0058506141718491838 0.00095194175436651108 0 0.0061835778680252454 0.00047328476197327081 0 0.0053737236606876109 0.0014176513673824199 0 0.0048409362041862847 0.00086768416961641376 0 0.0046694036651027246 0.0015772497810297497 0 0.00532500637519544 0.00072758409324327267 0 0.0053737236606876109 0.0014176513673824199 0 0.0048409362041862847 0.00086768416961641376 0 0.00532500637519544 0.00072758409324327267 0 0.0048409362041862847 0.00086768416961641376 0 0.0047121840222904381 0.00017225566575710305 0 0.0048409362041862847 0.00086768416961641376 0 0.0047121840222904381 0.00017225566575710305 0 0.0044363280220589309 0.00041858285505976824 0 0.0047121840222904381 0.00017225566575710305 0 0.0043325281685533826 8.3480229249707671e-05 0 0.0044363280220589309 0.00041858285505976824 0 0.0047068660406211459 0.00012707182102102621 0 0.0055517307811632968 0.00037986678855646527 0 0.00532500637519544 0.00072758409324327267 0 0.0047121840222904381 0.00017225566575710305 0 0.0061835778680252454 0.00047328476197327081 0 0.0047121840222904381 0.00017225566575710305 0 0.004548413223035396 0.00014306233973748915 0 0.0045417630139567905 8.3557265576230806e-05 0 0.004548413223035396 0.00014306233973748915 0 0.0043982033994907615 6.1752668075649951e-05 0 0.0045248800607864022 5.4117660855874558e-05 0 0.0047121840222904381 0.00017225566575710305 0 0.004548413223035396 0.00014306233973748915 0 0.0043982033994907615 6.1752668075649951e-05 0 0.0047121840222904381 0.00017225566575710305 0 0.0043982033994907615 6.1752668075649951e-05 0 0.0043325281685533826 8.3480229249707671e-05 0 0.0051115870896703691 -9.4149784403672068e-06 0 0.0051706317573268021 0.0001663600092068543 0 0.0053447653432743833 0.00020400087544390462 0 0.0036981774194091059 -0.00024142417579851375 0 0.0038950308721354726 -4.3910478943767361e-05 0 0.0038318293368677938 -0.00025017005056749949 0 0.0041354728373318769 -0.00027201364309169192 0 0.0046753481562539778 0.0001156230967166957 0 0.0051115870896703691 -9.4149784403672068e-06 0 0.0050165179356143341 0.00012575241466947489 0 0.0051706317573268021 0.0001663600092068543 0 0.0041354728373318769 -0.00027201364309169192 0 0.0047738162919914919 -2.9303416107300587e-05 0 0.004548413223035396 0.00014306233973748915 0 0.0045541766192944188 0.00013014590060728899 0 0.0045248800607864022 5.4117660855874558e-05 0 0.0036321088560224125 -0.00048269522570562975 0 0.0037545490487202217 -0.0004522618026328884 0 0.0037225746421092588 -0.00059979645061469019 0 0.0047738162919914919 -2.9303416107300587e-05 0 0.0041116053306231868 -0.00024889033469039002 0 0.0037545490487202217 -0.0004522618026328884 0 0.0037225746421092588 -0.00059979645061469019 0 0.0038827368821131034 -0.00042123131230776758 0 0.0047738162919914919 -2.9303416107300587e-05 0 0.0055517307811632968 0.00037986678855646527 0 0.004548413223035396 0.00014306233973748915 0 0.0045541766192944188 0.00013014590060728899 0 0.0045417630139567905 8.3557265576230806e-05 0 0.0053861438814567014 0.00043688803923442931 0 0.005822523704354406 0.00036525474701865328 0 0.0060576430101553589 0.00074416438161454515 0 0.0057804284363525294 -0.00011694482569944191 0 0.0053861438814567014 0.00043688803923442931 0 0.005822523704354406 0.00036525474701865328 0 0.0047738162919914919 -2.9303416107300587e-05 0 0.0057091939039222222 0.00037709087541823265 0 0.0050165179356143341 0.00012575241466947489 0 0.0051706317573268021 0.0001663600092068543 0 0.0052071489478097647 0.00034165307257217958 0 0.0057804284363525294 -0.00011694482569944191 0 0.005822523704354406 0.00036525474701865328 0 0.0062558117350560768 0.0004658493252352734 0 0.005822523704354406 0.00036525474701865328 0 0.0062558117350560768 0.0004658493252352734 0 0.0060576430101553589 0.00074416438161454515 0 0.0051706317573268021 0.0001663600092068543 0 0.0052071489478097647 0.00034165307257217958 0 0.0053447653432743833 0.00020400087544390462 0 0.0071886112493332981 0.00083509778122244386 0 0.0068016970032714194 0.00093322779577258207 0 0.0077822302868377474 0.00073524387322074995 0 0.0083070065594127232 0.0018346818187274501 0 0.0092543460294349407 0.0013307854420663121 0 0.0062558117350560768 0.0004658493252352734 0 0.0060576430101553589 0.00074416438161454515 0 0.0067295247024898768 0.0010516527706635049 0 0.0055517307811632968 0.00037986678855646527 0 0.0071886112493332981 0.00083509778122244386 0 0.0077822302868377474 0.00073524387322074995 0 0.0066803111083166078 0.001137942556678147 0 0.0073252151792308788 0.0018934703972811504 0 0.0063521178010730187 0.00018253148206887182 0 0.0077822302868377474 0.00073524387322074995 0 0.0066803111083166078 0.001137942556678147 0 0.0058506141718491838 0.00095194175436651108 0 0.0063521178010730187 0.00018253148206887182 0 0.0066803111083166078 0.001137942556678147 0 0.0069613776703955962 0.0034774101038874553 0 0.0061854819474466997 0.0018636817412813966 0 0.0073252151792308788 0.0018934703972811504 0 0.0061854819474466997 0.0018636817412813966 0 0.0066803111083166078 0.001137942556678147 0 0.0073252151792308788 0.0018934703972811504 0 0.0077822302868377474 0.00073524387322074995 0 0.0073252151792308788 0.0018934703972811504 0 0.0083070065594127232 0.0018346818187274501 0 0.0081063894190670435 0.0026373804456780938 0 0.0073252151792308788 0.0018934703972811504 0 0.0083070065594127232 0.0018346818187274501 0 0.0081063894190670435 0.0026373804456780938 0 0.0083070065594127232 0.0018346818187274501 0 0.0090873299435184265 0.0026026763091944599 0 0.0092543460294349407 0.0013307854420663121 0 0.01046693732725912 0.002859590141908069 0 0.0090873299435184265 0.0026026763091944599 0 0.0083070065594127232 0.0018346818187274501 0 0.0092543460294349407 0.0013307854420663121 0 0.0090873299435184265 0.0026026763091944599 0 0.005257713946249994 0.00037416496970193053 0 0.0068016970032714194 0.00093322779577258207 0 0.0054768538097903765 0.00053979672136152839 0 0.0053739418545241053 0.00047581750318553205 0 0.0055185350765802523 0.00073681556299519868 0 0.0068016970032714194 0.00093322779577258207 0 0.0080544955890051746 0.0018188280610298918 0 0.0054768538097903765 0.00053979672136152839 0 0.0055793356400956765 0.00054925502766090147 0 0.0055185350765802523 0.00073681556299519868 0 0.0054768538097903765 0.00053979672136152839 0 0.0055793356400956765 0.00054925502766090147 0 0.0055311073135271577 0.00040079263025843146 0 0.0054768538097903765 0.00053979672136152839 0 0.0055311073135271577 0.00040079263025843146 0 0.0053789720056610152 0.00051133917313891963 0 0.0055311073135271577 0.00040079263025843146 0 0.0053789720056610152 0.00051133917313891963 0 0.0053701106181035024 0.00036916683219123767 0 0.0052071489478097647 0.00034165307257217958 0 0.0053789720056610152 0.00051133917313891963 0 0.0053701106181035024 0.00036916683219123767 0 0.0057091939039222222 0.00037709087541823265 0 0.0068016970032714194 0.00093322779577258207 0 0.0052071489478097647 0.00034165307257217958 0 0.0053701106181035024 0.00036916683219123767 0 0.0053447653432743833 0.00020400087544390462 0 0.0055311073135271577 0.00040079263025843146 0 0.0053701106181035024 0.00036916683219123767 0 0.0053447653432743833 0.00020400087544390462 0 0.0049916177714323957 0.00030214563738819238 0 0.0046753481562539778 0.0001156230967166957 0 0.0044491577623231296 0.00028053936461282973 0 0.0038950308721354726 -4.3910478943767361e-05 0 0.0042846620943008118 -7.8904269590962092e-05 0 0.0044491577623231296 0.00028053936461282973 0 0.0042846620943008118 -7.8904269590962092e-05 0 0.0048794924743802053 3.3724689803912495e-05 0 0.0042846620943008118 -7.8904269590962092e-05 0 0.0039489687878867114 -0.0002961880034368372 0 0.0044045622688569635 -0.00022200749350471767 0 0.0038950308721354726 -4.3910478943767361e-05 0 0.0038318293368677938 -0.00025017005056749949 0 0.0039489687878867114 -0.0002961880034368372 0 0.0038950308721354726 -4.3910478943767361e-05 0 0.0042846620943008118 -7.8904269590962092e-05 0 0.0039489687878867114 -0.0002961880034368372 0 0.0048613127840296394 -0.00016754538815585439 0 0.0051128822741964598 -0.00031081525545612694 0 0.0044390127725276495 -0.00027262061539304967 0 0.0048613127840296394 -0.00016754538815585439 0 0.0044045622688569635 -0.00022200749350471767 0 0.0044390127725276495 -0.00027262061539304967 0 0.0048613127840296394 -0.00016754538815585439 0 0.0044045622688569635 -0.00022200749350471767 0 0.0048794924743802053 3.3724689803912495e-05 0 0.0042846620943008118 -7.8904269590962092e-05 0 0.0044045622688569635 -0.00022200749350471767 0 0.0048794924743802053 3.3724689803912495e-05 0 0.0048613127840296394 -0.00016754538815585439 0 0.0048794924743802053 3.3724689803912495e-05 0 0.0054952530065105597 0.00014312335326326745 0 0.0048613127840296394 -0.00016754538815585439 0 0.0054952530065105597 0.00014312335326326745 0 0.0051128822741964598 -0.00031081525545612694 0 0.0054952530065105597 0.00014312335326326745 0 0.0055880234613574107 0.00049305189764396046 0 0.0065093030513797062 0.00048040921942809603 0 0.0044491577623231296 0.00028053936461282973 0 0.0048794924743802053 3.3724689803912495e-05 0 0.0055880234613574107 0.00049305189764396046 0 0.0055793356400956765 0.00054925502766090147 0 0.0055311073135271577 0.00040079263025843146 0 0.0055880234613574107 0.00049305189764396046 0 0.0049916177714323957 0.00030214563738819238 0 0.0054903055071796377 0.00049456965068115158 0 0.0048794924743802053 3.3724689803912495e-05 0 0.0054952530065105597 0.00014312335326326745 0 0.0055880234613574107 0.00049305189764396046 0 0.0055793356400956765 0.00054925502766090147 0 0.0055880234613574107 0.00049305189764396046 0 0.0059226054837180145 0.00082541036535328826 0 0.0055880234613574107 0.00049305189764396046 0 0.0065069290787341146 0.00084207338741758221 0 0.0065093030513797062 0.00048040921942809603 0 0.0065069290787341146 0.00084207338741758221 0 0.00692528545638103 0.001308940993941396 0 0.0060901784385222384 0.0012432915612694982 0 0.00692528545638103 0.001308940993941396 0 0.0060901784385222384 0.0012432915612694982 0 0.0071596414537068139 0.0018693953996374252 0 0.0065069290787341146 0.00084207338741758221 0 0.00692528545638103 0.001308940993941396 0 0.0074840434010529158 0.001131883535595791 0 0.010973365394782188 0.0040335097416028982 0 0.010812504028747784 0.0040293098606274218 0 0.010881047442622697 0.0040177309579434344 0 0.0055880234613574107 0.00049305189764396046 0 0.0065069290787341146 0.00084207338741758221 0 0.0059226054837180145 0.00082541036535328826 0 0.0065069290787341146 0.00084207338741758221 0 0.0060901784385222384 0.0012432915612694982 0 0.0059226054837180145 0.00082541036535328826 0 0.0084935216755147435 0.0025915697273030656 0 0.0080544955890051746 0.0018188280610298918 0 0.0060901784385222384 0.0012432915612694982 0 0.0059226054837180145 0.00082541036535328826 0 0.0055185350765802523 0.00073681556299519868 0 0.0055793356400956765 0.00054925502766090147 0 0.0059226054837180145 0.00082541036535328826 0 0.0055185350765802523 0.00073681556299519868 0 0.01046693732725912 0.002859590141908069 0 0.0097068865310542436 0.0034485660397321561 0 0.010561952624777382 0.0039166978247315559 0 0.010973365394782188 0.0040335097416028982 0 0.01046693732725912 0.002859590141908069 0 0.010561952624777382 0.0039166978247315559 0 0.0086493843161854645 0.0037438439571355008 0 0.0090873299435184265 0.0026026763091944599 0 0.0097068865310542436 0.0034485660397321561 0 0.01046693732725912 0.002859590141908069 0 0.0090873299435184265 0.0026026763091944599 0 0.0097068865310542436 0.0034485660397321561 0 0.0094671571526322457 0.0042545278888716604 0 0.010561952624777382 0.0039166978247315559 0 0.0095111319264248109 0.0054249603977400461 0 0.0086493843161854645 0.0037438439571355008 0 0.0097068865310542436 0.0034485660397321561 0 0.0094671571526322457 0.0042545278888716604 0 0.0086493843161854645 0.0037438439571355008 0 0.0094671571526322457 0.0042545278888716604 0 0.0087841402070564286 0.0047931042069184913 0 0.0094671571526322457 0.0042545278888716604 0 0.0087841402070564286 0.0047931042069184913 0 0.0095111319264248109 0.0054249603977400461 0 0.010650529809163044 0.0039128363411955157 0 0.0099540901211811143 0.0048123517719724758 0 0.0097068865310542436 0.0034485660397321561 0 0.0094671571526322457 0.0042545278888716604 0 0.010561952624777382 0.0039166978247315559 0 0.010973365394782188 0.0040335097416028982 0 0.010561952624777382 0.0039166978247315559 0 0.010812504028747784 0.0040293098606274218 0 0.010561952624777382 0.0039166978247315559 0 0.010812504028747784 0.0040293098606274218 0 0.010841958120902741 0.0040210913083273568 0 0.010561952624777382 0.0039166978247315559 0 0.010841958120902741 0.0040210913083273568 0 0.010909257045777922 0.0040498879080197283 0 0.010812504028747784 0.0040293098606274218 0 0.010841958120902741 0.0040210913083273568 0 0.010881047442622697 0.0040177309579434344 0 0.010914498325807591 0.0039741832167277539 0 0.010939476540213378 0.0041258135389139481 0 0.010841958120902741 0.0040210913083273568 0 0.011075357129600371 0.0038696092347342524 0 0.010948145943288584 0.0038797058353400018 0 0.010841958120902741 0.0040210913083273568 0 0.010948145943288584 0.0038797058353400018 0 0.010881047442622697 0.0040177309579434344 0 0.0084315810282427628 0.0065910486413196237 0 0.0086011467426056407 0.0055123768811063817 0 0.0095111319264248109 0.0054249603977400461 0 0.0086011467426056407 0.0055123768811063817 0 0.0087841402070564286 0.0047931042069184913 0 0.0095111319264248109 0.0054249603977400461 0 0.010841958120902741 0.0040210913083273568 0 0.010909257045777922 0.0040498879080197283 0 0.010915478070026317 0.0040273580402304986 0 0.011668135828608407 0.005452350224978697 0 0.0099540901211811143 0.0048123517719724758 0 0.013609745018178942 0.004231559482256818 0 0.012537194438639267 0.0037586534962031873 0 0.011075357129600371 0.0038696092347342524 0 0.011178216977647037 0.0037500171730575492 0 0.01098538261374991 0.003780569694749018 0 0.0085283233601575418 0.0067935249146061118 0 0.0084315810282427628 0.0065910486413196237 0 0.0095111319264248109 0.0054249603977400461 0 0.010990380823897592 0.004015079301738801 0 0.010909257045777922 0.0040498879080197283 0 0.010950831300447201 0.0040210561714486698 0 0.010909257045777922 0.0040498879080197283 0 0.010950831300447201 0.0040210561714486698 0 0.010915478070026317 0.0040273580402304986 0 0.010939476540213378 0.0041258135389139481 0 0.013609745018178942 0.004231559482256818 0 0.010990380823897592 0.004015079301738801 0 0.010950831300447201 0.0040210561714486698 0 0.010972536017825114 0.0040103740361776066 0 0.010950831300447201 0.0040210561714486698 0 0.010915478070026317 0.0040273580402304986 0 0.010969674290711419 0.0039988414455002673 0 0.010950831300447201 0.0040210561714486698 0 0.010969674290711419 0.0039988414455002673 0 0.010972536017825114 0.0040103740361776066 0 0.010987177299710493 0.003997652624926404 0 0.010969674290711419 0.0039988414455002673 0 0.010979361853777417 0.0040051179248646379 0 0.010969674290711419 0.0039988414455002673 0 0.010979361853777417 0.0040051179248646379 0 0.010972536017825114 0.0040103740361776066 0 0.010948145943288584 0.0038797058353400018 0 0.01098538261374991 0.003780569694749018 0 0.010962133836757631 0.0038027980967891388 0 0.011075357129600371 0.0038696092347342524 0 0.010948145943288584 0.0038797058353400018 0 0.01098538261374991 0.003780569694749018 0 0.012537194438639267 0.0037586534962031873 0 0.011104955731569976 0.003689609595389672 0 0.010977901965107527 0.0035792997951371777 0 0.010962133836757631 0.0038027980967891388 0 0.010456529762427358 0.0041388973017803159 0 0.01098538261374991 0.003780569694749018 0 0.010977901965107527 0.0035792997951371777 0 0.010962133836757631 0.0038027980967891388 0 0.008806633695585743 0.0029076577714549417 0 0.0088906226180149508 0.0025158951416493851 0 0.010977901965107527 0.0035792997951371777 0 0.010456529762427358 0.0041388973017803159 0 0.0089945270034804941 0.0024755764708430253 0 0.00692528545638103 0.001308940993941396 0 0.0071596414537068139 0.0018693953996374252 0 0.008134831941539326 0.0016407698762755487 0 0.010962133836757631 0.0038027980967891388 0 0.010456529762427358 0.0041388973017803159 0 0.010881047442622697 0.0040177309579434344 0 0.0084935216755147435 0.0025915697273030656 0 0.008806633695585743 0.0029076577714549417 0 0.010973365394782188 0.0040335097416028982 0 0.010456529762427358 0.0041388973017803159 0 0.010881047442622697 0.0040177309579434344 0 0.010948145943288584 0.0038797058353400018 0 0.010962133836757631 0.0038027980967891388 0 0.010881047442622697 0.0040177309579434344 0 0.0087352737746328214 0.0016308477613000054 0 0.008134831941539326 0.0016407698762755487 0 0.0090928973450446673 0.0019919119906204601 0 0.0087352737746328214 0.0016308477613000054 0 0.0092553719347478088 0.0017705010785891875 0 0.00874132171241211 0.0013781320410306309 0 0.0087352737746328214 0.0016308477613000054 0 0.00874132171241211 0.0013781320410306309 0 0.0082614309217171455 0.0012948048774796589 0 0.0087352737746328214 0.0016308477613000054 0 0.008134831941539326 0.0016407698762755487 0 0.0082614309217171455 0.0012948048774796589 0 0.008134831941539326 0.0016407698762755487 0 0.0089945270034804941 0.0024755764708430253 0 0.0090928973450446673 0.0019919119906204601 0 0.0071596414537068139 0.0018693953996374252 0 0.008134831941539326 0.0016407698762755487 0 0.0089945270034804941 0.0024755764708430253 0 0.0099668130212515766 0.0022725008757565257 0 0.0089945270034804941 0.0024755764708430253 0 0.0090928973450446673 0.0019919119906204601 0 0.0087352737746328214 0.0016308477613000054 0 0.0090928973450446673 0.0019919119906204601 0 0.0092553719347478088 0.0017705010785891875 0 0.0099668130212515766 0.0022725008757565257 0 0.0090928973450446673 0.0019919119906204601 0 0.0092553719347478088 0.0017705010785891875 0 0.0094721229158580261 0.0016524154324357016 0 0.0099668130212515766 0.0022725008757565257 0 0.0092553719347478088 0.0017705010785891875 0 0.0094721229158580261 0.0016524154324357016 0 0.0092553719347478088 0.0017705010785891875 0 0.0089800035130498355 0.0014072612106834079 0 0.0094721229158580261 0.0016524154324357016 0 0.0089800035130498355 0.0014072612106834079 0 0.0089966785491347543 0.0012629305537258182 0 0.0089800035130498355 0.0014072612106834079 0 0.0089966785491347543 0.0012629305537258182 0 0.0086208096048863928 0.0010454807632534571 0 0.0089966785491347543 0.0012629305537258182 0 0.0086208096048863928 0.0010454807632534571 0 0.0086261991589652171 0.00096676061127489636 0 0.0089800035130498355 0.0014072612106834079 0 0.0086208096048863928 0.0010454807632534571 0 0.0085714114790048611 0.0010735790078884304 0 0.0086208096048863928 0.0010454807632534571 0 0.0085714114790048611 0.0010735790078884304 0 0.0082723324134710979 0.00078151316300734185 0 0.0086208096048863928 0.0010454807632534571 0 0.0082723324134710979 0.00078151316300734185 0 0.0083155088057080585 0.00077139714503091279 0 0.0092553719347478088 0.0017705010785891875 0 0.0089800035130498355 0.0014072612106834079 0 0.00874132171241211 0.0013781320410306309 0 0.0089800035130498355 0.0014072612106834079 0 0.0085714114790048611 0.0010735790078884304 0 0.00874132171241211 0.0013781320410306309 0 0.0085714114790048611 0.0010735790078884304 0 0.00874132171241211 0.0013781320410306309 0 0.0083620827583031666 0.0010344945312597935 0 0.0085714114790048611 0.0010735790078884304 0 0.0083620827583031666 0.0010344945312597935 0 0.008304463026532951 0.00082403772736278275 0 0.0083620827583031666 0.0010344945312597935 0 0.008304463026532951 0.00082403772736278275 0 0.0082457431811440874 0.00084377777959300623 0 0.0085714114790048611 0.0010735790078884304 0 0.0082723324134710979 0.00078151316300734185 0 0.008304463026532951 0.00082403772736278275 0 0.0082723324134710979 0.00078151316300734185 0 0.008304463026532951 0.00082403772736278275 0 0.0078955640421990037 0.00056900705576763276 0 0.008304463026532951 0.00082403772736278275 0 0.0081204858587745551 0.00071195627202446006 0 0.0078955640421990037 0.00056900705576763276 0 0.008304463026532951 0.00082403772736278275 0 0.0081204858587745551 0.00071195627202446006 0 0.0082457431811440874 0.00084377777959300623 0 0.0081204858587745551 0.00071195627202446006 0 0.0081782469696817378 0.00076421214375265248 0 0.0081567587632337835 0.00073964037337918799 0 0.0081204858587745551 0.00071195627202446006 0 0.0079625677909202341 0.00068185413750724492 0 0.0081567587632337835 0.00073964037337918799 0 0.0081204858587745551 0.00071195627202446006 0 0.0079625677909202341 0.00068185413750724492 0 0.0078955640421990037 0.00056900705576763276 0 0.0083620827583031666 0.0010344945312597935 0 0.0082457431811440874 0.00084377777959300623 0 0.0080914151979548342 0.00085627436925799351 0 0.0081204858587745551 0.00071195627202446006 0 0.0082457431811440874 0.00084377777959300623 0 0.0081782469696817378 0.00076421214375265248 0 0.0082457431811440874 0.00084377777959300623 0 0.0081782469696817378 0.00076421214375265248 0 0.0080808496928085304 0.00072221122388037664 0 0.0081782469696817378 0.00076421214375265248 0 0.0080808496928085304 0.00072221122388037664 0 0.0081567587632337835 0.00073964037337918799 0 0.0082457431811440874 0.00084377777959300623 0 0.0080914151979548342 0.00085627436925799351 0 0.0080808496928085304 0.00072221122388037664 0 0.0080914151979548342 0.00085627436925799351 0 0.0077211460745830879 0.00068641031313907861 0 0.0080808496928085304 0.00072221122388037664 0 0.0078901843714278552 0.00097761986241496897 0 0.0080914151979548342 0.00085627436925799351 0 0.0077211460745830879 0.00068641031313907861 0 0.0078901843714278552 0.00097761986241496897 0 0.0072264243258802364 0.00083262570874247555 0 0.0077211460745830879 0.00068641031313907861 0 0.0083620827583031666 0.0010344945312597935 0 0.0078901843714278552 0.00097761986241496897 0 0.0080914151979548342 0.00085627436925799351 0 0.0083620827583031666 0.0010344945312597935 0 0.0078901843714278552 0.00097761986241496897 0 0.0082614309217171455 0.0012948048774796589 0 0.00874132171241211 0.0013781320410306309 0 0.0083620827583031666 0.0010344945312597935 0 0.0082614309217171455 0.0012948048774796589 0 0.0078901843714278552 0.00097761986241496897 0 0.0082614309217171455 0.0012948048774796589 0 0.0074840434010529158 0.001131883535595791 0 0.00692528545638103 0.001308940993941396 0 0.008134831941539326 0.0016407698762755487 0 0.0074840434010529158 0.001131883535595791 0 0.008134831941539326 0.0016407698762755487 0 0.0082614309217171455 0.0012948048774796589 0 0.0074840434010529158 0.001131883535595791 0 0.0065069290787341146 0.00084207338741758221 0 0.0074840434010529158 0.001131883535595791 0 0.0072264243258802364 0.00083262570874247555 0 0.0065069290787341146 0.00084207338741758221 0 0.0072264243258802364 0.00083262570874247555 0 0.0065093030513797062 0.00048040921942809603 0 0.0078901843714278552 0.00097761986241496897 0 0.0074840434010529158 0.001131883535595791 0 0.0072264243258802364 0.00083262570874247555 0 0.0064335024693686575 0.00052928018092663882 0 0.0069347449567625907 0.00021667509661112719 0 0.0065093030513797062 0.00048040921942809603 0 0.0077211460745830879 0.00068641031313907861 0 0.0075548109977611484 0.00018737562703204848 0 0.0072264243258802364 0.00083262570874247555 0 0.0065093030513797062 0.00048040921942809603 0 0.0077211460745830879 0.00068641031313907861 0 0.0077211460745830879 0.00068641031313907861 0 0.0079035823350104197 0.00051109300171280254 0 0.0075548109977611484 0.00018737562703204848 0 0.0077211460745830879 0.00068641031313907861 0 0.0079035823350104197 0.00051109300171280254 0 0.0080808496928085304 0.00072221122388037664 0 0.0060270817681103194 0.00032267832374740883 0 0.0058680393344956805 0.00021434389977635163 0 0.0062203925176451498 0.00017572496501942013 0 0.0069347449567625907 0.00021667509661112719 0 0.0058046042413226629 -2.362636625564865e-05 0 0.0079035823350104197 0.00051109300171280254 0 0.0075548109977611484 0.00018737562703204848 0 0.0079877475298258879 0.0001538133193929682 0 0.0065093030513797062 0.00048040921942809603 0 0.0060270817681103194 0.00032267832374740883 0 0.0058680393344956805 0.00021434389977635163 0 0.0054952530065105597 0.00014312335326326745 0 0.0065093030513797062 0.00048040921942809603 0 0.0058680393344956805 0.00021434389977635163 0 0.0054952530065105597 0.00014312335326326745 0 0.0058680393344956805 0.00021434389977635163 0 0.0051128822741964598 -0.00031081525545612694 0 0.0058680393344956805 0.00021434389977635163 0 0.0059417725541390329 -5.3270077056007174e-05 0 0.0051128822741964598 -0.00031081525545612694 0 0.0058680393344956805 0.00021434389977635163 0 0.0059417725541390329 -5.3270077056007174e-05 0 0.0062203925176451498 0.00017572496501942013 0 0.0037639550376066715 -0.0010437474328317056 0 0.0045300726585836776 -0.0010161054591521382 0 0.0035087739412204733 -0.0018311704346287531 0 0.0050125223655256099 -0.00066124946382412043 0 0.0058046042413226629 -2.362636625564865e-05 0 0.0045300726585836776 -0.0010161054591521382 0 0.0043309882362111392 -0.0001855502136372955 0 0.0051128822741964598 -0.00031081525545612694 0 0.0037639550376066715 -0.0010437474328317056 0 0.0045300726585836776 -0.0010161054591521382 0 0.0043309882362111392 -0.0001855502136372955 0 0.0043309882362111392 -0.0001855502136372955 0 0.0051128822741964598 -0.00031081525545612694 0 0.0048437776321676347 -0.00028506441626627966 0 0.0050125223655256099 -0.00066124946382412043 0 0.0052364033391157647 -0.00031220138686194337 0 0.0022633110728093879 -0.00085934460074039369 0 0.0022473890554840247 -0.00099048858710336059 0 0.0020512476659060659 -0.00080891802103052644 0 0.004124876483307692 -0.00046915465425760957 0 0.0011930695552844373 0.0010155883207114424 0 0.0022633110728093879 -0.00085934460074039369 0 0.0022342302885014075 -0.00077411814250830937 0 0.0020512476659060659 -0.00080891802103052644 0 0.0054318786721651606 0.00060475192766470444 0 0.0051953074621340885 0.00066560205845805605 0 0.005039812624119038 0.00091278300385006525 0 0.0022633110728093879 -0.00085934460074039369 0 0.0024932492390560153 -0.00093877432071447198 0 0.0022473890554840247 -0.00099048858710336059 0 0.0022633110728093879 -0.00085934460074039369 0 0.0022342302885014075 -0.00077411814250830937 0 0.0024255927706046481 -0.00082075247440948978 0 0.0025473564641724038 -0.00081365388183038498 0 0.0024932492390560153 -0.00093877432071447198 0 0.0026326675449390739 -0.0011722791886875999 0 0.0034143529428312626 -0.00056065253929404619 0 0.0026524012796765666 -0.0011395364670708592 0 0.0025473564641724038 -0.00081365388183038498 0 0.0024255927706046481 -0.00082075247440948978 0 0.0024932492390560153 -0.00093877432071447198 0 0.0025473564641724038 -0.00081365388183038498 0 0.0024255927706046481 -0.00082075247440948978 0 0.002459313042613018 -0.00073566268442694068 0 0.0037639550376066715 -0.0010437474328317056 0 0.0043309882362111392 -0.0001855502136372955 0 0.0026326675449390739 -0.0011722791886875999 0 0.0022633110728093879 -0.00085934460074039369 0 0.0024255927706046481 -0.00082075247440948978 0 0.0024932492390560153 -0.00093877432071447198 0 0.0054318786721651606 0.00060475192766470444 0 0.0054825911139790807 0.0003826257041110081 0 0.005663660810446198 0.00036846664804223085 0 0.0024932492390560153 -0.00093877432071447198 0 0.0026326675449390739 -0.0011722791886875999 0 0.0022473890554840247 -0.00099048858710336059 0 0.004124876483307692 -0.00046915465425760957 0 0.0058046042413226629 -2.362636625564865e-05 0 0.0026326675449390739 -0.0011722791886875999 0 0.0022473890554840247 -0.00099048858710336059 0 0.0035087739412204733 -0.0018311704346287531 0 0.0037639550376066715 -0.0010437474328317056 0 0.0026326675449390739 -0.0011722791886875999 0 0.0035087739412204733 -0.0018311704346287531 0 0.0053743820674863781 0.00046758478676188475 0 0.0054318786721651606 0.00060475192766470444 0 0.0054825911139790807 0.0003826257041110081 0 0.0053743820674863781 0.00046758478676188475 0 0.0054318786721651606 0.00060475192766470444 0 0.0053063006287727074 0.00054401703559894159 0 0.0054318786721651606 0.00060475192766470444 0 0.0053063006287727074 0.00054401703559894159 0 0.0051953074621340885 0.00066560205845805605 0 0.0053063006287727074 0.00054401703559894159 0 0.0052222343277561947 0.0004451866965003404 0 0.0051953074621340885 0.00066560205845805605 0 0.0053743820674863781 0.00046758478676188475 0 0.0053063006287727074 0.00054401703559894159 0 0.0052222343277561947 0.0004451866965003404 0 0.0054338355347650817 0.00022375739556730899 0 0.0056427734470742355 0.00012955652848591642 0 0.0054615955390760109 0.0002718595036031222 0 0.0054338355347650817 0.00022375739556730899 0 0.005663660810446198 0.00036846664804223085 0 0.0054132715405687927 0.00021089096722935098 0 0.0053743820674863781 0.00046758478676188475 0 0.0054338355347650817 0.00022375739556730899 0 0.0052222343277561947 0.0004451866965003404 0 0.0053596904779191334 0.00033676568182450245 0 0.0055571269322986956 0.00014060115639484243 0 0.0053743820674863781 0.00046758478676188475 0 0.0054825911139790807 0.0003826257041110081 0 0.0054338355347650817 0.00022375739556730899 0 0.0054338355347650817 0.00022375739556730899 0 0.0054132715405687927 0.00021089096722935098 0 0.0056427734470742355 0.00012955652848591642 0 0.0079877475298258879 0.0001538133193929682 0 0.008033366179736337 0.00051764523690706434 0 0.0081045713639330934 0.00068332183344918345 0 0.0079877475298258879 0.0001538133193929682 0 0.0081045713639330934 0.00068332183344918345 0 0.0081510451491054008 0.00089222878862239656 0 0.0054825911139790807 0.0003826257041110081 0 0.0054338355347650817 0.00022375739556730899 0 0.005663660810446198 0.00036846664804223085 0 0.0079035823350104197 0.00051109300171280254 0 0.0079877475298258879 0.0001538133193929682 0 0.008033366179736337 0.00051764523690706434 0 0.0058046042413226629 -2.362636625564865e-05 0 0.006982960758150511 0.0006021199317199291 0 0.0079035823350104197 0.00051109300171280254 0 0.008033366179736337 0.00051764523690706434 0 0.0080837704910685735 0.0006480727093184709 0 0.0080837704910685735 0.0006480727093184709 0 0.0081045713639330934 0.00068332183344918345 0 0.0081567587632337835 0.00073964037337918799 0 0.008033366179736337 0.00051764523690706434 0 0.0080837704910685735 0.0006480727093184709 0 0.0081045713639330934 0.00068332183344918345 0 0.0080837704910685735 0.0006480727093184709 0 0.0080808496928085304 0.00072221122388037664 0 0.0081567587632337835 0.00073964037337918799 0 0.0079035823350104197 0.00051109300171280254 0 0.0080837704910685735 0.0006480727093184709 0 0.0080808496928085304 0.00072221122388037664 0 0.0081045713639330934 0.00068332183344918345 0 0.0081510451491054008 0.00089222878862239656 0 0.0081253089653390721 0.0007858361937148065 0 0.0081045713639330934 0.00068332183344918345 0 0.0081253089653390721 0.0007858361937148065 0 0.0081567587632337835 0.00073964037337918799 0 0.0079625677909202341 0.00068185413750724492 0 0.0081253089653390721 0.0007858361937148065 0 0.0081567587632337835 0.00073964037337918799 0 0.0079625677909202341 0.00068185413750724492 0 0.0081510451491054008 0.00089222878862239656 0 0.0081253089653390721 0.0007858361937148065 0 0.006982960758150511 0.0006021199317199291 0 0.006638162741015881 0.00038544961413056379 0 0.0054132715405687927 0.00021089096722935098 0 0.0056427734470742355 0.00012955652848591642 0 0.0067788550780243199 0.00045214750607170968 0 0.0079625677909202341 0.00068185413750724492 0 0.0081510451491054008 0.00089222878862239656 0 0.0067788550780243199 0.00045214750607170968 0 0.0055899857798792901 0.00014060717390581212 0 0.0056427734470742355 0.00012955652848591642 0 0.0067788550780243199 0.00045214750607170968 0 0.0055899857798792901 0.00014060717390581212 0 0.006004923117528242 0.00012830751985611926 0 0.0067788550780243199 0.00045214750607170968 0 0.0055899857798792901 0.00014060717390581212 0 0.0050349061525589503 0.00028667518643926839 0 0.0046147455978468302 0.00018754219427192701 0 0.0055899857798792901 0.00014060717390581212 0 0.0056427734470742355 0.00012955652848591642 0 0.0050349061525589503 0.00028667518643926839 0 0.0056427734470742355 0.00012955652848591642 0 0.0054615955390760109 0.0002718595036031222 0 0.0050349061525589503 0.00028667518643926839 0 0.0055571269322986956 0.00014060115639484243 0 0.0023521931884429724 0.0013721725008963542 0 0.0054615955390760109 0.0002718595036031222 0 0.0049571234364710701 0.0005175520051811693 0 0.0050349061525589503 0.00028667518643926839 0 0.0052222343277561947 0.0004451866965003404 0 0.0051953074621340885 0.00066560205845805605 0 0.0049721841416685919 0.00080332613464606387 0 0.0054615955390760109 0.0002718595036031222 0 0.0049571234364710701 0.0005175520051811693 0 0.004863533671448826 0.001074102512387361 0 0.0049571234364710701 0.0005175520051811693 0 0.0045797381085186141 0.00059437900810164362 0 0.0046320560575755457 0.000811046776267553 0 0.0049571234364710701 0.0005175520051811693 0 0.0050349061525589503 0.00028667518643926839 0 0.0045797381085186141 0.00059437900810164362 0 0.0050349061525589503 0.00028667518643926839 0 0.0041865001750147684 0.00060713535860340421 0 0.0045797381085186141 0.00059437900810164362 0 0.0050349061525589503 0.00028667518643926839 0 0.0041865001750147684 0.00060713535860340421 0 0.0046147455978468302 0.00018754219427192701 0 0.0041865001750147684 0.00060713535860340421 0 0.0045797381085186141 0.00059437900810164362 0 0.0041537875516748568 0.0008416474967349398 0 0.0045797381085186141 0.00059437900810164362 0 0.0041537875516748568 0.0008416474967349398 0 0.0046320560575755457 0.000811046776267553 0 0.0040138986543586334 0.0010840724012588852 0 0.0045747164275931201 0.0010311346671075801 0 0.0030804684334371766 0.0016196844937567043 0 0.003536097038735966 0.0011415138630108583 0 0.0040138986543586334 0.0010840724012588852 0 0.0030804684334371766 0.0016196844937567043 0 0.0041537875516748568 0.0008416474967349398 0 0.003536097038735966 0.0011415138630108583 0 0.0040138986543586334 0.0010840724012588852 0 0.0041537875516748568 0.0008416474967349398 0 0.0040138986543586334 0.0010840724012588852 0 0.0046320560575755457 0.000811046776267553 0 0.0041537875516748568 0.0008416474967349398 0 0.0037686034524403874 0.00096559765135812792 0 0.003536097038735966 0.0011415138630108583 0 0.0037686034524403874 0.00096559765135812792 0 0.003536097038735966 0.0011415138630108583 0 0.0033896077127587281 0.0011356478021567102 0 0.0041865001750147684 0.00060713535860340421 0 0.0041537875516748568 0.0008416474967349398 0 0.0037686034524403874 0.00096559765135812792 0 0.003536097038735966 0.0011415138630108583 0 0.0033896077127587281 0.0011356478021567102 0 0.0029413478455781448 0.0013937949911065302 0 -0.0022891098226075351 0.0028225560055048894 0 -0.0025028644607489013 0.0034417024988271749 0 -0.0018570866975805428 0.0022876139215499171 0 -0.0022891098226075351 0.0028225560055048894 0 -0.0026924590758994498 0.0031229836552129062 0 -0.0025028644607489013 0.0034417024988271749 0 0.0023521931884429724 0.0013721725008963542 0 0.00046543365373514595 0.0019521468546439275 0 0.0011930695552844373 0.0010155883207114424 0 0.0023521931884429724 0.0013721725008963542 0 -0.0019893773914857397 0.0030708632916319934 0 0.0011930695552844373 0.0010155883207114424 0 0.0051953074621340885 0.00066560205845805605 0 0.005039812624119038 0.00091278300385006525 0 0.0049721841416685919 0.00080332613464606387 0 0.0040138986543586334 0.0010840724012588852 0 0.0046320560575755457 0.000811046776267553 0 0.0045747164275931201 0.0010311346671075801 0 0.0049571234364710701 0.0005175520051811693 0 0.0046320560575755457 0.000811046776267553 0 0.004863533671448826 0.001074102512387361 0 0.0033117250834606561 0.0015148100681734648 0 0.0023521931884429724 0.0013721725008963542 0 0.003559505701908348 0.0005564009569542284 0 0.0021621584795841406 0.0001529062880212418 0 0.0030364729010618962 0.0015262969008209494 0 0.0018517349588841807 0.00015063789485055253 0 0.00093366010748656468 0.00068321821549512205 0 0.00061667369535858515 1.1143262834245988e-06 0 0.0021621584795841406 0.0001529062880212418 0 -0.0011211174904824795 0.00012168946735243757 0 0.0033896077127587281 0.0011356478021567102 0 0.003559505701908348 0.0005564009569542284 0 0.0030364729010618962 0.0015262969008209494 0 0.0033896077127587281 0.0011356478021567102 0 0.0024966990674888997 0.0014523955780689675 0 0.0030364729010618962 0.0015262969008209494 0 0.0041865001750147684 0.00060713535860340421 0 0.0037686034524403874 0.00096559765135812792 0 0.0033896077127587281 0.0011356478021567102 0 0.0041865001750147684 0.00060713535860340421 0 0.0033896077127587281 0.0011356478021567102 0 0.003559505701908348 0.0005564009569542284 0 0.0041865001750147684 0.00060713535860340421 0 0.003559505701908348 0.0005564009569542284 0 0.0046147455978468302 0.00018754219427192701 0 0.003559505701908348 0.0005564009569542284 0 0.0036577206563944472 0.00010841149199760572 0 0.0046147455978468302 0.00018754219427192701 0 0.00061667369535858515 1.1143262834245988e-06 0 0.0021621584795841406 0.0001529062880212418 0 0.003076744267337742 4.2058855890507751e-07 0 0.003559505701908348 0.0005564009569542284 0 0.0021621584795841406 0.0001529062880212418 0 0.0036577206563944472 0.00010841149199760572 0 0.0021621584795841406 0.0001529062880212418 0 0.003076744267337742 4.2058855890507751e-07 0 0.0036577206563944472 0.00010841149199760572 0 0.003076744267337742 4.2058855890507751e-07 0 0.0036577206563944472 0.00010841149199760572 0 0.0047707554755373359 -1.0648224860640008e-05 0 0.0036577206563944472 0.00010841149199760572 0 0.0047707554755373359 -1.0648224860640008e-05 0 0.0046147455978468302 0.00018754219427192701 0 0.0047707554755373359 -1.0648224860640008e-05 0 0.0046147455978468302 0.00018754219427192701 0 0.0052572627235055441 9.3982357165008001e-05 0 0.0055899857798792901 0.00014060717390581212 0 0.0046147455978468302 0.00018754219427192701 0 0.0052572627235055441 9.3982357165008001e-05 0 0.0055899857798792901 0.00014060717390581212 0 0.0052572627235055441 9.3982357165008001e-05 0 0.006004923117528242 0.00012830751985611926 0 0.0047707554755373359 -1.0648224860640008e-05 0 0.0052572627235055441 9.3982357165008001e-05 0 0.006004923117528242 0.00012830751985611926 0 0.003076744267337742 4.2058855890507751e-07 0 0.0047707554755373359 -1.0648224860640008e-05 0 0.0055337850802831675 -2.1086268394847429e-07 0 0.0047707554755373359 -1.0648224860640008e-05 0 0.006004923117528242 0.00012830751985611926 0 0.0055337850802831675 -2.1086268394847429e-07 0 0.0055337850802831675 -2.1086268394847429e-07 0 0.0079922315867031659 -5.7150125181605509e-07 0 0.0073006036812562868 5.9868416167374857e-05 0 0.0079922315867031659 -5.7150125181605509e-07 0 0.0073006036812562868 5.9868416167374857e-05 0 0.008552839603114374 4.0193026527624369e-05 0 0.006004923117528242 0.00012830751985611926 0 0.0055337850802831675 -2.1086268394847429e-07 0 0.0073006036812562868 5.9868416167374857e-05 0 0.006004923117528242 0.00012830751985611926 0 0.0073006036812562868 5.9868416167374857e-05 0 0.0067788550780243199 0.00045214750607170968 0 0.0079625677909202341 0.00068185413750724492 0 0.0067788550780243199 0.00045214750607170968 0 0.0078955640421990037 0.00056900705576763276 0 0.0082723324134710979 0.00078151316300734185 0 0.0078955640421990037 0.00056900705576763276 0 0.0078257223377019552 0.00045612148848047594 0 0.0067788550780243199 0.00045214750607170968 0 0.0078955640421990037 0.00056900705576763276 0 0.0078257223377019552 0.00045612148848047594 0 0.0073006036812562868 5.9868416167374857e-05 0 0.0067788550780243199 0.00045214750607170968 0 0.0078257223377019552 0.00045612148848047594 0 0.0073006036812562868 5.9868416167374857e-05 0 0.0078257223377019552 0.00045612148848047594 0 0.0081339615932644327 0.00033322409252105865 0 0.0078257223377019552 0.00045612148848047594 0 0.0083954434382266085 0.00073631595830813811 0 0.0081339615932644327 0.00033322409252105865 0 0.0082723324134710979 0.00078151316300734185 0 0.0078257223377019552 0.00045612148848047594 0 0.0083155088057080585 0.00077139714503091279 0 0.0078257223377019552 0.00045612148848047594 0 0.0083155088057080585 0.00077139714503091279 0 0.0083954434382266085 0.00073631595830813811 0 0.0086208096048863928 0.0010454807632534571 0 0.0083155088057080585 0.00077139714503091279 0 0.0086261991589652171 0.00096676061127489636 0 0.0089024055778890564 0.0010347381673634136 0 0.0086261991589652171 0.00096676061127489636 0 0.0083954434382266085 0.00073631595830813811 0 0.0083155088057080585 0.00077139714503091279 0 0.0086261991589652171 0.00096676061127489636 0 0.0083954434382266085 0.00073631595830813811 0 0.0089024055778890564 0.0010347381673634136 0 0.0089966785491347543 0.0012629305537258182 0 0.0086261991589652171 0.00096676061127489636 0 0.0087552500718153462 0.00096298028269870798 0 0.0089024055778890564 0.0010347381673634136 0 0.0083954434382266085 0.00073631595830813811 0 0.0083954434382266085 0.00073631595830813811 0 0.0085722689849798018 0.00053293582391933153 0 0.0081339615932644327 0.00033322409252105865 0 0.0087552500718153462 0.00096298028269870798 0 0.0083954434382266085 0.00073631595830813811 0 0.0085722689849798018 0.00053293582391933153 0 0.0089960109689199777 0.0011188691405505922 0 0.0085722689849798018 0.00053293582391933153 0 0.010445425685358714 2.106051318167991e-06 0 0.0085722689849798018 0.00053293582391933153 0 0.010445425685358714 2.106051318167991e-06 0 0.008552839603114374 4.0193026527624369e-05 0 0.010662388295075518 0.00031982490303459569 0 0.010450280760030331 -5.8762788718658533e-08 0 0.0079922315867031659 -5.7150125181605509e-07 0 0.010445425685358714 2.106051318167991e-06 0 0.008552839603114374 4.0193026527624369e-05 0 0.0073006036812562868 5.9868416167374857e-05 0 0.008552839603114374 4.0193026527624369e-05 0 0.0081339615932644327 0.00033322409252105865 0 0.0085722689849798018 0.00053293582391933153 0 0.008552839603114374 4.0193026527624369e-05 0 0.0081339615932644327 0.00033322409252105865 0 0.027437406691714582 -0.010098369868088597 0 0.027318935983456638 -0.0098357639451797166 0 0.027174633972284343 -0.010049150538892274 0 0.021693550905445499 -0.0060943939385709814 0 0.010567770439006093 -0.0018324983320193592 0 0.021693550905445499 -0.0060943939385709814 0 0.023042077515722497 -0.0078731544383834826 0 0.027437406691714582 -0.010098369868088597 0 0.027318935983456638 -0.0098357639451797166 0 0.027471637887821546 -0.0098914011879482344 0 0.020242097040445953 -0.0072153014725898001 0 0.020915629093923083 -0.006165102060356119 0 0.023531044575717783 -0.0072710529449940076 0 0.023042077515722497 -0.0078731544383834826 0 0.022546058101877632 -0.0072423898750910752 0 0.023042077515722497 -0.0078731544383834826 0 0.026404256437514529 -0.0097622705357751013 0 0.021909984020297504 -0.0070978206390862175 0 0.023531044575717783 -0.0072710529449940076 0 0.02445152429954036 -0.0089558541374838395 0 0.027437406691714582 -0.010098369868088597 0 0.027471637887821546 -0.0098914011879482344 0 0.027656044212505448 -0.010293089763526676 0 0.027437406691714582 -0.010098369868088597 0 0.027540259096134296 -0.010274790250814007 0 0.027656044212505448 -0.010293089763526676 0 0.027540259096134296 -0.010274790250814007 0 0.027656044212505448 -0.010293089763526676 0 0.027610649874238495 -0.010350200097831165 0 0.027540259096134296 -0.010274790250814007 0 0.027282621913285801 -0.010349037903843557 0 0.027627363687277275 -0.010378791316717909 0 0.027437406691714582 -0.010098369868088597 0 0.027282621913285801 -0.010349037903843557 0 0.027174633972284343 -0.010049150538892274 0 0.027437406691714582 -0.010098369868088597 0 0.027540259096134296 -0.010274790250814007 0 0.027282621913285801 -0.010349037903843557 0 0.029028835863281505 -0.011723558754225476 0 0.028648370267888013 -0.0089741771536398923 0 0.03012341518479791 -0.012331555702596607 0 0.032186224587172581 -0.01408399781293544 0 0.031189454500421779 -0.011719010086742778 0 0.027282621913285801 -0.010349037903843557 0 0.026927673261468447 -0.010110982094386845 0 0.027174633972284343 -0.010049150538892274 0 0.032186224587172581 -0.01408399781293544 0 0.031189454500421779 -0.011719010086742778 0 0.032455382688842953 -0.010794284209670983 0 0.028648370267888013 -0.0089741771536398923 0 0.033425128010157783 -0.0076410270621303728 0 0.033437517737932236 -0.0046178263206966821 0 0.033566327091959433 -0.0044704160312704659 0 0.03357293621282105 -0.0043184674641116444 0 0.033566327091959433 -0.0044704160312704659 0 0.033607632162416551 -0.0045255712732525108 0 0.033685196024839908 -0.0043951679745547643 0 0.033437517737932236 -0.0046178263206966821 0 0.033566327091959433 -0.0044704160312704659 0 0.033607632162416551 -0.0045255712732525108 0 0.033437517737932236 -0.0046178263206966821 0 0.033607632162416551 -0.0045255712732525108 0 0.033515098420350817 -0.0046806082120253263 0 0.023890191161220407 -0.0032891214445050464 0 0.023614361540168844 -0.0030455027957088602 0 0.026608720522809333 -0.0026110648470612529 0 0.012770111324893986 -7.7331577006931688e-06 0 0.014010852354349655 0.0013318789700648135 0 0.010689002471026391 0.0018233488748276669 0 0.024128522164487517 -0.0059967274531733741 0 0.023054377206329059 -0.0050482393261732633 0 0.023779041892168472 -0.0045869900859773554 0 0.0247558520901719 -0.0023615455196783573 0 0.023666140627686367 -0.0014045111180748424 0 0.020430760467051081 -0.0034522313148341423 0 0.020990298942152725 -0.0013532148274151873 0 0.020049762693605356 -0.0033409906898853843 0 0.020990298942152725 -0.0013532148274151873 0 0.025442130983949166 -0.0034506547500589135 0 0.028648370267888013 -0.0089741771536398923 0 0.025442130983949166 -0.0034506547500589135 0 0.025442130983949166 -0.0034506547500589135 0 0.020049762693605356 -0.0033409906898853843 0 0.012770111324893986 -7.7331577006931688e-06 0 0.013619377967345591 0.00020319016144344543 0 0.014010852354349655 0.0013318789700648135 0 0.018789038818313303 -0.0043314028115221722 0 0.016217087524896291 -0.0047953272237594383 0 0.017371722130528219 -0.0040991428075252221 0 0.021693550905445499 -0.0060943939385709814 0 0.018481947408332148 -0.0037881791272644291 0 0.027318935983456638 -0.0098357639451797166 0 0.027174633972284343 -0.010049150538892274 0 0.026913786562064793 -0.0098641783512827541 0 0.026927673261468447 -0.010110982094386845 0 0.027174633972284343 -0.010049150538892274 0 0.026913786562064793 -0.0098641783512827541 0 0.028648370267888013 -0.0089741771536398923 0 0.018481947408332148 -0.0037881791272644291 0 0.024128522164487517 -0.0059967274531733741 0 0.023779041892168472 -0.0045869900859773554 0 0.024191953874721773 -0.0043212033582979139 0 0.018481947408332148 -0.0037881791272644291 0 0.010567770439006093 -0.0018324983320193592 0 0.012620535848989981 -0.00060884266788325159 0 0.010025360343424432 -0.0022266457754524524 0 0.012490631129724455 -0.0025700946475783822 0 0.013619377967345591 0.00020319016144344543 0 0.013979480189955016 0.00043364620722219349 0 0.014010852354349655 0.0013318789700648135 0 0.020049762693605356 -0.0033409906898853843 0 0.018481947408332148 -0.0037881791272644291 0 0.018481947408332148 -0.0037881791272644291 0 0.0077442440856074395 0.0021855813528292556 0 0.0021989083741521028 0.0051281723803330188 0 0.0021656535128643348 0.0051155688010140069 0 0.0021606513314737148 0.0051051949662460107 0 0.0021989083741521028 0.0051281723803330188 0 0.0022466201297981886 0.0051377498851002982 0 0.0021656535128643348 0.0051155688010140069 0 0.010567770439006093 -0.0018324983320193592 0 0.0077442440856074395 0.0021855813528292556 0 0.0077442440856074395 0.0021855813528292556 0 0.0044195549467501019 0.0053694341266107672 0 0.0022466201297981886 0.0051377498851002982 0 0.0022249775803922754 0.0051419527676309302 0 0.0021656535128643348 0.0051155688010140069 0 0.0021656535128643348 0.0051155688010140069 0 0.0020568486681389916 0.0050028783112918357 0 0.0021606513314737148 0.0051051949662460107 0 0.0022249775803922754 0.0051419527676309302 0 0.0021656535128643348 0.0051155688010140069 0 0.0020568486681389916 0.0050028783112918357 0 0.0022745906573280184 0.0055428312403057126 0 0.0027201451998473494 0.0051417992314675811 0 0.0033381439273088274 0.0054794052204329259 0 0.0077442440856074395 0.0021855813528292556 0 0.010793509889839561 0.0026940463313470386 0 0.0022745906573280184 0.0055428312403057126 0 0.0022249775803922754 0.0051419527676309302 0 0.0027201451998473494 0.0051417992314675811 0 0.0023250493969750553 0.0048187270587931345 0 0.0027879074709184696 0.0047287803355403248 0 0.0020192681610800237 0.0040268145507690572 0 0.0027201451998473494 0.0051417992314675811 0 0.0023250493969750553 0.0048187270587931345 0 0.0027879074709184696 0.0047287803355403248 0 0.0022249775803922754 0.0051419527676309302 0 0.0027201451998473494 0.0051417992314675811 0 0.0023250493969750553 0.0048187270587931345 0 0.0022249775803922754 0.0051419527676309302 0 0.0023250493969750553 0.0048187270587931345 0 0.0020568486681389916 0.0050028783112918357 0 0.0023250493969750553 0.0048187270587931345 0 0.0020568486681389916 0.0050028783112918357 0 0.0019440947627507646 0.004591228214798437 0 0.0020568486681389916 0.0050028783112918357 0 0.0019440947627507646 0.004591228214798437 0 0.0017606752766304329 0.0047269791282748969 0 0.0016702244906412942 0.0050628910383497677 0 0.0019503097055474279 0.0056523913307924461 0 0.0011082276588331812 0.0052016145696804489 0 0.0020568486681389916 0.0050028783112918357 0 0.0017606752766304329 0.0047269791282748969 0 0.0016702244906412942 0.0050628910383497677 0 0.0017606752766304329 0.0047269791282748969 0 0.0016702244906412942 0.0050628910383497677 0 0.0014220120401566342 0.004578657761885963 0 0.0016702244906412942 0.0050628910383497677 0 0.0013161042746617799 0.0048735883926305148 0 0.0014220120401566342 0.004578657761885963 0 0.0020568486681389916 0.0050028783112918357 0 0.0016702244906412942 0.0050628910383497677 0 0.0019503097055474279 0.0056523913307924461 0 0.00015295454991853122 0.0071097029677608227 0 0.0089159221612471994 0.00047371305841371013 0 0.020242097040445953 -0.0072153014725898001 0 0.01907868208927796 -0.0058961358857288083 0 0.020915629093923083 -0.006165102060356119 0 0.023042077515722497 -0.0078731544383834826 0 0.0089159221612471994 0.00047371305841371013 0 0.015903840130351336 -0.0048476362429677724 0 0.020246338899944073 -0.0054785917646547003 0 0.015667433036519192 -0.00067760318347043094 0 0.010567770439006093 -0.0018324983320193592 0 0.0089159221612471994 0.00047371305841371013 0 0.015903840130351336 -0.0048476362429677724 0 0.010325900982316704 -0.0040358957392858186 0 0.015667433036519192 -0.00067760318347043094 0 0.021167252097274936 -0.0059763621899730241 0 0.014485150277447704 -0.0011592753059083279 0 0.020915629093923083 -0.006165102060356119 0 0.022481318602565619 -0.0034297089733540502 0 0.023458901511847475 -0.0056109312611576159 0 0.0089159221612471994 0.00047371305841371013 0 0.014485150277447704 -0.0011592753059083279 0 0.01907868208927796 -0.0058961358857288083 0 0.020915629093923083 -0.006165102060356119 0 0.021152632387327307 -0.0047182644042216499 0 0.020915629093923083 -0.006165102060356119 0 0.023458901511847475 -0.0056109312611576159 0 0.023531044575717783 -0.0072710529449940076 0 0.0016702244906412942 0.0050628910383497677 0 0.0011082276588331812 0.0052016145696804489 0 0.0013161042746617799 0.0048735883926305148 0 0.0011082276588331812 0.0052016145696804489 0 0.0010571041888111032 0.0046549215791370432 0 0.00058256788175278372 0.0045012364292257474 0 0.0011082276588331812 0.0052016145696804489 0 0.0013161042746617799 0.0048735883926305148 0 0.0010571041888111032 0.0046549215791370432 0 0.022481318602565619 -0.0034297089733540502 0 0.025853441682549889 -0.0031359226258661881 0 0.024757901316478623 -0.0048383552870669318 0 0.014485150277447704 -0.0011592753059083279 0 0.0065756435833106532 0.002628509436881052 0 0.022481318602565619 -0.0034297089733540502 0 0.025853441682549889 -0.0031359226258661881 0 0.02631136655456244 -0.0011518173170003299 0 0.014485150277447704 -0.0011592753059083279 0 0.022889932639012199 -0.0022393634203443529 0 0.025853441682549889 -0.0031359226258661881 0 0.026475055216319137 -0.0057135932001782059 0 0.026389821024456358 -0.00099934965214486075 0 0.027484045289331658 -0.0057013990994417675 0 0.022889932639012199 -0.0022393634203443529 0 0.025554649591620838 -0.0022096083317619461 0 0.022889932639012199 -0.0022393634203443529 0 0.026475055216319137 -0.0057135932001782059 0 0.027256936570300389 -0.0042709898329992809 0 0.026530070258354042 -0.003932457311545531 0 0.026475055216319137 -0.0057135932001782059 0 0.024867864212630719 -0.0062724702497846648 0 0.025792189334111024 -0.0074819932220322443 0 0.025853441682549889 -0.0031359226258661881 0 0.026475055216319137 -0.0057135932001782059 0 0.024757901316478623 -0.0048383552870669318 0 0.026475055216319137 -0.0057135932001782059 0 0.024867864212630719 -0.0062724702497846648 0 0.024757901316478623 -0.0048383552870669318 0 0.024867864212630719 -0.0062724702497846648 0 0.023458901511847475 -0.0056109312611576159 0 0.024757901316478623 -0.0048383552870669318 0 0.024867864212630719 -0.0062724702497846648 0 0.023458901511847475 -0.0056109312611576159 0 0.023531044575717783 -0.0072710529449940076 0 0.022481318602565619 -0.0034297089733540502 0 0.023458901511847475 -0.0056109312611576159 0 0.024757901316478623 -0.0048383552870669318 0 0.029889768798629032 -0.0052852105752524128 0 0.028723179898361841 -0.0047818581247270515 0 0.028951728123967967 -0.0057972999762722814 0 0.028723179898361841 -0.0047818581247270515 0 0.0277340765413727 -0.0048554570593887366 0 0.028951728123967967 -0.0057972999762722814 0 0.028723179898361841 -0.0047818581247270515 0 0.0277340765413727 -0.0048554570593887366 0 0.028137276724137811 -0.0039078026549413938 0 0.026475055216319137 -0.0057135932001782059 0 0.0277340765413727 -0.0048554570593887366 0 0.027256936570300389 -0.0042709898329992809 0 0.0277340765413727 -0.0048554570593887366 0 0.028137276724137811 -0.0039078026549413938 0 0.027256936570300389 -0.0042709898329992809 0 0.027716260162194473 -0.0058698277450377956 0 0.028951728123967967 -0.0057972999762722814 0 0.028348164185599222 -0.0065915190300054301 0 0.026475055216319137 -0.0057135932001782059 0 0.0277340765413727 -0.0048554570593887366 0 0.027716260162194473 -0.0058698277450377956 0 0.026475055216319137 -0.0057135932001782059 0 0.027716260162194473 -0.0058698277450377956 0 0.027346583677391421 -0.0069062261541571919 0 0.0277340765413727 -0.0048554570593887366 0 0.027716260162194473 -0.0058698277450377956 0 0.028951728123967967 -0.0057972999762722814 0 0.027716260162194473 -0.0058698277450377956 0 0.028348164185599222 -0.0065915190300054301 0 0.027346583677391421 -0.0069062261541571919 0 0.029900144348079933 -0.0072406298432500004 0 0.028951728123967967 -0.0057972999762722814 0 0.028348164185599222 -0.0065915190300054301 0 0.029900144348079933 -0.0072406298432500004 0 0.028348164185599222 -0.0065915190300054301 0 0.028604910981130792 -0.0079527653408683271 0 0.028348164185599222 -0.0065915190300054301 0 0.027346583677391421 -0.0069062261541571919 0 0.028604910981130792 -0.0079527653408683271 0 0.027346583677391421 -0.0069062261541571919 0 0.027404641318279223 -0.0081872664996299836 0 0.028604910981130792 -0.0079527653408683271 0 0.027404641318279223 -0.0081872664996299836 0 0.028604910981130792 -0.0079527653408683271 0 0.028542976784391962 -0.0093681342454648275 0 0.027404641318279223 -0.0081872664996299836 0 0.027673596233542794 -0.0094162462688631293 0 0.028542976784391962 -0.0093681342454648275 0 0.028604910981130792 -0.0079527653408683271 0 0.029704965299401937 -0.0092569342735952104 0 0.028542976784391962 -0.0093681342454648275 0 0.029900144348079933 -0.0072406298432500004 0 0.028604910981130792 -0.0079527653408683271 0 0.029704965299401937 -0.0092569342735952104 0 0.024867864212630719 -0.0062724702497846648 0 0.023531044575717783 -0.0072710529449940076 0 0.025792189334111024 -0.0074819932220322443 0 0.023531044575717783 -0.0072710529449940076 0 0.025792189334111024 -0.0074819932220322443 0 0.02445152429954036 -0.0089558541374838395 0 0.026475055216319137 -0.0057135932001782059 0 0.027346583677391421 -0.0069062261541571919 0 0.025792189334111024 -0.0074819932220322443 0 0.027346583677391421 -0.0069062261541571919 0 0.027404641318279223 -0.0081872664996299836 0 0.025792189334111024 -0.0074819932220322443 0 0.027404641318279223 -0.0081872664996299836 0 0.025792189334111024 -0.0074819932220322443 0 0.026336661460135028 -0.0087746878351038574 0 0.026336661460135028 -0.0087746878351038574 0 0.02445152429954036 -0.0089558541374838395 0 0.02754977694299255 -0.010244316600227564 0 0.027404641318279223 -0.0081872664996299836 0 0.026336661460135028 -0.0087746878351038574 0 0.027673596233542794 -0.0094162462688631293 0 0.025792189334111024 -0.0074819932220322443 0 0.026336661460135028 -0.0087746878351038574 0 0.02445152429954036 -0.0089558541374838395 0 0.027656044212505448 -0.010293089763526676 0 0.027551285451269024 -0.010345993929953022 0 0.02754977694299255 -0.010244316600227564 0 0.027656044212505448 -0.010293089763526676 0 0.027594263318252116 -0.010353759020065289 0 0.027551285451269024 -0.010345993929953022 0 0.026404256437514529 -0.0097622705357751013 0 0.02724227089588252 -0.010126743273086625 0 0.027594263318252116 -0.010353759020065289 0 0.027551285451269024 -0.010345993929953022 0 0.027576302864575467 -0.010365702871241007 0 0.026336661460135028 -0.0087746878351038574 0 0.027673596233542794 -0.0094162462688631293 0 0.02754977694299255 -0.010244316600227564 0 0.027673596233542794 -0.0094162462688631293 0 0.02754977694299255 -0.010244316600227564 0 0.028403696948481095 -0.01018512356893783 0 0.027551285451269024 -0.010345993929953022 0 0.02754977694299255 -0.010244316600227564 0 0.027526242641620662 -0.01050668011382023 0 0.02754977694299255 -0.010244316600227564 0 0.027526242641620662 -0.01050668011382023 0 0.027597911644567381 -0.010766806024193203 0 0.02754977694299255 -0.010244316600227564 0 0.028403696948481095 -0.01018512356893783 0 0.027597911644567381 -0.010766806024193203 0 0.027526242641620662 -0.01050668011382023 0 0.027536881921438418 -0.010421297170119907 0 0.027493454155268719 -0.010451627609082713 0 0.027551285451269024 -0.010345993929953022 0 0.027536881921438418 -0.010421297170119907 0 0.027576302864575467 -0.010365702871241007 0 0.027551285451269024 -0.010345993929953022 0 0.027526242641620662 -0.01050668011382023 0 0.027536881921438418 -0.010421297170119907 0 0.029704965299401937 -0.0092569342735952104 0 0.029122021279755193 -0.010090568725326961 0 0.028542976784391962 -0.0093681342454648275 0 0.029805842866521146 -0.0080762949339702114 0 0.029761151595977552 -0.0090783054390173555 0 0.03026152095593693 -0.0073859792798445598 0 0.029937353269672774 -0.0069030824587805384 0 0.030084651760298835 -0.0077689284537920894 0 0.029704965299401937 -0.0092569342735952104 0 0.029122021279755193 -0.010090568725326961 0 0.029248914907364042 -0.0105645402242826 0 0.029122021279755193 -0.010090568725326961 0 0.028542976784391962 -0.0093681342454648275 0 0.028403696948481095 -0.01018512356893783 0 0.027673596233542794 -0.0094162462688631293 0 0.028542976784391962 -0.0093681342454648275 0 0.028403696948481095 -0.01018512356893783 0 0.028403696948481095 -0.01018512356893783 0 0.029586454948159775 -0.010567122972817783 0 0.027597911644567381 -0.010766806024193203 0 0.029539512532814519 -0.010507544852636254 0 0.030580649113030777 -0.010449995674614606 0 0.029122021279755193 -0.010090568725326961 0 0.028403696948481095 -0.01018512356893783 0 0.029586454948159775 -0.010567122972817783 0 0.029122021279755193 -0.010090568725326961 0 0.029586454948159775 -0.010567122972817783 0 0.029248914907364042 -0.0105645402242826 0 0.030265621456843746 -0.0077150215538394368 0 0.030330625423652481 -0.0079361086263825889 0 0.030084651760298835 -0.0077689284537920894 0 0.03026152095593693 -0.0073859792798445598 0 0.030265621456843746 -0.0077150215538394368 0 0.030084651760298835 -0.0077689284537920894 0 0.030330625423652481 -0.0079361086263825889 0 0.030084651760298835 -0.0077689284537920894 0 0.03057676513521684 -0.0081613168627104448 0 0.029586454948159775 -0.010567122972817783 0 0.029248914907364042 -0.0105645402242826 0 0.03057676513521684 -0.0081613168627104448 0 0.029761151595977552 -0.0090783054390173555 0 0.030404100740397458 -0.0082503539086215983 0 0.030330625423652481 -0.0079361086263825889 0 0.03057676513521684 -0.0081613168627104448 0 0.030404371252786021 -0.0079536474211753128 0 0.029586454948159775 -0.010567122972817783 0 0.03131960754167102 -0.0090118255254184737 0 0.032886197495023729 -0.0097906187000530564 0 0.029586454948159775 -0.010567122972817783 0 0.03131960754167102 -0.0090118255254184737 0 0.03057676513521684 -0.0081613168627104448 0 0.03131960754167102 -0.0090118255254184737 0 0.031658058240107978 -0.0076314794342837297 0 0.032705365989786024 -0.0079092892381147396 0 0.03131960754167102 -0.0090118255254184737 0 0.031658058240107978 -0.0076314794342837297 0 0.03057676513521684 -0.0081613168627104448 0 0.030838642513478093 -0.0073017815049701744 0 0.031658058240107978 -0.0076314794342837297 0 0.03057676513521684 -0.0081613168627104448 0 0.030838642513478093 -0.0073017815049701744 0 0.03057676513521684 -0.0081613168627104448 0 0.030404371252786021 -0.0079536474211753128 0 0.027526242641620662 -0.01050668011382023 0 0.027597911644567381 -0.010766806024193203 0 0.027493454155268719 -0.010451627609082713 0 0.033697721333259961 -0.0086611424393445938 0 0.032886197495023729 -0.0097906187000530564 0 0.034891465749426955 -0.0090743461772909463 0 0.030580649113030777 -0.010449995674614606 0 0.029389596768058364 -0.0076293263694354775 0 0.033697721333259961 -0.0086611424393445938 0 0.034270714387653348 -0.0078659548793111444 0 0.034891465749426955 -0.0090743461772909463 0 0.034357448871904096 -0.0082121655903373888 0 0.029389596768058364 -0.0076293263694354775 0 0.033697721333259961 -0.0086611424393445938 0 0.032886197495023729 -0.0097906187000530564 0 0.032705365989786024 -0.0079092892381147396 0 0.03131960754167102 -0.0090118255254184737 0 0.032886197495023729 -0.0097906187000530564 0 0.032705365989786024 -0.0079092892381147396 0 0.032705365989786024 -0.0079092892381147396 0 0.033198169439448123 -0.0073653601192762005 0 0.033960776364404165 -0.0078482444068337497 0 0.032591555753054204 -0.0071728348936913582 0 0.031658058240107978 -0.0076314794342837297 0 0.032705365989786024 -0.0079092892381147396 0 0.032591555753054204 -0.0071728348936913582 0 0.032705365989786024 -0.0079092892381147396 0 0.033198169439448123 -0.0073653601192762005 0 0.035431417523965961 -0.008195174863878437 0 0.034357448871904096 -0.0082121655903373888 0 0.033697721333259961 -0.0086611424393445938 0 0.032705365989786024 -0.0079092892381147396 0 0.034270714387653348 -0.0078659548793111444 0 0.033365158828783562 -0.006749523322011829 0 0.033198169439448123 -0.0073653601192762005 0 0.033960776364404165 -0.0078482444068337497 0 0.03276704309885304 -0.0079019717332617853 0 0.034357448871904096 -0.0082121655903373888 0 0.038436260372282011 -0.0097691624051695243 0 0.037975375551102308 -0.010654360674619187 0 0.039264797048720067 -0.0098333511078339386 0 0.037975375551102308 -0.010654360674619187 0 0.039264797048720067 -0.0098333511078339386 0 0.040613875878731082 -0.010486356895518753 0 0.034357448871904096 -0.0082121655903373888 0 0.035965018451356426 -0.0079727079783770242 0 0.029794899779166859 -0.0051548190882495619 0 0.030649314356958113 -0.0049556799563970754 0 0.030580888221190049 -0.0053913086132715204 0 0.040283345583860902 -0.0091844930616146719 0 0.039264797048720067 -0.0098333511078339386 0 0.040613875878731082 -0.010486356895518753 0 0.030649314356958113 -0.0049556799563970754 0 0.030580888221190049 -0.0053913086132715204 0 0.031617424829761397 -0.005103037388215036 0 0.029494478998058165 -0.0055424902843477725 0 0.031439359485141309 -0.005105945382769793 0 0.041979294797411179 -0.0096085782011582632 0 0.041053939304657949 -0.009469651365554237 0 0.040613875878731082 -0.010486356895518753 0 0.028664344897783117 -0.0056831757137122034 0 0.03056039341438033 -0.0068311047399080022 0 0.031617424829761397 -0.005103037388215036 0 0.028664344897783117 -0.0056831757137122034 0 0.028887610475755113 -0.0071316302726769521 0 0.03056039341438033 -0.0068311047399080022 0 0.028664344897783117 -0.0056831757137122034 0 0.028887610475755113 -0.0071316302726769521 0 0.027793050429249858 -0.0067391054035049287 0 0.028887610475755113 -0.0071316302726769521 0 0.027793050429249858 -0.0067391054035049287 0 0.027971999564241942 -0.0080165162963878062 0 0.028887610475755113 -0.0071316302726769521 0 0.0287635007966856 -0.0079372338672438342 0 0.029697578358218353 -0.0079047848609608545 0 0.028887610475755113 -0.0071316302726769521 0 0.029697578358218353 -0.0079047848609608545 0 0.03056039341438033 -0.0068311047399080022 0 0.028664344897783117 -0.0056831757137122034 0 0.02596944733680304 -0.0064947241904330273 0 0.027793050429249858 -0.0067391054035049287 0 0.029794899779166859 -0.0051548190882495619 0 0.030580888221190049 -0.0053913086132715204 0 0.030022712851564066 -0.0055938604040867181 0 0.029494478998058165 -0.0055424902843477725 0 0.029389596768058364 -0.0076293263694354775 0 0.02596944733680304 -0.0064947241904330273 0 0.027793050429249858 -0.0067391054035049287 0 0.027971999564241942 -0.0080165162963878062 0 0.027536881921438418 -0.010421297170119907 0 0.027493454155268719 -0.010451627609082713 0 0.02758684020620079 -0.010368506407303487 0 0.027493454155268719 -0.010451627609082713 0 0.02758684020620079 -0.010368506407303487 0 0.027713175457022281 -0.010274613988121874 0 0.02596944733680304 -0.0064947241904330273 0 0.027971999564241942 -0.0080165162963878062 0 0.027713175457022281 -0.010274613988121874 0 0.029389596768058364 -0.0076293263694354775 0 0.026930442954043961 -0.010378503683688518 0 0.027536881921438418 -0.010421297170119907 0 0.02758684020620079 -0.010368506407303487 0 0.027576302864575467 -0.010365702871241007 0 0.02758684020620079 -0.010368506407303487 0 0.027576302864575467 -0.010365702871241007 0 0.027626603873419708 -0.010348207208340681 0 0.02758684020620079 -0.010368506407303487 0 0.027626603873419708 -0.010348207208340681 0 0.027713175457022281 -0.010274613988121874 0 0.028887610475755113 -0.0071316302726769521 0 0.027971999564241942 -0.0080165162963878062 0 0.0287635007966856 -0.0079372338672438342 0 0.027971999564241942 -0.0080165162963878062 0 0.0287635007966856 -0.0079372338672438342 0 0.028414985948068811 -0.0083953816580345404 0 0.027971999564241942 -0.0080165162963878062 0 0.028414985948068811 -0.0083953816580345404 0 0.028249000931652595 -0.0092099777413195676 0 0.0287635007966856 -0.0079372338672438342 0 0.028857109871790302 -0.0087083338791059776 0 0.029697578358218353 -0.0079047848609608545 0 0.0287635007966856 -0.0079372338672438342 0 0.028857109871790302 -0.0087083338791059776 0 0.028414985948068811 -0.0083953816580345404 0 0.028857109871790302 -0.0087083338791059776 0 0.028414985948068811 -0.0083953816580345404 0 0.028249000931652595 -0.0092099777413195676 0 0.029697578358218353 -0.0079047848609608545 0 0.02970102455969028 -0.0088436476545104802 0 0.030854759971920821 -0.008242587621229815 0 0.028857109871790302 -0.0087083338791059776 0 0.029697578358218353 -0.0079047848609608545 0 0.02970102455969028 -0.0088436476545104802 0 0.02970102455969028 -0.0088436476545104802 0 0.029560732693689633 -0.0095381028396661922 0 0.030411549371754658 -0.0094432829861199764 0 0.028857109871790302 -0.0087083338791059776 0 0.02970102455969028 -0.0088436476545104802 0 0.02892177353769522 -0.0093556036063456218 0 0.02970102455969028 -0.0088436476545104802 0 0.029560732693689633 -0.0095381028396661922 0 0.02892177353769522 -0.0093556036063456218 0 0.029560732693689633 -0.0095381028396661922 0 0.029937831655028696 -0.010021860332895729 0 0.029106199555628261 -0.0099818696931338845 0 0.029560732693689633 -0.0095381028396661922 0 0.02892177353769522 -0.0093556036063456218 0 0.029106199555628261 -0.0099818696931338845 0 0.029560732693689633 -0.0095381028396661922 0 0.029937831655028696 -0.010021860332895729 0 0.030411549371754658 -0.0094432829861199764 0 0.027971999564241942 -0.0080165162963878062 0 0.028249000931652595 -0.0092099777413195676 0 0.027713175457022281 -0.010274613988121874 0 0.028857109871790302 -0.0087083338791059776 0 0.028249000931652595 -0.0092099777413195676 0 0.02892177353769522 -0.0093556036063456218 0 0.028249000931652595 -0.0092099777413195676 0 0.02892177353769522 -0.0093556036063456218 0 0.028468765423023162 -0.0097584810821930591 0 0.02892177353769522 -0.0093556036063456218 0 0.028468765423023162 -0.0097584810821930591 0 0.029106199555628261 -0.0099818696931338845 0 0.028249000931652595 -0.0092099777413195676 0 0.028468765423023162 -0.0097584810821930591 0 0.028215911328229999 -0.009862103103296627 0 0.028468765423023162 -0.0097584810821930591 0 0.028215911328229999 -0.009862103103296627 0 0.028421658506906703 -0.010184380030212336 0 0.028249000931652595 -0.0092099777413195676 0 0.028215911328229999 -0.009862103103296627 0 0.027713175457022281 -0.010274613988121874 0 0.027282621913285801 -0.010349037903843557 0 0.027627363687277275 -0.010378791316717909 0 0.027736426693118814 -0.010463031147721688 0 0.028215911328229999 -0.009862103103296627 0 0.028421658506906703 -0.010184380030212336 0 0.027713175457022281 -0.010274613988121874 0 0.028421658506906703 -0.010184380030212336 0 0.027713175457022281 -0.010274613988121874 0 0.027736426693118814 -0.010463031147721688 0 0.028421658506906703 -0.010184380030212336 0 0.029642704572786425 -0.010758701854977468 0 0.027736426693118814 -0.010463031147721688 0 0.028468765423023162 -0.0097584810821930591 0 0.028421658506906703 -0.010184380030212336 0 0.029106199555628261 -0.0099818696931338845 0 0.029937831655028696 -0.010021860332895729 0 0.029642704572786425 -0.010758701854977468 0 0.03094386415256823 -0.010382192533889738 0 0.029937831655028696 -0.010021860332895729 0 0.029106199555628261 -0.0099818696931338845 0 0.029642704572786425 -0.010758701854977468 0 0.028421658506906703 -0.010184380030212336 0 0.029106199555628261 -0.0099818696931338845 0 0.029642704572786425 -0.010758701854977468 0 0.03012341518479791 -0.012331555702596607 0 0.029642704572786425 -0.010758701854977468 0 0.027736426693118814 -0.010463031147721688 0 0.029028835863281505 -0.011723558754225476 0 0.027659021133251017 -0.010394115392987154 0 0.027656044212505448 -0.010293089763526676 0 0.027594263318252116 -0.010353759020065289 0 0.027610649874238495 -0.010350200097831165 0 0.027540259096134296 -0.010274790250814007 0 0.027627363687277275 -0.010378791316717909 0 0.027610649874238495 -0.010350200097831165 0 0.027627363687277275 -0.010378791316717909 0 0.027610649874238495 -0.010350200097831165 0 0.027613010465877334 -0.010375451497564749 0 0.027594263318252116 -0.010353759020065289 0 0.027610649874238495 -0.010350200097831165 0 0.027613010465877334 -0.010375451497564749 0 0.027594263318252116 -0.010353759020065289 0 0.027613010465877334 -0.010375451497564749 0 0.027576302864575467 -0.010365702871241007 0 0.027613010465877334 -0.010375451497564749 0 0.027576302864575467 -0.010365702871241007 0 0.027626603873419708 -0.010348207208340681 0 0.027626603873419708 -0.010348207208340681 0 0.027667441656287321 -0.010361348051555131 0 0.027650539911273114 -0.010396771272250589 0 0.027627363687277275 -0.010378791316717909 0 0.027736426693118814 -0.010463031147721688 0 0.027650539911273114 -0.010396771272250589 0 0.027626603873419708 -0.010348207208340681 0 0.027713175457022281 -0.010274613988121874 0 0.027667441656287321 -0.010361348051555131 0 0.027713175457022281 -0.010274613988121874 0 0.027736426693118814 -0.010463031147721688 0 0.027667441656287321 -0.010361348051555131 0 0.027736426693118814 -0.010463031147721688 0 0.027667441656287321 -0.010361348051555131 0 0.027650539911273114 -0.010396771272250589 0 0.027613010465877334 -0.010375451497564749 0 0.027626603873419708 -0.010348207208340681 0 0.027650539911273114 -0.010396771272250589 0 0.027627363687277275 -0.010378791316717909 0 0.027613010465877334 -0.010375451497564749 0 0.027650539911273114 -0.010396771272250589 0 0.033655247380249158 -0.0042126150252974831 0 0.03357293621282105 -0.0043184674641116444 0 0.033685196024839908 -0.0043951679745547643 0 0.033566327091959433 -0.0044704160312704659 0 0.03357293621282105 -0.0043184674641116444 0 0.033685196024839908 -0.0043951679745547643 0 0.033547015782249244 -0.0041454518833163754 0 0.034203451562876561 -0.0045994059474198578 0 0.033655247380249158 -0.0042126150252974831 0 0.033931921647717939 -0.0041334127234071089 0 0.03404587598042276 -0.0043538655235010829 0 0.03012341518479791 -0.012331555702596607 0 0.029642704572786425 -0.010758701854977468 0 0.031189454500421779 -0.011719010086742778 0 0.029642704572786425 -0.010758701854977468 0 0.031189454500421779 -0.011719010086742778 0 0.03094386415256823 -0.010382192533889738 0 0.029937831655028696 -0.010021860332895729 0 0.03094386415256823 -0.010382192533889738 0 0.030411549371754658 -0.0094432829861199764 0 0.031189454500421779 -0.011719010086742778 0 0.03094386415256823 -0.010382192533889738 0 0.032455382688842953 -0.010794284209670983 0 0.03094386415256823 -0.010382192533889738 0 0.032455382688842953 -0.010794284209670983 0 0.031534618507246495 -0.0092291596566771959 0 0.032455382688842953 -0.010794284209670983 0 0.031534618507246495 -0.0092291596566771959 0 0.032693901342965362 -0.0072960780393812562 0 0.03094386415256823 -0.010382192533889738 0 0.031534618507246495 -0.0092291596566771959 0 0.030411549371754658 -0.0094432829861199764 0 0.02970102455969028 -0.0088436476545104802 0 0.030411549371754658 -0.0094432829861199764 0 0.030854759971920821 -0.008242587621229815 0 0.031534618507246495 -0.0092291596566771959 0 0.030411549371754658 -0.0094432829861199764 0 0.030854759971920821 -0.008242587621229815 0 0.031534618507246495 -0.0092291596566771959 0 0.030854759971920821 -0.008242587621229815 0 0.032693901342965362 -0.0072960780393812562 0 0.033425128010157783 -0.0076410270621303728 0 0.032925492819578586 -0.0053459238468414501 0 0.033655247380249158 -0.0042126150252974831 0 0.03357293621282105 -0.0043184674641116444 0 0.033769685223349208 -0.0037640875489174772 0 0.033655247380249158 -0.0042126150252974831 0 0.033906793018711245 -0.0039731303963423887 0 0.033769685223349208 -0.0037640875489174772 0 0.033655247380249158 -0.0042126150252974831 0 0.033931921647717939 -0.0041334127234071089 0 0.033906793018711245 -0.0039731303963423887 0 0.033931921647717939 -0.0041334127234071089 0 0.033906793018711245 -0.0039731303963423887 0 0.034115784048427591 -0.0040001992805075567 0 0.033906793018711245 -0.0039731303963423887 0 0.03405139604658123 -0.003798142679298698 0 0.033769685223349208 -0.0037640875489174772 0 0.033906793018711245 -0.0039731303963423887 0 0.03405139604658123 -0.003798142679298698 0 0.034115784048427591 -0.0040001992805075567 0 0.032925492819578586 -0.0053459238468414501 0 0.036007873042091368 -0.0049862485733337559 0 0.033769685223349208 -0.0037640875489174772 0 0.034038178492522088 -0.0034778374173226128 0 0.033910166276126877 -0.0033127481949923069 0 0.03405139604658123 -0.003798142679298698 0 0.033769685223349208 -0.0037640875489174772 0 0.03412367347422901 -0.0035866330331513143 0 0.033769685223349208 -0.0037640875489174772 0 0.034038178492522088 -0.0034778374173226128 0 0.03412367347422901 -0.0035866330331513143 0 0.030854759971920821 -0.008242587621229815 0 0.032693901342965362 -0.0072960780393812562 0 0.03056039341438033 -0.0068311047399080022 0 0.032693901342965362 -0.0072960780393812562 0 0.031617424829761397 -0.005103037388215036 0 0.032593569731702535 -0.0045199470636758422 0 0.032693901342965362 -0.0072960780393812562 0 0.03056039341438033 -0.0068311047399080022 0 0.031617424829761397 -0.005103037388215036 0 0.029697578358218353 -0.0079047848609608545 0 0.030854759971920821 -0.008242587621229815 0 0.03056039341438033 -0.0068311047399080022 0 0.030649314356958113 -0.0049556799563970754 0 0.031617424829761397 -0.005103037388215036 0 0.032593569731702535 -0.0045199470636758422 0 0.041979294797411179 -0.0096085782011582632 0 0.040613875878731082 -0.010486356895518753 0 0.043326264673855731 -0.010278894017637282 0 0.035965018451356426 -0.0079727079783770242 0 0.036007873042091368 -0.0049862485733337559 0 0.034038178492522088 -0.0034778374173226128 0 0.033910166276126877 -0.0033127481949923069 0 0.034148114861725344 -0.0033084330369830563 0 0.034038178492522088 -0.0034778374173226128 0 0.034192088028528758 -0.0034151321991373437 0 0.03412367347422901 -0.0035866330331513143 0 0.034038178492522088 -0.0034778374173226128 0 0.034148114861725344 -0.0033084330369830563 0 0.034192088028528758 -0.0034151321991373437 0 0.036007873042091368 -0.0049862485733337559 0 0.033989630119782226 -0.0040500356722414105 0 0.034226579275200501 -0.0031753364840075948 0 0.034091955399673191 -0.0033230441789436679 0 0.034148114861725344 -0.0033084330369830563 0 0.034226579275200501 -0.0031753364840075948 0 0.034148114861725344 -0.0033084330369830563 0 0.034296819497019577 -0.0032864792330819731 0 0.034148114861725344 -0.0033084330369830563 0 0.034296819497019577 -0.0032864792330819731 0 0.034192088028528758 -0.0034151321991373437 0 0.034296819497019577 -0.0032864792330819731 0 0.034332293600502849 -0.0034476831048575163 0 0.034491490408374424 -0.0032669347588184369 0 0.034296819497019577 -0.0032864792330819731 0 0.034332293600502849 -0.0034476831048575163 0 0.034192088028528758 -0.0034151321991373437 0 0.034332293600502849 -0.0034476831048575163 0 0.034192088028528758 -0.0034151321991373437 0 0.03412367347422901 -0.0035866330331513143 0 0.034332293600502849 -0.0034476831048575163 0 0.034333818908473958 -0.0037058315832149062 0 0.034480679177575232 -0.00350217456076423 0 0.034332293600502849 -0.0034476831048575163 0 0.03412367347422901 -0.0035866330331513143 0 0.034333818908473958 -0.0037058315832149062 0 0.03405139604658123 -0.003798142679298698 0 0.03412367347422901 -0.0035866330331513143 0 0.034333818908473958 -0.0037058315832149062 0 0.034333818908473958 -0.0037058315832149062 0 0.034615257573030515 -0.0036216514289115704 0 0.034523974244457405 -0.0038950636906366748 0 0.034333818908473958 -0.0037058315832149062 0 0.034615257573030515 -0.0036216514289115704 0 0.034480679177575232 -0.00350217456076423 0 0.034615257573030515 -0.0036216514289115704 0 0.034480679177575232 -0.00350217456076423 0 0.034609555610917941 -0.0033872250090705735 0 0.034332293600502849 -0.0034476831048575163 0 0.034480679177575232 -0.00350217456076423 0 0.034491490408374424 -0.0032669347588184369 0 0.034715397023549859 -0.003165215897266324 0 0.034609555610917941 -0.0033872250090705735 0 0.034491490408374424 -0.0032669347588184369 0 0.034480679177575232 -0.00350217456076423 0 0.034609555610917941 -0.0033872250090705735 0 0.034491490408374424 -0.0032669347588184369 0 0.034715397023549859 -0.003165215897266324 0 0.034609555610917941 -0.0033872250090705735 0 0.034732884300019327 -0.0032971668792297756 0 0.034715397023549859 -0.003165215897266324 0 0.034732884300019327 -0.0032971668792297756 0 0.034818284516596118 -0.0032411511460116453 0 0.034732884300019327 -0.0032971668792297756 0 0.034732173051382403 -0.0034449678929332249 0 0.034818284516596118 -0.0032411511460116453 0 0.034609555610917941 -0.0033872250090705735 0 0.034732884300019327 -0.0032971668792297756 0 0.034732173051382403 -0.0034449678929332249 0 0.034843315958059125 -0.0031152321950897112 0 0.034889799914594337 -0.0031480879812729621 0 0.034818284516596118 -0.0032411511460116453 0 0.034889799914594337 -0.0031480879812729621 0 0.034818284516596118 -0.0032411511460116453 0 0.034786791652839925 -0.0032037064447157024 0 0.034818284516596118 -0.0032411511460116453 0 0.034786791652839925 -0.0032037064447157024 0 0.034689328914552481 -0.0031965186714142937 0 0.034889799914594337 -0.0031480879812729621 0 0.034786791652839925 -0.0032037064447157024 0 0.034781626008774193 -0.003218870815538255 0 0.034818284516596118 -0.0032411511460116453 0 0.034689328914552481 -0.0031965186714142937 0 0.034950091337130153 -0.0030716793103933077 0 0.034797378149666609 -0.0032376524086690974 0 0.035040100115272345 -0.0034684321711867033 0 0.034786791652839925 -0.0032037064447157024 0 0.034689328914552481 -0.0031965186714142937 0 0.034781626008774193 -0.003218870815538255 0 0.034689328914552481 -0.0031965186714142937 0 0.034535585540661905 -0.0032022272153701434 0 0.034781626008774193 -0.003218870815538255 0 0.034689328914552481 -0.0031965186714142937 0 0.034554451332900284 -0.0031611512547660586 0 0.034950091337130153 -0.0030716793103933077 0 0.034689328914552481 -0.0031965186714142937 0 0.034554451332900284 -0.0031611512547660586 0 0.034535585540661905 -0.0032022272153701434 0 0.034554451332900284 -0.0031611512547660586 0 0.034535585540661905 -0.0032022272153701434 0 0.034025676349246123 -0.0029844834782709324 0 0.034615257573030515 -0.0036216514289115704 0 0.034840481303065836 -0.0037117667158449441 0 0.034523974244457405 -0.0038950636906366748 0 0.034732173051382403 -0.0034449678929332249 0 0.034818284516596118 -0.0032411511460116453 0 0.034840481303065836 -0.0037117667158449441 0 0.034615257573030515 -0.0036216514289115704 0 0.034609555610917941 -0.0033872250090705735 0 0.034732173051382403 -0.0034449678929332249 0 0.034615257573030515 -0.0036216514289115704 0 0.034732173051382403 -0.0034449678929332249 0 0.034840481303065836 -0.0037117667158449441 0 0.035040100115272345 -0.0034684321711867033 0 0.033902355175288772 -0.0025227321752705045 0 0.034840481303065836 -0.0037117667158449441 0 0.034687050811150734 -0.0042533914771052282 0 0.034523974244457405 -0.0038950636906366748 0 0.034950091337130153 -0.0030716793103933077 0 0.034757656292235643 -0.0023978887530771739 0 0.035453062397187887 -0.0019587706432293486 0 0.034554451332900284 -0.0031611512547660586 0 0.034950091337130153 -0.0030716793103933077 0 0.034757656292235643 -0.0023978887530771739 0 0.033837903480760205 -0.0022787682592034955 0 0.032713196706714694 -0.0029225875947101261 0 0.032798219106224658 -0.0023173301874030664 0 0.032727487004479007 -0.0028721543634231922 0 0.0324591924651111 -0.0022739935512685635 0 0.034554451332900284 -0.0031611512547660586 0 0.034025676349246123 -0.0029844834782709324 0 0.034757656292235643 -0.0023978887530771739 0 0.034025676349246123 -0.0029844834782709324 0 0.034757656292235643 -0.0023978887530771739 0 0.032727487004479007 -0.0028721543634231922 0 0.032690430393711542 -0.0018460712827141077 0 0.0324591924651111 -0.0022739935512685635 0 0.032069645035156462 -0.0015012667696314114 0 0.032798219106224658 -0.0023173301874030664 0 0.032690430393711542 -0.0018460712827141077 0 0.0324591924651111 -0.0022739935512685635 0 0.033837903480760205 -0.0022787682592034955 0 0.033902355175288772 -0.0025227321752705045 0 0.032690430393711542 -0.0018460712827141077 0 0.033384338408579413 -0.0019082683649192676 0 0.032952734752852098 -0.0013737224819539687 0 0.032798219106224658 -0.0023173301874030664 0 0.032690430393711542 -0.0018460712827141077 0 0.033384338408579413 -0.0019082683649192676 0 0.034687050811150734 -0.0042533914771052282 0 0.034351108906734623 -0.0041651606284137336 0 0.034523974244457405 -0.0038950636906366748 0 0.034687050811150734 -0.0042533914771052282 0 0.034351108906734623 -0.0041651606284137336 0 0.034316561181401174 -0.0045070232585781057 0 0.033902355175288772 -0.0025227321752705045 0 0.032019034016994283 -0.0031941312616814593 0 0.033931921647717939 -0.0041334127234071089 0 0.03404587598042276 -0.0043538655235010829 0 0.034115784048427591 -0.0040001992805075567 0 0.034351108906734623 -0.0041651606284137336 0 0.03404587598042276 -0.0043538655235010829 0 0.034316561181401174 -0.0045070232585781057 0 0.034351108906734623 -0.0041651606284137336 0 0.03404587598042276 -0.0043538655235010829 0 0.034115784048427591 -0.0040001992805075567 0 0.034351108906734623 -0.0041651606284137336 0 0.034332970048214187 -0.003940867681240183 0 0.034115784048427591 -0.0040001992805075567 0 0.03405139604658123 -0.003798142679298698 0 0.034333818908473958 -0.0037058315832149062 0 0.034115784048427591 -0.0040001992805075567 0 0.034333818908473958 -0.0037058315832149062 0 0.034332970048214187 -0.003940867681240183 0 0.034115784048427591 -0.0040001992805075567 0 0.034333818908473958 -0.0037058315832149062 0 0.034332970048214187 -0.003940867681240183 0 0.034523974244457405 -0.0038950636906366748 0 0.034351108906734623 -0.0041651606284137336 0 0.034332970048214187 -0.003940867681240183 0 0.034523974244457405 -0.0038950636906366748 0 0.032910209986767275 0.00010048458996000399 0 0.033325773123794068 0.00025059841241414482 0 0.032637114469670991 4.6218837204684888e-05 0 0.032910209986767275 0.00010048458996000399 0 0.032637114469670991 4.6218837204684888e-05 0 0.032413887425993722 -0.00030995433993673347 0 0.033273395456811933 0.00028733261260925928 0 0.033325773123794068 0.00025059841241414482 0 0.032637114469670991 4.6218837204684888e-05 0 0.033759249041744217 -0.0014388730002450898 0 0.033274975049517708 -0.0038307005560612117 0 0.030680050358033215 -0.0044512942397348602 0 0.030605780393969821 -0.0032252866106089024 0 0.031326232244206977 -0.0039747732210131115 0 0.033759249041744217 -0.0014388730002450898 0 0.031238959027588244 -0.0015590274125750455 0 0.030605780393969821 -0.0032252866106089024 0 0.031284371239726813 -0.0033111295056095463 0 0.03107197597848705 -0.0028929590998738072 0 0.030605780393969821 -0.0032252866106089024 0 0.031284371239726813 -0.0033111295056095463 0 0.031326232244206977 -0.0039747732210131115 0 0.033274975049517708 -0.0038307005560612117 0 0.033682047885384793 -0.0033786384232032105 0 0.031284371239726813 -0.0033111295056095463 0 0.031326232244206977 -0.0039747732210131115 0 0.03207423645480597 -0.0036123632518105984 0 0.031284371239726813 -0.0033111295056095463 0 0.03207423645480597 -0.0036123632518105984 0 0.031866059676238713 -0.0029860115318088784 0 0.035655067886081873 -0.0031530481809124693 0 0.035238370777296045 -0.0030644236572958351 0 0.035051177352372176 -0.0033822668685078126 0 0.035663149230271966 -0.0026484183054838843 0 0.035655067886081873 -0.0031530481809124693 0 0.035238370777296045 -0.0030644236572958351 0 0.035238370777296045 -0.0030644236572958351 0 0.034781626008774193 -0.003218870815538255 0 0.035051177352372176 -0.0033822668685078126 0 0.035322743688893252 -0.0027969568429008543 0 0.034889799914594337 -0.0031480879812729621 0 0.035238370777296045 -0.0030644236572958351 0 0.034889799914594337 -0.0031480879812729621 0 0.035238370777296045 -0.0030644236572958351 0 0.034781626008774193 -0.003218870815538255 0 0.034535585540661905 -0.0032022272153701434 0 0.034781626008774193 -0.003218870815538255 0 0.035051177352372176 -0.0033822668685078126 0 0.034535585540661905 -0.0032022272153701434 0 0.034025676349246123 -0.0029844834782709324 0 0.035051177352372176 -0.0033822668685078126 0 0.034061710686588594 -0.0030004973648468485 0 0.033682047885384793 -0.0033786384232032105 0 0.034025676349246123 -0.0029844834782709324 0 0.03207423645480597 -0.0036123632518105984 0 0.032727487004479007 -0.0028721543634231922 0 0.03207423645480597 -0.0036123632518105984 0 0.032727487004479007 -0.0028721543634231922 0 0.031866059676238713 -0.0029860115318088784 0 0.032727487004479007 -0.0028721543634231922 0 0.032083022522233093 -0.0025198098020062297 0 0.031866059676238713 -0.0029860115318088784 0 0.032083022522233093 -0.0025198098020062297 0 0.0324591924651111 -0.0022739935512685635 0 0.031846319094514797 -0.0020724794278217736 0 0.032727487004479007 -0.0028721543634231922 0 0.032083022522233093 -0.0025198098020062297 0 0.0324591924651111 -0.0022739935512685635 0 0.0324591924651111 -0.0022739935512685635 0 0.031846319094514797 -0.0020724794278217736 0 0.032069645035156462 -0.0015012667696314114 0 0.031846319094514797 -0.0020724794278217736 0 0.03122781250052881 -0.0020313028761843157 0 0.031269332007468689 -0.001464181172674837 0 0.031846319094514797 -0.0020724794278217736 0 0.03122781250052881 -0.0020313028761843157 0 0.031455286581156684 -0.0026099922153095352 0 0.032083022522233093 -0.0025198098020062297 0 0.031846319094514797 -0.0020724794278217736 0 0.031455286581156684 -0.0026099922153095352 0 0.032083022522233093 -0.0025198098020062297 0 0.031455286581156684 -0.0026099922153095352 0 0.031866059676238713 -0.0029860115318088784 0 0.031284371239726813 -0.0033111295056095463 0 0.031455286581156684 -0.0026099922153095352 0 0.031866059676238713 -0.0029860115318088784 0 0.031284371239726813 -0.0033111295056095463 0 0.031455286581156684 -0.0026099922153095352 0 0.03107197597848705 -0.0028929590998738072 0 0.031238959027588244 -0.0015590274125750455 0 0.03213211821318622 -0.0023182706142373813 0 0.030605780393969821 -0.0032252866106089024 0 0.0309749966526645 -0.0024650907441633907 0 0.030602899448175222 -0.001925235482600032 0 0.030605780393969821 -0.0032252866106089024 0 0.03107197597848705 -0.0028929590998738072 0 0.0309749966526645 -0.0024650907441633907 0 0.03122781250052881 -0.0020313028761843157 0 0.031455286581156684 -0.0026099922153095352 0 0.0309749966526645 -0.0024650907441633907 0 0.031455286581156684 -0.0026099922153095352 0 0.03107197597848705 -0.0028929590998738072 0 0.0309749966526645 -0.0024650907441633907 0 0.03122781250052881 -0.0020313028761843157 0 0.0309749966526645 -0.0024650907441633907 0 0.030602899448175222 -0.001925235482600032 0 0.03122781250052881 -0.0020313028761843157 0 0.030602899448175222 -0.001925235482600032 0 0.031269332007468689 -0.001464181172674837 0 0.032326851097871763 -0.00060987071426376314 0 0.031825481115293458 -0.00072752676900664378 0 0.031902529220617953 -0.0010366851062729992 0 0.032326851097871763 -0.00060987071426376314 0 0.031825481115293458 -0.00072752676900664378 0 0.032413887425993722 -0.00030995433993673347 0 0.032326851097871763 -0.00060987071426376314 0 0.032910209986767275 0.00010048458996000399 0 0.032413887425993722 -0.00030995433993673347 0 0.032637114469670991 4.6218837204684888e-05 0 0.031825481115293458 -0.00072752676900664378 0 0.032413887425993722 -0.00030995433993673347 0 0.033557744462374681 -0.00060680217253010807 0 0.032593260388456238 0.00042897150325219973 0 0.026297064905202786 0.0023619504063590959 0 0.024823124234278848 0.0030372022104798229 0 0.01836190688361837 0.0099882782102929842 0 0.01783362407688352 0.0096446250558172696 0 0.01750981125882619 0.0097959947567092844 0 0.01783362407688352 0.0096446250558172696 0 0.01750981125882619 0.0097959947567092844 0 0.017376007005506792 0.0094808049368311758 0 0.032007943280759524 -0.0013308455685147199 0 0.031902529220617953 -0.0010366851062729992 0 0.031283661319386813 -0.00152689397056072 0 0.031825481115293458 -0.00072752676900664378 0 0.031902529220617953 -0.0010366851062729992 0 0.031283661319386813 -0.00152689397056072 0 0.03213211821318622 -0.0023182706142373813 0 0.024823124234278848 0.0030372022104798229 0 0.030602899448175222 -0.001925235482600032 0 0.030551247493698273 -0.00096989965916873086 0 0.031269332007468689 -0.001464181172674837 0 0.017374137373912454 0.009416982312691476 0 0.017624658230366894 0.0092432427890751494 0 0.017330856640997153 0.0094034223318893492 0 0.030551247493698273 -0.00096989965916873086 0 0.031245541603338502 -0.00087518570693893697 0 0.031269332007468689 -0.001464181172674837 0 0.024823124234278848 0.0030372022104798229 0 0.024774320503881668 0.0044953368488679828 0 0.017374137373912454 0.009416982312691476 0 0.017330856640997153 0.0094034223318893492 0 0.017376007005506792 0.0094808049368311758 0 0.024823124234278848 0.0030372022104798229 0 0.021467705430715925 0.0091771195158432111 0 0.031245541603338502 -0.00087518570693893697 0 0.031269332007468689 -0.001464181172674837 0 0.031649912912595696 -0.001181904372534182 0 0.031269332007468689 -0.001464181172674837 0 0.032069645035156462 -0.0015012667696314114 0 0.031649912912595696 -0.001181904372534182 0 0.031846319094514797 -0.0020724794278217736 0 0.031269332007468689 -0.001464181172674837 0 0.032069645035156462 -0.0015012667696314114 0 0.032069645035156462 -0.0015012667696314114 0 0.031649912912595696 -0.001181904372534182 0 0.0319138472805311 -0.001213182647221296 0 0.031245541603338502 -0.00087518570693893697 0 0.031649912912595696 -0.001181904372534182 0 0.031720718289073448 -0.00089333084572599262 0 0.031649912912595696 -0.001181904372534182 0 0.0319138472805311 -0.001213182647221296 0 0.031720718289073448 -0.00089333084572599262 0 0.024774320503881668 0.0044953368488679828 0 0.022995968208299016 0.0029270978792115851 0 0.017624658230366894 0.0092432427890751494 0 0.017881483076753614 0.0096918316242167318 0 0.018586059835290297 0.0093476624667193555 0 0.010888170197051399 0.0049191643992638114 0 0.022995968208299016 0.0029270978792115851 0 0.0063774418117239261 0.0036197512760182222 0 0.0081243477735645029 0.0034658802693769471 0 0.0071378910286256222 0.0044415511123660212 0 0.0064666816330033444 0.0025630876717749815 0 0.0063774418117239261 0.0036197512760182222 0 0.0081243477735645029 0.0034658802693769471 0 0.010888170197051399 0.0049191643992638114 0 0.0057454858807328068 0.0040115386085026062 0 0.0074111147812522954 0.0033634612851803796 0 0.0063528613040986469 0.0040670195729207229 0 0.0056674107052172252 0.0038858915589514908 0 0.0064666816330033444 0.0025630876717749815 0 0.0063774418117239261 0.0036197512760182222 0 0.0053441751589631131 0.0034658408094551908 0 0.010888170197051399 0.0049191643992638114 0 0.011929325517852874 0.0068178158578388014 0 0.0063774418117239261 0.0036197512760182222 0 0.0053441751589631131 0.0034658408094551908 0 0.0051499849937850428 0.0039178979012483434 0 0.0053441751589631131 0.0034658408094551908 0 0.0054000807970157414 0.0039220833723672497 0 0.0051499849937850428 0.0039178979012483434 0 0.017624658230366894 0.0092432427890751494 0 0.017881483076753614 0.0096918316242167318 0 0.017330856640997153 0.0094034223318893492 0 0.017881483076753614 0.0096918316242167318 0 0.017330856640997153 0.0094034223318893492 0 0.017089183099663469 0.009543652175363581 0 0.017330856640997153 0.0094034223318893492 0 0.017376007005506792 0.0094808049368311758 0 0.017295831787941862 0.0094125938655628839 0 0.017330856640997153 0.0094034223318893492 0 0.017295831787941862 0.0094125938655628839 0 0.017089183099663469 0.009543652175363581 0 0.0056674107052172252 0.0038858915589514908 0 0.0057564592473366757 0.0037580183592524543 0 0.0071825033477273901 0.0043017239450842673 0 0.0063528613040986469 0.0040670195729207229 0 0.0056674107052172252 0.0038858915589514908 0 0.0054000807970157414 0.0039220833723672497 0 0.0057454858807328068 0.0040115386085026062 0 0.0056350449686886255 0.0038373529445401154 0 0.0056674107052172252 0.0038858915589514908 0 0.0057564592473366757 0.0037580183592524543 0 0.0054000807970157414 0.0039220833723672497 0 0.0077742589608698447 0.0033251680997888121 0 0.0057564592473366757 0.0037580183592524543 0 0.0071825033477273901 0.0043017239450842673 0 0.0063944063791078259 0.0035976946142762052 0 0.0059040152520233166 0.0037280271388734098 0 0.011929325517852874 0.0068178158578388014 0 0.011839185614412204 0.006734292658193807 0 0.017295831787941862 0.0094125938655628839 0 0.017089183099663469 0.009543652175363581 0 0.017430923691512685 0.0090591979877798368 0 0.017295831787941862 0.0094125938655628839 0 0.017430923691512685 0.0090591979877798368 0 0.017552974921472567 0.0093878237260857159 0 0.01783362407688352 0.0096446250558172696 0 0.017376007005506792 0.0094808049368311758 0 0.017552974921472567 0.0093878237260857159 0 0.017376007005506792 0.0094808049368311758 0 0.017295831787941862 0.0094125938655628839 0 0.017552974921472567 0.0093878237260857159 0 0.020614766567375202 0.00037298428766911111 0 0.020430961690504176 0.00012268173492044587 0 0.020186592659080859 0.00034100954378170182 0 0.020614766567375202 0.00037298428766911111 0 0.020186592659080859 0.00034100954378170182 0 0.020652312572229031 0.00044625843044413872 0 0.020614766567375202 0.00037298428766911111 0 0.020652134116157662 0.00042985463725436096 0 0.02071466879472502 0.00013152115111032616 0 0.020614766567375202 0.00037298428766911111 0 0.020430961690504176 0.00012268173492044587 0 0.02071466879472502 0.00013152115111032616 0 0.020990298942152725 -0.0013532148274151873 0 0.010793509889839561 0.0026940463313470386 0 0.020430961690504176 0.00012268173492044587 0 0.020186592659080859 0.00034100954378170182 0 0.020138358520185674 -8.3349101335768055e-05 0 0.019772463251907575 0.00023666299808558264 0 0.020186592659080859 0.00034100954378170182 0 0.020138358520185674 -8.3349101335768055e-05 0 0.020990298942152725 -0.0013532148274151873 0 0.023033619654673321 -0.0012088168721934101 0 0.023614361540168844 -0.0030455027957088602 0 0.026608720522809333 -0.0026110648470612529 0 0.027579378225473791 -0.00056543388895138739 0 0.025442130983949166 -0.0034506547500589135 0 0.032019034016994283 -0.0031941312616814593 0 0.033607632162416551 -0.0045255712732525108 0 0.033515098420350817 -0.0046806082120253263 0 0.033802408328532173 -0.0044842755486218149 0 0.033607632162416551 -0.0045255712732525108 0 0.033685196024839908 -0.0043951679745547643 0 0.033802408328532173 -0.0044842755486218149 0 0.034203451562876561 -0.0045994059474198578 0 0.032019034016994283 -0.0031941312616814593 0 0.023033619654673321 -0.0012088168721934101 0 0.028194841506847687 -0.00090515386662971657 0 0.026608720522809333 -0.0026110648470612529 0 0.027579378225473791 -0.00056543388895138739 0 0.02937166375079333 -0.0017827817683018304 0 0.031735160954872103 -0.001957213746018446 0 0.031164223564702141 -0.0023094003533894961 0 0.031496040249507952 -0.0025346718356920482 0 0.033902355175288772 -0.0025227321752705045 0 0.028194841506847687 -0.00090515386662971657 0 0.032019034016994283 -0.0031941312616814593 0 0.028194841506847687 -0.00090515386662971657 0 0.027370961794370305 -0.0010814225223626512 0 0.028194841506847687 -0.00090515386662971657 0 0.028194841506847687 -0.00090515386662971657 0 0.03334197002662137 -0.0012084629133332404 0 0.033384338408579413 -0.0019082683649192676 0 0.033577570281642391 -0.0012580495824548192 0 0.032952734752852098 -0.0013737224819539687 0 0.031747445433993236 -0.001542066142843276 0 0.03334197002662137 -0.0012084629133332404 0 0.032690430393711542 -0.0018460712827141077 0 0.032069645035156462 -0.0015012667696314114 0 0.032952734752852098 -0.0013737224819539687 0 0.032069645035156462 -0.0015012667696314114 0 0.031968525621363687 -0.0012295221700309609 0 0.0319138472805311 -0.001213182647221296 0 0.031968525621363687 -0.0012295221700309609 0 0.0319138472805311 -0.001213182647221296 0 0.031958502425228949 -0.0011556795400843539 0 0.0319138472805311 -0.001213182647221296 0 0.031958502425228949 -0.0011556795400843539 0 0.031720718289073448 -0.00089333084572599262 0 0.028194841506847687 -0.00090515386662971657 0 0.026845789134699521 -0.00085803334450774375 0 0.031880291496079474 -0.0011768529287686448 0 0.031968525621363687 -0.0012295221700309609 0 0.031958502425228949 -0.0011556795400843539 0 0.020652134116157662 0.00042985463725436096 0 0.020995654047647073 0.00016547501536512131 0 0.02071466879472502 0.00013152115111032616 0 0.020995654047647073 0.00016547501536512131 0 0.02071466879472502 0.00013152115111032616 0 0.020970946160522131 -0.00015535512276328384 0 0.02071466879472502 0.00013152115111032616 0 0.020970946160522131 -0.00015535512276328384 0 0.020582018112105326 -0.00012613338975906626 0 0.010732317470161441 0.0024365255635365036 0 0.011284238194334476 0.0026865822647061635 0 0.011332706367030432 0.0023120587312321864 0 0.01380228903344159 0.0018329458254951623 0 0.017324642529614621 0.00086591719899727353 0 0.01380228903344159 0.0018329458254951623 0 0.0099668903842034095 0.0023653550668433164 0 0.026845789134699521 -0.00085803334450774375 0 0.022995968208299016 0.0029270978792115851 0 0.020995654047647073 0.00016547501536512131 0 0.020970946160522131 -0.00015535512276328384 0 0.021324055903269083 -3.7160222334810573e-05 0 0.014094461712337945 0.0035380402254254245 0 0.016571955927464885 0.0031256065182531764 0 0.015211658884816029 0.0027578722209791367 0 0.01380228903344159 0.0018329458254951623 0 0.022995968208299016 0.0029270978792115851 0 0.010888170197051399 0.0049191643992638114 0 0.01380228903344159 0.0018329458254951623 0 0.0064666816330033444 0.0025630876717749815 0 0.0094311514906228206 0.002077443349553613 0 0.0081243477735645029 0.0034658802693769471 0 0.0081243477735645029 0.0034658802693769471 0 0.009955477300146242 0.0031959665858798882 0 0.0095318315901635718 0.0047117882249059998 0 0.0094311514906228206 0.002077443349553613 0 0.0081243477735645029 0.0034658802693769471 0 0.009955477300146242 0.0031959665858798882 0 0.0075691841458167307 0.0042232738804336926 0 0.00471985838855714 0.0038947887279233836 0 0.0094311514906228206 0.002077443349553613 0 0.009955477300146242 0.0031959665858798882 0 0.011284238194334476 0.0026865822647061635 0 0.009955477300146242 0.0031959665858798882 0 0.011351715998564656 0.003077494506005403 0 0.0095318315901635718 0.0047117882249059998 0 0.0038529894373474983 0.0044910955514622045 0 0.0041311017149000939 0.0048514070361157166 0 0.003332711619150656 0.0049000549553444572 0 0.0038529894373474983 0.0044910955514622045 0 0.0041311017149000939 0.0048514070361157166 0 0.0049447510650404043 0.0041400750109952065 0 0.009955477300146242 0.0031959665858798882 0 0.011351715998564656 0.003077494506005403 0 0.011284238194334476 0.0026865822647061635 0 0.017324642529614621 0.00086591719899727353 0 0.010793509889839561 0.0026940463313470386 0 0.0075691841458167307 0.0042232738804336926 0 0.010793509889839561 0.0026940463313470386 0 0.011351715998564656 0.003077494506005403 0 0.011284238194334476 0.0026865822647061635 0 0.012352366786862233 0.0020929208700833 0 0.020430961690504176 0.00012268173492044587 0 0.020582018112105326 -0.00012613338975906626 0 0.020138358520185674 -8.3349101335768055e-05 0 0.011284238194334476 0.0026865822647061635 0 0.011332706367030432 0.0023120587312321864 0 0.012352366786862233 0.0020929208700833 0 0.020430961690504176 0.00012268173492044587 0 0.02071466879472502 0.00013152115111032616 0 0.020582018112105326 -0.00012613338975906626 0 0.0027201451998473494 0.0051417992314675811 0 0.0033381439273088274 0.0054794052204329259 0 0.003332711619150656 0.0049000549553444572 0 0.0041311017149000939 0.0048514070361157166 0 0.0033381439273088274 0.0054794052204329259 0 0.003332711619150656 0.0049000549553444572 0 0.0027201451998473494 0.0051417992314675811 0 0.0027879074709184696 0.0047287803355403248 0 0.003332711619150656 0.0049000549553444572 0 0.0038529894373474983 0.0044910955514622045 0 0.003332711619150656 0.0049000549553444572 0 0.0032428663583885181 0.0045124978976890124 0 0.0027879074709184696 0.0047287803355403248 0 0.003332711619150656 0.0049000549553444572 0 0.0032428663583885181 0.0045124978976890124 0 0.0032428663583885181 0.0045124978976890124 0 0.0035703162882244092 0.0040185687385397356 0 0.0020192681610800237 0.0040268145507690572 0 0.0013572171608312684 0.0034544628765548328 0 0.0015417236215012585 0.0037595871834297128 0 0.0020192681610800237 0.0040268145507690572 0 0.0038529894373474983 0.0044910955514622045 0 0.0032428663583885181 0.0045124978976890124 0 0.0035703162882244092 0.0040185687385397356 0 0.0013572171608312684 0.0034544628765548328 0 0.0015417236215012585 0.0037595871834297128 0 0.0011150872849609182 0.0037118307635887926 0 0.0015417236215012585 0.0037595871834297128 0 0.0011150872849609182 0.0037118307635887926 0 0.0013688574859817689 0.0039028412083973855 0 0.0015417236215012585 0.0037595871834297128 0 0.0013688574859817689 0.0039028412083973855 0 0.0016878042020306355 0.0038396863480950403 0 0.0011150872849609182 0.0037118307635887926 0 0.00076951287485556524 0.0038069850011837499 0 0.0010152822474147475 0.0039140206827750837 0 0.0019859312034907219 0.0037338585075502185 0 0.00471985838855714 0.0038947887279233836 0 0.0013572171608312684 0.0034544628765548328 0 0.0011150872849609182 0.0037118307635887926 0 0.00069008223623859407 0.0034146493081266566 0 0.0038529894373474983 0.0044910955514622045 0 0.0035703162882244092 0.0040185687385397356 0 0.0049447510650404043 0.0041400750109952065 0 0.0081243477735645029 0.0034658802693769471 0 0.0095318315901635718 0.0047117882249059998 0 0.0071378910286256222 0.0044415511123660212 0 0.00471985838855714 0.0038947887279233836 0 0.0062082696797230814 0.0041973554618393479 0 0.0039122739078225359 0.0038291135562072156 0 0.0042737977605987153 0.0035062297250969396 0 0.0043578962882703624 0.003877515279752543 0 0.00471985838855714 0.0038947887279233836 0 0.0019832639645843931 0.0037775861347632269 0 0.00040068033090077531 0.003816070976546895 0 0.00050349260335753225 0.0038094287188229943 0 0.00030893810641564016 0.0038223497615863557 0 0.00069008223623859407 0.0034146493081266566 0 0.00040068033090077531 0.003816070976546895 0 0.00050349260335753225 0.0038094287188229943 0 0.0011150872849609182 0.0037118307635887926 0 0.00069008223623859407 0.0034146493081266566 0 0.00076951287485556524 0.0038069850011837499 0 0.00069008223623859407 0.0034146493081266566 0 0.00050349260335753225 0.0038094287188229943 0 0.00076951287485556524 0.0038069850011837499 0 0.00050349260335753225 0.0038094287188229943 0 0.00076951287485556524 0.0038069850011837499 0 0.00045142687627468064 0.0039538204125519677 0 0.00076951287485556524 0.0038069850011837499 0 0.00045142687627468064 0.0039538204125519677 0 0.0010152822474147475 0.0039140206827750837 0 0.00050349260335753225 0.0038094287188229943 0 0.00030893810641564016 0.0038223497615863557 0 0.00045142687627468064 0.0039538204125519677 0 -0.00016743915118250545 0.0035670809787966382 0 -4.7266693796428855e-05 0.0033358839885628444 0 0.00030893810641564016 0.0038223497615863557 0 0.00045142687627468064 0.0039538204125519677 0 0.00020890263076834572 0.0035813943067849476 0 0.00045142687627468064 0.0039538204125519677 0 0.00020890263076834572 0.0035813943067849476 0 -8.705895162781151e-05 0.0032841853066398756 0 0.00045142687627468064 0.0039538204125519677 0 0.0010593935528650368 0.0041367195707424061 0 0.0010152822474147475 0.0039140206827750837 0 -0.00093036337006366257 0.0032646710501137936 0 -0.0011356636281873406 0.0031454952881182301 0 -0.0011072220851861964 0.0030185996354275086 0 -0.00016743915118250545 0.0035670809787966382 0 -0.0001363068922688359 0.0036410135875740829 0 -0.0011356636281873406 0.0031454952881182301 0 -0.0012312366284372345 0.0030416081502944933 0 -0.0011072220851861964 0.0030185996354275086 0 -0.0011356636281873406 0.0031454952881182301 0 -0.0012312366284372345 0.0030416081502944933 0 -0.001283370712362444 0.0030825678857263829 0 -0.0012312366284372345 0.0030416081502944933 0 -0.001312218763013433 0.0029492110141750988 0 -0.001283370712362444 0.0030825678857263829 0 -0.0001363068922688359 0.0036410135875740829 0 0.00068475191024502046 0.0036229402336062891 0 0.0010593935528650368 0.0041367195707424061 0 0.0013688574859817689 0.0039028412083973855 0 0.0016009787875347651 0.00407530862544644 0 0.0016314456931984112 0.0040730987819228822 0 0.00068475191024502046 0.0036229402336062891 0 0.0013688574859817689 0.0039028412083973855 0 0.0016589561433201338 0.003891043650816228 0 0.0016878042020306355 0.0038396863480950403 0 0.0011150872849609182 0.0037118307635887926 0 0.0013688574859817689 0.0039028412083973855 0 0.0010152822474147475 0.0039140206827750837 0 0.0010593935528650368 0.0041367195707424061 0 0.0013688574859817689 0.0039028412083973855 0 0.0010152822474147475 0.0039140206827750837 0 0.0052548765167816439 0.0034782491850257596 0 0.0050432255704110389 0.0035856195125551957 0 0.0053285861582727436 0.0037840054905628616 0 0.0052548765167816439 0.0034782491850257596 0 0.0050432255704110389 0.0035856195125551957 0 0.0047427811234850726 0.0032282896104826879 0 0.0050432255704110389 0.0035856195125551957 0 0.0053285861582727436 0.0037840054905628616 0 0.0052719556123153738 0.0037472404552050674 0 0.0053491844962556406 0.0038801657028394933 0 0.0057564592473366757 0.0037580183592524543 0 0.0054477875715578132 0.0038388407689659118 0 0.0053491844962556406 0.0038801657028394933 0 0.0053285861582727436 0.0037840054905628616 0 0.0054477875715578132 0.0038388407689659118 0 0.0054477875715578132 0.0038388407689659118 0 0.0052719556123153738 0.0037472404552050674 0 0.0054611394300476991 0.0038136209577661717 0 0.0053285861582727436 0.0037840054905628616 0 0.0054477875715578132 0.0038388407689659118 0 0.0052719556123153738 0.0037472404552050674 0 0.0052719556123153738 0.0037472404552050674 0 0.0054611394300476991 0.0038136209577661717 0 0.0051711557214821095 0.0037628292897397492 0 0.0057564592473366757 0.0037580183592524543 0 0.0054477875715578132 0.0038388407689659118 0 0.0054611394300476991 0.0038136209577661717 0 0.0057564592473366757 0.0037580183592524543 0 0.0054611394300476991 0.0038136209577661717 0 0.0054000807970157414 0.0039220833723672497 0 0.0054611394300476991 0.0038136209577661717 0 0.0054000807970157414 0.0039220833723672497 0 0.0051711557214821095 0.0037628292897397492 0 0.0054000807970157414 0.0039220833723672497 0 0.0051711557214821095 0.0037628292897397492 0 0.0051499849937850428 0.0039178979012483434 0 0.0052719556123153738 0.0037472404552050674 0 0.0051711557214821095 0.0037628292897397492 0 0.0048983290009491798 0.0035831694691326041 0 0.0050432255704110389 0.0035856195125551957 0 0.0052719556123153738 0.0037472404552050674 0 0.0048983290009491798 0.0035831694691326041 0 0.0050432255704110389 0.0035856195125551957 0 0.0048983290009491798 0.0035831694691326041 0 0.0045071591859436643 0.0033589203436795627 0 0.0048983290009491798 0.0035831694691326041 0 0.0046243901458068405 0.0034478485869331899 0 0.0045071591859436643 0.0033589203436795627 0 0.0046243901458068405 0.0034478485869331899 0 0.004834215250648183 0.0036685466934216803 0 0.004538056846161864 0.0036066874402514472 0 0.0048983290009491798 0.0035831694691326041 0 0.0046243901458068405 0.0034478485869331899 0 0.004834215250648183 0.0036685466934216803 0 0.0051711557214821095 0.0037628292897397492 0 0.0048983290009491798 0.0035831694691326041 0 0.004834215250648183 0.0036685466934216803 0 0.0051499849937850428 0.0039178979012483434 0 0.004834215250648183 0.0036685466934216803 0 0.0043578962882703624 0.003877515279752543 0 0.0063774418117239261 0.0036197512760182222 0 0.0051499849937850428 0.0039178979012483434 0 0.0071378910286256222 0.0044415511123660212 0 0.0050220296860660259 0.0039470535842429811 0 0.0062082696797230814 0.0041973554618393479 0 0.0051711557214821095 0.0037628292897397492 0 0.0051499849937850428 0.0039178979012483434 0 0.004834215250648183 0.0036685466934216803 0 0.0042737977605987153 0.0035062297250969396 0 0.004538056846161864 0.0036066874402514472 0 0.0043578962882703624 0.003877515279752543 0 0.004834215250648183 0.0036685466934216803 0 0.004538056846161864 0.0036066874402514472 0 0.0043578962882703624 0.003877515279752543 0 0.0042737977605987153 0.0035062297250969396 0 0.0046243901458068405 0.0034478485869331899 0 0.004538056846161864 0.0036066874402514472 0 0.0019832639645843931 0.0037775861347632269 0 0.0028074491622979651 0.0036823562301226656 0 0.0042737977605987153 0.0035062297250969396 0 0.0046243901458068405 0.0034478485869331899 0 0.0044727328127027082 0.003315366671769189 0 0.0004135252651139554 0.0037372224542462553 0 0.00046211711757057459 0.0032244699118777649 0 0.00084262261146041356 0.0043121502039931764 0 0.00040068033090077531 0.003816070976546895 0 0.00030893810641564016 0.0038223497615863557 0 0.00084262261146041356 0.0043121502039931764 0 0.00030893810641564016 0.0038223497615863557 0 0.0004135252651139554 0.0037372224542462553 0 0.00084262261146041356 0.0043121502039931764 0 0.00030893810641564016 0.0038223497615863557 0 0.0004135252651139554 0.0037372224542462553 0 0.00020890263076834572 0.0035813943067849476 0 0.00020890263076834572 0.0035813943067849476 0 0.00046211711757057459 0.0032244699118777649 0 -8.705895162781151e-05 0.0032841853066398756 0 0.0004135252651139554 0.0037372224542462553 0 0.00020890263076834572 0.0035813943067849476 0 0.00046211711757057459 0.0032244699118777649 0 0.00046211711757057459 0.0032244699118777649 0 0.002026591096101313 0.0031070463429939492 0 0.00084262261146041356 0.0043121502039931764 0 0.00046211711757057459 0.0032244699118777649 0 0.002026591096101313 0.0031070463429939492 0 0.0029703380763940399 0.0022129418007618305 0 0.002026591096101313 0.0031070463429939492 0 0.00084262261146041356 0.0043121502039931764 0 0.0037591036516541531 0.003057254385717083 0 0.002026591096101313 0.0031070463429939492 0 0.0037591036516541531 0.003057254385717083 0 0.0029703380763940399 0.0022129418007618305 0 0.0046243901458068405 0.0034478485869331899 0 0.0044727328127027082 0.003315366671769189 0 0.0045071591859436643 0.0033589203436795627 0 0.0044727328127027082 0.003315366671769189 0 0.0045071591859436643 0.0033589203436795627 0 0.0037591036516541531 0.003057254385717083 0 0.0028074491622979651 0.0036823562301226656 0 0.0037064534533825318 0.0030600812278221137 0 0.0045071591859436643 0.0033589203436795627 0 0.0037591036516541531 0.003057254385717083 0 0.0047427811234850726 0.0032282896104826879 0 0.0050432255704110389 0.0035856195125551957 0 0.0045071591859436643 0.0033589203436795627 0 0.0047427811234850726 0.0032282896104826879 0 0.0037591036516541531 0.003057254385717083 0 0.0047052645274040378 0.0025214203110329307 0 0.0039979178253226567 0.0019332449441104606 0 0.0037591036516541531 0.003057254385717083 0 0.0039979178253226567 0.0019332449441104606 0 0.0029703380763940399 0.0022129418007618305 0 0.0037591036516541531 0.003057254385717083 0 0.0047052645274040378 0.0025214203110329307 0 0.0047427811234850726 0.0032282896104826879 0 0.0052728530571693648 0.0029721626530054093 0 0.0047052645274040378 0.0025214203110329307 0 0.0047427811234850726 0.0032282896104826879 0 0.0052548765167816439 0.0034782491850257596 0 0.0052728530571693648 0.0029721626530054093 0 0.0047427811234850726 0.0032282896104826879 0 0.0043542146852357582 0.00081612731076535555 0 0.0039150352216815142 0.0010905877680582904 0 0.0040315658943674429 0.00046324478921784708 0 0.0048409362041862847 0.00086768416961641376 0 0.0043542146852357582 0.00081612731076535555 0 0.0044363280220589309 0.00041858285505976824 0 0.0043542146852357582 0.00081612731076535555 0 0.0046694036651027246 0.0015772497810297497 0 0.0039150352216815142 0.0010905877680582904 0 0.0048409362041862847 0.00086768416961641376 0 0.0043542146852357582 0.00081612731076535555 0 0.0046694036651027246 0.0015772497810297497 0 0.0047052645274040378 0.0025214203110329307 0 0.0046694036651027246 0.0015772497810297497 0 0.0039979178253226567 0.0019332449441104606 0 0.0046694036651027246 0.0015772497810297497 0 0.0039979178253226567 0.0019332449441104606 0 0.0039150352216815142 0.0010905877680582904 0 0.0039979178253226567 0.0019332449441104606 0 0.0034985426738806075 0.0015395158225368862 0 0.0039150352216815142 0.0010905877680582904 0 0.0039979178253226567 0.0019332449441104606 0 0.0034985426738806075 0.0015395158225368862 0 0.0029703380763940399 0.0022129418007618305 0 0.0034985426738806075 0.0015395158225368862 0 0.0039150352216815142 0.0010905877680582904 0 0.0029794986099907221 0.0011254516982825672 0 0.0034985426738806075 0.0015395158225368862 0 0.0029794986099907221 0.0011254516982825672 0 0.0029703380763940399 0.0022129418007618305 0 0.0032483197418957939 0.0010188189140633813 0 0.0039150352216815142 0.0010905877680582904 0 0.0029794986099907221 0.0011254516982825672 0 0.0032483197418957939 0.0010188189140633813 0 0.0039150352216815142 0.0010905877680582904 0 0.0040315658943674429 0.00046324478921784708 0 0.0022992332018696828 0.0018166922903631428 0 0.0041876546461830678 0.00032472363652153932 0 -0.00087346178097687244 0.0031073502661390466 0 -0.0008045393222864825 0.0031217350287707194 0 -0.0010552304882258531 0.003143125226382272 0 -0.0008045393222864825 0.0031217350287707194 0 -0.00098032082060658921 0.0030712245623546975 0 -0.0010552304882258531 0.003143125226382272 0 -0.0008045393222864825 0.0031217350287707194 0 -0.00065370874550485308 0.0031186377070028764 0 -0.00062070527272935899 0.0030942372662295524 0 -0.00087346178097687244 0.0031073502661390466 0 -0.0008045393222864825 0.0031217350287707194 0 -0.00079390304196140299 0.0031126707345983159 0 -0.0008045393222864825 0.0031217350287707194 0 -0.00079390304196140299 0.0031126707345983159 0 -0.00065370874550485308 0.0031186377070028764 0 -0.00087346178097687244 0.0031073502661390466 0 -0.00079390304196140299 0.0031126707345983159 0 -0.00082257012882681912 0.0030597442369242906 0 0.0022992332018696828 0.0018166922903631428 0 0.001310100624704987 0.0023132978624204499 0 0.00034699708125598424 0.0031964791247868479 0 0.001310100624704987 0.0023132978624204499 0 0.00046211711757057459 0.0032244699118777649 0 -0.00082257012882681912 0.0030597442369242906 0 -0.00031139240655444675 0.0031552290932328926 0 0.00046211711757057459 0.0032244699118777649 0 0.0029794986099907221 0.0011254516982825672 0 0.0029703380763940399 0.0022129418007618305 0 -0.00079390304196140299 0.0031126707345983159 0 -0.00082257012882681912 0.0030597442369242906 0 -0.00065370874550485308 0.0031186377070028764 0 -0.00082257012882681912 0.0030597442369242906 0 -0.00065370874550485308 0.0031186377070028764 0 -0.00031139240655444675 0.0031552290932328926 0 -0.00065370874550485308 0.0031186377070028764 0 -0.00031139240655444675 0.0031552290932328926 0 -0.00062070527272935899 0.0030942372662295524 0 0.00046211711757057459 0.0032244699118777649 0 -0.00031139240655444675 0.0031552290932328926 0 -8.705895162781151e-05 0.0032841853066398756 0 -0.00031139240655444675 0.0031552290932328926 0 -0.00053684260593702901 0.0030667213911734184 0 -0.00062070527272935899 0.0030942372662295524 0 -0.00031139240655444675 0.0031552290932328926 0 -8.705895162781151e-05 0.0032841853066398756 0 -0.00053684260593702901 0.0030667213911734184 0 -0.00053684260593702901 0.0030667213911734184 0 -0.00062070527272935899 0.0030942372662295524 0 -0.00098032082060658921 0.0030712245623546975 0 -0.00053684260593702901 0.0030667213911734184 0 -0.00098032082060658921 0.0030712245623546975 0 -0.00086666114250111075 0.0030020630358898416 0 -0.0008045393222864825 0.0031217350287707194 0 -0.00062070527272935899 0.0030942372662295524 0 -0.00098032082060658921 0.0030712245623546975 0 -0.00098032082060658921 0.0030712245623546975 0 -0.0015495210120980724 0.0032612151369247311 0 -0.0013974940685957244 0.0032153880563780286 0 -0.0015495210120980724 0.0032612151369247311 0 -0.0013974940685957244 0.0032153880563780286 0 -0.0016908739074393891 0.0031905021763112907 0 -0.0013974940685957244 0.0032153880563780286 0 -0.0012730470464402284 0.0031884575548935569 0 -0.0016207237896278118 0.0031792277757130725 0 -0.00087346178097687244 0.0031073502661390466 0 -0.0010552304882258531 0.003143125226382272 0 -0.0012730470464402284 0.0031884575548935569 0 -0.00098032082060658921 0.0030712245623546975 0 -0.0013974940685957244 0.0032153880563780286 0 -0.0010552304882258531 0.003143125226382272 0 -0.0013974940685957244 0.0032153880563780286 0 -0.0010552304882258531 0.003143125226382272 0 -0.0012730470464402284 0.0031884575548935569 0 0.0038094245214419457 0.000358223917075387 0 0.0040392094776997966 0.00056974911946641163 0 0.00402716228709261 0.00013215978506460647 0 0.0022992332018696828 0.0018166922903631428 0 0.0011132112679460608 0.0018332820852449041 0 0.0037302990895785914 0.00096781276729493871 0 0.0038094245214419457 0.000358223917075387 0 0.0040392094776997966 0.00056974911946641163 0 0.0038094245214419457 0.000358223917075387 0 0.00402716228709261 0.00013215978506460647 0 0.0039447724097504714 -2.211606831587293e-05 0 0.0011132112679460608 0.0018332820852449041 0 0.001512050788359759 0.0016786559401657521 0 0.00402716228709261 0.00013215978506460647 0 0.0043325281685533826 8.3480229249707671e-05 0 0.0040804730745553283 -1.4454341564997021e-05 0 0.0040392094776997966 0.00056974911946641163 0 0.00402716228709261 0.00013215978506460647 0 0.0043325281685533826 8.3480229249707671e-05 0 0.0041876546461830678 0.00032472363652153932 0 0.0042534040122690431 0.00019229655065928095 0 0.0040315658943674429 0.00046324478921784708 0 0.0043325281685533826 8.3480229249707671e-05 0 0.0044363280220589309 0.00041858285505976824 0 0.0043542146852357582 0.00081612731076535555 0 0.0040315658943674429 0.00046324478921784708 0 0.0044363280220589309 0.00041858285505976824 0 -0.0011773464669373693 0.0029045035794295977 0 -0.0012644184958388273 0.0029427004366331458 0 -0.0011072220851861964 0.0030185996354275086 0 -0.0011773464669373693 0.0029045035794295977 0 -0.0011072220851861964 0.0030185996354275086 0 -0.0010346059894357346 0.0029445550069554715 0 -0.0011773464669373693 0.0029045035794295977 0 -0.0012644184958388273 0.0029427004366331458 0 -0.0014106440336745288 0.002828801733361913 0 -0.0012312366284372345 0.0030416081502944933 0 -0.0012644184958388273 0.0029427004366331458 0 -0.0011072220851861964 0.0030185996354275086 0 -0.0012312366284372345 0.0030416081502944933 0 -0.0012644184958388273 0.0029427004366331458 0 -0.001312218763013433 0.0029492110141750988 0 -0.00093036337006366257 0.0032646710501137936 0 -0.0011072220851861964 0.0030185996354275086 0 -0.00086666114250111075 0.0030020630358898416 0 -0.00093036337006366257 0.0032646710501137936 0 -0.00053684260593702901 0.0030667213911734184 0 -0.00086666114250111075 0.0030020630358898416 0 -0.00093036337006366257 0.0032646710501137936 0 -8.705895162781151e-05 0.0032841853066398756 0 -0.00053684260593702901 0.0030667213911734184 0 -0.00098032082060658921 0.0030712245623546975 0 -0.00086666114250111075 0.0030020630358898416 0 -0.0010346059894357346 0.0029445550069554715 0 -0.0011072220851861964 0.0030185996354275086 0 -0.00086666114250111075 0.0030020630358898416 0 -0.0010346059894357346 0.0029445550069554715 0 -0.0011773464669373693 0.0029045035794295977 0 -0.0010346059894357346 0.0029445550069554715 0 -0.0010639114524606729 0.0030040196700126358 0 -0.00098032082060658921 0.0030712245623546975 0 -0.0015495210120980724 0.0032612151369247311 0 -0.0010346059894357346 0.0029445550069554715 0 -0.0015495210120980724 0.0032612151369247311 0 -0.0024617610290224422 0.0033741818091243421 0 -0.0021338660318380213 0.0031562149905559997 0 -0.0015495210120980724 0.0032612151369247311 0 -0.0010346059894357346 0.0029445550069554715 0 -0.0010639114524606729 0.0030040196700126358 0 -0.0015676079103199576 0.0032527582679276082 0 -0.0017615408702642173 0.0031739919689513915 0 -0.0024617610290224422 0.0033741818091243421 0 -0.0024935435191855786 0.0030054531660539969 0 -0.0025688157939992361 0.0032282794553515765 0 -0.0017615408702642173 0.0031739919689513915 0 -0.0018631948763446003 0.0029181492096842544 0 -0.0011773464669373693 0.0029045035794295977 0 -0.0010639114524606729 0.0030040196700126358 0 -0.0012655244080269814 0.0028016562325241046 0 -0.0011773464669373693 0.0029045035794295977 0 -0.0012655244080269814 0.0028016562325241046 0 -0.0014106440336745288 0.002828801733361913 0 -0.0024935435191855786 0.0030054531660539969 0 -0.0023342711648424116 0.0031898888004651274 0 -0.0025688157939992361 0.0032282794553515765 0 -0.0024935435191855786 0.0030054531660539969 0 -0.001617345490282072 0.0027761546086075431 0 -0.0023342711648424116 0.0031898888004651274 0 -0.001617345490282072 0.0027761546086075431 0 -0.0014596024843259775 0.003076623828140404 0 -0.0019156319045682383 0.0031486335589503999 0 -0.001617345490282072 0.0027761546086075431 0 -0.0019156319045682383 0.0031486335589503999 0 -0.0023342711648424116 0.0031898888004651274 0 -0.0012655244080269814 0.0028016562325241046 0 -0.001617345490282072 0.0027761546086075431 0 -0.0014106440336745288 0.002828801733361913 0 -0.0018631948763446003 0.0029181492096842544 0 -0.0016345275075382271 0.002785639998048455 0 -0.0010418410704452078 0.0028513200097346138 0 -0.00070901665632234936 0.0029211163589873963 0 -0.0010769120458124569 0.0031078202608107127 0 -0.0014596024843259775 0.003076623828140404 0 -0.0010418410704452078 0.0028513200097346138 0 -0.0010769120458124569 0.0031078202608107127 0 -0.001617345490282072 0.0027761546086075431 0 -0.0014596024843259775 0.003076623828140404 0 -0.0010418410704452078 0.0028513200097346138 0 -0.001617345490282072 0.0027761546086075431 0 -0.0010418410704452078 0.0028513200097346138 0 -0.001299671829301647 0.0026912156956724912 0 -0.0010418410704452078 0.0028513200097346138 0 -0.00044641544878704418 0.0025168094151372662 0 -0.001299671829301647 0.0026912156956724912 0 -0.0010418410704452078 0.0028513200097346138 0 -0.00064462043486325493 0.0027424868405322837 0 -0.00070901665632234936 0.0029211163589873963 0 -0.0010418410704452078 0.0028513200097346138 0 -0.00064462043486325493 0.0027424868405322837 0 -0.00044641544878704418 0.0025168094151372662 0 -0.00038365325074655841 0.0025531037068844973 0 -0.00019792255733264608 0.0026872296373521135 0 -0.00044641544878704418 0.0025168094151372662 0 -0.001299671829301647 0.0026912156956724912 0 -0.0012652022994691062 0.0025672736633395024 0 -0.00044641544878704418 0.0025168094151372662 0 0.00026982220315191089 0.0030339300626263787 0 -0.00016718107004121743 0.0027735414185464918 0 -0.00044641544878704418 0.0025168094151372662 0 0.00078170821255652359 0.002706928767202659 0 0.00026982220315191089 0.0030339300626263787 0 -0.001617345490282072 0.0027761546086075431 0 -0.001299671829301647 0.0026912156956724912 0 -0.0014106440336745288 0.002828801733361913 0 -0.001299671829301647 0.0026912156956724912 0 -0.0012652022994691062 0.0025672736633395024 0 -0.0014106440336745288 0.002828801733361913 0 -0.0012652022994691062 0.0025672736633395024 0 -0.0014106440336745288 0.002828801733361913 0 -0.0013573359555484072 0.0028618810801291305 0 -0.00019792255733264608 0.0026872296373521135 0 3.6126065944136632e-05 0.0029659551599031161 0 -0.0012644184958388273 0.0029427004366331458 0 -0.0014106440336745288 0.002828801733361913 0 -0.001312218763013433 0.0029492110141750988 0 -0.0014106440336745288 0.002828801733361913 0 -0.001312218763013433 0.0029492110141750988 0 -0.0013573359555484072 0.0028618810801291305 0 -0.001312218763013433 0.0029492110141750988 0 -0.001283370712362444 0.0030825678857263829 0 -0.0013573359555484072 0.0028618810801291305 0 0.00068475191024502046 0.0036229402336062891 0 3.6126065944136632e-05 0.0029659551599031161 0 0.0020632979795757659 0.0036682326199012332 0 0.0017673175767437947 0.0037405943978373515 0 0.0015509615814782538 0.0031625940339909961 0 0.0016589561433201338 0.003891043650816228 0 0.0017673175767437947 0.0037405943978373515 0 0.0016878042020306355 0.0038396863480950403 0 0.00068475191024502046 0.0036229402336062891 0 0.0018361302624732483 0.0035791831285626944 0 0.0017673175767437947 0.0037405943978373515 0 0.0017415545985695119 0.0038494094952375023 0 0.0016878042020306355 0.0038396863480950403 0 0.0014915880049975047 0.0036498481403868847 0 0.0013451475769985482 0.0037998974796134297 0 0.0016295164280322296 0.0038944542668261973 0 0.0017415545985695119 0.0038494094952375023 0 0.0014915880049975047 0.0036498481403868847 0 0.0016295164280322296 0.0038944542668261973 0 0.0017673175767437947 0.0037405943978373515 0 0.0017415545985695119 0.0038494094952375023 0 0.0014915880049975047 0.0036498481403868847 0 0.0014915880049975047 0.0036498481403868847 0 0.0011476186593137783 0.0032463313480515618 0 0.0010937538009512266 0.0035136298109765033 0 0.00078170821255652359 0.002706928767202659 0 0.0015509615814782538 0.0031625940339909961 0 0.0011476186593137783 0.0032463313480515618 0 0.0014915880049975047 0.0036498481403868847 0 0.0015509615814782538 0.0031625940339909961 0 0.0011476186593137783 0.0032463313480515618 0 0.0017673175767437947 0.0037405943978373515 0 0.0014915880049975047 0.0036498481403868847 0 0.0015509615814782538 0.0031625940339909961 0 0.00078170821255652359 0.002706928767202659 0 0.0011476186593137783 0.0032463313480515618 0 0.00078410148485791927 0.0032228404439660924 0 0.00078170821255652359 0.002706928767202659 0 0.00078410148485791927 0.0032228404439660924 0 0.00026982220315191089 0.0030339300626263787 0 0.00078410148485791927 0.0032228404439660924 0 0.00069147427491593764 0.0035146479093884344 0 0.0010937538009512266 0.0035136298109765033 0 0.0011476186593137783 0.0032463313480515618 0 0.00078410148485791927 0.0032228404439660924 0 0.0010937538009512266 0.0035136298109765033 0 0.00078410148485791927 0.0032228404439660924 0 0.00026982220315191089 0.0030339300626263787 0 0.00069147427491593764 0.0035146479093884344 0 0.00026982220315191089 0.0030339300626263787 0 0.00069147427491593764 0.0035146479093884344 0 0.000274031997142288 0.0033628444536976262 0 0.00069147427491593764 0.0035146479093884344 0 0.00054902712302439297 0.0037185228526916366 0 0.000274031997142288 0.0033628444536976262 0 0.00069147427491593764 0.0035146479093884344 0 0.001060239404896838 0.0037118229922958579 0 0.00088164392688535958 0.0038294452456283834 0 0.00069147427491593764 0.0035146479093884344 0 0.00054902712302439297 0.0037185228526916366 0 0.00088164392688535958 0.0038294452456283834 0 0.0014915880049975047 0.0036498481403868847 0 0.0010937538009512266 0.0035136298109765033 0 0.0013451475769985482 0.0037998974796134297 0 0.00069147427491593764 0.0035146479093884344 0 0.0010937538009512266 0.0035136298109765033 0 0.001060239404896838 0.0037118229922958579 0 0.0010937538009512266 0.0035136298109765033 0 0.001060239404896838 0.0037118229922958579 0 0.0013451475769985482 0.0037998974796134297 0 0.001060239404896838 0.0037118229922958579 0 0.0013451475769985482 0.0037998974796134297 0 0.0012074640255922752 0.0039251927908773446 0 0.0013451475769985482 0.0037998974796134297 0 0.0012074640255922752 0.0039251927908773446 0 0.0014757432004258186 0.0040785409981849144 0 0.0012074640255922752 0.0039251927908773446 0 0.00088164392688535958 0.0038294452456283834 0 0.0010804723380106037 0.0041089091025258238 0 0.001060239404896838 0.0037118229922958579 0 0.0012074640255922752 0.0039251927908773446 0 0.00088164392688535958 0.0038294452456283834 0 0.0012074640255922752 0.0039251927908773446 0 0.0014757432004258186 0.0040785409981849144 0 0.0010804723380106037 0.0041089091025258238 0 0.0014757432004258186 0.0040785409981849144 0 0.0010804723380106037 0.0041089091025258238 0 0.0011840551492702954 0.0043526500449659403 0 0.00054902712302439297 0.0037185228526916366 0 0.00067324581310562054 0.0040077164210971187 0 0.000372960640417195 0.0038330179934800857 0 0.00054902712302439297 0.0037185228526916366 0 0.00067324581310562054 0.0040077164210971187 0 0.00088164392688535958 0.0038294452456283834 0 0.00067324581310562054 0.0040077164210971187 0 0.00088164392688535958 0.0038294452456283834 0 0.0010804723380106037 0.0041089091025258238 0 0.00067324581310562054 0.0040077164210971187 0 0.0010804723380106037 0.0041089091025258238 0 0.00089893179245752121 0.0042342089262351968 0 0.0010804723380106037 0.0041089091025258238 0 0.00089893179245752121 0.0042342089262351968 0 0.0011840551492702954 0.0043526500449659403 0 0.00067324581310562054 0.0040077164210971187 0 0.00089893179245752121 0.0042342089262351968 0 0.00068013338095617402 0.0042350081691733986 0 0.00068013338095617402 0.0042350081691733986 0 0.00085548049954887312 0.0044313546898886455 0 0.00063771352559024693 0.0043937069301172313 0 0.00089893179245752121 0.0042342089262351968 0 0.00068013338095617402 0.0042350081691733986 0 0.00085548049954887312 0.0044313546898886455 0 0.00085548049954887312 0.0044313546898886455 0 0.0011840551492702954 0.0043526500449659403 0 0.0010571041888111032 0.0046549215791370432 0 0.00089893179245752121 0.0042342089262351968 0 0.00085548049954887312 0.0044313546898886455 0 0.0011840551492702954 0.0043526500449659403 0 0.0013161042746617799 0.0048735883926305148 0 0.0010571041888111032 0.0046549215791370432 0 0.0014220120401566342 0.004578657761885963 0 0.0011840551492702954 0.0043526500449659403 0 0.0010571041888111032 0.0046549215791370432 0 0.0014220120401566342 0.004578657761885963 0 0.00085548049954887312 0.0044313546898886455 0 0.0010571041888111032 0.0046549215791370432 0 0.00058256788175278372 0.0045012364292257474 0 0.0014757432004258186 0.0040785409981849144 0 0.0011840551492702954 0.0043526500449659403 0 0.0016408621791982707 0.0043920289947706453 0 0.0011840551492702954 0.0043526500449659403 0 0.0014220120401566342 0.004578657761885963 0 0.0016408621791982707 0.0043920289947706453 0 0.0017606752766304329 0.0047269791282748969 0 0.0014220120401566342 0.004578657761885963 0 0.0016408621791982707 0.0043920289947706453 0 0.0019440947627507646 0.004591228214798437 0 0.0016408621791982707 0.0043920289947706453 0 0.0020192681610800237 0.0040268145507690572 0 0.0014757432004258186 0.0040785409981849144 0 0.0016408621791982707 0.0043920289947706453 0 0.0020192681610800237 0.0040268145507690572 0 0.0019440947627507646 0.004591228214798437 0 0.0017606752766304329 0.0047269791282748969 0 0.0016408621791982707 0.0043920289947706453 0 0.0023250493969750553 0.0048187270587931345 0 0.0019440947627507646 0.004591228214798437 0 0.0020192681610800237 0.0040268145507690572 0 0.0019859312034907219 0.0037338585075502185 0 0.0022280514742987361 0.0039871552358027714 0 0.0027879074709184696 0.0047287803355403248 0 0.0032428663583885181 0.0045124978976890124 0 0.0020192681610800237 0.0040268145507690572 0 0.0017415545985695119 0.0038494094952375023 0 0.0020192681610800237 0.0040268145507690572 0 0.0016878042020306355 0.0038396863480950403 0 0.0015417236215012585 0.0037595871834297128 0 0.0020192681610800237 0.0040268145507690572 0 0.0016878042020306355 0.0038396863480950403 0 0.0017415545985695119 0.0038494094952375023 0 0.0020192681610800237 0.0040268145507690572 0 0.0016295164280322296 0.0038944542668261973 0 0.0014757432004258186 0.0040785409981849144 0 0.0020192681610800237 0.0040268145507690572 0 0.0016295164280322296 0.0038944542668261973 0 0.0013451475769985482 0.0037998974796134297 0 0.0014757432004258186 0.0040785409981849144 0 0.0016295164280322296 0.0038944542668261973 0 0.026838392855958879 -0.0036960115995672079 0 0.026196299671870486 -0.0027958985329892597 0 0.027313084812024616 -0.0022401468676237989 0 0.027910108094965726 -0.0030602310412082539 0 0.026838392855958879 -0.0036960115995672079 0 0.027313084812024616 -0.0022401468676237989 0 0.027728831085054043 -0.0031716129061019772 0 0.027283398548429066 -0.003330629215036675 0 0.027910108094965726 -0.0030602310412082539 0 0.027313084812024616 -0.0022401468676237989 0 0.028248546209436291 -0.002454160321937971 0 0.028868802740079611 -0.0032045656130262894 0 0.027910108094965726 -0.0030602310412082539 0 0.028248546209436291 -0.002454160321937971 0 0.028868802740079611 -0.0032045656130262894 0 0.027910108094965726 -0.0030602310412082539 0 0.028137276724137811 -0.0039078026549413938 0 0.029101103359082919 -0.0042218611930230415 0 0.028868802740079611 -0.0032045656130262894 0 0.028137276724137811 -0.0039078026549413938 0 0.029101103359082919 -0.0042218611930230415 0 0.028723179898361841 -0.0047818581247270515 0 0.028137276724137811 -0.0039078026549413938 0 0.027910108094965726 -0.0030602310412082539 0 0.028137276724137811 -0.0039078026549413938 0 0.027331257043296628 -0.0034956379090126514 0 0.028137276724137811 -0.0039078026549413938 0 0.027331257043296628 -0.0034956379090126514 0 0.027256936570300389 -0.0042709898329992809 0 0.027331257043296628 -0.0034956379090126514 0 0.027256936570300389 -0.0042709898329992809 0 0.026530070258354042 -0.003932457311545531 0 0.026838392855958879 -0.0036960115995672079 0 0.025815343306458991 -0.0042825463107132831 0 0.026196299671870486 -0.0027958985329892597 0 0.027283398548429066 -0.003330629215036675 0 0.022889932639012199 -0.0022393634203443529 0 0.0065756435833106532 0.002628509436881052 0 0.0044643545230543223 0.0033466332815256256 0 0.00058256788175278372 0.0045012364292257474 0 0.00063771352559024693 0.0043937069301172313 0 0.00055017549437538912 0.0041676938883546443 0 0.012354184746393817 -0.00055102025791826784 0 0.013791254366017703 0.00036987673396400664 0 0.012764026850273695 0.00044038436429625906 0 0.013791254366017703 0.00036987673396400664 0 0.012764026850273695 0.00044038436429625906 0 0.013161506188519013 0.0014324971085893539 0 0.00085548049954887312 0.0044313546898886455 0 0.00058256788175278372 0.0045012364292257474 0 0.00063771352559024693 0.0043937069301172313 0 0.00067324581310562054 0.0040077164210971187 0 9.603871266610204e-05 0.0040207583522315375 0 0.000372960640417195 0.0038330179934800857 0 0.00067324581310562054 0.0040077164210971187 0 0.00068013338095617402 0.0042350081691733986 0 9.603871266610204e-05 0.0040207583522315375 0 0.00023841751970045261 0.003731672043960254 0 0.0044643545230543223 0.0033466332815256256 0 0.00068013338095617402 0.0042350081691733986 0 0.00063771352559024693 0.0043937069301172313 0 9.603871266610204e-05 0.0040207583522315375 0 9.603871266610204e-05 0.0040207583522315375 0 0.000372960640417195 0.0038330179934800857 0 0.00015732086429394036 0.0036029877522327997 0 0.013791254366017703 0.00036987673396400664 0 0.013161506188519013 0.0014324971085893539 0 0.013645868485096208 0.0020070801714781083 0 0.022889932639012199 -0.0022393634203443529 0 0.022051291205340971 -0.0018485728004208914 0 0.022889932639012199 -0.0022393634203443529 0 0.0094918710260163529 0.0029478709688070532 0 0.016842987488812595 -0.0016931786081239462 0 0.017184024957789465 0.00025369598368712732 0 0.016576202659881471 0.0010312614335618319 0 0.0044643545230543223 0.0033466332815256256 0 0.0094918710260163529 0.0029478709688070532 0 0.0044643545230543223 0.0033466332815256256 0 0.0029534095554806625 0.0037566297971749095 0 0.017184024957789465 0.00025369598368712732 0 0.016576202659881471 0.0010312614335618319 0 0.017550227925877473 0.0022106098123310125 0 0.022051291205340971 -0.0018485728004208914 0 0.01293539917216263 0.0039740849822490062 0 0.0049001849400988904 0.0034800852070075521 0 0.0049873244310000113 0.0035778592475042598 0 0.0049786898467400675 0.0036673680287855571 0 0.0094918710260163529 0.0029478709688070532 0 0.0029534095554806625 0.0037566297971749095 0 0.0055465199950399582 0.0049789766833163007 0 0.0055367218570820196 0.004702778660988869 0 0.0051821433162599099 0.0046147880080144978 0 0.0094918710260163529 0.0029478709688070532 0 0.01293539917216263 0.0039740849822490062 0 9.603871266610204e-05 0.0040207583522315375 0 -0.00026534597614645555 0.0034185511101740857 0 0.00015732086429394036 0.0036029877522327997 0 0.00054902712302439297 0.0037185228526916366 0 0.000372960640417195 0.0038330179934800857 0 0.00015732086429394036 0.0036029877522327997 0 -0.00026534597614645555 0.0034185511101740857 0 0.00015732086429394036 0.0036029877522327997 0 -2.7411424671028576e-05 0.0032887634558052131 0 0.00054902712302439297 0.0037185228526916366 0 0.00015732086429394036 0.0036029877522327997 0 0.000274031997142288 0.0033628444536976262 0 0.00015732086429394036 0.0036029877522327997 0 0.000274031997142288 0.0033628444536976262 0 -2.7411424671028576e-05 0.0032887634558052131 0 0.00026982220315191089 0.0030339300626263787 0 0.000274031997142288 0.0033628444536976262 0 -4.8737411487814767e-05 0.0030353936870052192 0 0.000274031997142288 0.0033628444536976262 0 -2.7411424671028576e-05 0.0032887634558052131 0 -4.8737411487814767e-05 0.0030353936870052192 0 -2.7411424671028576e-05 0.0032887634558052131 0 -4.8737411487814767e-05 0.0030353936870052192 0 -0.00025411579098750321 0.0030789087449134256 0 -4.8737411487814767e-05 0.0030353936870052192 0 -0.00025411579098750321 0.0030789087449134256 0 -0.00024835743366140908 0.0028204509483114298 0 0.0029534095554806625 0.0037566297971749095 0 0.0023684735690357429 0.0033114413323890742 0 0.0055367218570820196 0.004702778660988869 0 0.0051821433162599099 0.0046147880080144978 0 0.0050995746446503443 0.0039245209046472824 0 -0.00028860438260426704 0.0032891558399322741 0 -0.00025411579098750321 0.0030789087449134256 0 -0.00034986641952790222 0.0027634956484482083 0 0.0029534095554806625 0.0037566297971749095 0 0.00085870833277159535 0.0031492100301223642 0 -0.00026534597614645555 0.0034185511101740857 0 -2.7411424671028576e-05 0.0032887634558052131 0 -0.00025411579098750321 0.0030789087449134256 0 0.026543740498848112 -0.0013836177142019111 0 0.027534829909320182 -0.0012130644105309907 0 0.027749123107755968 -0.00042373314882613162 0 0.0051821433162599099 0.0046147880080144978 0 0.0049037491330867723 0.0038779672187206518 0 0.0050995746446503443 0.0039245209046472824 0 0.01293539917216263 0.0039740849822490062 0 0.015458524166415237 0.0039277960287115183 0 0.01293539917216263 0.0039740849822490062 0 0.0035908368379143399 0.0062311103033482517 0 0.0042371889776946997 0.0096218367561476253 0 0.0026694271359361823 0.0080897415463527054 0 0.0034986923215643779 0.0073368564391582585 0 0.026196299671870486 -0.0027958985329892597 0 0.026543740498848112 -0.0013836177142019111 0 0.027313084812024616 -0.0022401468676237989 0 0.026543740498848112 -0.0013836177142019111 0 0.027534829909320182 -0.0012130644105309907 0 0.027313084812024616 -0.0022401468676237989 0 0.027534829909320182 -0.0012130644105309907 0 0.027313084812024616 -0.0022401468676237989 0 0.028024306240423253 -0.0015921867333451437 0 0.029066270806827974 -0.0021508274811729597 0 0.028248546209436291 -0.002454160321937971 0 0.028024306240423253 -0.0015921867333451437 0 0.027313084812024616 -0.0022401468676237989 0 0.028248546209436291 -0.002454160321937971 0 0.028024306240423253 -0.0015921867333451437 0 0.028710114881715761 -0.0012777414144777403 0 0.028024306240423253 -0.0015921867333451437 0 0.02779529753845001 -0.00090974983354797116 0 0.027534829909320182 -0.0012130644105309907 0 0.028024306240423253 -0.0015921867333451437 0 0.02779529753845001 -0.00090974983354797116 0 0.02779529753845001 -0.00090974983354797116 0 0.027228081317683825 -0.00066635658924651389 0 0.027749123107755968 -0.00042373314882613162 0 0.027534829909320182 -0.0012130644105309907 0 0.02779529753845001 -0.00090974983354797116 0 0.027749123107755968 -0.00042373314882613162 0 0.028125542251428572 -0.00070094312945296374 0 0.02779529753845001 -0.00090974983354797116 0 0.027228081317683825 -0.00066635658924651389 0 0.028125542251428572 -0.00070094312945296374 0 0.028710114881715761 -0.0012777414144777403 0 0.02779529753845001 -0.00090974983354797116 0 0.015458524166415237 0.0039277960287115183 0 0.013768017824128764 0.0017212837228515316 0 0.027228081317683825 -0.00066635658924651389 0 0.027749123107755968 -0.00042373314882613162 0 0.026308685256215152 -0.0026723742578448769 0 0.026391774069299937 -0.00053260068510781915 0 0.026963627913408481 -0.00056333283310289119 0 0.0026694271359361823 0.0080897415463527054 0 0.0010665428591721663 0.0064251603494211267 0 0.0023421713889776852 0.0064948898680532987 0 0.028125542251428572 -0.00070094312945296374 0 0.028468307260077999 -9.1008058702607181e-05 0 0.027228081317683825 -0.00066635658924651389 0 0.024157368278860596 -0.00085944904297610876 0 0.027228081317683825 -0.00066635658924651389 0 0.026308685256215152 -0.0026723742578448769 0 0.0026694271359361823 0.0080897415463527054 0 0.0034986923215643779 0.0073368564391582585 0 0.0023421713889776852 0.0064948898680532987 0 0.0049037491330867723 0.0038779672187206518 0 0.0050995746446503443 0.0039245209046472824 0 0.0046029951707767238 0.0030857345471285735 0 0.0023684735690357429 0.0033114413323890742 0 0.0019708981445385543 0.0033338016870800564 0 0.0035908368379143399 0.0062311103033482517 0 0.0019708981445385543 0.0033338016870800564 0 -0.00034986641952790222 0.0027634956484482083 0 -0.00021716565749477139 0.002643312140819646 0 -0.0001470144986434192 0.0025975917151670916 0 0.0034986923215643779 0.0073368564391582585 0 0.0023421713889776852 0.0064948898680532987 0 0.0026548439545091597 0.0049861065797864911 0 0.0017639794862780586 0.0056447496328473458 0 0.0016316959046153055 0.0050148302512086186 0 0.0026548439545091597 0.0049861065797864911 0 0.0017639794862780586 0.0056447496328473458 0 0.0023421713889776852 0.0064948898680532987 0 0.0026548439545091597 0.0049861065797864911 0 0.0017639794862780586 0.0056447496328473458 0 0.00088911362755497486 0.0052006471431959266 0 0.0010665428591721663 0.0064251603494211267 0 0.0017639794862780586 0.0056447496328473458 0 0.00088911362755497486 0.0052006471431959266 0 0.0016316959046153055 0.0050148302512086186 0 0.0017639794862780586 0.0056447496328473458 0 0.0010665428591721663 0.0064251603494211267 0 0.0023421713889776852 0.0064948898680532987 0 0.00026982220315191089 0.0030339300626263787 0 -4.8737411487814767e-05 0.0030353936870052192 0 -0.00016718107004121743 0.0027735414185464918 0 -4.8737411487814767e-05 0.0030353936870052192 0 -0.00016718107004121743 0.0027735414185464918 0 -0.00024835743366140908 0.0028204509483114298 0 -0.00016718107004121743 0.0027735414185464918 0 -0.00024835743366140908 0.0028204509483114298 0 -0.00029882346971414224 0.002650119720273735 0 -0.00034986641952790222 0.0027634956484482083 0 -0.00024835743366140908 0.0028204509483114298 0 -0.00029882346971414224 0.002650119720273735 0 -0.00025411579098750321 0.0030789087449134256 0 -0.00034986641952790222 0.0027634956484482083 0 -0.00024835743366140908 0.0028204509483114298 0 -0.00021716565749477139 0.002643312140819646 0 -0.00029882346971414224 0.002650119720273735 0 -0.00032305764344273976 0.0026994579818195056 0 -0.00034986641952790222 0.0027634956484482083 0 -0.00021716565749477139 0.002643312140819646 0 -0.00029882346971414224 0.002650119720273735 0 -0.00029882346971414224 0.002650119720273735 0 -0.00044836122840140959 0.0027177164924301542 0 -0.00032305764344273976 0.0026994579818195056 0 -0.00044641544878704418 0.0025168094151372662 0 -0.00029882346971414224 0.002650119720273735 0 -0.00044836122840140959 0.0027177164924301542 0 -0.00044641544878704418 0.0025168094151372662 0 -0.00016718107004121743 0.0027735414185464918 0 -0.00029882346971414224 0.002650119720273735 0 -0.00064462043486325493 0.0027424868405322837 0 -0.00044641544878704418 0.0025168094151372662 0 -0.00044836122840140959 0.0027177164924301542 0 -0.00064462043486325493 0.0027424868405322837 0 -0.00044836122840140959 0.0027177164924301542 0 -0.00070901665632234936 0.0029211163589873963 0 -0.00018810722437731156 0.0026223368119916014 0 -0.00018564350585124686 0.0027161603164308854 0 -0.00021716565749477139 0.002643312140819646 0 -0.00032305764344273976 0.0026994579818195056 0 -0.00027525294817147317 0.0028795440413138538 0 -0.00044836122840140959 0.0027177164924301542 0 -0.00032305764344273976 0.0026994579818195056 0 -0.00027525294817147317 0.0028795440413138538 0 -0.00044836122840140959 0.0027177164924301542 0 -0.00051159657855049149 0.002983443950984494 0 -0.00027525294817147317 0.0028795440413138538 0 -0.00018564350585124686 0.0027161603164308854 0 0.00023529685168967914 0.002885361345243735 0 -0.00051159657855049149 0.002983443950984494 0 -0.00027525294817147317 0.0028795440413138538 0 -0.00034508936117478781 0.0033030092999378523 0 -0.00070901665632234936 0.0029211163589873963 0 -0.00074341602925192911 0.003193989391945313 0 -0.0010769120458124569 0.0031078202608107127 0 -0.00044836122840140959 0.0027177164924301542 0 -0.00051159657855049149 0.002983443950984494 0 -0.00070901665632234936 0.0029211163589873963 0 -0.00051159657855049149 0.002983443950984494 0 -0.00070901665632234936 0.0029211163589873963 0 -0.00074341602925192911 0.003193989391945313 0 0.0013673495735122471 0.0038230789873091395 0 0.0026548439545091597 0.0049861065797864911 0 0.0016373190295666171 0.0034993147249168491 0 0.0004923515054177088 0.0043285122409357883 0 0.0012824805980101704 0.0042213557672558452 0 0.00084159769508853363 0.00352447269969863 0 0.0013673495735122471 0.0038230789873091395 0 0.0012824805980101704 0.0042213557672558452 0 0.00084159769508853363 0.00352447269969863 0 0.00088911362755497486 0.0052006471431959266 0 0.0012824805980101704 0.0042213557672558452 0 0.0016316959046153055 0.0050148302512086186 0 0.0013673495735122471 0.0038230789873091395 0 0.0012824805980101704 0.0042213557672558452 0 0.0026548439545091597 0.0049861065797864911 0 0.0012824805980101704 0.0042213557672558452 0 0.0016316959046153055 0.0050148302512086186 0 0.0026548439545091597 0.0049861065797864911 0 0.0019708981445385543 0.0033338016870800564 0 0.00085890086255060766 0.0030943807503260659 0 -0.0001470144986434192 0.0025975917151670916 0 -6.581538484680829e-05 0.0025535289313661056 0 5.4505483723763933e-05 0.0025017075343348222 0 0.0019708981445385543 0.0033338016870800564 0 -9.4012022651429527e-05 0.0021619404814053403 0 0.00013180927909854572 0.002617623298880583 0 5.4505483723763933e-05 0.0025017075343348222 0 5.3741662214086226e-05 0.0024960243830668485 0 -0.00021716565749477139 0.002643312140819646 0 2.3667043441349038e-06 0.0025191771546962125 0 -6.581538484680829e-05 0.0025535289313661056 0 -0.00021716565749477139 0.002643312140819646 0 -0.0001470144986434192 0.0025975917151670916 0 -6.581538484680829e-05 0.0025535289313661056 0 2.3667043441349038e-06 0.0025191771546962125 0 -6.581538484680829e-05 0.0025535289313661056 0 6.8553108673401692e-06 0.0025225204107368064 0 -6.581538484680829e-05 0.0025535289313661056 0 5.4505483723763933e-05 0.0025017075343348222 0 6.8553108673401692e-06 0.0025225204107368064 0 5.4505483723763933e-05 0.0025017075343348222 0 5.7475303746453026e-05 0.0025245583044061289 0 6.8553108673401692e-06 0.0025225204107368064 0 5.7475303746453026e-05 0.0025245583044061289 0 6.8553108673401692e-06 0.0025225204107368064 0 4.410840355983255e-05 0.0025445455819078826 0 2.3667043441349038e-06 0.0025191771546962125 0 4.410840355983255e-05 0.0025445455819078826 0 7.464099519355813e-06 0.0025951664048672772 0 5.4505483723763933e-05 0.0025017075343348222 0 5.7475303746453026e-05 0.0025245583044061289 0 8.4220707454074275e-05 0.002511793666863106 0 2.3667043441349038e-06 0.0025191771546962125 0 6.8553108673401692e-06 0.0025225204107368064 0 4.410840355983255e-05 0.0025445455819078826 0 5.7475303746453026e-05 0.0025245583044061289 0 0.0001054631120135174 0.0025533530775064092 0 0.00016551516620326432 0.0025340067734946556 0 5.7475303746453026e-05 0.0025245583044061289 0 4.410840355983255e-05 0.0025445455819078826 0 0.0001054631120135174 0.0025533530775064092 0 0.0004923515054177088 0.0043285122409357883 0 0.00028163999051998345 0.0026074803989074862 0 0.00084159769508853363 0.00352447269969863 0 0.0016373190295666171 0.0034993147249168491 0 0.0010092456026422243 0.0032367106610872057 0 0.00035510271340779556 0.0025694038881255753 0 0.00016551516620326432 0.0025340067734946556 0 5.3741662214086226e-05 0.0024960243830668485 0 0.00035510271340779556 0.0025694038881255753 0 0.0001054631120135174 0.0025533530775064092 0 0.00016551516620326432 0.0025340067734946556 0 0.00018346794205144009 0.0025792013430642404 0 0.00085890086255060766 0.0030943807503260659 0 0.00048589269665571269 0.002648877473315043 0 5.7475303746453026e-05 0.0025245583044061289 0 0.00016551516620326432 0.0025340067734946556 0 8.4220707454074275e-05 0.002511793666863106 0 0.00016551516620326432 0.0025340067734946556 0 8.4220707454074275e-05 0.002511793666863106 0 5.3741662214086226e-05 0.0024960243830668485 0 0.0013673495735122471 0.0038230789873091395 0 0.0016373190295666171 0.0034993147249168491 0 0.0010092456026422243 0.0032367106610872057 0 5.4505483723763933e-05 0.0025017075343348222 0 8.4220707454074275e-05 0.002511793666863106 0 5.3741662214086226e-05 0.0024960243830668485 0 0.0013673495735122471 0.0038230789873091395 0 0.00084159769508853363 0.00352447269969863 0 0.0010092456026422243 0.0032367106610872057 0 0.00084159769508853363 0.00352447269969863 0 0.0010092456026422243 0.0032367106610872057 0 0.00068641904774618305 0.0030023496556751618 0 0.00028163999051998345 0.0026074803989074862 0 0.00084159769508853363 0.00352447269969863 0 0.00068641904774618305 0.0030023496556751618 0 0.00028163999051998345 0.0026074803989074862 0 0.00068641904774618305 0.0030023496556751618 0 0.00035510271340779556 0.0025694038881255753 0 0.0010092456026422243 0.0032367106610872057 0 0.00068641904774618305 0.0030023496556751618 0 0.00035510271340779556 0.0025694038881255753 0 0.00028163999051998345 0.0026074803989074862 0 0.00020708657850772349 0.0026070790950615133 0 0.00016647535290498165 0.0026189104618171881 0 0.00028163999051998345 0.0026074803989074862 0 0.00035510271340779556 0.0025694038881255753 0 0.00020708657850772349 0.0026070790950615133 0 0.00020708657850772349 0.0026070790950615133 0 0.00018346794205144009 0.0025792013430642404 0 9.6210829405051775e-05 0.0025917077368240375 0 0.00035510271340779556 0.0025694038881255753 0 0.00020708657850772349 0.0026070790950615133 0 0.00018346794205144009 0.0025792013430642404 0 0.00016551516620326432 0.0025340067734946556 0 0.00035510271340779556 0.0025694038881255753 0 0.00018346794205144009 0.0025792013430642404 0 0.0001054631120135174 0.0025533530775064092 0 0.00018346794205144009 0.0025792013430642404 0 9.6210829405051775e-05 0.0025917077368240375 0 4.410840355983255e-05 0.0025445455819078826 0 0.0001054631120135174 0.0025533530775064092 0 9.6210829405051775e-05 0.0025917077368240375 0 4.410840355983255e-05 0.0025445455819078826 0 9.6210829405051775e-05 0.0025917077368240375 0 7.464099519355813e-06 0.0025951664048672772 0 9.6210829405051775e-05 0.0025917077368240375 0 8.0186183845402505e-05 0.0026454165022592926 0 7.464099519355813e-06 0.0025951664048672772 0 0.00020708657850772349 0.0026070790950615133 0 9.6210829405051775e-05 0.0025917077368240375 0 8.0186183845402505e-05 0.0026454165022592926 0 8.0186183845402505e-05 0.0026454165022592926 0 7.464099519355813e-06 0.0025951664048672772 0 -2.6002429231472173e-05 0.0026870598043318831 0 0.00020708657850772349 0.0026070790950615133 0 0.00010142757316102278 0.0026471843167550544 0 0.00016647535290498165 0.0026189104618171881 0 0.00020708657850772349 0.0026070790950615133 0 8.0186183845402505e-05 0.0026454165022592926 0 0.00010142757316102278 0.0026471843167550544 0 -0.00074341602925192911 0.003193989391945313 0 -0.00068277143726424737 0.0034936291875704061 0 -0.0011236725311665231 0.0034124470115221685 0 -0.00074341602925192911 0.003193989391945313 0 -0.00034508936117478781 0.0033030092999378523 0 -0.00068277143726424737 0.0034936291875704061 0 -0.00051159657855049149 0.002983443950984494 0 -0.00074341602925192911 0.003193989391945313 0 -0.00034508936117478781 0.0033030092999378523 0 -0.0050107969183123659 0.0037195816028894042 0 -0.0047387713734498753 0.0033044100944145658 0 0.00023529685168967914 0.002885361345243735 0 -0.0047387713734498753 0.0033044100944145658 0 -0.00034508936117478781 0.0033030092999378523 0 -0.00068277143726424737 0.0034936291875704061 0 -0.00043693548083002684 0.0038271519221498547 0 -0.00068277143726424737 0.0034936291875704061 0 -0.00083810754541840048 0.0037394709335770485 0 -0.00043693548083002684 0.0038271519221498547 0 -0.00068277143726424737 0.0034936291875704061 0 -0.00083810754541840048 0.0037394709335770485 0 -0.0011236725311665231 0.0034124470115221685 0 -0.0088374061640861899 0.0037766536200742047 0 -0.0089378698667574308 0.0033920132313206234 0 -0.0093272053897117194 0.0036879629270710388 0 -0.0088374061640861899 0.0037766536200742047 0 -0.0089378698667574308 0.0033920132313206234 0 -0.0086191195599087268 0.0035272357206983214 0 -0.0089378698667574308 0.0033920132313206234 0 -0.0086368491079101013 0.0032322560376443527 0 -0.0086191195599087268 0.0035272357206983214 0 -0.0089378698667574308 0.0033920132313206234 0 -0.0093272053897117194 0.0036879629270710388 0 -0.0093609779651856601 0.0031959785878296859 0 -0.0094110008907528023 0.0031819067897892565 0 -0.009427334482256404 0.0027157024700001186 0 -0.009820288807788272 0.0026270290987209653 0 -0.0047387713734498753 0.0033044100944145658 0 -0.0094527862416273981 0.0030395818908902326 0 -0.009427334482256404 0.0027157024700001186 0 -0.009820288807788272 0.0026270290987209653 0 -0.0093944171670711975 0.002430145039251869 0 -0.0093609779651856601 0.0031959785878296859 0 -0.0093944171670711975 0.002430145039251869 0 -0.0089051893305689273 0.0028341955610061268 0 -0.0094527862416273981 0.0030395818908902326 0 -0.0093782115437260859 0.0024452224544978113 0 -0.0089378698667574308 0.0033920132313206234 0 -0.0089051893305689273 0.0028341955610061268 0 -0.0086368491079101013 0.0032322560376443527 0 -0.0089378698667574308 0.0033920132313206234 0 -0.0093609779651856601 0.0031959785878296859 0 -0.0089051893305689273 0.0028341955610061268 0 -0.0099942996319597431 0.003043069023543963 0 -0.01028777693715416 0.0024383837183229906 0 -0.010717988056195693 0.0028691418218130551 0 8.0186183845402505e-05 0.0026454165022592926 0 0.00010142757316102278 0.0026471843167550544 0 5.5603528282755285e-05 0.0026708114933394738 0 0.00010142757316102278 0.0026471843167550544 0 5.5603528282755285e-05 0.0026708114933394738 0 6.1323427145163894e-05 0.0026482301920600039 0 -0.0049170700140449639 0.0029258485953196408 0 -0.0055030860881149189 0.0016287622203553002 0 -0.0047387713734498753 0.0033044100944145658 0 -0.0049170700140449639 0.0029258485953196408 0 -0.0094110008907528023 0.0031819067897892565 0 -0.0099942996319597431 0.003043069023543963 0 -0.009820288807788272 0.0026270290987209653 0 8.0186183845402505e-05 0.0026454165022592926 0 -2.6002429231472173e-05 0.0026870598043318831 0 5.5603528282755285e-05 0.0026708114933394738 0 -0.009820288807788272 0.0026270290987209653 0 -0.01028777693715416 0.0024383837183229906 0 -0.010008242677450017 0.0021025064926633455 0 -0.0099942996319597431 0.003043069023543963 0 -0.009820288807788272 0.0026270290987209653 0 -0.01028777693715416 0.0024383837183229906 0 -0.01028777693715416 0.0024383837183229906 0 -0.010482677700377089 0.0018005701927226684 0 -0.010008242677450017 0.0021025064926633455 0 -0.01028777693715416 0.0024383837183229906 0 -0.010482677700377089 0.0018005701927226684 0 -0.010853294812556282 0.0021188492712756134 0 -0.010482677700377089 0.0018005701927226684 0 -0.010216890840275064 0.0012361439056800319 0 -0.010767441702099844 0.0011652704291470362 0 -0.010482677700377089 0.0018005701927226684 0 -0.010216890840275064 0.0012361439056800319 0 -0.010008242677450017 0.0021025064926633455 0 -0.010216890840275064 0.0012361439056800319 0 -0.0097695218913775236 0.0018359381269152592 0 -0.010008242677450017 0.0021025064926633455 0 -0.010216890840275064 0.0012361439056800319 0 -0.0097695218913775236 0.0018359381269152592 0 -0.0097412584655072517 0.0014378805735619079 0 -0.009820288807788272 0.0026270290987209653 0 -0.010008242677450017 0.0021025064926633455 0 -0.0093944171670711975 0.002430145039251869 0 -0.0097695218913775236 0.0018359381269152592 0 -0.010008242677450017 0.0021025064926633455 0 -0.0093944171670711975 0.002430145039251869 0 -0.0097695218913775236 0.0018359381269152592 0 -0.0093944171670711975 0.002430145039251869 0 -0.0091999153559130849 0.0021635075948016913 0 -0.0089051893305689273 0.0028341955610061268 0 -0.0091999153559130849 0.0021635075948016913 0 -0.0087267806499643046 0.0025185446228653354 0 -0.0093944171670711975 0.002430145039251869 0 -0.0089051893305689273 0.0028341955610061268 0 -0.0091999153559130849 0.0021635075948016913 0 -0.0091999153559130849 0.0021635075948016913 0 -0.0089360913011726842 0.0019539226794307086 0 -0.0087267806499643046 0.0025185446228653354 0 -0.0089360913011726842 0.0019539226794307086 0 -0.0093749741272261787 0.0016480358364858185 0 -0.0091758953631253821 0.0013752403231134572 0 -0.0091999153559130849 0.0021635075948016913 0 -0.0089360913011726842 0.0019539226794307086 0 -0.0093749741272261787 0.0016480358364858185 0 -0.0097695218913775236 0.0018359381269152592 0 -0.0091999153559130849 0.0021635075948016913 0 -0.0093749741272261787 0.0016480358364858185 0 -0.0097695218913775236 0.0018359381269152592 0 -0.0093749741272261787 0.0016480358364858185 0 -0.0097412584655072517 0.0014378805735619079 0 -0.0097412584655072517 0.0014378805735619079 0 -0.0094852716756050979 0.0011430552586013034 0 -0.0098718443290133351 0.00098238924208085879 0 -0.0093749741272261787 0.0016480358364858185 0 -0.0097412584655072517 0.0014378805735619079 0 -0.0094852716756050979 0.0011430552586013034 0 -0.0093749741272261787 0.0016480358364858185 0 -0.0094852716756050979 0.0011430552586013034 0 -0.0091758953631253821 0.0013752403231134572 0 -0.0094852716756050979 0.0011430552586013034 0 -0.0091758953631253821 0.0013752403231134572 0 -0.0094140999415581531 0.00057661160769677396 0 -0.0094852716756050979 0.0011430552586013034 0 -0.0096787683649657823 0.00083124389767424446 0 -0.0094140999415581531 0.00057661160769677396 0 -0.0094852716756050979 0.0011430552586013034 0 -0.0096787683649657823 0.00083124389767424446 0 -0.0098718443290133351 0.00098238924208085879 0 -0.0096787683649657823 0.00083124389767424446 0 -0.0099000223781770258 0.00057315239770040695 0 -0.0098718443290133351 0.00098238924208085879 0 -0.01393994637343522 0.0005290500965082185 0 -0.014222058863305813 0.0016850775520074221 0 -0.016699205909639567 0.00027092509081821632 0 -0.013324758106901584 0.0019362053859609909 0 -0.014718063880517244 0.0015132343495582227 0 -0.0089360913011726842 0.0019539226794307086 0 -0.0091758953631253821 0.0013752403231134572 0 -0.0086680717437080512 0.0015130737441170273 0 -0.0091758953631253821 0.0013752403231134572 0 -0.0091730001109740292 0.00083457833007102281 0 -0.0086680717437080512 0.0015130737441170273 0 -0.0091758953631253821 0.0013752403231134572 0 -0.0091730001109740292 0.00083457833007102281 0 -0.0094140999415581531 0.00057661160769677396 0 -0.01393994637343522 0.0005290500965082185 0 -0.011621698376447019 0.0015561766577838663 0 -0.014673479834380254 0.00022721762353945191 0 -0.015236834765253121 0.00048989297144196779 0 -0.014090989865063127 0.00065056401248683596 0 -0.014673479834380254 0.00022721762353945191 0 -0.015236834765253121 0.00048989297144196779 0 -0.015041651230445862 8.6381012947520184e-05 0 -0.015041651230445862 8.6381012947520184e-05 0 -0.015308295035444675 -0.00013378548792647674 0 -0.014889323947891307 -0.00013228595368265709 0 -0.015236834765253121 0.00048989297144196779 0 -0.015041651230445862 8.6381012947520184e-05 0 -0.015308295035444675 -0.00013378548792647674 0 -0.014673479834380254 0.00022721762353945191 0 -0.015041651230445862 8.6381012947520184e-05 0 -0.014889323947891307 -0.00013228595368265709 0 -0.014673479834380254 0.00022721762353945191 0 -0.013994928727583934 -2.5697237438278299e-05 0 -0.014889323947891307 -0.00013228595368265709 0 -0.012505924909297321 0.0006474054191573875 0 -0.012737459292792949 -0.00014883194777055834 0 -0.0094140999415581531 0.00057661160769677396 0 -0.0099000223781770258 0.00057315239770040695 0 -0.010156780093485251 9.8882228302197615e-05 0 -0.015329648612573393 0.00021938422319127179 0 -0.015308295035444675 -0.00013378548792647674 0 -0.015402500519303879 -0.00042977989221289908 0 -0.0096787683649657823 0.00083124389767424446 0 -0.0094140999415581531 0.00057661160769677396 0 -0.0099000223781770258 0.00057315239770040695 0 -0.015236834765253121 0.00048989297144196779 0 -0.015329648612573393 0.00021938422319127179 0 -0.015308295035444675 -0.00013378548792647674 0 -0.01393994637343522 0.0005290500965082185 0 -0.012505924909297321 0.0006474054191573875 0 -0.0099000223781770258 0.00057315239770040695 0 -0.010261040838239928 0.00061049149933844072 0 -0.010156780093485251 9.8882228302197615e-05 0 -0.010824762905690658 0.00027029002613299682 0 -0.010261040838239928 0.00061049149933844072 0 -0.010156780093485251 9.8882228302197615e-05 0 -0.010216890840275064 0.0012361439056800319 0 -0.010824762905690658 0.00027029002613299682 0 -0.010767441702099844 0.0011652704291470362 0 -0.010216890840275064 0.0012361439056800319 0 -0.010824762905690658 0.00027029002613299682 0 -0.010261040838239928 0.00061049149933844072 0 -0.010216890840275064 0.0012361439056800319 0 -0.0098718443290133351 0.00098238924208085879 0 -0.010261040838239928 0.00061049149933844072 0 -0.010216890840275064 0.0012361439056800319 0 -0.0097412584655072517 0.0014378805735619079 0 -0.0098718443290133351 0.00098238924208085879 0 -0.0099000223781770258 0.00057315239770040695 0 -0.0098718443290133351 0.00098238924208085879 0 -0.010261040838239928 0.00061049149933844072 0 -0.0091112120485281247 0.0020476948546190314 0 -0.0097319728530004639 -0.0010033805681597672 0 -0.011496910607526011 0.0012594263682592882 0 -0.0091112120485281247 0.0020476948546190314 0 -0.0070308755279706375 0.0016958997841837594 0 -0.0097319728530004639 -0.0010033805681597672 0 -0.0091112120485281247 0.0020476948546190314 0 -0.011496910607526011 0.0012594263682592882 0 -0.010629667548967311 0.0023299365574276096 0 -0.0070308755279706375 0.0016958997841837594 0 -0.0097319728530004639 -0.0010033805681597672 0 -0.0052193907922946162 0.00055681219500973021 0 -0.0070308755279706375 0.0016958997841837594 0 -0.0048358893327818883 0.0023983023595194296 0 -0.0052193907922946162 0.00055681219500973021 0 -0.011954019288445706 -0.0005680298390506103 0 -0.010045529007253001 0.00023620631712253985 0 -0.01446462463103698 -0.00045132078432395616 0 -0.014102440111549873 0.00015361934352715396 0 -0.01421412915567361 -0.00036423797615389616 0 -0.0097319728530004639 -0.0010033805681597672 0 -0.012591226808190695 -3.6688779702512805e-05 0 -0.011496910607526011 0.0012594263682592882 0 -0.012591226808190695 -3.6688779702512805e-05 0 -0.013994928727583934 -2.5697237438278299e-05 0 -0.014014756776600622 -0.00073985635718938267 0 -0.012591226808190695 -3.6688779702512805e-05 0 -0.013079719850559848 0.00077472708563999955 0 -0.011496910607526011 0.0012594263682592882 0 -0.012591226808190695 -3.6688779702512805e-05 0 -0.013994928727583934 -2.5697237438278299e-05 0 -0.013079719850559848 0.00077472708563999955 0 -0.013994928727583934 -2.5697237438278299e-05 0 -0.014090989865063127 0.00065056401248683596 0 -0.013079719850559848 0.00077472708563999955 0 -0.014673479834380254 0.00022721762353945191 0 -0.013994928727583934 -2.5697237438278299e-05 0 -0.014090989865063127 0.00065056401248683596 0 -0.013324758106901584 0.0019362053859609909 0 -0.014718063880517244 0.0015132343495582227 0 -0.011737249859706362 0.0031750440282735468 0 -0.015236834765253121 0.00048989297144196779 0 -0.014090989865063127 0.00065056401248683596 0 -0.013324758106901584 0.0019362053859609909 0 -0.011621698376447019 0.0015561766577838663 0 -0.010027815287149336 0.0028455991563514503 0 -0.014090989865063127 0.00065056401248683596 0 -0.013079719850559848 0.00077472708563999955 0 -0.013324758106901584 0.0019362053859609909 0 -0.011496910607526011 0.0012594263682592882 0 -0.010629667548967311 0.0023299365574276096 0 -0.011737249859706362 0.0031750440282735468 0 -0.013324758106901584 0.0019362053859609909 0 -0.011496910607526011 0.0012594263682592882 0 -0.011737249859706362 0.0031750440282735468 0 -0.013079719850559848 0.00077472708563999955 0 -0.013324758106901584 0.0019362053859609909 0 -0.011496910607526011 0.0012594263682592882 0 -0.010629667548967311 0.0023299365574276096 0 -0.011737249859706362 0.0031750440282735468 0 -0.009646774577035503 0.0029803320303236954 0 -0.0081916621075332225 0.0026528168872290789 0 -0.0085702535626627305 0.0023037972784723491 0 -0.0084297673930544062 0.0027973266652416267 0 -0.0086680717437080512 0.0015130737441170273 0 -0.0081916621075332225 0.0026528168872290789 0 -0.0085702535626627305 0.0023037972784723491 0 -0.0089360913011726842 0.0019539226794307086 0 -0.0086680717437080512 0.0015130737441170273 0 -0.0085702535626627305 0.0023037972784723491 0 -0.0085702535626627305 0.0023037972784723491 0 -0.0087267806499643046 0.0025185446228653354 0 -0.0084297673930544062 0.0027973266652416267 0 -0.0089360913011726842 0.0019539226794307086 0 -0.0085702535626627305 0.0023037972784723491 0 -0.0087267806499643046 0.0025185446228653354 0 -0.0089051893305689273 0.0028341955610061268 0 -0.0087267806499643046 0.0025185446228653354 0 -0.008513412382021834 0.0030588833425087372 0 -0.0087267806499643046 0.0025185446228653354 0 -0.0084297673930544062 0.0027973266652416267 0 -0.008513412382021834 0.0030588833425087372 0 -0.0081916621075332225 0.0026528168872290789 0 -0.0084297673930544062 0.0027973266652416267 0 -0.0082508706232381317 0.0033749312774005681 0 -0.0081916621075332225 0.0026528168872290789 0 -0.0082508706232381317 0.0033749312774005681 0 -0.00835037683165403 0.0039445305553396431 0 -0.0084297673930544062 0.0027973266652416267 0 -0.008513412382021834 0.0030588833425087372 0 -0.0082508706232381317 0.0033749312774005681 0 -0.0082508706232381317 0.0033749312774005681 0 -0.00835037683165403 0.0039445305553396431 0 -0.0083003612170468866 0.0041115044165768262 0 -0.010027815287149336 0.0028455991563514503 0 -0.0085464049796838189 0.0038249917437821607 0 -0.011737249859706362 0.0031750440282735468 0 -0.00835037683165403 0.0039445305553396431 0 -0.009646774577035503 0.0029803320303236954 0 -0.00835037683165403 0.0039445305553396431 0 -0.008523700297653836 0.0031435451789963943 0 -0.0075310920744586611 0.0030101352878082266 0 -0.00835037683165403 0.0039445305553396431 0 -0.008523700297653836 0.0031435451789963943 0 -0.009646774577035503 0.0029803320303236954 0 -0.0091112120485281247 0.0020476948546190314 0 -0.008523700297653836 0.0031435451789963943 0 -0.0075310920744586611 0.0030101352878082266 0 -0.0091112120485281247 0.0020476948546190314 0 -0.008523700297653836 0.0031435451789963943 0 -0.009646774577035503 0.0029803320303236954 0 -0.0091112120485281247 0.0020476948546190314 0 -0.010629667548967311 0.0023299365574276096 0 -0.009646774577035503 0.0029803320303236954 0 -0.0056355318229859815 0.0036124913021447248 0 -0.0047912320883692116 0.0023625920160217427 0 -0.0075310920744586611 0.0030101352878082266 0 -0.0083003612170468866 0.0041115044165768262 0 -0.0048358893327818883 0.0023983023595194296 0 -0.0070308755279706375 0.0016958997841837594 0 -0.0075310920744586611 0.0030101352878082266 0 -0.0048358893327818883 0.0023983023595194296 0 -0.0091112120485281247 0.0020476948546190314 0 -0.0070308755279706375 0.0016958997841837594 0 -0.0075310920744586611 0.0030101352878082266 0 -0.0032539194565601066 0.003395725522826834 0 -0.0034567703782418984 0.003290705316572586 0 -0.0048358893327818883 0.0023983023595194296 0 -0.00835037683165403 0.0039445305553396431 0 -0.0075310920744586611 0.0030101352878082266 0 -0.0083003612170468866 0.0041115044165768262 0 -0.0032539194565601066 0.003395725522826834 0 -0.0034567703782418984 0.003290705316572586 0 -0.0031494910125829277 0.0033545288009293539 0 -0.0034567703782418984 0.003290705316572586 0 -0.0030554282865228556 0.0033333252739391889 0 -0.0031494910125829277 0.0033545288009293539 0 -0.0030554282865228556 0.0033333252739391889 0 -0.0031494910125829277 0.0033545288009293539 0 -0.0028395128843133137 0.003424472539194136 0 -0.0032539194565601066 0.003395725522826834 0 -0.0031494910125829277 0.0033545288009293539 0 -0.0028395128843133137 0.003424472539194136 0 -0.0056355318229859815 0.0036124913021447248 0 -0.0054428085072540334 0.0034567784073559729 0 -0.0082508706232381317 0.0033749312774005681 0 -0.0083003612170468866 0.0041115044165768262 0 -0.0082282713896678072 0.0033520316178245373 0 -0.0032539194565601066 0.003395725522826834 0 -0.0028395128843133137 0.003424472539194136 0 -0.0023317559969513726 0.0035533096491788571 0 -0.0028395128843133137 0.003424472539194136 0 -0.0025554096547866956 0.0033898222956603389 0 -0.0023317559969513726 0.0035533096491788571 0 -0.0025554096547866956 0.0033898222956603389 0 -0.0023317559969513726 0.0035533096491788571 0 -0.0020889370584682757 0.0034583354071015334 0 -0.0030554282865228556 0.0033333252739391889 0 -0.0028395128843133137 0.003424472539194136 0 -0.0025554096547866956 0.0033898222956603389 0 -0.0030554282865228556 0.0033333252739391889 0 -0.0025554096547866956 0.0033898222956603389 0 -0.002790230394575783 0.0033183067451707628 0 -0.0089051893305689273 0.0028341955610061268 0 -0.008513412382021834 0.0030588833425087372 0 -0.0086368491079101013 0.0032322560376443527 0 -0.008513412382021834 0.0030588833425087372 0 -0.0086368491079101013 0.0032322560376443527 0 -0.008410423399320955 0.0033336924570833617 0 -0.008513412382021834 0.0030588833425087372 0 -0.0082508706232381317 0.0033749312774005681 0 -0.008410423399320955 0.0033336924570833617 0 -0.0082508706232381317 0.0033749312774005681 0 -0.008410423399320955 0.0033336924570833617 0 -0.0082282713896678072 0.0033520316178245373 0 -0.0023317559969513726 0.0035533096491788571 0 -0.0015490570412017473 0.0035097331026636542 0 -0.0020889370584682757 0.0034583354071015334 0 -0.0054428085072540334 0.0034567784073559729 0 -0.0039570830064155679 0.0038876756760813196 0 -0.008410423399320955 0.0033336924570833617 0 -0.0082282713896678072 0.0033520316178245373 0 -0.008422280034406409 0.0038025993326800261 0 -0.008410423399320955 0.0033336924570833617 0 -0.0086191195599087268 0.0035272357206983214 0 -0.008422280034406409 0.0038025993326800261 0 -0.0086368491079101013 0.0032322560376443527 0 -0.008410423399320955 0.0033336924570833617 0 -0.0086191195599087268 0.0035272357206983214 0 -0.0088374061640861899 0.0037766536200742047 0 -0.0086191195599087268 0.0035272357206983214 0 -0.008422280034406409 0.0038025993326800261 0 -0.00083810754541840048 0.0037394709335770485 0 -0.0013172237958710359 0.0036291888756373198 0 -0.0011236725311665231 0.0034124470115221685 0 -0.0050107969183123659 0.0037195816028894042 0 -0.0039570830064155679 0.0038876756760813196 0 -0.0039570830064155679 0.0038876756760813196 0 -0.0015913162690686241 0.0028449742493772147 0 -0.0039570830064155679 0.0038876756760813196 0 -0.0025243719893467517 0.0040231539138341973 0 -0.0014064995614965754 0.0035822065451114535 0 -0.0014500471881999956 0.0034038440931133873 0 -0.0016408376673339065 0.0034781879490384669 0 -0.0014064995614965754 0.0035822065451114535 0 -0.0014500471881999956 0.0034038440931133873 0 -0.0011236725311665231 0.0034124470115221685 0 -0.0015490570412017473 0.0035097331026636542 0 -0.0016408376673339065 0.0034781879490384669 0 -0.0020889370584682757 0.0034583354071015334 0 -0.0020889370584682757 0.0034583354071015334 0 -0.0018377398545410706 0.0034089683689539031 0 -0.0018677337830612377 0.0033187321998816351 0 -0.0016587888642752085 0.0033729696165674381 0 -0.0016408376673339065 0.0034781879490384669 0 -0.0018377398545410706 0.0034089683689539031 0 -0.0014500471881999956 0.0034038440931133873 0 -0.0016587888642752085 0.0033729696165674381 0 -0.0016408376673339065 0.0034781879490384669 0 -0.0016408376673339065 0.0034781879490384669 0 -0.0020889370584682757 0.0034583354071015334 0 -0.0018377398545410706 0.0034089683689539031 0 -0.0016587888642752085 0.0033729696165674381 0 -0.0018377398545410706 0.0034089683689539031 0 -0.0018677337830612377 0.0033187321998816351 0 -0.0014596024843259775 0.003076623828140404 0 -0.0018677337830612377 0.0033187321998816351 0 -0.0019156319045682383 0.0031486335589503999 0 -0.0014596024843259775 0.003076623828140404 0 -0.0018677337830612377 0.0033187321998816351 0 -0.0014395129462886965 0.003251270607783002 0 -0.0014500471881999956 0.0034038440931133873 0 -0.0016587888642752085 0.0033729696165674381 0 -0.0014395129462886965 0.003251270607783002 0 -0.0016587888642752085 0.0033729696165674381 0 -0.0018677337830612377 0.0033187321998816351 0 -0.0014395129462886965 0.003251270607783002 0 -0.0014596024843259775 0.003076623828140404 0 -0.0014395129462886965 0.003251270607783002 0 -0.0010769120458124569 0.0031078202608107127 0 -0.0014395129462886965 0.003251270607783002 0 -0.0010769120458124569 0.0031078202608107127 0 -0.0011236725311665231 0.0034124470115221685 0 -0.0014500471881999956 0.0034038440931133873 0 -0.0014395129462886965 0.003251270607783002 0 -0.0011236725311665231 0.0034124470115221685 0 -0.00074341602925192911 0.003193989391945313 0 -0.0010769120458124569 0.0031078202608107127 0 -0.0011236725311665231 0.0034124470115221685 0 -0.0025554096547866956 0.0033898222956603389 0 -0.0025475710240296153 0.0032902372099768763 0 -0.0022472114710226027 0.0033016815118036948 0 -0.0025554096547866956 0.0033898222956603389 0 -0.0025475710240296153 0.0032902372099768763 0 -0.002790230394575783 0.0033183067451707628 0 -0.0020889370584682757 0.0034583354071015334 0 -0.0018677337830612377 0.0033187321998816351 0 -0.0022472114710226027 0.0033016815118036948 0 -0.0025554096547866956 0.0033898222956603389 0 -0.0020889370584682757 0.0034583354071015334 0 -0.0022472114710226027 0.0033016815118036948 0 -0.0022472114710226027 0.0033016815118036948 0 -0.0019156319045682383 0.0031486335589503999 0 -0.0023342711648424116 0.0031898888004651274 0 -0.0018677337830612377 0.0033187321998816351 0 -0.0022472114710226027 0.0033016815118036948 0 -0.0019156319045682383 0.0031486335589503999 0 -0.0025475710240296153 0.0032902372099768763 0 -0.0022472114710226027 0.0033016815118036948 0 -0.0023342711648424116 0.0031898888004651274 0 -0.0025475710240296153 0.0032902372099768763 0 -0.0023342711648424116 0.0031898888004651274 0 -0.0025688157939992361 0.0032282794553515765 0 -0.0025475710240296153 0.0032902372099768763 0 -0.0025688157939992361 0.0032282794553515765 0 -0.0026731079959419436 0.0032583914912850975 0 -0.0025475710240296153 0.0032902372099768763 0 -0.0026731079959419436 0.0032583914912850975 0 -0.002790230394575783 0.0033183067451707628 0 -0.0026731079959419436 0.0032583914912850975 0 -0.0025121088120313028 0.0032224677213665335 0 -0.0025441265963868438 0.0031779088104809381 0 -0.0024617610290224422 0.0033741818091243421 0 -0.0025688157939992361 0.0032282794553515765 0 -0.0025121088120313028 0.0032224677213665335 0 -0.0025688157939992361 0.0032282794553515765 0 -0.0026731079959419436 0.0032583914912850975 0 -0.0025121088120313028 0.0032224677213665335 0 -0.0024617610290224422 0.0033741818091243421 0 -0.0025121088120313028 0.0032224677213665335 0 -0.0021338660318380213 0.0031562149905559997 0 -0.0021338660318380213 0.0031562149905559997 0 -0.0023044322510011222 0.0031245897567403311 0 -0.0020820070771831799 0.0031097493350393433 0 -0.0021338660318380213 0.0031562149905559997 0 -0.0023044322510011222 0.0031245897567403311 0 -0.0025441265963868438 0.0031779088104809381 0 -0.0025121088120313028 0.0032224677213665335 0 -0.0021338660318380213 0.0031562149905559997 0 -0.0025441265963868438 0.0031779088104809381 0 -0.0025441265963868438 0.0031779088104809381 0 -0.0026783520274076844 0.0031469617214750726 0 -0.0024794704085468063 0.0030938840236090551 0 -0.0023044322510011222 0.0031245897567403311 0 -0.0025441265963868438 0.0031779088104809381 0 -0.0024794704085468063 0.0030938840236090551 0 -0.0023044322510011222 0.0031245897567403311 0 -0.0022854703425223923 0.0030628698845516673 0 -0.0020820070771831799 0.0031097493350393433 0 -0.0023044322510011222 0.0031245897567403311 0 -0.0024794704085468063 0.0030938840236090551 0 -0.0022854703425223923 0.0030628698845516673 0 -0.0024794704085468063 0.0030938840236090551 0 -0.0022854703425223923 0.0030628698845516673 0 -0.0024184454771529486 0.0029827094524825805 0 -0.0024794704085468063 0.0030938840236090551 0 -0.0024184454771529486 0.0029827094524825805 0 -0.0026050728397974043 0.0030236310396052415 0 -0.0024184454771529486 0.0029827094524825805 0 -0.0026050728397974043 0.0030236310396052415 0 -0.0025738215375676068 0.0028895566834691772 0 -0.0026783520274076844 0.0031469617214750726 0 -0.0026050728397974043 0.0030236310396052415 0 -0.0028469123569783055 0.0030873462000114002 0 -0.0026783520274076844 0.0031469617214750726 0 -0.0024794704085468063 0.0030938840236090551 0 -0.0026050728397974043 0.0030236310396052415 0 -0.0026050728397974043 0.0030236310396052415 0 -0.0028469123569783055 0.0030873462000114002 0 -0.0027103658206604942 0.002919954276156276 0 -0.0026783520274076844 0.0031469617214750726 0 -0.0028469123569783055 0.0030873462000114002 0 -0.0028455543838000691 0.0032463055110477598 0 -0.0028469123569783055 0.0030873462000114002 0 -0.0032276970326763255 0.0032305385691714355 0 -0.0028455543838000691 0.0032463055110477598 0 -0.0030554282865228556 0.0033333252739391889 0 -0.0032276970326763255 0.0032305385691714355 0 -0.0028455543838000691 0.0032463055110477598 0 -0.0034567703782418984 0.003290705316572586 0 -0.0030554282865228556 0.0033333252739391889 0 -0.0032276970326763255 0.0032305385691714355 0 -0.0030554282865228556 0.0033333252739391889 0 -0.002790230394575783 0.0033183067451707628 0 -0.0028455543838000691 0.0032463055110477598 0 -0.0026731079959419436 0.0032583914912850975 0 -0.002790230394575783 0.0033183067451707628 0 -0.0028455543838000691 0.0032463055110477598 0 -0.0026731079959419436 0.0032583914912850975 0 -0.0025441265963868438 0.0031779088104809381 0 -0.0028455543838000691 0.0032463055110477598 0 -0.0025441265963868438 0.0031779088104809381 0 -0.0026783520274076844 0.0031469617214750726 0 -0.0028455543838000691 0.0032463055110477598 0 0.0040259391860854327 -4.5449010005657047e-05 0 0.0040417391829526087 -2.9317633584794602e-05 0 0.0041549331976190413 -5.814685183804835e-05 0 0.0040259391860854327 -4.5449010005657047e-05 0 0.0039961332769908381 -3.5846457591764409e-05 0 0.0040417391829526087 -2.9317633584794602e-05 0 0.0040259391860854327 -4.5449010005657047e-05 0 0.0040804730745553283 -1.4454341564997021e-05 0 0.0041549331976190413 -5.814685183804835e-05 0 0.0043325281685533826 8.3480229249707671e-05 0 0.0040804730745553283 -1.4454341564997021e-05 0 0.0041549331976190413 -5.814685183804835e-05 0 0.0040259391860854327 -4.5449010005657047e-05 0 0.0040804730745553283 -1.4454341564997021e-05 0 0.0039447724097504714 -2.211606831587293e-05 0 0.00402716228709261 0.00013215978506460647 0 0.0040804730745553283 -1.4454341564997021e-05 0 0.0039447724097504714 -2.211606831587293e-05 0 -0.0016207237896278118 0.0031792277757130725 0 -0.0017827209300572636 0.0031251490946725574 0 -0.0018885194377613731 0.0030233796732669392 0 0.0040259391860854327 -4.5449010005657047e-05 0 0.0039447724097504714 -2.211606831587293e-05 0 0.0039610439038101448 -4.2050671689590896e-05 0 0.001512050788359759 0.0016786559401657521 0 -0.001725597517126323 0.0010143214900994919 0 -0.0017827209300572636 0.0031251490946725574 0 -0.0018885194377613731 0.0030233796732669392 0 -0.0019131961124908292 0.0030413273833209053 0 -0.0019295699582409849 0.0030984555922748476 0 -0.0017827209300572636 0.0031251490946725574 0 -0.0016908739074393891 0.0031905021763112907 0 -0.0019103300042592087 0.003076240119857973 0 -0.0017827209300572636 0.0031251490946725574 0 -0.0019131961124908292 0.0030413273833209053 0 -0.0019103300042592087 0.003076240119857973 0 -0.0019295699582409849 0.0030984555922748476 0 -0.0017827209300572636 0.0031251490946725574 0 -0.0019103300042592087 0.003076240119857973 0 -0.0019295699582409849 0.0030984555922748476 0 -0.0020119992514917411 0.0030452747227302734 0 -0.0013974940685957244 0.0032153880563780286 0 -0.0016207237896278118 0.0031792277757130725 0 -0.0016908739074393891 0.0031905021763112907 0 -0.0016207237896278118 0.0031792277757130725 0 -0.0017827209300572636 0.0031251490946725574 0 -0.0016908739074393891 0.0031905021763112907 0 -0.0015495210120980724 0.0032612151369247311 0 -0.0021338660318380213 0.0031562149905559997 0 -0.0016908739074393891 0.0031905021763112907 0 -0.0021338660318380213 0.0031562149905559997 0 -0.0016908739074393891 0.0031905021763112907 0 -0.0020820070771831799 0.0031097493350393433 0 -0.0019295699582409849 0.0030984555922748476 0 -0.0016908739074393891 0.0031905021763112907 0 -0.0020820070771831799 0.0031097493350393433 0 -0.0019295699582409849 0.0030984555922748476 0 -0.0020820070771831799 0.0031097493350393433 0 -0.0021317062112417456 0.0030437795324869048 0 -0.0022854703425223923 0.0030628698845516673 0 -0.0020820070771831799 0.0031097493350393433 0 -0.0021317062112417456 0.0030437795324869048 0 -0.0021317062112417456 0.0030437795324869048 0 -0.0022722139642208992 0.0030032102660483865 0 -0.0021746254687202084 0.002991681751893043 0 -0.0022854703425223923 0.0030628698845516673 0 -0.0021317062112417456 0.0030437795324869048 0 -0.0022722139642208992 0.0030032102660483865 0 -0.0022854703425223923 0.0030628698845516673 0 -0.0024184454771529486 0.0029827094524825805 0 -0.0022722139642208992 0.0030032102660483865 0 -0.0024184454771529486 0.0029827094524825805 0 -0.0022722139642208992 0.0030032102660483865 0 -0.0023074015344663919 0.0029449779632286341 0 -0.0024184454771529486 0.0029827094524825805 0 -0.0023074015344663919 0.0029449779632286341 0 -0.0024639746413416524 0.0028817559801955295 0 -0.0022722139642208992 0.0030032102660483865 0 -0.0023074015344663919 0.0029449779632286341 0 -0.0021746254687202084 0.002991681751893043 0 -0.0023074015344663919 0.0029449779632286341 0 -0.0021746254687202084 0.002991681751893043 0 -0.0022422003366553097 0.0029113768493094095 0 -0.0023074015344663919 0.0029449779632286341 0 -0.0022422003366553097 0.0029113768493094095 0 -0.0023757282198133126 0.0028710824150623279 0 -0.0022422003366553097 0.0029113768493094095 0 -0.0020926696108414925 0.0029902583979855429 0 -0.0021262638818126474 0.0029321407908455815 0 -0.0021746254687202084 0.002991681751893043 0 -0.0022422003366553097 0.0029113768493094095 0 -0.0020926696108414925 0.0029902583979855429 0 -0.0020926696108414925 0.0029902583979855429 0 -0.002000459260171083 0.0030242777632813597 0 -0.0020119992514917411 0.0030452747227302734 0 -0.0021317062112417456 0.0030437795324869048 0 -0.0021746254687202084 0.002991681751893043 0 -0.0020119992514917411 0.0030452747227302734 0 -0.0021746254687202084 0.002991681751893043 0 -0.0020926696108414925 0.0029902583979855429 0 -0.0020119992514917411 0.0030452747227302734 0 -0.0019295699582409849 0.0030984555922748476 0 -0.0021317062112417456 0.0030437795324869048 0 -0.0020119992514917411 0.0030452747227302734 0 -0.0019103300042592087 0.003076240119857973 0 -0.0020119992514917411 0.0030452747227302734 0 -0.0019131961124908292 0.0030413273833209053 0 -0.002000459260171083 0.0030242777632813597 0 -0.0020119992514917411 0.0030452747227302734 0 -0.0019131961124908292 0.0030413273833209053 0 -0.002000459260171083 0.0030242777632813597 0 -0.0019608735854603886 0.0030351307458983501 0 -0.0019131961124908292 0.0030413273833209053 0 -0.001725597517126323 0.0010143214900994919 0 -0.0022147093993785095 0.0018125261636736576 0 0.0040259391860854327 -4.5449010005657047e-05 0 0.0039610439038101448 -4.2050671689590896e-05 0 0.0039961332769908381 -3.5846457591764409e-05 0 -0.0020926696108414925 0.0029902583979855429 0 -0.002000459260171083 0.0030242777632813597 0 -0.0019608735854603886 0.0030351307458983501 0 -0.0020926696108414925 0.0029902583979855429 0 -0.0019608735854603886 0.0030351307458983501 0 -0.0021262638818126474 0.0029321407908455815 0 -0.001725597517126323 0.0010143214900994919 0 -0.004737058302642992 0.002232249576657287 0 -0.0067811877495758304 0.00082639646964266619 0 -0.0068975570862792376 0.00098475740809009183 0 -0.0069682390257181353 0.00092761117459492668 0 -0.0068975570862792376 0.00098475740809009183 0 -0.0069682390257181353 0.00092761117459492668 0 -0.0069858425052785741 0.0010085246964706711 0 -0.00133567424359744 0.001158109371384873 0 -0.0073845827308457188 0.0018605348693084044 0 -0.00133567424359744 0.001158109371384873 0 0.0037283514945662425 -0.00036665322379594487 0 0.0039575462370470618 -1.8914620821150173e-05 0 0.0039961332769908381 -3.5846457591764409e-05 0 0.0040417391829526087 -2.9317633584794602e-05 0 0.0039610439038101448 -4.2050671689590896e-05 0 0.0039575462370470618 -1.8914620821150173e-05 0 0.0039961332769908381 -3.5846457591764409e-05 0 -0.001725597517126323 0.0010143214900994919 0 -0.00133567424359744 0.001158109371384873 0 -0.0071417268517170399 0.00090556841688132898 0 -0.0070087159227435912 0.0010318905663420171 0 -0.0071185721940366002 0.0010073919091550152 0 -0.0071417268517170399 0.00090556841688132898 0 -0.0070087159227435912 0.0010318905663420171 0 -0.0069809963889911749 0.00075118590248106918 0 -0.0073845827308457188 0.0018605348693084044 0 -0.006753092775410338 0.00058093154396373855 0 -0.0069858425052785741 0.0010085246964706711 0 -0.0070087159227435912 0.0010318905663420171 0 -0.0071185721940366002 0.0010073919091550152 0 -0.0069682390257181353 0.00092761117459492668 0 -0.0069858425052785741 0.0010085246964706711 0 -0.0070087159227435912 0.0010318905663420171 0 -0.004737058302642992 0.002232249576657287 0 -0.0043573505522774029 0.0014896762050762968 0 -0.0022422003366553097 0.0029113768493094095 0 -0.0021262638818126474 0.0029321407908455815 0 -0.0022467770670246854 0.0027701228258468127 0 -0.0068975570862792376 0.00098475740809009183 0 -0.0069858425052785741 0.0010085246964706711 0 -0.0071185721940366002 0.0010073919091550152 0 -0.0071417268517170399 0.00090556841688132898 0 -0.0071185721940366002 0.0010073919091550152 0 -0.0074087236518591022 0.00074298688915367414 0 -0.0043573505522774029 0.0014896762050762968 0 -0.0090192971188513774 0.0031191513203378571 0 -0.0022467770670246854 0.0027701228258468127 0 -0.002409569124533566 0.0026449899650275895 0 -0.0022991133561595821 0.0024917153800170727 0 -0.0022467770670246854 0.0027701228258468127 0 -0.002409569124533566 0.0026449899650275895 0 -0.0024039467534391801 0.0027803163215735444 0 -0.002409569124533566 0.0026449899650275895 0 -0.0024039467534391801 0.0027803163215735444 0 -0.0026264046876648219 0.0026559587166724886 0 -0.0022422003366553097 0.0029113768493094095 0 -0.0022467770670246854 0.0027701228258468127 0 -0.0024039467534391801 0.0027803163215735444 0 -0.0022422003366553097 0.0029113768493094095 0 -0.0024039467534391801 0.0027803163215735444 0 -0.0023757282198133126 0.0028710824150623279 0 -0.0023757282198133126 0.0028710824150623279 0 -0.0024639746413416524 0.0028817559801955295 0 -0.002538669647672534 0.0027777842518244456 0 -0.0024039467534391801 0.0027803163215735444 0 -0.0023757282198133126 0.0028710824150623279 0 -0.002538669647672534 0.0027777842518244456 0 -0.0023074015344663919 0.0029449779632286341 0 -0.0023757282198133126 0.0028710824150623279 0 -0.0024639746413416524 0.0028817559801955295 0 -0.0024639746413416524 0.0028817559801955295 0 -0.002538669647672534 0.0027777842518244456 0 -0.0026467941100193865 0.00276781480560715 0 -0.002538669647672534 0.0027777842518244456 0 -0.0027448246301484303 0.0026712819488446814 0 -0.0026467941100193865 0.00276781480560715 0 -0.0024039467534391801 0.0027803163215735444 0 -0.002538669647672534 0.0027777842518244456 0 -0.0026264046876648219 0.0026559587166724886 0 -0.002538669647672534 0.0027777842518244456 0 -0.0026264046876648219 0.0026559587166724886 0 -0.0027448246301484303 0.0026712819488446814 0 -0.0026264046876648219 0.0026559587166724886 0 -0.0029297358001021223 0.0025880796868509616 0 -0.0026515014659099028 0.0023042481266425017 0 -0.0026264046876648219 0.0026559587166724886 0 -0.0027448246301484303 0.0026712819488446814 0 -0.0029297358001021223 0.0025880796868509616 0 -0.0029297358001021223 0.0025880796868509616 0 -0.0032489875306033482 0.0020347456751699795 0 -0.0026515014659099028 0.0023042481266425017 0 -0.011487315598916087 0.0039703185684559121 0 -0.0088023228707830425 0.0035503183555968833 0 -0.016007464919800939 0.0043479188915235504 0 -0.015683303751386265 0.0046162702279856039 0 -0.015805180018515903 0.0043238555751156033 0 -0.015683303751386265 0.0046162702279856039 0 -0.015485467660128864 0.0044360324975293072 0 -0.015805180018515903 0.0043238555751156033 0 -0.002409569124533566 0.0026449899650275895 0 -0.0026515014659099028 0.0023042481266425017 0 -0.0022991133561595821 0.0024917153800170727 0 -0.002409569124533566 0.0026449899650275895 0 -0.0026264046876648219 0.0026559587166724886 0 -0.0026515014659099028 0.0023042481266425017 0 -0.0088023228707830425 0.0035503183555968833 0 -0.0090192971188513774 0.0031191513203378571 0 -0.0074087236518591022 0.00074298688915367414 0 -0.0073868797451319135 0.00039522190409423808 0 -0.0072147675455158248 0.00064939928871139891 0 -0.0090192971188513774 0.0031191513203378571 0 -0.011675280962237244 0.0020135611522083124 0 -0.015485467660128864 0.0044360324975293072 0 -0.015132523754588505 0.0049342883877779471 0 -0.015162331778757339 0.0042406510728775545 0 -0.015683303751386265 0.0046162702279856039 0 -0.015485467660128864 0.0044360324975293072 0 -0.015132523754588505 0.0049342883877779471 0 -0.0074087236518591022 0.00074298688915367414 0 -0.0073868797451319135 0.00039522190409423808 0 -0.0076592022438585552 -9.2546815736994288e-05 0 -0.0073868797451319135 0.00039522190409423808 0 -0.0074356269943176732 0.00011522067438521965 0 -0.0076592022438585552 -9.2546815736994288e-05 0 -0.006753092775410338 0.00058093154396373855 0 -0.0068129907819668503 -0.00051691259036140702 0 -0.0072166777994808308 0.00030115633809146857 0 -0.0069809963889911749 0.00075118590248106918 0 -0.0068784392688095441 -0.00012533807200860073 0 -0.0073868797451319135 0.00039522190409423808 0 -0.0072166777994808308 0.00030115633809146857 0 -0.0074356269943176732 0.00011522067438521965 0 -0.0073868797451319135 0.00039522190409423808 0 -0.0072166777994808308 0.00030115633809146857 0 -0.0072147675455158248 0.00064939928871139891 0 -0.0072166777994808308 0.00030115633809146857 0 -0.0074356269943176732 0.00011522067438521965 0 -0.0074814142599119665 -0.00013152309776003808 0 -0.0072166777994808308 0.00030115633809146857 0 -0.0068784392688095441 -0.00012533807200860073 0 -0.0074814142599119665 -0.00013152309776003808 0 -0.0072166777994808308 0.00030115633809146857 0 -0.0069809963889911749 0.00075118590248106918 0 -0.0072147675455158248 0.00064939928871139891 0 -0.0071417268517170399 0.00090556841688132898 0 -0.0074087236518591022 0.00074298688915367414 0 -0.0072147675455158248 0.00064939928871139891 0 -0.0071417268517170399 0.00090556841688132898 0 -0.0069809963889911749 0.00075118590248106918 0 -0.0072147675455158248 0.00064939928871139891 0 -0.002941398951135557 0.0027405183955558424 0 -0.0030194192575691541 0.0024495285531030198 0 -0.0031059016821522868 0.0029407957244884965 0 -0.0063367081006688603 0.0020523315551090183 0 -0.0025500969594518669 0.002860361263561614 0 -0.0030194192575691541 0.0024495285531030198 0 -0.00372088791803824 0.0031057962387598275 0 -0.0031059016821522868 0.0029407957244884965 0 -0.002941398951135557 0.0027405183955558424 0 -0.0031059016821522868 0.0029407957244884965 0 -0.0028513219539572439 0.0028614623295440014 0 -0.0028049473000553767 0.0023879369052779375 0 -0.0048358893327818883 0.0023983023595194296 0 -0.00372088791803824 0.0031057962387598275 0 -0.0034567703782418984 0.003290705316572586 0 -0.0032276970326763255 0.0032305385691714355 0 -0.00372088791803824 0.0031057962387598275 0 -0.0032276970326763255 0.0032305385691714355 0 -0.00372088791803824 0.0031057962387598275 0 -0.0031059016821522868 0.0029407957244884965 0 -0.0034567703782418984 0.003290705316572586 0 -0.0048358893327818883 0.0023983023595194296 0 -0.00372088791803824 0.0031057962387598275 0 -0.0028469123569783055 0.0030873462000114002 0 -0.0032276970326763255 0.0032305385691714355 0 -0.0031059016821522868 0.0029407957244884965 0 -0.0028469123569783055 0.0030873462000114002 0 -0.0031059016821522868 0.0029407957244884965 0 -0.0028513219539572439 0.0028614623295440014 0 -0.0028469123569783055 0.0030873462000114002 0 -0.0027103658206604942 0.002919954276156276 0 -0.0028513219539572439 0.0028614623295440014 0 -0.0027103658206604942 0.002919954276156276 0 -0.0028513219539572439 0.0028614623295440014 0 -0.0027327230951504373 0.0027748234457521718 0 -0.0024184454771529486 0.0029827094524825805 0 -0.0024639746413416524 0.0028817559801955295 0 -0.0025738215375676068 0.0028895566834691772 0 -0.0026050728397974043 0.0030236310396052415 0 -0.0027103658206604942 0.002919954276156276 0 -0.0025738215375676068 0.0028895566834691772 0 -0.0025738215375676068 0.0028895566834691772 0 -0.0026467941100193865 0.00276781480560715 0 -0.0027327230951504373 0.0027748234457521718 0 -0.0027103658206604942 0.002919954276156276 0 -0.0025738215375676068 0.0028895566834691772 0 -0.0027327230951504373 0.0027748234457521718 0 -0.0024639746413416524 0.0028817559801955295 0 -0.0025738215375676068 0.0028895566834691772 0 -0.0026467941100193865 0.00276781480560715 0 -0.0026467941100193865 0.00276781480560715 0 -0.0027972439825717536 0.0026381520708187848 0 -0.0027327230951504373 0.0027748234457521718 0 -0.0027448246301484303 0.0026712819488446814 0 -0.0026467941100193865 0.00276781480560715 0 -0.0027972439825717536 0.0026381520708187848 0 -0.002941398951135557 0.0027405183955558424 0 -0.0028513219539572439 0.0028614623295440014 0 -0.0028455840101850607 0.0026783717724834012 0 -0.0028513219539572439 0.0028614623295440014 0 -0.0027327230951504373 0.0027748234457521718 0 -0.0028455840101850607 0.0026783717724834012 0 -0.0027972439825717536 0.0026381520708187848 0 -0.0027327230951504373 0.0027748234457521718 0 -0.0028455840101850607 0.0026783717724834012 0 -0.002941398951135557 0.0027405183955558424 0 -0.0030194192575691541 0.0024495285531030198 0 -0.0028455840101850607 0.0026783717724834012 0 -0.0063367081006688603 0.0020523315551090183 0 -0.0028125536736937043 0.0032360222301547059 0 -0.01327992719379897 0.00076986632797287663 0 -0.012869155278895641 0.00039427076652925479 0 -0.01331071033056805 0.00025372924337463952 0 -0.0063367081006688603 0.0020523315551090183 0 -0.0078108332653871989 0.0014899252511986023 0 -0.0027972439825717536 0.0026381520708187848 0 -0.0028455840101850607 0.0026783717724834012 0 -0.0028552356632153709 0.002621772356441949 0 -0.0029087456818410774 0.0026549008270345029 0 -0.0028455840101850607 0.0026783717724834012 0 -0.0028552356632153709 0.002621772356441949 0 -0.0078108332653871989 0.0014899252511986023 0 -0.0087931992017267722 0.0021770353021920751 0 -0.012869155278895641 0.00039427076652925479 0 -0.013087732641611026 1.1320392367049819e-05 0 -0.01331071033056805 0.00025372924337463952 0 -0.0029297358001021223 0.0025880796868509616 0 -0.0027972439825717536 0.0026381520708187848 0 -0.0028791366145708374 0.0026302914151478331 0 -0.0027972439825717536 0.0026381520708187848 0 -0.0028552356632153709 0.002621772356441949 0 -0.0028791366145708374 0.0026302914151478331 0 -0.0027448246301484303 0.0026712819488446814 0 -0.0029297358001021223 0.0025880796868509616 0 -0.0027972439825717536 0.0026381520708187848 0 -0.0020030474828193431 0.0035847546917060248 0 -0.0087931992017267722 0.0021770353021920751 0 -0.0029297358001021223 0.0025880796868509616 0 -0.0032489875306033482 0.0020347456751699795 0 -0.0035848905638516766 0.002368911060266436 0 -0.01212035195492637 0.0048340481093890218 0 -0.01475292365635816 0.0071787171307338936 0 -0.015693991203024088 0.0030304272397747214 0 -0.011487315598916087 0.0039703185684559121 0 -0.0087931992017267722 0.0021770353021920751 0 -0.012440002072790883 2.764100481069564e-05 0 -0.013087732641611026 1.1320392367049819e-05 0 -0.013272799675208027 -0.00060172421977224043 0 -0.0087931992017267722 0.0021770353021920751 0 -0.017606305779570255 0.0013865631057919403 0 -0.012869155278895641 0.00039427076652925479 0 -0.012440002072790883 2.764100481069564e-05 0 -0.013087732641611026 1.1320392367049819e-05 0 -0.013087732641611026 1.1320392367049819e-05 0 -0.013536765601920853 -1.5575096198837371e-05 0 -0.013272799675208027 -0.00060172421977224043 0 -0.013536765601920853 -1.5575096198837371e-05 0 -0.013272799675208027 -0.00060172421977224043 0 -0.01375142719337797 -0.00038399588040228318 0 -0.013536765601920853 -1.5575096198837371e-05 0 -0.013931758361662284 -0.00014322331970685753 0 -0.01375142719337797 -0.00038399588040228318 0 -0.013536765601920853 -1.5575096198837371e-05 0 -0.013635879170466932 0.00019428419147326958 0 -0.013931758361662284 -0.00014322331970685753 0 -0.013536765601920853 -1.5575096198837371e-05 0 -0.01331071033056805 0.00025372924337463952 0 -0.013635879170466932 0.00019428419147326958 0 -0.013087732641611026 1.1320392367049819e-05 0 -0.013536765601920853 -1.5575096198837371e-05 0 -0.01331071033056805 0.00025372924337463952 0 -0.01327992719379897 0.00076986632797287663 0 -0.01331071033056805 0.00025372924337463952 0 -0.013635879170466932 0.00019428419147326958 0 -0.01327992719379897 0.00076986632797287663 0 -0.013635879170466932 0.00019428419147326958 0 -0.014102440111549873 0.00015361934352715396 0 -0.0028049473000553767 0.0023879369052779375 0 -0.0048358893327818883 0.0023983023595194296 0 -0.0052193907922946162 0.00055681219500973021 0 -0.0063367081006688603 0.0020523315551090183 0 -0.010045529007253001 0.00023620631712253985 0 -0.014102440111549873 0.00015361934352715396 0 -0.013931758361662284 -0.00014322331970685753 0 -0.01421412915567361 -0.00036423797615389616 0 -0.013635879170466932 0.00019428419147326958 0 -0.014102440111549873 0.00015361934352715396 0 -0.013931758361662284 -0.00014322331970685753 0 -0.013931758361662284 -0.00014322331970685753 0 -0.01403833701251616 -0.00046464912514864473 0 -0.01421412915567361 -0.00036423797615389616 0 -0.01403833701251616 -0.00046464912514864473 0 -0.01421412915567361 -0.00036423797615389616 0 -0.014226561744951571 -0.00050586647404584836 0 -0.01403833701251616 -0.00046464912514864473 0 -0.013952423759479148 -0.00077010292596811603 0 -0.014166604423006858 -0.0013354466941614348 0 -0.013931758361662284 -0.00014322331970685753 0 -0.01403833701251616 -0.00046464912514864473 0 -0.01375142719337797 -0.00038399588040228318 0 -0.01403833701251616 -0.00046464912514864473 0 -0.013952423759479148 -0.00077010292596811603 0 -0.01375142719337797 -0.00038399588040228318 0 -0.01403833701251616 -0.00046464912514864473 0 -0.014220428237682499 -0.00057976742408522887 0 -0.014226561744951571 -0.00050586647404584836 0 -0.01362965882344108 -0.00058439660989359217 0 -0.017274028082438751 -0.00060883605593537468 0 -0.014317178868051216 -0.00070405837047009582 0 -0.017274028082438751 -0.00060883605593537468 0 -0.013952423759479148 -0.00077010292596811603 0 -0.014128980274769189 -0.0012813853897453758 0 -0.013272799675208027 -0.00060172421977224043 0 -0.023925193705537803 0.000327678927237584 0 -0.019652045546738574 0.0033933146744304882 0 -0.019239402620212277 0.0014890711724627492 0 -0.017274028082438751 -0.00060883605593537468 0 -0.017606305779570255 0.0013865631057919403 0 -0.023686559851502972 -5.2589347444944381e-06 0 -0.023672554852499656 0.00019340017200005996 0 -0.023706036734405748 7.3720989644486849e-05 0 -0.023925193705537803 0.000327678927237584 0 -0.023686559851502972 -5.2589347444944381e-06 0 -0.019239402620212277 0.0014890711724627492 0 -0.023717074446597427 -0.00030835687298545733 0 -0.021067981815773962 0.0019731025414365926 0 -0.023672554852499656 0.00019340017200005996 0 -0.023673212711538716 0.00010764766425901117 0 -0.023706036734405748 7.3720989644486849e-05 0 -0.013952423759479148 -0.00077010292596811603 0 -0.013272799675208027 -0.00060172421977224043 0 -0.01375142719337797 -0.00038399588040228318 0 -0.01475292365635816 0.0071787171307338936 0 -0.019652045546738574 0.0033933146744304882 0 -0.015693991203024088 0.0030304272397747214 0 -0.019652045546738574 0.0033933146744304882 0 -0.015693991203024088 0.0030304272397747214 0 -0.019239402620212277 0.0014890711724627492 0 -0.017008538902154934 0.0035584597809676958 0 -0.021067981815773962 0.0019731025414365926 0 -0.011487315598916087 0.0039703185684559121 0 -0.017008538902154934 0.0035584597809676958 0 -0.016450302224929356 0.0050527200404211041 0 -0.018188898462432181 0.0040584611228066305 0 -0.016889427943731241 0.0037287946524980804 0 -0.018188898462432181 0.0040584611228066305 0 -0.016889427943731241 0.0037287946524980804 0 -0.017790816439175128 0.0028114132125049195 0 -0.017790816439175128 0.0028114132125049195 0 -0.018624540086186848 0.0017976986480447569 0 -0.017352368575974365 0.0005385997533770147 0 -0.017790816439175128 0.0028114132125049195 0 -0.017352368575974365 0.0005385997533770147 0 -0.016478913056519526 0.0024027348350200606 0 -0.016889427943731241 0.0037287946524980804 0 -0.017790816439175128 0.0028114132125049195 0 -0.016478913056519526 0.0024027348350200606 0 -0.018188898462432181 0.0040584611228066305 0 -0.017790816439175128 0.0028114132125049195 0 -0.019915163138327984 0.0030607832143628617 0 -0.017790816439175128 0.0028114132125049195 0 -0.019915163138327984 0.0030607832143628617 0 -0.018624540086186848 0.0017976986480447569 0 -0.021067981815773962 0.0019731025414365926 0 -0.02099960608471934 0.00092643342780128848 0 -0.023672554852499656 0.00019340017200005996 0 -0.023538132888073798 0.00015670355291491495 0 -0.023673212711538716 0.00010764766425901117 0 -0.023538132888073798 0.00015670355291491495 0 -0.0236118111891402 -2.3793857247129221e-06 0 -0.02332834960456347 3.8747453622396807e-05 0 -0.023538132888073798 0.00015670355291491495 0 -0.023673212711538716 0.00010764766425901117 0 -0.0236118111891402 -2.3793857247129221e-06 0 -0.023673212711538716 0.00010764766425901117 0 -0.0236118111891402 -2.3793857247129221e-06 0 -0.023766984300814413 3.8716378559991642e-05 0 -0.020070544868105781 0.0016985618281738796 0 -0.017043739442658835 0.0030119491451093367 0 -0.02099960608471934 0.00092643342780128848 0 -0.020070544868105781 0.0016985618281738796 0 -0.020070544868105781 0.0016985618281738796 0 -0.023417504132686992 0.00048800025721603958 0 -0.021586478899250566 0.0039086144707726764 0 -0.020047600595192328 0.0024311153959675159 0 -0.022686590873242041 0.0014955429865392005 0 -0.0236118111891402 -2.3793857247129221e-06 0 -0.02332834960456347 3.8747453622396807e-05 0 -0.023475302157924993 -0.00038584005355708019 0 -0.0236118111891402 -2.3793857247129221e-06 0 -0.023919783458541989 -0.00016958319952245892 0 -0.023475302157924993 -0.00038584005355708019 0 -0.023919783458541989 -0.00016958319952245892 0 -0.024310689199289512 2.2048904656384929e-05 0 -0.023941976475307478 5.181778152954377e-06 0 -0.0236118111891402 -2.3793857247129221e-06 0 -0.023919783458541989 -0.00016958319952245892 0 -0.023766984300814413 3.8716378559991642e-05 0 -0.023919783458541989 -0.00016958319952245892 0 -0.023766984300814413 3.8716378559991642e-05 0 -0.023941976475307478 5.181778152954377e-06 0 -0.023351850665839051 -0.0002865562072264421 0 -0.024714073748716283 -0.00048742925176307973 0 -0.024399565498619571 -0.00023928397069919953 0 -0.024339639311802146 -0.00018911258082720519 0 -0.024393990032215044 -0.00042686749903377474 0 -0.023919783458541989 -0.00016958319952245892 0 -0.024310689199289512 2.2048904656384929e-05 0 -0.024762476783109059 -0.00063415420981300513 0 -0.021332712564872507 -0.00040272802501333432 0 -0.023351850665839051 -0.0002865562072264421 0 -0.017274028082438751 -0.00060883605593537468 0 -0.021332712564872507 -0.00040272802501333432 0 -0.024310689199289512 2.2048904656384929e-05 0 -0.023706036734405748 7.3720989644486849e-05 0 -0.023941976475307478 5.181778152954377e-06 0 -0.019947791945299678 -0.00012540160959178477 0 -0.020245805060395795 -0.00099884924452713856 0 -0.020026693292918125 -0.00080149616530719931 0 -0.023925193705537803 0.000327678927237584 0 -0.023686559851502972 -5.2589347444944381e-06 0 -0.023703432688778402 -0.00065550686201111183 0 -0.017274028082438751 -0.00060883605593537468 0 -0.023351850665839051 -0.0002865562072264421 0 -0.023351850665839051 -0.0002865562072264421 0 -0.023934289542119756 -0.00012647483403387247 0 -0.023686559851502972 -5.2589347444944381e-06 0 -0.023703432688778402 -0.00065550686201111183 0 -0.023706036734405748 7.3720989644486849e-05 0 -0.023673212711538716 0.00010764766425901117 0 -0.023706036734405748 7.3720989644486849e-05 0 -0.023766984300814413 3.8716378559991642e-05 0 -0.023706036734405748 7.3720989644486849e-05 0 -0.023766984300814413 3.8716378559991642e-05 0 -0.023941976475307478 5.181778152954377e-06 0 -0.0074747843806195436 -0.001794254126893516 0 -0.0071660949043066448 -0.0009567500500186892 0 -0.0074814142599119665 -0.00013152309776003808 0 -0.0068589943569202635 -0.0018319460990969766 0 -0.0071660949043066448 -0.0009567500500186892 0 -0.0068784392688095441 -0.00012533807200860073 0 -0.0076359617494061198 -0.00113702429322181 0 -0.0075222698854041222 -0.00017823784635538891 0 -0.0078367704676210563 -0.00054167472358247423 0 -0.0074814142599119665 -0.00013152309776003808 0 -0.0079429451811251685 -0.00053895694255331095 0 -0.0068405074253646246 -0.0017692799526548737 0 -0.0068129907819668503 -0.00051691259036140702 0 -0.0071594523086013304 -0.0016475991346552794 0 -0.0068589943569202635 -0.0018319460990969766 0 -0.0071660949043066448 -0.0009567500500186892 0 -0.0071594523086013304 -0.0016475991346552794 0 -0.0074747843806195436 -0.001794254126893516 0 -0.0071374555295899318 -0.0019516880553749655 0 -0.0071594523086013304 -0.0016475991346552794 0 -0.0068589943569202635 -0.0018319460990969766 0 -0.0071374555295899318 -0.0019516880553749655 0 -0.0071594523086013304 -0.0016475991346552794 0 -0.0074747843806195436 -0.001794254126893516 0 -0.0071660949043066448 -0.0009567500500186892 0 -0.0071660949043066448 -0.0009567500500186892 0 -0.0068784392688095441 -0.00012533807200860073 0 -0.0074814142599119665 -0.00013152309776003808 0 -0.0074356269943176732 0.00011522067438521965 0 -0.0074814142599119665 -0.00013152309776003808 0 -0.0076592022438585552 -9.2546815736994288e-05 0 -0.0074814142599119665 -0.00013152309776003808 0 -0.0076592022438585552 -9.2546815736994288e-05 0 -0.0079429451811251685 -0.00053895694255331095 0 -0.015162331778757339 0.0042406510728775545 0 -0.015960649257383649 0.0034794020470169853 0 -0.015672851668089238 0.0041387203826780536 0 -0.015485467660128864 0.0044360324975293072 0 -0.015162331778757339 0.0042406510728775545 0 -0.015672851668089238 0.0041387203826780536 0 -0.015162331778757339 0.0042406510728775545 0 -0.01521094278209016 0.0031293364635993641 0 -0.015960649257383649 0.0034794020470169853 0 -0.01521094278209016 0.0031293364635993641 0 -0.015960649257383649 0.0034794020470169853 0 -0.015983409606549308 0.0024453118026103956 0 -0.011675280962237244 0.0020135611522083124 0 -0.01154409127364581 0.0012930142268208929 0 -0.015960649257383649 0.0034794020470169853 0 -0.017309737900657266 0.0046666927099284399 0 -0.017022885066406014 0.0035288074324333432 0 -0.015960649257383649 0.0034794020470169853 0 -0.017022885066406014 0.0035288074324333432 0 -0.01697410549722218 0.0025877517455908995 0 -0.015960649257383649 0.0034794020470169853 0 -0.015672851668089238 0.0041387203826780536 0 -0.015877939240176629 0.0041152750087406582 0 -0.016023477566186151 0.0035462593128252041 0 -0.016394332268175986 0.0044771220141894162 0 -0.015960649257383649 0.0034794020470169853 0 -0.015877939240176629 0.0041152750087406582 0 -0.015977187972987306 0.00419933598896756 0 -0.015485467660128864 0.0044360324975293072 0 -0.015672851668089238 0.0041387203826780536 0 -0.015805180018515903 0.0043238555751156033 0 -0.015805180018515903 0.0043238555751156033 0 -0.015877939240176629 0.0041152750087406582 0 -0.015947789473134875 0.00423049050504864 0 -0.015672851668089238 0.0041387203826780536 0 -0.015805180018515903 0.0043238555751156033 0 -0.015877939240176629 0.0041152750087406582 0 -0.016007464919800939 0.0043479188915235504 0 -0.015805180018515903 0.0043238555751156033 0 -0.015947789473134875 0.00423049050504864 0 -0.016889427943731241 0.0037287946524980804 0 -0.015600060614371903 0.0042806005573918704 0 -0.016478913056519526 0.0024027348350200606 0 -0.015877939240176629 0.0041152750087406582 0 -0.015977187972987306 0.00419933598896756 0 -0.015947789473134875 0.00423049050504864 0 -0.016394332268175986 0.0044771220141894162 0 -0.016378420243618328 0.0044594956609901532 0 -0.016007464919800939 0.0043479188915235504 0 -0.015958074510811861 0.0042070151402485859 0 -0.015947789473134875 0.00423049050504864 0 -0.011487315598916087 0.0039703185684559121 0 -0.016394332268175986 0.0044771220141894162 0 -0.016450302224929356 0.0050527200404211041 0 -0.016889427943731241 0.0037287946524980804 0 -0.015600060614371903 0.0042806005573918704 0 -0.016394332268175986 0.0044771220141894162 0 -0.017043739442658835 0.0030119491451093367 0 -0.017309737900657266 0.0046666927099284399 0 -0.017022885066406014 0.0035288074324333432 0 -0.017826481436849385 0.0034402966683248883 0 -0.017022885066406014 0.0035288074324333432 0 -0.017826481436849385 0.0034402966683248883 0 -0.01697410549722218 0.0025877517455908995 0 -0.01830800334070494 0.0023492424816802479 0 -0.01697410549722218 0.0025877517455908995 0 -0.01735099077521517 0.0014307689368217801 0 -0.01830800334070494 0.0023492424816802479 0 -0.017826481436849385 0.0034402966683248883 0 -0.01697410549722218 0.0025877517455908995 0 -0.020070544868105781 0.0016985618281738796 0 -0.018777483804998336 0.0021306111648477176 0 -0.01697410549722218 0.0025877517455908995 0 -0.01735099077521517 0.0014307689368217801 0 -0.016455621254489808 0.0016016356526591519 0 -0.01735099077521517 0.0014307689368217801 0 -0.016455621254489808 0.0016016356526591519 0 -0.016665067804153472 0.00057010291935113088 0 -0.01697410549722218 0.0025877517455908995 0 -0.016455621254489808 0.0016016356526591519 0 -0.015983409606549308 0.0024453118026103956 0 -0.015960649257383649 0.0034794020470169853 0 -0.01697410549722218 0.0025877517455908995 0 -0.015983409606549308 0.0024453118026103956 0 -0.01521094278209016 0.0031293364635993641 0 -0.015983409606549308 0.0024453118026103956 0 -0.015397108217998523 0.0015369826560748259 0 -0.01154409127364581 0.0012930142268208929 0 -0.011906917490476177 0.00027264687756180895 0 -0.016455621254489808 0.0016016356526591519 0 -0.015397108217998523 0.0015369826560748259 0 -0.016665067804153472 0.00057010291935113088 0 -0.016455621254489808 0.0016016356526591519 0 -0.015983409606549308 0.0024453118026103956 0 -0.015397108217998523 0.0015369826560748259 0 -0.007390980172038028 -0.0028579192248868361 0 -0.0071869611046188591 -0.002882791731725674 0 -0.0072395913219219649 -0.0031646682623693262 0 -0.0070919180735529884 -0.0030086744898468825 0 -0.0071869611046188591 -0.002882791731725674 0 -0.0072395913219219649 -0.0031646682623693262 0 -0.0070919180735529884 -0.0030086744898468825 0 -0.0071869611046188591 -0.002882791731725674 0 -0.0069212969141858142 -0.002782164855664663 0 -0.0071869611046188591 -0.002882791731725674 0 -0.0071354034618150916 -0.0026617420145344881 0 -0.0069212969141858142 -0.002782164855664663 0 -0.007390980172038028 -0.0028579192248868361 0 -0.0071354034618150916 -0.0026617420145344881 0 -0.0072069503621392892 -0.0023377455922974177 0 -0.0071354034618150916 -0.0026617420145344881 0 -0.0069363237070751713 -0.0024547607110495247 0 -0.0069212969141858142 -0.002782164855664663 0 -0.007390980172038028 -0.0028579192248868361 0 -0.0071869611046188591 -0.002882791731725674 0 -0.0071354034618150916 -0.0026617420145344881 0 -0.0078367704676210563 -0.00054167472358247423 0 -0.0079429451811251685 -0.00053895694255331095 0 -0.0082446469142616313 -0.00097556978449941825 0 -0.0071354034618150916 -0.0026617420145344881 0 -0.0072069503621392892 -0.0023377455922974177 0 -0.0069363237070751713 -0.0024547607110495247 0 -0.0076359617494061198 -0.00113702429322181 0 -0.007842130359261193 -0.0018663170193812062 0 -0.0078367704676210563 -0.00054167472358247423 0 -0.0082446469142616313 -0.00097556978449941825 0 -0.0081311728642692663 -0.00097221841176088923 0 -0.0074747843806195436 -0.001794254126893516 0 -0.007390980172038028 -0.0028579192248868361 0 -0.0072069503621392892 -0.0023377455922974177 0 -0.0072069503621392892 -0.0023377455922974177 0 -0.0069680430460410522 -0.0021791425485304604 0 -0.0069363237070751713 -0.0024547607110495247 0 -0.0074747843806195436 -0.001794254126893516 0 -0.0072069503621392892 -0.0023377455922974177 0 -0.0071374555295899318 -0.0019516880553749655 0 -0.0068589943569202635 -0.0018319460990969766 0 -0.0071374555295899318 -0.0019516880553749655 0 -0.0069680430460410522 -0.0021791425485304604 0 -0.0072069503621392892 -0.0023377455922974177 0 -0.0071374555295899318 -0.0019516880553749655 0 -0.0069680430460410522 -0.0021791425485304604 0 -0.007344773248120811 -0.0039088475562695643 0 -0.0074381376272392901 -0.0036143616505157801 0 -0.0074970214662689397 -0.0041831300361831443 0 -0.0085120245985678827 -0.0015439728728287808 0 -0.0083923512656300676 -0.0015261861253516441 0 -0.0085930410360399428 -0.0021393356275261348 0 -0.0072524909961233066 -0.0027199044247350739 0 -0.013893517606226254 -0.0025056523694723322 0 -0.007344773248120811 -0.0039088475562695643 0 -0.0072680340889170201 -0.0036964965101606256 0 -0.0070672291183564093 -0.0036896549805009366 0 -0.007344773248120811 -0.0039088475562695643 0 -0.0074381376272392901 -0.0036143616505157801 0 -0.0072680340889170201 -0.0036964965101606256 0 -0.0072680340889170201 -0.0036964965101606256 0 -0.0072267279269098801 -0.0035691882261099941 0 -0.0070672291183564093 -0.0036896549805009366 0 -0.0074381376272392901 -0.0036143616505157801 0 -0.0072680340889170201 -0.0036964965101606256 0 -0.0072267279269098801 -0.0035691882261099941 0 -0.0074381376272392901 -0.0036143616505157801 0 -0.0072288468751627779 -0.003389612666325282 0 -0.0072395913219219649 -0.0031646682623693262 0 -0.0082446469142616313 -0.00097556978449941825 0 -0.0081311728642692663 -0.00097221841176088923 0 -0.0083923512656300676 -0.0015261861253516441 0 -0.0082446469142616313 -0.00097556978449941825 0 -0.0085120245985678827 -0.0015439728728287808 0 -0.0083923512656300676 -0.0015261861253516441 0 -0.0072267279269098801 -0.0035691882261099941 0 -0.0072288468751627779 -0.003389612666325282 0 -0.0070498484449565387 -0.0034243535173774991 0 -0.007390980172038028 -0.0028579192248868361 0 -0.0074381376272392901 -0.0036143616505157801 0 -0.0072395913219219649 -0.0031646682623693262 0 -0.007842130359261193 -0.0018663170193812062 0 -0.0072524909961233066 -0.0027199044247350739 0 -0.0074381376272392901 -0.0036143616505157801 0 -0.0072267279269098801 -0.0035691882261099941 0 -0.0072288468751627779 -0.003389612666325282 0 -0.0072288468751627779 -0.003389612666325282 0 -0.0070768829986261779 -0.0032071562769670344 0 -0.0070498484449565387 -0.0034243535173774991 0 -0.0072288468751627779 -0.003389612666325282 0 -0.0072395913219219649 -0.0031646682623693262 0 -0.0070768829986261779 -0.0032071562769670344 0 -0.0070919180735529884 -0.0030086744898468825 0 -0.0072395913219219649 -0.0031646682623693262 0 -0.0070768829986261779 -0.0032071562769670344 0 -0.015397108217998523 0.0015369826560748259 0 -0.01573412163178 9.5216833047332631e-05 0 -0.016665067804153472 0.00057010291935113088 0 -0.011906917490476177 0.00027264687756180895 0 -0.011455695122112404 -0.00065285009333323877 0 -0.01637232395811139 -0.00046850681242896377 0 -0.017469239189737484 0.00069768906759060372 0 -0.016322660939623614 -0.00055813003030592574 0 -0.017998059236386723 -0.00030384087095970772 0 -0.018398238527995669 0.0010129189091748027 0 -0.01573412163178 9.5216833047332631e-05 0 -0.016322660939623614 -0.00055813003030592574 0 -0.016665067804153472 0.00057010291935113088 0 -0.01573412163178 9.5216833047332631e-05 0 -0.016322660939623614 -0.00055813003030592574 0 -0.016287432716751267 -0.0013917550149990063 0 -0.016322660939623614 -0.00055813003030592574 0 -0.017998059236386723 -0.00030384087095970772 0 -0.017095305972261166 -0.0012289383988953733 0 -0.017998059236386723 -0.00030384087095970772 0 -0.020587860076057462 -1.2043498020886738e-06 0 -0.018492279255576449 -0.001594785010870221 0 -0.017998059236386723 -0.00030384087095970772 0 -0.018398238527995669 0.0010129189091748027 0 -0.020587860076057462 -1.2043498020886738e-06 0 -0.017998059236386723 -0.00030384087095970772 0 -0.018492279255576449 -0.001594785010870221 0 -0.017095305972261166 -0.0012289383988953733 0 -0.018777483804998336 0.0021306111648477176 0 -0.017469239189737484 0.00069768906759060372 0 -0.020047600595192328 0.0024311153959675159 0 -0.018398238527995669 0.0010129189091748027 0 -0.020587860076057462 -1.2043498020886738e-06 0 -0.020587860076057462 -1.2043498020886738e-06 0 -0.018492279255576449 -0.001594785010870221 0 -0.021948802485691116 -0.0021265716239420814 0 -0.019253996046628401 -0.0034649655612648128 0 -0.018492279255576449 -0.001594785010870221 0 -0.021948802485691116 -0.0021265716239420814 0 -0.023549246713049948 -0.0040508825392650931 0 -0.024109589472928329 -0.0040090804734859544 0 -0.019253996046628401 -0.0034649655612648128 0 -0.021948802485691116 -0.0021265716239420814 0 -0.02218581009818801 -0.0038335983224256002 0 -0.019253996046628401 -0.0034649655612648128 0 -0.018492279255576449 -0.001594785010870221 0 -0.016361964454061777 -0.0022311619894424062 0 -0.018492279255576449 -0.001594785010870221 0 -0.017095305972261166 -0.0012289383988953733 0 -0.016361964454061777 -0.0022311619894424062 0 -0.01573412163178 9.5216833047332631e-05 0 -0.016287432716751267 -0.0013917550149990063 0 -0.015800600483985315 -0.0024820539482239938 0 -0.017095305972261166 -0.0012289383988953733 0 -0.016287432716751267 -0.0013917550149990063 0 -0.016361964454061777 -0.0022311619894424062 0 -0.016322660939623614 -0.00055813003030592574 0 -0.017095305972261166 -0.0012289383988953733 0 -0.016287432716751267 -0.0013917550149990063 0 -0.016287432716751267 -0.0013917550149990063 0 -0.016361964454061777 -0.0022311619894424062 0 -0.015800600483985315 -0.0024820539482239938 0 -0.016361964454061777 -0.0022311619894424062 0 -0.016005275276324449 -0.0025543680553113852 0 -0.015800600483985315 -0.0024820539482239938 0 -0.018974073780786502 -0.0036855050868052947 0 -0.020589330972690268 -0.0031890589495897612 0 -0.027235047475732223 -0.0044530497784284672 0 -0.027766394436343468 -0.0042847642169871166 0 -0.02804930534096451 -0.0046601873977798417 0 -0.019253996046628401 -0.0034649655612648128 0 -0.016361964454061777 -0.0022311619894424062 0 -0.015972165845667637 -0.0026423556801080821 0 -0.027766394436343468 -0.0042847642169871166 0 -0.028119928833961826 -0.004601109067598458 0 -0.028317100737083756 -0.0036892842621394236 0 -0.023549246713049948 -0.0040508825392650931 0 -0.020589330972690268 -0.0031890589495897612 0 -0.027766394436343468 -0.0042847642169871166 0 -0.028119928833961826 -0.004601109067598458 0 -0.02804930534096451 -0.0046601873977798417 0 -0.028126885110227616 -0.00092139701989340584 0 -0.028349217941970459 -0.00074279031866192368 0 -0.028518889260113311 0.00034228515803357397 0 -0.018273253732639178 -0.0020370798208483067 0 -0.019383828940013371 -0.00093722844243173341 0 -0.019304357465289756 -0.0031551845552379599 0 -0.02317343048938084 -0.00021007823856373229 0 -0.023906747976058716 0.00060277604570993959 0 -0.018677172109596192 -0.0013474768970415723 0 -0.018616939889337766 -0.0013273893347250485 0 -0.018597822248385659 -0.0013602388175250827 0 -0.02317343048938084 -0.00021007823856373229 0 -0.013893517606226254 -0.0025056523694723322 0 -0.028921340745667688 0.00233295641135163 0 -0.028880683800983669 0.0023207786646279537 0 -0.028940437595725472 0.0023129548669107969 0 -0.021839701284808444 -0.0024466253929775971 0 -0.020589330972690268 -0.0031890589495897612 0 -0.021839701284808444 -0.0024466253929775971 0 -0.02317343048938084 -0.00021007823856373229 0 -0.018677172109596192 -0.0013474768970415723 0 -0.018616939889337766 -0.0013273893347250485 0 -0.018693272451353462 -0.001284583683717555 0 -0.0085120245985678827 -0.0015439728728287808 0 -0.0085930410360399428 -0.0021393356275261348 0 -0.0087019339729741425 -0.0021708211225919061 0 -0.011455695122112404 -0.00065285009333323877 0 -0.017840989080903726 -0.0028634658940305049 0 -0.007344773248120811 -0.0039088475562695643 0 -0.0074970214662689397 -0.0041831300361831443 0 -0.0070906729333921224 -0.0040749072036899538 0 -0.013893517606226254 -0.0025056523694723322 0 -0.017840989080903726 -0.0028634658940305049 0 -0.018273253732639178 -0.0020370798208483067 0 -0.019304357465289756 -0.0031551845552379599 0 -0.018223269017851998 -0.0027998664099585578 0 -0.020573279020901704 -0.0030350922044576128 0 -0.01916602198048508 -0.004435099655675589 0 -0.020461477437005656 -0.0048580626013505481 0 -0.020589330972690268 -0.0031890589495897612 0 -0.017840989080903726 -0.0028634658940305049 0 -0.021839701284808444 -0.0024466253929775971 0 -0.017840989080903726 -0.0028634658940305049 0 -0.023994792814551497 -0.00057589480819292629 0 -0.023706246657081133 -0.0011209275191843742 0 -0.025271369728903276 -0.0018512504104175593 0 -0.024762476783109059 -0.00063415420981300513 0 -0.023994792814551497 -0.00057589480819292629 0 -0.025271369728903276 -0.0018512504104175593 0 -0.024714073748716283 -0.00048742925176307973 0 -0.02473916704540146 -0.001400784660812562 0 -0.024399565498619571 -0.00023928397069919953 0 -0.024393990032215044 -0.00042686749903377474 0 -0.024471593585947894 -0.00042040111966406949 0 -0.023919783458541989 -0.00016958319952245892 0 -0.024762476783109059 -0.00063415420981300513 0 -0.023994792814551497 -0.00057589480819292629 0 -0.020587860076057462 -1.2043498020886738e-06 0 -0.023706246657081133 -0.0011209275191843742 0 -0.021948802485691116 -0.0021265716239420814 0 -0.023994792814551497 -0.00057589480819292629 0 -0.023475302157924993 -0.00038584005355708019 0 -0.023706246657081133 -0.0011209275191843742 0 -0.023919783458541989 -0.00016958319952245892 0 -0.023994792814551497 -0.00057589480819292629 0 -0.023475302157924993 -0.00038584005355708019 0 -0.020587860076057462 -1.2043498020886738e-06 0 -0.022686590873242041 0.0014955429865392005 0 -0.023706246657081133 -0.0011209275191843742 0 -0.020047600595192328 0.0024311153959675159 0 -0.020587860076057462 -1.2043498020886738e-06 0 -0.022686590873242041 0.0014955429865392005 0 -0.023417504132686992 0.00048800025721603958 0 -0.023589945382826966 -0.00098091445976649684 0 -0.021948802485691116 -0.0021265716239420814 0 -0.024684253914983634 -0.0027335806323967957 0 -0.02218581009818801 -0.0038335983224256002 0 -0.023706246657081133 -0.0011209275191843742 0 -0.021948802485691116 -0.0021265716239420814 0 -0.024684253914983634 -0.0027335806323967957 0 -0.023706246657081133 -0.0011209275191843742 0 -0.024684253914983634 -0.0027335806323967957 0 -0.025271369728903276 -0.0018512504104175593 0 -0.02473916704540146 -0.001400784660812562 0 -0.025660891170222858 -0.001399833382952649 0 -0.024684253914983634 -0.0027335806323967957 0 -0.025271369728903276 -0.0018512504104175593 0 -0.025363317010177671 -0.0034185102982124196 0 -0.024449684504971921 -0.00060646107641584336 0 -0.024503124488795464 -0.00065367290413324397 0 -0.024490868762575588 -0.00078919275203008 0 -0.024978533453689208 0.00034599861530411531 0 -0.026515866680569478 0.00054726040465805819 0 -0.024729539441940691 0.0019515886321344442 0 -0.025447040087333752 0.0011971177314599021 0 -0.02604683900245118 0.0028083928834397244 0 -0.024511110998041367 -0.00065804751840063951 0 -0.024567435901319254 -0.00063583048134707037 0 -0.024574278069726178 -0.00063016155120248574 0 -0.024511110998041367 -0.00065804751840063951 0 -0.024503124488795464 -0.00065367290413324397 0 -0.024567435901319254 -0.00063583048134707037 0 -0.024450041785207929 -0.00049703767665785299 0 -0.025660891170222858 -0.001399833382952649 0 -0.024729539441940691 0.0019515886321344442 0 -0.024809858922472235 0.0013138306080551887 0 -0.024235965922187325 0.001789313173355825 0 -0.024381600286508324 0.0026591003558447206 0 -0.02444882644391811 0.0029793484523886202 0 -0.024729539441940691 0.0019515886321344442 0 -0.024809858922472235 0.0013138306080551887 0 -0.025447040087333752 0.0011971177314599021 0 -0.024809858922472235 0.0013138306080551887 0 -0.025447040087333752 0.0011971177314599021 0 -0.024543071183668795 0.00072039761496217917 0 -0.024809858922472235 0.0013138306080551887 0 -0.024235965922187325 0.001789313173355825 0 -0.024543071183668795 0.00072039761496217917 0 -0.02690691268210952 0.0044337759314290563 0 -0.028460699937833376 0.0039294661429628642 0 -0.025794225742004056 0.0028323638043756122 0 -0.02444882644391811 0.0029793484523886202 0 -0.022134993725319928 0.0023329679051491917 0 -0.02059651304221178 0.0025818087126895962 0 -0.019937595448412726 0.00048378769210139893 0 -0.018299858498225983 0.0017504403891651524 0 -0.02444882644391811 0.0029793484523886202 0 -0.021755950326354346 8.3199998448834245e-05 0 -0.024235965922187325 0.001789313173355825 0 -0.023705692481205399 0.00012169534889174501 0 -0.024543071183668795 0.00072039761496217917 0 -0.024305712171875372 9.3765486094537405e-05 0 -0.023705692481205399 0.00012169534889174501 0 -0.024543071183668795 0.00072039761496217917 0 -0.024305712171875372 9.3765486094537405e-05 0 -0.023705692481205399 0.00012169534889174501 0 -0.024094632124286176 -0.00057232971075933529 0 -0.024305712171875372 9.3765486094537405e-05 0 -0.024779101324960581 -0.00024166938238088625 0 -0.024094632124286176 -0.00057232971075933529 0 -0.025447040087333752 0.0011971177314599021 0 -0.024543071183668795 0.00072039761496217917 0 -0.024779101324960581 -0.00024166938238088625 0 -0.024978533453689208 0.00034599861530411531 0 -0.024015742349957944 -0.00053000561586012197 0 -0.024511110998041367 -0.00065804751840063951 0 -0.024503124488795464 -0.00065367290413324397 0 -0.024531663249906122 -0.0005681275579779634 0 -0.025447040087333752 0.0011971177314599021 0 -0.024779101324960581 -0.00024166938238088625 0 -0.024824867163300218 -0.00042335846474897149 0 -0.024779101324960581 -0.00024166938238088625 0 -0.024820310390265499 -0.0004168370834372058 0 -0.024094632124286176 -0.00057232971075933529 0 -0.024305712171875372 9.3765486094537405e-05 0 -0.024543071183668795 0.00072039761496217917 0 -0.024779101324960581 -0.00024166938238088625 0 -0.024049959891928603 -0.00051826655302957643 0 -0.024015742349957944 -0.00053000561586012197 0 -0.024449684504971921 -0.00060646107641584336 0 -0.024503124488795464 -0.00065367290413324397 0 -0.024531663249906122 -0.0005681275579779634 0 -0.024015742349957944 -0.00053000561586012197 0 -0.021062915752483764 -0.0010230801002459491 0 -0.024393990032215044 -0.00042686749903377474 0 -0.024449684504971921 -0.00060646107641584336 0 -0.024531663249906122 -0.0005681275579779634 0 -0.022421294740622166 -0.00078974754907986473 0 -0.022474680737089553 -0.00058288119869362161 0 -0.022351286217330069 -0.00060105458955552718 0 -0.024015742349957944 -0.00053000561586012197 0 -0.023525934475270058 -0.0005711570967865783 0 -0.024393990032215044 -0.00042686749903377474 0 -0.024531663249906122 -0.0005681275579779634 0 -0.024471593585947894 -0.00042040111966406949 0 -0.021755950326354346 8.3199998448834245e-05 0 -0.019683888895031327 -0.0011476828000533052 0 -0.024094632124286176 -0.00057232971075933529 0 -0.023201649686172669 -0.0014950324451219025 0 -0.024093817716673023 -0.0023591769206951175 0 -0.024820310390265499 -0.0004168370834372058 0 -0.024094632124286176 -0.00057232971075933529 0 -0.024093817716673023 -0.0023591769206951175 0 -0.023705692481205399 0.00012169534889174501 0 -0.024094632124286176 -0.00057232971075933529 0 -0.023201649686172669 -0.0014950324451219025 0 -0.019937595448412726 0.00048378769210139893 0 -0.019323837447284421 -0.001566511561326443 0 -0.018715958212701542 0.00027581969249375565 0 -0.021062915752483764 -0.0010230801002459491 0 -0.017359148069875357 -0.00085046358821957166 0 -0.018626980506989899 -0.0008388604995232037 0 -0.018715045602772647 -0.00092321303335101909 0 -0.018569030715072269 -0.0009882576374846126 0 -0.018715045602772647 -0.00092321303335101909 0 -0.018569030715072269 -0.0009882576374846126 0 -0.018651834501702384 -0.0010592960309000481 0 -0.019683888895031327 -0.0011476828000533052 0 -0.021062915752483764 -0.0010230801002459491 0 -0.022283695666594352 -0.00040424157770058806 0 -0.022474680737089553 -0.00058288119869362161 0 -0.022351286217330069 -0.00060105458955552718 0 -0.021332712564872507 -0.00040272802501333432 0 -0.023525934475270058 -0.0005711570967865783 0 -0.015518646331609206 0.00022733994899654084 0 -0.015631112621875866 0.00027365883341072994 0 -0.015347974220862906 7.6480057209096157e-05 0 -0.015518646331609206 0.00022733994899654084 0 -0.015914366178641701 0.0003259347510995826 0 -0.015631112621875866 0.00027365883341072994 0 -0.019683888895031327 -0.0011476828000533052 0 -0.01650267431763278 -0.0007368220178292313 0 -0.015518646331609206 0.00022733994899654084 0 -0.015514367192684071 0.00012605839718877741 0 -0.015347974220862906 7.6480057209096157e-05 0 -0.016338510423755989 -0.0003348629403115425 0 -0.01650267431763278 -0.0007368220178292313 0 -0.018326250436330477 -0.00063644860928446182 0 -0.017067023108553743 -0.00088695541247309434 0 -0.01800562564751532 -0.0016812393851021268 0 -0.019683888895031327 -0.0011476828000533052 0 -0.017101520916729479 0.00042716689030978145 0 -0.018326250436330477 -0.00063644860928446182 0 -0.017067023108553743 -0.00088695541247309434 0 -0.017236420179109268 -0.00023767562385813124 0 -0.019323837447284421 -0.001566511561326443 0 -0.017308643250268894 0.00041174567316409162 0 -0.018715958212701542 0.00027581969249375565 0 -0.018326250436330477 -0.00063644860928446182 0 -0.017236420179109268 -0.00023767562385813124 0 -0.017308643250268894 0.00041174567316409162 0 -0.017067023108553743 -0.00088695541247309434 0 -0.017236420179109268 -0.00023767562385813124 0 -0.016701246873502093 9.7661728355297772e-05 0 -0.015518646331609206 0.00022733994899654084 0 -0.015914366178641701 0.0003259347510995826 0 -0.016036374357398821 9.0569505899539254e-05 0 -0.016338510423755989 -0.0003348629403115425 0 -0.016015492164350213 5.4725693996537242e-05 0 -0.017236420179109268 -0.00023767562385813124 0 -0.016701246873502093 9.7661728355297772e-05 0 -0.017308643250268894 0.00041174567316409162 0 -0.017067023108553743 -0.00088695541247309434 0 -0.016701246873502093 9.7661728355297772e-05 0 -0.016036374357398821 9.0569505899539254e-05 0 -0.016701246873502093 9.7661728355297772e-05 0 -0.01627332719891663 0.00029602355042680024 0 -0.016036374357398821 9.0569505899539254e-05 0 -0.017308643250268894 0.00041174567316409162 0 -0.01639939232689145 0.00078705430506822679 0 -0.018299858498225983 0.0017504403891651524 0 -0.016701246873502093 9.7661728355297772e-05 0 -0.01639939232689145 0.00078705430506822679 0 -0.01627332719891663 0.00029602355042680024 0 -0.019332262873901364 0.0011395513263615417 0 -0.022134993725319928 0.0023329679051491917 0 -0.016701246873502093 9.7661728355297772e-05 0 -0.017308643250268894 0.00041174567316409162 0 -0.01639939232689145 0.00078705430506822679 0 -0.017308643250268894 0.00041174567316409162 0 -0.018715958212701542 0.00027581969249375565 0 -0.018299858498225983 0.0017504403891651524 0 -0.019937595448412726 0.00048378769210139893 0 -0.018715958212701542 0.00027581969249375565 0 -0.018299858498225983 0.0017504403891651524 0 -0.025794225742004056 0.0028323638043756122 0 -0.025368682424488784 0.0046338792843885765 0 -0.022587204824261221 0.0027131534242841463 0 -0.02690691268210952 0.0044337759314290563 0 -0.025794225742004056 0.0028323638043756122 0 -0.025368682424488784 0.0046338792843885765 0 -0.026292177714160436 0.0050039774468768105 0 -0.024237545160071764 0.0035481440516128282 0 -0.024904018895763078 0.0048052817899176528 0 -0.025805135884108033 0.0047945223072583081 0 -0.0236096391576683 0.0032387891160644126 0 -0.022811133692725211 0.0017640910847938358 0 -0.025794225742004056 0.0028323638043756122 0 -0.022587204824261221 0.0027131534242841463 0 -0.024904018895763078 0.0048052817899176528 0 -0.024072237897637631 0.0046645600330058722 0 -0.024398879071657761 0.005525299169493094 0 -0.024237545160071764 0.0035481440516128282 0 -0.024904018895763078 0.0048052817899176528 0 -0.024072237897637631 0.0046645600330058722 0 -0.0233511455316169 0.0042087393881103177 0 -0.022434026810099737 0.0046072889071386534 0 -0.023435544465248884 0.0051147040633288347 0 -0.024072237897637631 0.0046645600330058722 0 -0.0233511455316169 0.0042087393881103177 0 -0.023435544465248884 0.0051147040633288347 0 -0.024237545160071764 0.0035481440516128282 0 -0.024072237897637631 0.0046645600330058722 0 -0.0233511455316169 0.0042087393881103177 0 -0.024237545160071764 0.0035481440516128282 0 -0.0233511455316169 0.0042087393881103177 0 -0.022865295958782641 0.0033702764779999198 0 -0.022231453324817588 0.0036104307901201034 0 -0.022434026810099737 0.0046072889071386534 0 -0.02140286953467185 0.0040808386171213408 0 -0.0233511455316169 0.0042087393881103177 0 -0.022231453324817588 0.0036104307901201034 0 -0.022865295958782641 0.0033702764779999198 0 -0.0233511455316169 0.0042087393881103177 0 -0.022231453324817588 0.0036104307901201034 0 -0.022434026810099737 0.0046072889071386534 0 -0.021611892129800424 0.004966037787154421 0 -0.020552015416436774 0.0045962086396234142 0 -0.02140286953467185 0.0040808386171213408 0 -0.022434026810099737 0.0046072889071386534 0 -0.021611892129800424 0.004966037787154421 0 -0.02140286953467185 0.0040808386171213408 0 -0.022434026810099737 0.0046072889071386534 0 -0.021611892129800424 0.004966037787154421 0 -0.022455495652855987 0.0056004811766605647 0 -0.020552015416436774 0.0045962086396234142 0 -0.020339550471162624 0.0035966706282630628 0 -0.019376258909830749 0.0038760303798706414 0 -0.020552015416436774 0.0045962086396234142 0 -0.020339550471162624 0.0035966706282630628 0 -0.02140286953467185 0.0040808386171213408 0 -0.022231453324817588 0.0036104307901201034 0 -0.02140286953467185 0.0040808386171213408 0 -0.021270705052538131 0.0031286069231150904 0 -0.020339550471162624 0.0035966706282630628 0 -0.02140286953467185 0.0040808386171213408 0 -0.021270705052538131 0.0031286069231150904 0 -0.021270705052538131 0.0031286069231150904 0 -0.021634290568945037 0.002076052060220589 0 -0.020940096793190307 0.0024778247921874918 0 -0.022231453324817588 0.0036104307901201034 0 -0.021270705052538131 0.0031286069231150904 0 -0.021634290568945037 0.002076052060220589 0 -0.021270705052538131 0.0031286069231150904 0 -0.020272294279825229 0.0027619458677613723 0 -0.020940096793190307 0.0024778247921874918 0 -0.020339550471162624 0.0035966706282630628 0 -0.020272294279825229 0.0027619458677613723 0 -0.018467047090386348 0.0024530425831029699 0 -0.020339550471162624 0.0035966706282630628 0 -0.021270705052538131 0.0031286069231150904 0 -0.020272294279825229 0.0027619458677613723 0 -0.020272294279825229 0.0027619458677613723 0 -0.020619904514299632 0.0019235284167017793 0 -0.018467047090386348 0.0024530425831029699 0 -0.020272294279825229 0.0027619458677613723 0 -0.020940096793190307 0.0024778247921874918 0 -0.020619904514299632 0.0019235284167017793 0 -0.021634290568945037 0.002076052060220589 0 -0.020940096793190307 0.0024778247921874918 0 -0.020619904514299632 0.0019235284167017793 0 -0.0195361207611617 0.0011668336392481799 0 -0.020636176924344895 0.0016337744852160281 0 -0.022811133692725211 0.0017640910847938358 0 -0.022587204824261221 0.0027131534242841463 0 -0.019766502491169898 0.0007013276305510123 0 -0.016063903072219912 -2.485939275789825e-05 0 -0.016129962467027831 0.00018966969522635387 0 -0.016049932244458026 0.00018333089366956407 0 -0.024237545160071764 0.0035481440516128282 0 -0.021634290568945037 0.002076052060220589 0 -0.022865295958782641 0.0033702764779999198 0 -0.01639939232689145 0.00078705430506822679 0 -0.016063903072219912 -2.485939275789825e-05 0 -0.016129962467027831 0.00018966969522635387 0 -0.019332262873901364 0.0011395513263615417 0 -0.0195361207611617 0.0011668336392481799 0 -0.0236096391576683 0.0032387891160644126 0 -0.0195361207611617 0.0011668336392481799 0 -0.01639939232689145 0.00078705430506822679 0 -0.016129962467027831 0.00018966969522635387 0 -0.01627332719891663 0.00029602355042680024 0 -0.016129962467027831 0.00018966969522635387 0 -0.01627332719891663 0.00029602355042680024 0 -0.016036374357398821 9.0569505899539254e-05 0 -0.022231453324817588 0.0036104307901201034 0 -0.021634290568945037 0.002076052060220589 0 -0.022865295958782641 0.0033702764779999198 0 -0.017776836249730876 0.0047249852743284195 0 -0.018134673217857392 0.0037398359825712088 0 -0.016587732289077273 0.0037718971178352929 0 -0.017776836249730876 0.0047249852743284195 0 -0.018134673217857392 0.0037398359825712088 0 -0.019491350808356719 0.0049257163600150092 0 -0.018134673217857392 0.0037398359825712088 0 -0.019491350808356719 0.0049257163600150092 0 -0.019376258909830749 0.0038760303798706414 0 -0.020552015416436774 0.0045962086396234142 0 -0.019491350808356719 0.0049257163600150092 0 -0.019376258909830749 0.0038760303798706414 0 -0.018134673217857392 0.0037398359825712088 0 -0.018467047090386348 0.0024530425831029699 0 -0.016752479698612356 0.0022073851898854026 0 -0.020339550471162624 0.0035966706282630628 0 -0.019376258909830749 0.0038760303798706414 0 -0.018467047090386348 0.0024530425831029699 0 -0.018134673217857392 0.0037398359825712088 0 -0.019376258909830749 0.0038760303798706414 0 -0.018467047090386348 0.0024530425831029699 0 -0.018134673217857392 0.0037398359825712088 0 -0.016752479698612356 0.0022073851898854026 0 -0.016587732289077273 0.0037718971178352929 0 -0.016752479698612356 0.0022073851898854026 0 -0.01641649015042276 0.0011521991265069215 0 -0.015449921797835225 0.0016552316022716933 0 -0.016752479698612356 0.0022073851898854026 0 -0.017394813377619268 0.00090311306300962875 0 -0.01641649015042276 0.0011521991265069215 0 -0.018467047090386348 0.0024530425831029699 0 -0.016752479698612356 0.0022073851898854026 0 -0.017394813377619268 0.00090311306300962875 0 -0.020619904514299632 0.0019235284167017793 0 -0.018467047090386348 0.0024530425831029699 0 -0.017394813377619268 0.00090311306300962875 0 -0.017394813377619268 0.00090311306300962875 0 -0.01641649015042276 0.0011521991265069215 0 -0.016611563774841628 0.00079633357554804681 0 -0.01641649015042276 0.0011521991265069215 0 -0.016611563774841628 0.00079633357554804681 0 -0.016119885589151024 0.00066417800982761005 0 -0.01641649015042276 0.0011521991265069215 0 -0.016119885589151024 0.00066417800982761005 0 -0.015241369056284926 0.0012643241491241553 0 -0.01641649015042276 0.0011521991265069215 0 -0.015241369056284926 0.0012643241491241553 0 -0.015449921797835225 0.0016552316022716933 0 -0.015914366178641701 0.0003259347510995826 0 -0.016049932244458026 0.00018333089366956407 0 -0.016208907995444832 0.00047962100236768234 0 -0.015914366178641701 0.0003259347510995826 0 -0.016036374357398821 9.0569505899539254e-05 0 -0.016049932244458026 0.00018333089366956407 0 -0.016129962467027831 0.00018966969522635387 0 -0.016036374357398821 9.0569505899539254e-05 0 -0.016049932244458026 0.00018333089366956407 0 -0.016063903072219912 -2.485939275789825e-05 0 -0.016049932244458026 0.00018333089366956407 0 -0.016208907995444832 0.00047962100236768234 0 -0.021862641568551965 0.0019490593363227207 0 -0.020619904514299632 0.0019235284167017793 0 -0.017394813377619268 0.00090311306300962875 0 -0.017394813377619268 0.00090311306300962875 0 -0.016208907995444832 0.00047962100236768234 0 -0.016611563774841628 0.00079633357554804681 0 -0.016063903072219912 -2.485939275789825e-05 0 -0.017394813377619268 0.00090311306300962875 0 -0.016208907995444832 0.00047962100236768234 0 -0.0195361207611617 0.0011668336392481799 0 -0.017456031007801999 0.00076779655338210485 0 -0.016611563774841628 0.00079633357554804681 0 -0.016008414278162558 0.00049589580979791123 0 -0.016119885589151024 0.00066417800982761005 0 -0.016208907995444832 0.00047962100236768234 0 -0.016611563774841628 0.00079633357554804681 0 -0.016008414278162558 0.00049589580979791123 0 -0.015914366178641701 0.0003259347510995826 0 -0.016008414278162558 0.00049589580979791123 0 -0.015631112621875866 0.00027365883341072994 0 -0.015914366178641701 0.0003259347510995826 0 -0.016208907995444832 0.00047962100236768234 0 -0.016008414278162558 0.00049589580979791123 0 -0.015631112621875866 0.00027365883341072994 0 -0.015732503403666935 0.00025406519460602833 0 -0.015305481402727472 -3.1051068720585501e-05 0 -0.016008414278162558 0.00049589580979791123 0 -0.015631112621875866 0.00027365883341072994 0 -0.015732503403666935 0.00025406519460602833 0 -0.015732503403666935 0.00025406519460602833 0 -0.015701426390237902 0.00018121401139168229 0 -0.016119885589151024 0.00066417800982761005 0 -0.016008414278162558 0.00049589580979791123 0 -0.015732503403666935 0.00025406519460602833 0 -0.016119885589151024 0.00066417800982761005 0 -0.015732503403666935 0.00025406519460602833 0 -0.015701426390237902 0.00018121401139168229 0 -0.015433795598860827 -0.00013744387579597622 0 -0.015701426390237902 0.00018121401139168229 0 -0.015465765142797037 -0.00022712988095614604 0 -0.015433795598860827 -0.00013744387579597622 0 -0.015433795598860827 -0.00013744387579597622 0 -0.014964228606985373 -0.00033943497614324447 0 -0.015305481402727472 -3.1051068720585501e-05 0 -0.015732503403666935 0.00025406519460602833 0 -0.015433795598860827 -0.00013744387579597622 0 -0.015305481402727472 -3.1051068720585501e-05 0 -0.015305434358514414 0.00029892779331357672 0 -0.015241369056284926 0.0012643241491241553 0 -0.013995682225040624 0.00050052135237636699 0 -0.016119885589151024 0.00066417800982761005 0 -0.015305434358514414 0.00029892779331357672 0 -0.015241369056284926 0.0012643241491241553 0 -0.015701426390237902 0.00018121401139168229 0 -0.016119885589151024 0.00066417800982761005 0 -0.015305434358514414 0.00029892779331357672 0 -0.015701426390237902 0.00018121401139168229 0 -0.015305434358514414 0.00029892779331357672 0 -0.015465765142797037 -0.00022712988095614604 0 -0.015305434358514414 0.00029892779331357672 0 -0.014619871127064152 -0.0008153877519257222 0 -0.013995682225040624 0.00050052135237636699 0 -0.015305434358514414 0.00029892779331357672 0 -0.015465765142797037 -0.00022712988095614604 0 -0.014619871127064152 -0.0008153877519257222 0 -0.015465765142797037 -0.00022712988095614604 0 -0.015402500519303879 -0.00042977989221289908 0 -0.014619871127064152 -0.0008153877519257222 0 -0.015465765142797037 -0.00022712988095614604 0 -0.015402500519303879 -0.00042977989221289908 0 -0.015382055083393017 -0.00028353189352416097 0 -0.012737459292792949 -0.00014883194777055834 0 -0.012732114212168523 -0.00043368323996438536 0 -0.010824762905690658 0.00027029002613299682 0 -0.010156780093485251 9.8882228302197615e-05 0 -0.010975775025134023 -0.0001580530868786869 0 -0.015433795598860827 -0.00013744387579597622 0 -0.015127289077460488 -0.00031422660241221752 0 -0.014964228606985373 -0.00033943497614324447 0 -0.015127289077460488 -0.00031422660241221752 0 -0.014650699404107716 -0.00043591010331697912 0 -0.014964228606985373 -0.00033943497614324447 0 -0.015433795598860827 -0.00013744387579597622 0 -0.015382055083393017 -0.00028353189352416097 0 -0.015127289077460488 -0.00031422660241221752 0 -0.015465765142797037 -0.00022712988095614604 0 -0.015433795598860827 -0.00013744387579597622 0 -0.015382055083393017 -0.00028353189352416097 0 -0.015308295035444675 -0.00013378548792647674 0 -0.015382055083393017 -0.00028353189352416097 0 -0.015127289077460488 -0.00031422660241221752 0 -0.015308295035444675 -0.00013378548792647674 0 -0.015402500519303879 -0.00042977989221289908 0 -0.015382055083393017 -0.00028353189352416097 0 -0.015308295035444675 -0.00013378548792647674 0 -0.015127289077460488 -0.00031422660241221752 0 -0.014889323947891307 -0.00013228595368265709 0 -0.015127289077460488 -0.00031422660241221752 0 -0.014889323947891307 -0.00013228595368265709 0 -0.014650699404107716 -0.00043591010331697912 0 -0.013994928727583934 -2.5697237438278299e-05 0 -0.014889323947891307 -0.00013228595368265709 0 -0.014650699404107716 -0.00043591010331697912 0 -0.013994928727583934 -2.5697237438278299e-05 0 -0.014650699404107716 -0.00043591010331697912 0 -0.014014756776600622 -0.00073985635718938267 0 -0.014650699404107716 -0.00043591010331697912 0 -0.014964228606985373 -0.00033943497614324447 0 -0.014014756776600622 -0.00073985635718938267 0 -0.014964228606985373 -0.00033943497614324447 0 -0.014014756776600622 -0.00073985635718938267 0 -0.014843937198273153 -0.0003458411493244353 0 -0.014014756776600622 -0.00073985635718938267 0 -0.014493365411270881 -0.00045593119239055967 0 -0.014843937198273153 -0.0003458411493244353 0 -0.011954019288445706 -0.0005680298390506103 0 -0.013777871792115049 -0.00079787270946143993 0 -0.0097319728530004639 -0.0010033805681597672 0 -0.012591226808190695 -3.6688779702512805e-05 0 -0.014014756776600622 -0.00073985635718938267 0 -0.01446462463103698 -0.00045132078432395616 0 -0.014368149080726766 -0.00047148796335573826 0 -0.014493365411270881 -0.00045593119239055967 0 -0.01446462463103698 -0.00045132078432395616 0 -0.014014756776600622 -0.00073985635718938267 0 -0.014493365411270881 -0.00045593119239055967 0 -0.01446462463103698 -0.00045132078432395616 0 -0.01421412915567361 -0.00036423797615389616 0 -0.014368149080726766 -0.00047148796335573826 0 -0.01421412915567361 -0.00036423797615389616 0 -0.014368149080726766 -0.00047148796335573826 0 -0.014226561744951571 -0.00050586647404584836 0 -0.014368149080726766 -0.00047148796335573826 0 -0.014340815971431132 -0.00052956733531118344 0 -0.014493365411270881 -0.00045593119239055967 0 -0.014220428237682499 -0.00057976742408522887 0 -0.014226561744951571 -0.00050586647404584836 0 -0.014340815971431132 -0.00052956733531118344 0 -0.014368149080726766 -0.00047148796335573826 0 -0.014226561744951571 -0.00050586647404584836 0 -0.014340815971431132 -0.00052956733531118344 0 -0.014340815971431132 -0.00052956733531118344 0 -0.014493365411270881 -0.00045593119239055967 0 -0.014397782950425942 -0.00062600303619750721 0 -0.014397782950425942 -0.00062600303619750721 0 -0.014575348920628775 -0.0007424816844433835 0 -0.014843937198273153 -0.0003458411493244353 0 -0.014493365411270881 -0.00045593119239055967 0 -0.014397782950425942 -0.00062600303619750721 0 -0.014843937198273153 -0.0003458411493244353 0 -0.017274028082438751 -0.00060883605593537468 0 -0.016402644277458061 -0.00045113238503064179 0 -0.018459598846127977 -0.00018323561517074536 0 -0.018623076047043545 -0.00069713588877454971 0 -0.018903069112796572 -0.00054407241322523652 0 -0.014220428237682499 -0.00057976742408522887 0 -0.014340815971431132 -0.00052956733531118344 0 -0.014397782950425942 -0.00062600303619750721 0 -0.021332712564872507 -0.00040272802501333432 0 -0.021062915752483764 -0.0010230801002459491 0 -0.018623076047043545 -0.00069713588877454971 0 -0.019031705587448836 -0.0010811002185463425 0 -0.019137708290035818 -0.00074322966982434636 0 -0.018623076047043545 -0.00069713588877454971 0 -0.018903069112796572 -0.00054407241322523652 0 -0.019137708290035818 -0.00074322966982434636 0 -0.016402644277458061 -0.00045113238503064179 0 -0.017359148069875357 -0.00085046358821957166 0 -0.01650267431763278 -0.0007368220178292313 0 -0.017359148069875357 -0.00085046358821957166 0 -0.014764936198829964 -0.00089905192012765809 0 -0.014575348920628775 -0.0007424816844433835 0 -0.014843937198273153 -0.0003458411493244353 0 -0.015514367192684071 0.00012605839718877741 0 -0.015347974220862906 7.6480057209096157e-05 0 -0.014843937198273153 -0.0003458411493244353 0 -0.01650267431763278 -0.0007368220178292313 0 -0.014530434596424235 -0.00024483786340651742 0 -0.015631112621875866 0.00027365883341072994 0 -0.015347974220862906 7.6480057209096157e-05 0 -0.015305481402727472 -3.1051068720585501e-05 0 -0.014964228606985373 -0.00033943497614324447 0 -0.015305481402727472 -3.1051068720585501e-05 0 -0.014843937198273153 -0.0003458411493244353 0 -0.015347974220862906 7.6480057209096157e-05 0 -0.015305481402727472 -3.1051068720585501e-05 0 -0.014843937198273153 -0.0003458411493244353 0 -0.0083753567147332297 0.0008280788348397313 0 -0.0092144096955899223 1.2908417125648597e-06 0 -0.010783488670641645 0.00016553565578970574 0 -0.0092144096955899223 1.2908417125648597e-06 0 -0.010783488670641645 0.00016553565578970574 0 -0.011674263449965843 -2.2752595358835524e-07 0 -0.0083753567147332297 0.0008280788348397313 0 -0.010783488670641645 0.00016553565578970574 0 -0.012846939195327339 0.00060387748745818726 0 -0.010783488670641645 0.00016553565578970574 0 -0.012846939195327339 0.00060387748745818726 0 -0.012653691482227242 -0.00015312287888240612 0 -0.0055679936739570111 0.0025394644917665827 0 -0.0041572399139593397 0.0024101229826783066 0 -0.0044745770803356925 0.003102925737204196 0 -0.0055679936739570111 0.0025394644917665827 0 -0.0043219347153114918 0.001640292841078463 0 -0.0041572399139593397 0.0024101229826783066 0 -0.0055679936739570111 0.0025394644917665827 0 -0.0053277417767709813 0.00066255825975716884 0 -0.0043219347153114918 0.001640292841078463 0 -0.0087998983961246145 0.00074137430220205293 0 -0.0088306293316232961 0.0016700853213735759 0 -0.0083753567147332297 0.0008280788348397313 0 -0.0055679936739570111 0.0025394644917665827 0 -0.0053277417767709813 0.00066255825975716884 0 -0.0053277417767709813 0.00066255825975716884 0 -0.0050550837559583785 -6.2541002729928178e-05 0 -0.0064547415132102147 0.00011037161303854574 0 -0.0083753567147332297 0.0008280788348397313 0 -0.0053277417767709813 0.00066255825975716884 0 -0.0064547415132102147 0.00011037161303854574 0 -0.0053277417767709813 0.00066255825975716884 0 -0.004093691750659329 0.00066419925362957164 0 -0.0043219347153114918 0.001640292841078463 0 -0.0053277417767709813 0.00066255825975716884 0 -0.0044870492205433517 0.00020851555844647428 0 -0.004093691750659329 0.00066419925362957164 0 -0.0053277417767709813 0.00066255825975716884 0 -0.0044870492205433517 0.00020851555844647428 0 -0.0050550837559583785 -6.2541002729928178e-05 0 -0.0044870492205433517 0.00020851555844647428 0 -0.0039975277429914495 -0.00027792022790942183 0 -0.0037011265582488893 0.00011833580243017616 0 -0.0044870492205433517 0.00020851555844647428 0 -0.0050550837559583785 -6.2541002729928178e-05 0 -0.0039975277429914495 -0.00027792022790942183 0 -0.0050550837559583785 -6.2541002729928178e-05 0 -0.0050713404524096008 -0.00023873055308725567 0 -0.0042330186805903131 -0.00034108630719099274 0 -0.0050550837559583785 -6.2541002729928178e-05 0 -0.0042330186805903131 -0.00034108630719099274 0 -0.0039975277429914495 -0.00027792022790942183 0 -0.0050550837559583785 -6.2541002729928178e-05 0 -0.0064547415132102147 0.00011037161303854574 0 -0.0050713404524096008 -0.00023873055308725567 0 -0.0064547415132102147 0.00011037161303854574 0 -0.0067571464271259278 -6.4085793204785408e-08 0 -0.0050713404524096008 -0.00023873055308725567 0 -0.0083753567147332297 0.0008280788348397313 0 -0.0064547415132102147 0.00011037161303854574 0 -0.0067571464271259278 -6.4085793204785408e-08 0 -0.0083753567147332297 0.0008280788348397313 0 -0.0092144096955899223 1.2908417125648597e-06 0 -0.0067571464271259278 -6.4085793204785408e-08 0 -0.0067571464271259278 -6.4085793204785408e-08 0 -0.0042988843494549947 -6.6628897063423624e-07 0 -0.0050713404524096008 -0.00023873055308725567 0 -0.0042988843494549947 -6.6628897063423624e-07 0 -0.0050713404524096008 -0.00023873055308725567 0 -0.0038357025607778472 -0.00036727033996032546 0 -0.0050713404524096008 -0.00023873055308725567 0 -0.0038357025607778472 -0.00036727033996032546 0 -0.0033396880889276391 -0.00059962420697221952 0 -0.0038357025607778472 -0.00036727033996032546 0 -0.0031924580101148374 -0.00023998156125723953 0 -0.0033396880889276391 -0.00059962420697221952 0 -0.0042988843494549947 -6.6628897063423624e-07 0 -0.0018411950139752423 -7.7573102925866888e-07 0 -0.0029645364037837641 -0.00024760548867764173 0 -0.0042988843494549947 -6.6628897063423624e-07 0 -0.0038357025607778472 -0.00036727033996032546 0 -0.0029645364037837641 -0.00024760548867764173 0 -0.0018411950139752423 -7.7573102925866888e-07 0 -0.0029645364037837641 -0.00024760548867764173 0 -0.0020838312996561397 -5.0430902037892545e-05 0 -0.0038357025607778472 -0.00036727033996032546 0 -0.0029645364037837641 -0.00024760548867764173 0 -0.0031924580101148374 -0.00023998156125723953 0 -0.0029645364037837641 -0.00024760548867764173 0 -0.0031924580101148374 -0.00023998156125723953 0 -0.0020838312996561397 -5.0430902037892545e-05 0 0.0033896077127587281 0.0011356478021567102 0 0.0024966990674888997 0.0014523955780689675 0 0.0029413478455781448 0.0013937949911065302 0 -0.0031924580101148374 -0.00023998156125723953 0 -0.0011211174904824795 0.00012168946735243757 0 -0.0020838312996561397 -5.0430902037892545e-05 0 0.0017119423319104322 0.0010951668269453499 0 0.0024966990674888997 0.0014523955780689675 0 0.0030364729010618962 0.0015262969008209494 0 -0.00080505242043029952 0.00049643391814159705 0 0.00093366010748656468 0.00068321821549512205 0 0.0017119423319104322 0.0010951668269453499 0 0.0024966990674888997 0.0014523955780689675 0 0.0019698915809918511 0.0014472584161250503 0 0.00061667369535858515 1.1143262834245988e-06 0 -0.0018411950139752423 -7.7573102925866888e-07 0 -0.0011211174904824795 0.00012168946735243757 0 -0.0018411950139752423 -7.7573102925866888e-07 0 -0.0011211174904824795 0.00012168946735243757 0 -0.0020838312996561397 -5.0430902037892545e-05 0 0.0011930695552844373 0.0010155883207114424 0 -0.0010258269905442769 0.00025201239926371944 0 -0.0028480959435044314 0.0032280564586006245 0 -0.0028448079134112789 0.0018141078853227122 0 -0.0038799980607388844 0.0011454107303825254 0 -0.0022891098226075351 0.0028225560055048894 0 -0.0028480959435044314 0.0032280564586006245 0 -0.0028448079134112789 0.0018141078853227122 0 -0.0028448079134112789 0.0018141078853227122 0 -0.0018570866975805428 0.0022876139215499171 0 -0.0021591066174722531 0.0012107601741310457 0 -0.0022891098226075351 0.0028225560055048894 0 -0.0028448079134112789 0.0018141078853227122 0 -0.0018570866975805428 0.0022876139215499171 0 0.003536097038735966 0.0011415138630108583 0 0.0029413478455781448 0.0013937949911065302 0 0.0030804684334371766 0.0016196844937567043 0 0.0024966990674888997 0.0014523955780689675 0 0.0029413478455781448 0.0013937949911065302 0 0.0019698915809918511 0.0014472584161250503 0 0.0029413478455781448 0.0013937949911065302 0 0.0019698915809918511 0.0014472584161250503 0 0.0030804684334371766 0.0016196844937567043 0 0.00046543365373514595 0.0019521468546439275 0 0.00036491241534260022 0.00070394929838732444 0 0.0017119423319104322 0.0010951668269453499 0 -5.2187847486579497e-05 0.00084592227042068447 0 -0.0033396880889276391 -0.00059962420697221952 0 -0.0018570866975805428 0.0022876139215499171 0 -0.0021591066174722531 0.0012107601741310457 0 -5.2187847486579497e-05 0.00084592227042068447 0 0.0019698915809918511 0.0014472584161250503 0 0.0030804684334371766 0.0016196844937567043 0 -5.2187847486579497e-05 0.00084592227042068447 0 0.0017119423319104322 0.0010951668269453499 0 0.0019698915809918511 0.0014472584161250503 0 -5.2187847486579497e-05 0.00084592227042068447 0 -0.0021591066174722531 0.0012107601741310457 0 -5.2187847486579497e-05 0.00084592227042068447 0 -0.0024688015980144154 0.00014990500089844474 0 -0.0021591066174722531 0.0012107601741310457 0 -0.0030298344409872874 0.00057170377549997035 0 -0.0024688015980144154 0.00014990500089844474 0 -0.0028448079134112789 0.0018141078853227122 0 -0.0021591066174722531 0.0012107601741310457 0 -0.0030298344409872874 0.00057170377549997035 0 -0.0028448079134112789 0.0018141078853227122 0 -0.0030298344409872874 0.00057170377549997035 0 -0.0038799980607388844 0.0011454107303825254 0 -0.0030298344409872874 0.00057170377549997035 0 -0.003361228418413291 -0.00046046753373065765 0 -0.0035781662621761591 -0.00015367348160491258 0 -0.0030298344409872874 0.00057170377549997035 0 -0.003361228418413291 -0.00046046753373065765 0 -0.0024688015980144154 0.00014990500089844474 0 -0.003361228418413291 -0.00046046753373065765 0 -0.0036449220212561922 -0.0004026254214935054 0 -0.0035781662621761591 -0.00015367348160491258 0 -5.2187847486579497e-05 0.00084592227042068447 0 -0.0024688015980144154 0.00014990500089844474 0 -0.0033396880889276391 -0.00059962420697221952 0 -0.00080505242043029952 0.00049643391814159705 0 -0.0028516402099651983 -0.0004534884472134723 0 -0.003361228418413291 -0.00046046753373065765 0 -0.0024688015980144154 0.00014990500089844474 0 -0.0033396880889276391 -0.00059962420697221952 0 -0.0050713404524096008 -0.00023873055308725567 0 -0.0033396880889276391 -0.00059962420697221952 0 -0.0042330186805903131 -0.00034108630719099274 0 -0.003361228418413291 -0.00046046753373065765 0 -0.0033396880889276391 -0.00059962420697221952 0 -0.0042330186805903131 -0.00034108630719099274 0 -0.003361228418413291 -0.00046046753373065765 0 -0.0039975277429914495 -0.00027792022790942183 0 -0.0036449220212561922 -0.0004026254214935054 0 -0.003361228418413291 -0.00046046753373065765 0 -0.0042330186805903131 -0.00034108630719099274 0 -0.0039975277429914495 -0.00027792022790942183 0 -0.0039975277429914495 -0.00027792022790942183 0 -0.003610070341343613 -0.00019472346912350152 0 -0.0036449220212561922 -0.0004026254214935054 0 -0.003610070341343613 -0.00019472346912350152 0 -0.0030499776773205969 -0.00024314675465998174 0 -0.0036152055615189045 -0.00040833955093328377 0 -0.003610070341343613 -0.00019472346912350152 0 -0.0036449220212561922 -0.0004026254214935054 0 -0.0036152055615189045 -0.00040833955093328377 0 -0.00062151790728411484 -0.00033893994989425588 0 0.00073354566600575158 -1.267294965320469e-05 0 -0.002862991703875402 -0.00037126262446205755 0 -0.0012444126245251294 0.00013110105172515102 0 -0.0030499776773205969 -0.00024314675465998174 0 -0.0037812092798035638 -0.00054379762455367651 0 -0.00093558102885711917 -0.00019540631672748109 0 -0.0032430142380920806 1.7264049411046818e-06 0 -0.0030499776773205969 -0.00024314675465998174 0 -0.0027373992648055214 0.00032442304083675499 0 0.0022425064698918975 -0.00033151536337576107 0 0.0023761696119336301 -0.00023915152840608915 0 0.0022897904273589779 -3.999224659121892e-05 0 -0.003610070341343613 -0.00019472346912350152 0 -0.0032430142380920806 1.7264049411046818e-06 0 -0.0030499776773205969 -0.00024314675465998174 0 -0.0030499776773205969 -0.00024314675465998174 0 -0.0037812092798035638 -0.00054379762455367651 0 -0.0036152055615189045 -0.00040833955093328377 0 0.0022425064698918975 -0.00033151536337576107 0 0.0024057912185602528 -0.00040968726811802219 0 0.0023761696119336301 -0.00023915152840608915 0 -0.0037812092798035638 -0.00054379762455367651 0 -0.0036152055615189045 -0.00040833955093328377 0 -0.0035781662621761591 -0.00015367348160491258 0 -0.0036449220212561922 -0.0004026254214935054 0 -0.0036152055615189045 -0.00040833955093328377 0 -0.0035781662621761591 -0.00015367348160491258 0 -0.0037812092798035638 -0.00054379762455367651 0 -0.0035781662621761591 -0.00015367348160491258 0 -0.0038799980607388844 0.0011454107303825254 0 -0.0030298344409872874 0.00057170377549997035 0 -0.0035781662621761591 -0.00015367348160491258 0 -0.0038799980607388844 0.0011454107303825254 0 -0.00062151790728411484 -0.00033893994989425588 0 -0.0010258269905442769 0.00025201239926371944 0 0.0022425064698918975 -0.00033151536337576107 0 0.0021836187058781923 -0.00058435641825451681 0 0.0023852939554676309 -0.00057938921425343783 0 0.0022425064698918975 -0.00033151536337576107 0 0.0023852939554676309 -0.00057938921425343783 0 0.0024057912185602528 -0.00040968726811802219 0 0.0021836187058781923 -0.00058435641825451681 0 0.0023852939554676309 -0.00057938921425343783 0 0.0023407776766351334 -0.00069373823604178882 0 0.0023852939554676309 -0.00057938921425343783 0 0.002459313042613018 -0.00073566268442694068 0 0.0023407776766351334 -0.00069373823604178882 0 0.0024255927706046481 -0.00082075247440948978 0 0.002459313042613018 -0.00073566268442694068 0 0.0023407776766351334 -0.00069373823604178882 0 0.0022342302885014075 -0.00077411814250830937 0 0.0020512476659060659 -0.00080891802103052644 0 0.0021836187058781923 -0.00058435641825451681 0 0.0022342302885014075 -0.00077411814250830937 0 0.0021836187058781923 -0.00058435641825451681 0 0.0023407776766351334 -0.00069373823604178882 0 0.0022342302885014075 -0.00077411814250830937 0 0.0024255927706046481 -0.00082075247440948978 0 0.0023407776766351334 -0.00069373823604178882 0 0.0027932902525172418 -0.00078407523885890538 0 0.0025429890080651248 -0.00070121543011332456 0 0.0025731607375421781 -0.0005574212057490788 0 0.0034143529428312626 -0.00056065253929404619 0 0.0037953047221400971 -0.00048936347135348178 0 0.0025473564641724038 -0.00081365388183038498 0 0.0027932902525172418 -0.00078407523885890538 0 0.0025429890080651248 -0.00070121543011332456 0 0.0025473564641724038 -0.00081365388183038498 0 0.002459313042613018 -0.00073566268442694068 0 0.0025429890080651248 -0.00070121543011332456 0 0.0023852939554676309 -0.00057938921425343783 0 0.002459313042613018 -0.00073566268442694068 0 0.0025429890080651248 -0.00070121543011332456 0 0.0023852939554676309 -0.00057938921425343783 0 0.0025429890080651248 -0.00070121543011332456 0 0.0025731607375421781 -0.0005574212057490788 0 0.0023852939554676309 -0.00057938921425343783 0 0.0025731607375421781 -0.0005574212057490788 0 0.0024057912185602528 -0.00040968726811802219 0 0.0025731607375421781 -0.0005574212057490788 0 0.0025493383010496444 -0.00033109420394291435 0 0.0024057912185602528 -0.00040968726811802219 0 0.0027932902525172418 -0.00078407523885890538 0 0.0025731607375421781 -0.0005574212057490788 0 0.0028173498430997842 -0.0004510152742551554 0 0.0025731607375421781 -0.0005574212057490788 0 0.0028173498430997842 -0.0004510152742551554 0 0.0025493383010496444 -0.00033109420394291435 0 0.0028173498430997842 -0.0004510152742551554 0 0.0025493383010496444 -0.00033109420394291435 0 0.0028789126408411635 -0.00016682190778114178 0 0.0025493383010496444 -0.00033109420394291435 0 0.0024710945312889604 -0.0001139299289059733 0 0.0028789126408411635 -0.00016682190778114178 0 0.0025493383010496444 -0.00033109420394291435 0 0.0024057912185602528 -0.00040968726811802219 0 0.0023761696119336301 -0.00023915152840608915 0 0.0025493383010496444 -0.00033109420394291435 0 0.0023761696119336301 -0.00023915152840608915 0 0.0024710945312889604 -0.0001139299289059733 0 0.0023761696119336301 -0.00023915152840608915 0 0.0022897904273589779 -3.999224659121892e-05 0 0.0024710945312889604 -0.0001139299289059733 0 -0.0030499776773205969 -0.00024314675465998174 0 -0.00093558102885711917 -0.00019540631672748109 0 0.00071500485958759499 0.00023504413962337862 0 0.0022897904273589779 -3.999224659121892e-05 0 0.0024710945312889604 -0.0001139299289059733 0 0.0022963352397230405 2.8940163732742348e-05 0 0.0024710945312889604 -0.0001139299289059733 0 0.002604492872254221 -1.0712565021208598e-05 0 0.0028789126408411635 -0.00016682190778114178 0 0.0024710945312889604 -0.0001139299289059733 0 0.002604492872254221 -1.0712565021208598e-05 0 0.0022963352397230405 2.8940163732742348e-05 0 0.0022963352397230405 2.8940163732742348e-05 0 0.001905556053578443 0.00022880672152522045 0 0.0026176805494579477 0.00011832021620782776 0 0.001905556053578443 0.00022880672152522045 0 0.0027520055515361012 0.00032842274966481361 0 0.0026176805494579477 0.00011832021620782776 0 0.002604492872254221 -1.0712565021208598e-05 0 0.0022963352397230405 2.8940163732742348e-05 0 0.0026176805494579477 0.00011832021620782776 0 0.001905556053578443 0.00022880672152522045 0 0.0030220217397340498 0.00050063636816570923 0 0.0027520055515361012 0.00032842274966481361 0 -0.0012444126245251294 0.00013110105172515102 0 0.00099387108091188885 0.0011837884826866303 0 0.001905556053578443 0.00022880672152522045 0 0.00071500485958759499 0.00023504413962337862 0 0.0030220217397340498 0.00050063636816570923 0 -0.0027794078835709779 0.0010803754662382632 0 -0.0027373992648055214 0.00032442304083675499 0 -0.0020263704476340986 0.0013241724795623902 0 -0.0027794078835709779 0.0010803754662382632 0 -0.0027373992648055214 0.00032442304083675499 0 -0.0031033071613934637 0.0005655700529941845 0 0.00073354566600575158 -1.267294965320469e-05 0 0.0018171520318543183 0.00038205283587602993 0 -0.00093558102885711917 -0.00019540631672748109 0 0.001905556053578443 0.00022880672152522045 0 0.00071500485958759499 0.00023504413962337862 0 0.0022897904273589779 -3.999224659121892e-05 0 0.0022963352397230405 2.8940163732742348e-05 0 0.001905556053578443 0.00022880672152522045 0 -0.0027373992648055214 0.00032442304083675499 0 -0.0032439406132105755 0.00024678516738401579 0 -0.0031033071613934637 0.0005655700529941845 0 -0.0032430142380920806 1.7264049411046818e-06 0 -0.0027373992648055214 0.00032442304083675499 0 -0.0032439406132105755 0.00024678516738401579 0 -0.0032430142380920806 1.7264049411046818e-06 0 -0.0032439406132105755 0.00024678516738401579 0 -0.0037011265582488893 0.00011833580243017616 0 -0.0032439406132105755 0.00024678516738401579 0 -0.0037011265582488893 0.00011833580243017616 0 -0.0035186790755501332 0.00058913374414286195 0 -0.0044870492205433517 0.00020851555844647428 0 -0.0037011265582488893 0.00011833580243017616 0 -0.004093691750659329 0.00066419925362957164 0 -0.0039975277429914495 -0.00027792022790942183 0 -0.003610070341343613 -0.00019472346912350152 0 -0.0037011265582488893 0.00011833580243017616 0 -0.003610070341343613 -0.00019472346912350152 0 -0.0032430142380920806 1.7264049411046818e-06 0 -0.0037011265582488893 0.00011833580243017616 0 -0.0037011265582488893 0.00011833580243017616 0 -0.004093691750659329 0.00066419925362957164 0 -0.0035186790755501332 0.00058913374414286195 0 -0.004093691750659329 0.00066419925362957164 0 -0.0035186790755501332 0.00058913374414286195 0 -0.0037578527229322396 0.0011221731334476895 0 -0.0031033071613934637 0.0005655700529941845 0 -0.0035186790755501332 0.00058913374414286195 0 -0.0032568377411840155 0.00094162636425465637 0 -0.0032439406132105755 0.00024678516738401579 0 -0.0031033071613934637 0.0005655700529941845 0 -0.0035186790755501332 0.00058913374414286195 0 -0.0035186790755501332 0.00058913374414286195 0 -0.0032568377411840155 0.00094162636425465637 0 -0.0037578527229322396 0.0011221731334476895 0 -0.0027794078835709779 0.0010803754662382632 0 -0.0031033071613934637 0.0005655700529941845 0 -0.0032568377411840155 0.00094162636425465637 0 -0.0027794078835709779 0.0010803754662382632 0 -0.0032568377411840155 0.00094162636425465637 0 -0.0033837241728649423 0.00186521551254726 0 -0.0032568377411840155 0.00094162636425465637 0 -0.0033837241728649423 0.00186521551254726 0 -0.0037578527229322396 0.0011221731334476895 0 -0.0033837241728649423 0.00186521551254726 0 -0.0043219347153114918 0.001640292841078463 0 -0.0037578527229322396 0.0011221731334476895 0 -0.004093691750659329 0.00066419925362957164 0 -0.0043219347153114918 0.001640292841078463 0 -0.0037578527229322396 0.0011221731334476895 0 -0.0033837241728649423 0.00186521551254726 0 -0.0043219347153114918 0.001640292841078463 0 -0.0041572399139593397 0.0024101229826783066 0 -0.0022817041258617076 0.0033337019311161327 0 -0.0071743917507574419 -0.00032206713765353038 0 -0.0033837241728649423 0.00186521551254726 0 -0.0041572399139593397 0.0024101229826783066 0 -0.0038634061852662739 0.0029053422542744188 0 -0.0033837241728649423 0.00186521551254726 0 -0.003329347271480983 0.0027484081919126528 0 -0.0038634061852662739 0.0029053422542744188 0 -0.0026545603049974577 0.0018739970085955529 0 -0.0021548081487162874 0.0024393296450309207 0 -0.0029539110649199939 0.0025970898078276732 0 -0.0033837241728649423 0.00186521551254726 0 -0.0026545603049974577 0.0018739970085955529 0 -0.0029539110649199939 0.0025970898078276732 0 -0.0020263704476340986 0.0013241724795623902 0 -0.0013726613476782738 0.0022764248861423513 0 -0.0021548081487162874 0.0024393296450309207 0 -0.0026545603049974577 0.0018739970085955529 0 -0.0020263704476340986 0.0013241724795623902 0 -0.0021548081487162874 0.0024393296450309207 0 -0.0027794078835709779 0.0010803754662382632 0 -0.0033837241728649423 0.00186521551254726 0 -0.0026545603049974577 0.0018739970085955529 0 -0.0027794078835709779 0.0010803754662382632 0 -0.0026545603049974577 0.0018739970085955529 0 -0.0020263704476340986 0.0013241724795623902 0 0.0025261800238773617 0.00033030436051107831 0 0.0024648756260424666 -0.00057254938158361247 0 0.0019259558122033185 -0.00065567377543374766 0 0.0025261800238773617 0.00033030436051107831 0 0.002772270061276361 1.9856993481562622e-05 0 0.0024648756260424666 -0.00057254938158361247 0 0.002772270061276361 1.9856993481562622e-05 0 0.0028341210020175677 -0.00046523734278170316 0 0.0024648756260424666 -0.00057254938158361247 0 0.0025261800238773617 0.00033030436051107831 0 0.002772270061276361 1.9856993481562622e-05 0 0.002774816895817018 0.00031862650167543077 0 0.0030220217397340498 0.00050063636816570923 0 0.002772270061276361 1.9856993481562622e-05 0 0.002774816895817018 0.00031862650167543077 0 0.0030220217397340498 0.00050063636816570923 0 0.002772270061276361 1.9856993481562622e-05 0 0.0028341210020175677 -0.00046523734278170316 0 0.0030220217397340498 0.00050063636816570923 0 0.0028341210020175677 -0.00046523734278170316 0 0.0029962963869207752 -0.00098407669760079415 0 0.00099387108091188885 0.0011837884826866303 0 -0.0022122282895692806 -0.00034107313790610993 0 -0.0022122282895692806 -0.00034107313790610993 0 -0.005328346863827842 -7.9810137312339962e-05 0 0.0028341210020175677 -0.00046523734278170316 0 0.0029962963869207752 -0.00098407669760079415 0 0.0028103783806283523 -0.0010342757099193755 0 -0.0022122282895692806 -0.00034107313790610993 0 0.00057168245393906733 -0.00079903001954472462 0 0.003134618965731131 -0.0011090807117555405 0 0.0028103783806283523 -0.0010342757099193755 0 0.0025092705590691877 -0.0016312366401425437 0 0.0028103783806283523 -0.0010342757099193755 0 0.0024730354513850541 -0.0011887080740031997 0 0.0025092705590691877 -0.0016312366401425437 0 0.0028103783806283523 -0.0010342757099193755 0 0.0024730354513850541 -0.0011887080740031997 0 0.0026296660949209983 -0.00080969745081340512 0 0.0024730354513850541 -0.0011887080740031997 0 0.0026296660949209983 -0.00080969745081340512 0 0.0024648756260424666 -0.00057254938158361247 0 0.0028341210020175677 -0.00046523734278170316 0 0.0026296660949209983 -0.00080969745081340512 0 0.0024648756260424666 -0.00057254938158361247 0 0.0028341210020175677 -0.00046523734278170316 0 0.0028103783806283523 -0.0010342757099193755 0 0.0026296660949209983 -0.00080969745081340512 0 0.0024648756260424666 -0.00057254938158361247 0 0.0021366296493991106 -0.0013061209432061144 0 0.0019259558122033185 -0.00065567377543374766 0 0.0024730354513850541 -0.0011887080740031997 0 0.0024648756260424666 -0.00057254938158361247 0 0.0021366296493991106 -0.0013061209432061144 0 0.0024730354513850541 -0.0011887080740031997 0 0.0021366296493991106 -0.0013061209432061144 0 0.0025092705590691877 -0.0016312366401425437 0 0.0021366296493991106 -0.0013061209432061144 0 0.0017021594082228845 -0.0015352153455169628 0 0.0019259558122033185 -0.00065567377543374766 0 0.0017021594082228845 -0.0015352153455169628 0 0.0012103831156062559 -0.0015510681108460245 0 0.0019259558122033185 -0.00065567377543374766 0 0.0012103831156062559 -0.0015510681108460245 0 0.0019259558122033185 -0.00065567377543374766 0 0.0009367305780306227 -0.00075058814370346336 0 0.00014226627992884066 -0.0015831667652377718 0 0.0009367305780306227 -0.00075058814370346336 0 -0.00016729183362119778 -3.07661725563234e-05 0 0.0012103831156062559 -0.0015510681108460245 0 0.00014226627992884066 -0.0015831667652377718 0 0.0009367305780306227 -0.00075058814370346336 0 -0.00016729183362119778 -3.07661725563234e-05 0 0.0019884018592213788 0.0006818879631834637 0 -0.0012126019510065227 0.0010451938821715563 0 0.0009367305780306227 -0.00075058814370346336 0 -0.00016729183362119778 -3.07661725563234e-05 0 0.0019884018592213788 0.0006818879631834637 0 0.0025261800238773617 0.00033030436051107831 0 0.0019259558122033185 -0.00065567377543374766 0 0.0019884018592213788 0.0006818879631834637 0 0.0019259558122033185 -0.00065567377543374766 0 0.0009367305780306227 -0.00075058814370346336 0 0.0019884018592213788 0.0006818879631834637 0 0.0025261800238773617 0.00033030436051107831 0 0.0019884018592213788 0.0006818879631834637 0 0.0026734540508420424 0.00036800424972625802 0 0.0019884018592213788 0.0006818879631834637 0 0.0028748739101268398 0.000312061870291244 0 0.0026734540508420424 0.00036800424972625802 0 0.0019884018592213788 0.0006818879631834637 0 -0.0014351367198194977 0.0024671781453985005 0 -0.0012126019510065227 0.0010451938821715563 0 0.0019884018592213788 0.0006818879631834637 0 0.0028748739101268398 0.000312061870291244 0 0.0032481141316391972 0.00053833275324656005 0 0.0019490674256690931 0.00077165937221550598 0 0.00092898461467231575 0.0014044220742004999 0 0.0028748739101268398 0.000312061870291244 0 0.0034214823725876179 0.0001098012068992985 0 0.0032481141316391972 0.00053833275324656005 0 0.0028748739101268398 0.000312061870291244 0 0.0030778307932611366 9.7955272834491863e-05 0 0.0034214823725876179 0.0001098012068992985 0 0.0028748739101268398 0.000312061870291244 0 0.0026734540508420424 0.00036800424972625802 0 0.0030778307932611366 9.7955272834491863e-05 0 0.0026734540508420424 0.00036800424972625802 0 0.0027922736485721748 0.00029731974901459941 0 0.0031182365909075615 -1.5302484912000091e-05 0 0.0025261800238773617 0.00033030436051107831 0 0.0027922736485721748 0.00029731974901459941 0 0.002774816895817018 0.00031862650167543077 0 0.0025261800238773617 0.00033030436051107831 0 0.0026734540508420424 0.00036800424972625802 0 0.0027922736485721748 0.00029731974901459941 0 0.0027922736485721748 0.00029731974901459941 0 0.0027520055515361012 0.00032842274966481361 0 0.002774816895817018 0.00031862650167543077 0 0.0030220217397340498 0.00050063636816570923 0 0.0027520055515361012 0.00032842274966481361 0 0.002774816895817018 0.00031862650167543077 0 0.0027922736485721748 0.00029731974901459941 0 0.0026176805494579477 0.00011832021620782776 0 0.0028295565796981944 3.916310793638376e-05 0 0.0027922736485721748 0.00029731974901459941 0 0.0027520055515361012 0.00032842274966481361 0 0.0026176805494579477 0.00011832021620782776 0 0.0028295565796981944 3.916310793638376e-05 0 0.0031182365909075615 -1.5302484912000091e-05 0 0.0028789126408411635 -0.00016682190778114178 0 0.002604492872254221 -1.0712565021208598e-05 0 0.0026176805494579477 0.00011832021620782776 0 0.0028295565796981944 3.916310793638376e-05 0 0.002604492872254221 -1.0712565021208598e-05 0 0.0028295565796981944 3.916310793638376e-05 0 0.0028789126408411635 -0.00016682190778114178 0 0.0027922736485721748 0.00029731974901459941 0 0.0028295565796981944 3.916310793638376e-05 0 0.0031182365909075615 -1.5302484912000091e-05 0 0.0031182365909075615 -1.5302484912000091e-05 0 0.003588934935902286 -0.00044795190110835534 0 0.0033271131109271716 -0.00011962975896784388 0 0.0031182365909075615 -1.5302484912000091e-05 0 0.0028789126408411635 -0.00016682190778114178 0 0.003588934935902286 -0.00044795190110835534 0 0.0028173498430997842 -0.0004510152742551554 0 0.0028789126408411635 -0.00016682190778114178 0 0.003588934935902286 -0.00044795190110835534 0 0.0027932902525172418 -0.00078407523885890538 0 0.0028173498430997842 -0.0004510152742551554 0 0.003588934935902286 -0.00044795190110835534 0 0.0037953047221400971 -0.00048936347135348178 0 0.0036652984562904945 -0.00044900635202290665 0 0.003588934935902286 -0.00044795190110835534 0 0.0044390127725276495 -0.00027262061539304967 0 0.0037997401401370684 -0.00038139772573229485 0 0.0044045622688569635 -0.00022200749350471767 0 0.0044390127725276495 -0.00027262061539304967 0 0.0037997401401370684 -0.00038139772573229485 0 0.0048437776321676347 -0.00028506441626627966 0 0.003588934935902286 -0.00044795190110835534 0 0.0044390127725276495 -0.00027262061539304967 0 0.0051128822741964598 -0.00031081525545612694 0 0.0048437776321676347 -0.00028506441626627966 0 0.0044390127725276495 -0.00027262061539304967 0 0.0039489687878867114 -0.0002961880034368372 0 0.0037944587637753348 -0.00035098537264375207 0 0.0037997401401370684 -0.00038139772573229485 0 0.0038318293368677938 -0.00025017005056749949 0 0.0039489687878867114 -0.0002961880034368372 0 0.0037944587637753348 -0.00035098537264375207 0 0.0039489687878867114 -0.0002961880034368372 0 0.0044045622688569635 -0.00022200749350471767 0 0.0037997401401370684 -0.00038139772573229485 0 0.0037997401401370684 -0.00038139772573229485 0 0.0035620654719594599 -0.00022285775146007304 0 0.0033271131109271716 -0.00011962975896784388 0 0.003588934935902286 -0.00044795190110835534 0 0.0037997401401370684 -0.00038139772573229485 0 0.0033271131109271716 -0.00011962975896784388 0 0.0036141936263018688 -0.00027826707931783844 0 0.0035972061980510178 -0.00024670575662643691 0 0.0035425076159903645 -0.0002455185378450399 0 0.0035620654719594599 -0.00022285775146007304 0 0.0034905746378912409 -0.00010370578445070578 0 0.0037944587637753348 -0.00035098537264375207 0 0.0037997401401370684 -0.00038139772573229485 0 0.0035620654719594599 -0.00022285775146007304 0 0.0035620654719594599 -0.00022285775146007304 0 0.0033271131109271716 -0.00011962975896784388 0 0.0034905746378912409 -0.00010370578445070578 0 0.0031182365909075615 -1.5302484912000091e-05 0 0.0033271131109271716 -0.00011962975896784388 0 0.0030778307932611366 9.7955272834491863e-05 0 0.0026734540508420424 0.00036800424972625802 0 0.0031182365909075615 -1.5302484912000091e-05 0 0.0030778307932611366 9.7955272834491863e-05 0 0.0033271131109271716 -0.00011962975896784388 0 0.0030778307932611366 9.7955272834491863e-05 0 0.0034905746378912409 -0.00010370578445070578 0 0.0030778307932611366 9.7955272834491863e-05 0 0.0034214823725876179 0.0001098012068992985 0 0.0034905746378912409 -0.00010370578445070578 0 0.0034214823725876179 0.0001098012068992985 0 0.0037675883630333184 9.0632615859248021e-05 0 0.0036418277164648682 0.00032352557760643817 0 0.0034214823725876179 0.0001098012068992985 0 0.0037675883630333184 9.0632615859248021e-05 0 0.0036289571468025874 -4.9293254095964813e-05 0 0.0037675883630333184 9.0632615859248021e-05 0 0.0036289571468025874 -4.9293254095964813e-05 0 0.0038132290331447864 -0.00010291286712142468 0 0.0034214823725876179 0.0001098012068992985 0 0.0036289571468025874 -4.9293254095964813e-05 0 0.0034905746378912409 -0.00010370578445070578 0 0.0036289571468025874 -4.9293254095964813e-05 0 0.0034905746378912409 -0.00010370578445070578 0 0.0036360758277277985 -0.00017296284161643529 0 0.0035425076159903645 -0.0002455185378450399 0 0.0034905746378912409 -0.00010370578445070578 0 0.0036360758277277985 -0.00017296284161643529 0 0.0035425076159903645 -0.0002455185378450399 0 0.0036360758277277985 -0.00017296284161643529 0 0.0036463055978409216 -0.00028660392344275436 0 0.0036289571468025874 -4.9293254095964813e-05 0 0.0036360758277277985 -0.00017296284161643529 0 0.0038132290331447864 -0.00010291286712142468 0 0.0036360758277277985 -0.00017296284161643529 0 0.0038132290331447864 -0.00010291286712142468 0 0.0037897249635162767 -0.00031438851497497464 0 0.0038132290331447864 -0.00010291286712142468 0 0.0037897249635162767 -0.00031438851497497464 0 0.0039143307244871046 -0.00021248858132433415 0 0.0036360758277277985 -0.00017296284161643529 0 0.0037897249635162767 -0.00031438851497497464 0 0.0036463055978409216 -0.00028660392344275436 0 0.0037897249635162767 -0.00031438851497497464 0 0.0038827368821131034 -0.00042123131230776758 0 0.0039143307244871046 -0.00021248858132433415 0 0.0037545490487202217 -0.0004522618026328884 0 0.0037897249635162767 -0.00031438851497497464 0 0.0038827368821131034 -0.00042123131230776758 0 0.0041354728373318769 -0.00027201364309169192 0 0.0036462769745280259 -0.00043506581387674453 0 0.0036388881136731168 -0.00042087015869873438 0 0.0037897249635162767 -0.00031438851497497464 0 0.0036463055978409216 -0.00028660392344275436 0 0.0036321088560224125 -0.00048269522570562975 0 0.0037545490487202217 -0.0004522618026328884 0 0.0037897249635162767 -0.00031438851497497464 0 0.0036981774194091059 -0.00024142417579851375 0 0.0038318293368677938 -0.00025017005056749949 0 0.0037944587637753348 -0.00035098537264375207 0 0.0036388881136731168 -0.00042087015869873438 0 0.0035425076159903645 -0.0002455185378450399 0 0.0036463055978409216 -0.00028660392344275436 0 0.0041354728373318769 -0.00027201364309169192 0 0.0036141936263018688 -0.00027826707931783844 0 0.0043982033994907615 6.1752668075649951e-05 0 0.0041549331976190413 -5.814685183804835e-05 0 0.0041459768141109098 -0.00012513835732326037 0 0.0043982033994907615 6.1752668075649951e-05 0 0.0043325281685533826 8.3480229249707671e-05 0 0.0041549331976190413 -5.814685183804835e-05 0 0.0043982033994907615 6.1752668075649951e-05 0 0.0045248800607864022 5.4117660855874558e-05 0 0.0041459768141109098 -0.00012513835732326037 0 0.0038827368821131034 -0.00042123131230776758 0 0.0039143307244871046 -0.00021248858132433415 0 0.0041459768141109098 -0.00012513835732326037 0 0.0041116053306231868 -0.00024889033469039002 0 0.0042012256630893849 -9.6562868446078357e-05 0 0.0038132290331447864 -0.00010291286712142468 0 0.0041459768141109098 -0.00012513835732326037 0 0.003937849342741823 2.732718442218254e-05 0 0.0041459768141109098 -0.00012513835732326037 0 0.0040618629588324174 -4.9835380844949584e-05 0 0.003937849342741823 2.732718442218254e-05 0 0.0038132290331447864 -0.00010291286712142468 0 0.0039143307244871046 -0.00021248858132433415 0 0.0041459768141109098 -0.00012513835732326037 0 0.0040417391829526087 -2.9317633584794602e-05 0 0.0041549331976190413 -5.814685183804835e-05 0 0.0040618629588324174 -4.9835380844949584e-05 0 0.0041549331976190413 -5.814685183804835e-05 0 0.0041459768141109098 -0.00012513835732326037 0 0.0040618629588324174 -4.9835380844949584e-05 0 0.0040417391829526087 -2.9317633584794602e-05 0 0.0040618629588324174 -4.9835380844949584e-05 0 0.003937849342741823 2.732718442218254e-05 0 0.0039505538133616071 0.00014376767679199841 0 0.0040417391829526087 -2.9317633584794602e-05 0 0.003937849342741823 2.732718442218254e-05 0 0.0037675883630333184 9.0632615859248021e-05 0 0.0038132290331447864 -0.00010291286712142468 0 0.003937849342741823 2.732718442218254e-05 0 0.0037675883630333184 9.0632615859248021e-05 0 0.0038165416434702221 0.00022351213377632084 0 0.0036418277164648682 0.00032352557760643817 0 0.0037675883630333184 9.0632615859248021e-05 0 0.003937849342741823 2.732718442218254e-05 0 0.0038165416434702221 0.00022351213377632084 0 -0.0062406190948218754 0.0035780197538383064 0 -0.0065175641927517286 0.0022461285013549866 0 -0.0052601523697452723 0.0031389573638848671 0 -0.00133567424359744 0.001158109371384873 0 -0.00070742995150916202 0.0017595930725740484 0 0.0039505538133616071 0.00014376767679199841 0 0.003937849342741823 2.732718442218254e-05 0 0.0038165416434702221 0.00022351213377632084 0 -0.0065175641927517286 0.0022461285013549866 0 -0.0052601523697452723 0.0031389573638848671 0 -0.0055908898214597786 0.0021723205124172247 0 -0.0065175641927517286 0.0022461285013549866 0 -0.0066989592350661011 0.00052775215304951483 0 -0.0059879516103094462 0.001296357157925911 0 -0.0065175641927517286 0.0022461285013549866 0 -0.0055908898214597786 0.0021723205124172247 0 -0.0059879516103094462 0.001296357157925911 0 -0.0055908898214597786 0.0021723205124172247 0 -0.0051226752868630612 0.0012069749013404528 0 -0.0039631912793232794 0.0028710679192889359 0 -0.0055908898214597786 0.0021723205124172247 0 -0.0059879516103094462 0.001296357157925911 0 -0.0051226752868630612 0.0012069749013404528 0 -0.00070742995150916202 0.0017595930725740484 0 -0.00010421903197410678 0.0015953677350532679 0 -0.0052601523697452723 0.0031389573638848671 0 -0.0055908898214597786 0.0021723205124172247 0 -0.0039631912793232794 0.0028710679192889359 0 -0.00010421903197410678 0.0015953677350532679 0 0.00092898461467231575 0.0014044220742004999 0 0.0034214823725876179 0.0001098012068992985 0 0.0036418277164648682 0.00032352557760643817 0 0.0032481141316391972 0.00053833275324656005 0 -0.0039631912793232794 0.0028710679192889359 0 -0.0014351367198194977 0.0024671781453985005 0 -0.002940071475046721 0.001666427427305152 0 -0.002940071475046721 0.001666427427305152 0 -0.0012126019510065227 0.0010451938821715563 0 -0.0027867962573167922 0.00065023033326286675 0 -0.002940071475046721 0.001666427427305152 0 -0.0036029542664170705 0.00094900650426577569 0 -0.0027867962573167922 0.00065023033326286675 0 -0.0014351367198194977 0.0024671781453985005 0 -0.002940071475046721 0.001666427427305152 0 -0.0012126019510065227 0.0010451938821715563 0 -0.0051226752868630612 0.0012069749013404528 0 -0.0039631912793232794 0.0028710679192889359 0 -0.0040215180095504724 0.0015018699653788119 0 -0.0039631912793232794 0.0028710679192889359 0 -0.002940071475046721 0.001666427427305152 0 -0.0040215180095504724 0.0015018699653788119 0 -0.002940071475046721 0.001666427427305152 0 -0.0040215180095504724 0.0015018699653788119 0 -0.0036029542664170705 0.00094900650426577569 0 -0.0040215180095504724 0.0015018699653788119 0 -0.0042748818886448161 0.00068192043172060374 0 -0.0036029542664170705 0.00094900650426577569 0 -0.0051226752868630612 0.0012069749013404528 0 -0.0040215180095504724 0.0015018699653788119 0 -0.0042748818886448161 0.00068192043172060374 0 -0.0042748818886448161 0.00068192043172060374 0 -0.0036029542664170705 0.00094900650426577569 0 -0.0035419795362388209 0.00023183547762029751 0 -0.0036029542664170705 0.00094900650426577569 0 -0.0035419795362388209 0.00023183547762029751 0 -0.0027867962573167922 0.00065023033326286675 0 -0.0042748818886448161 0.00068192043172060374 0 -0.0035419795362388209 0.00023183547762029751 0 -0.0043214859551275291 -3.1285977199528838e-05 0 -0.0035419795362388209 0.00023183547762029751 0 -0.0043214859551275291 -3.1285977199528838e-05 0 -0.0041618561453946228 -0.00029470263814471213 0 -0.0043214859551275291 -3.1285977199528838e-05 0 -0.0049328961420936806 -0.00012068818274871534 0 -0.0047691205982846986 0.00033544414368112414 0 -0.0042748818886448161 0.00068192043172060374 0 -0.0043214859551275291 -3.1285977199528838e-05 0 -0.0047691205982846986 0.00033544414368112414 0 -0.0035419795362388209 0.00023183547762029751 0 -0.0027867962573167922 0.00065023033326286675 0 -0.0025633851988244418 -0.0014412050070508275 0 -0.00064192426756272002 -0.0014402883409846052 0 -0.0027399283544866666 0.00063457177014062663 0 -0.00016729183362119778 -3.07661725563234e-05 0 -0.0012126019510065227 0.0010451938821715563 0 -0.0027867962573167922 0.00065023033326286675 0 0.00014226627992884066 -0.0015831667652377718 0 -0.00016729183362119778 -3.07661725563234e-05 0 -0.0027867962573167922 0.00065023033326286675 0 -0.0036237040863434673 0.00014519711763327152 0 -0.0033544208564280347 -0.00092649134248614794 0 -0.0035419795362388209 0.00023183547762029751 0 -0.0041478884756596408 -0.00055998387730055339 0 -0.0041618561453946228 -0.00029470263814471213 0 -0.0016587654978586401 -0.0014347308770079996 0 -0.0027867962573167922 0.00065023033326286675 0 -0.0025633851988244418 -0.0014412050070508275 0 -0.0041478884756596408 -0.00055998387730055339 0 -0.0041618561453946228 -0.00029470263814471213 0 -0.0044059156652672508 -0.00060244274064586464 0 -0.0041478884756596408 -0.00055998387730055339 0 -0.0044059156652672508 -0.00060244274064586464 0 -0.0046226958754161177 -0.00097574181149987697 0 -0.0043214859551275291 -3.1285977199528838e-05 0 -0.0045375508116092178 -0.00040917242497645639 0 -0.0049328961420936806 -0.00012068818274871534 0 -0.0045375508116092178 -0.00040917242497645639 0 -0.0051078268114578404 -0.00051556413318009254 0 -0.0049328961420936806 -0.00012068818274871534 0 -0.0043214859551275291 -3.1285977199528838e-05 0 -0.0045375508116092178 -0.00040917242497645639 0 -0.0041618561453946228 -0.00029470263814471213 0 -0.0045375508116092178 -0.00040917242497645639 0 -0.0041618561453946228 -0.00029470263814471213 0 -0.0044059156652672508 -0.00060244274064586464 0 -0.0045375508116092178 -0.00040917242497645639 0 -0.0044059156652672508 -0.00060244274064586464 0 -0.0047955722428522215 -0.00074067081338448663 0 -0.0045375508116092178 -0.00040917242497645639 0 -0.0047955722428522215 -0.00074067081338448663 0 -0.0051078268114578404 -0.00051556413318009254 0 -0.0047955722428522215 -0.00074067081338448663 0 -0.0051078268114578404 -0.00051556413318009254 0 -0.0051833102275130397 -0.00082769057448100016 0 -0.0051078268114578404 -0.00051556413318009254 0 -0.0055669821408837706 -0.00069403989208004734 0 -0.0051833102275130397 -0.00082769057448100016 0 -0.0051078268114578404 -0.00051556413318009254 0 -0.0055013932126982325 -0.00022806593104022341 0 -0.0055669821408837706 -0.00069403989208004734 0 -0.0049328961420936806 -0.00012068818274871534 0 -0.0055013932126982325 -0.00022806593104022341 0 -0.005299931915864203 0.00026300082132152478 0 -0.0051078268114578404 -0.00051556413318009254 0 -0.0049328961420936806 -0.00012068818274871534 0 -0.0055013932126982325 -0.00022806593104022341 0 -0.0055013932126982325 -0.00022806593104022341 0 -0.0055669821408837706 -0.00069403989208004734 0 -0.0060834298693813607 -0.00046142158731495887 0 -0.0066989592350661011 0.00052775215304951483 0 -0.0067017927660588021 -0.00087820521130513394 0 -0.0060834298693813607 -0.00046142158731495887 0 -0.0055013932126982325 -0.00022806593104022341 0 -0.0060834298693813607 -0.00046142158731495887 0 -0.0059130801612410442 0.00031937972912736006 0 -0.0066989592350661011 0.00052775215304951483 0 -0.0060834298693813607 -0.00046142158731495887 0 -0.0059130801612410442 0.00031937972912736006 0 -0.0066989592350661011 0.00052775215304951483 0 -0.0059879516103094462 0.001296357157925911 0 -0.0059130801612410442 0.00031937972912736006 0 -0.0051226752868630612 0.0012069749013404528 0 -0.0059130801612410442 0.00031937972912736006 0 -0.005299931915864203 0.00026300082132152478 0 -0.0059879516103094462 0.001296357157925911 0 -0.0051226752868630612 0.0012069749013404528 0 -0.0059130801612410442 0.00031937972912736006 0 -0.0051226752868630612 0.0012069749013404528 0 -0.0047691205982846986 0.00033544414368112414 0 -0.005299931915864203 0.00026300082132152478 0 -0.0051226752868630612 0.0012069749013404528 0 -0.0042748818886448161 0.00068192043172060374 0 -0.0047691205982846986 0.00033544414368112414 0 -0.0049328961420936806 -0.00012068818274871534 0 -0.0047691205982846986 0.00033544414368112414 0 -0.005299931915864203 0.00026300082132152478 0 -0.0055013932126982325 -0.00022806593104022341 0 -0.0059130801612410442 0.00031937972912736006 0 -0.005299931915864203 0.00026300082132152478 0 -0.0059694877855523973 -0.0014761115765089322 0 -0.0054218663855015699 -0.001428559994970292 0 -0.0055977639211395348 -0.0018440786135495268 0 -0.0059694877855523973 -0.0014761115765089322 0 -0.0064147232557518422 -0.0017762859403115533 0 -0.0061128686549156959 -0.0019888566781848492 0 -0.0059694877855523973 -0.0014761115765089322 0 -0.0055977639211395348 -0.0018440786135495268 0 -0.0061128686549156959 -0.0019888566781848492 0 -0.0068589943569202635 -0.0018319460990969766 0 -0.0067017927660588021 -0.00087820521130513394 0 -0.0064464304945159806 -0.0013500625359674232 0 -0.0068589943569202635 -0.0018319460990969766 0 -0.0064147232557518422 -0.0017762859403115533 0 -0.0064464304945159806 -0.0013500625359674232 0 -0.0059694877855523973 -0.0014761115765089322 0 -0.0064147232557518422 -0.0017762859403115533 0 -0.0064464304945159806 -0.0013500625359674232 0 -0.0064464304945159806 -0.0013500625359674232 0 -0.0063149623822903742 -0.00095937885826890418 0 -0.0059324147326829781 -0.00098457902061023072 0 -0.0059694877855523973 -0.0014761115765089322 0 -0.0064464304945159806 -0.0013500625359674232 0 -0.0059324147326829781 -0.00098457902061023072 0 -0.0067017927660588021 -0.00087820521130513394 0 -0.0064464304945159806 -0.0013500625359674232 0 -0.0063149623822903742 -0.00095937885826890418 0 -0.0067017927660588021 -0.00087820521130513394 0 -0.0060834298693813607 -0.00046142158731495887 0 -0.0063149623822903742 -0.00095937885826890418 0 -0.0060834298693813607 -0.00046142158731495887 0 -0.0063149623822903742 -0.00095937885826890418 0 -0.0059324147326829781 -0.00098457902061023072 0 -0.0055669821408837706 -0.00069403989208004734 0 -0.0060834298693813607 -0.00046142158731495887 0 -0.0059324147326829781 -0.00098457902061023072 0 -0.0055669821408837706 -0.00069403989208004734 0 -0.0059324147326829781 -0.00098457902061023072 0 -0.0055196739982874042 -0.0010962800623258641 0 -0.0059694877855523973 -0.0014761115765089322 0 -0.0059324147326829781 -0.00098457902061023072 0 -0.0055196739982874042 -0.0010962800623258641 0 -0.0059694877855523973 -0.0014761115765089322 0 -0.0054218663855015699 -0.001428559994970292 0 -0.0055196739982874042 -0.0010962800623258641 0 -0.0054218663855015699 -0.001428559994970292 0 -0.0055196739982874042 -0.0010962800623258641 0 -0.0050825174229834486 -0.0011029470193587997 0 -0.0055669821408837706 -0.00069403989208004734 0 -0.0055196739982874042 -0.0010962800623258641 0 -0.0051833102275130397 -0.00082769057448100016 0 -0.0055196739982874042 -0.0010962800623258641 0 -0.0051833102275130397 -0.00082769057448100016 0 -0.0050825174229834486 -0.0011029470193587997 0 -0.0047955722428522215 -0.00074067081338448663 0 -0.0051833102275130397 -0.00082769057448100016 0 -0.0050825174229834486 -0.0011029470193587997 0 -0.0044059156652672508 -0.00060244274064586464 0 -0.0047955722428522215 -0.00074067081338448663 0 -0.0046226958754161177 -0.00097574181149987697 0 -0.0047955722428522215 -0.00074067081338448663 0 -0.0046226958754161177 -0.00097574181149987697 0 -0.0050825174229834486 -0.0011029470193587997 0 -0.0046226958754161177 -0.00097574181149987697 0 -0.0050825174229834486 -0.0011029470193587997 0 -0.0049996090988039445 -0.0015293303777883056 0 -0.0033544208564280347 -0.00092649134248614794 0 -0.0028476880081278956 -0.0018913417275487096 0 -0.0016587654978586401 -0.0014347308770079996 0 -0.0025633851988244418 -0.0014412050070508275 0 -0.0018273771163497465 -0.0027560740579404205 0 -0.0041478884756596408 -0.00055998387730055339 0 -0.0045038002785215874 -0.0012742444537005607 0 -0.0041287299575043859 -0.0011944789975799164 0 -0.0041478884756596408 -0.00055998387730055339 0 -0.0046226958754161177 -0.00097574181149987697 0 -0.0045038002785215874 -0.0012742444537005607 0 -0.0046226958754161177 -0.00097574181149987697 0 -0.0045038002785215874 -0.0012742444537005607 0 -0.0049996090988039445 -0.0015293303777883056 0 -0.0045038002785215874 -0.0012742444537005607 0 -0.0045667850737526302 -0.0018169593860042899 0 -0.0041287299575043859 -0.0011944789975799164 0 -0.0045667850737526302 -0.0018169593860042899 0 -0.0049996090988039445 -0.0015293303777883056 0 -0.0052460964320472101 -0.0022195244547683463 0 -0.0045038002785215874 -0.0012742444537005607 0 -0.0045667850737526302 -0.0018169593860042899 0 -0.0049996090988039445 -0.0015293303777883056 0 -0.0055977639211395348 -0.0018440786135495268 0 -0.0049996090988039445 -0.0015293303777883056 0 -0.0052460964320472101 -0.0022195244547683463 0 -0.0054218663855015699 -0.001428559994970292 0 -0.0050825174229834486 -0.0011029470193587997 0 -0.0049996090988039445 -0.0015293303777883056 0 -0.0054218663855015699 -0.001428559994970292 0 -0.0055977639211395348 -0.0018440786135495268 0 -0.0049996090988039445 -0.0015293303777883056 0 -0.0052460964320472101 -0.0022195244547683463 0 -0.0056857150829001122 -0.00286231216964466 0 -0.0058734882322917601 -0.0023967809887248817 0 -0.0055977639211395348 -0.0018440786135495268 0 -0.0052460964320472101 -0.0022195244547683463 0 -0.0058734882322917601 -0.0023967809887248817 0 -0.0045667850737526302 -0.0018169593860042899 0 -0.0052460964320472101 -0.0022195244547683463 0 -0.0046936883907179308 -0.0028382438151283904 0 -0.0046936883907179308 -0.0028382438151283904 0 -0.0056857150829001122 -0.00286231216964466 0 -0.0056919722382868304 -0.0031751361138858138 0 -0.0052460964320472101 -0.0022195244547683463 0 -0.0046936883907179308 -0.0028382438151283904 0 -0.0056857150829001122 -0.00286231216964466 0 -0.0056857150829001122 -0.00286231216964466 0 -0.0060934094264533138 -0.0029132926042168142 0 -0.0058734882322917601 -0.0023967809887248817 0 -0.0056857150829001122 -0.00286231216964466 0 -0.0060934094264533138 -0.0029132926042168142 0 -0.0060857647959250477 -0.0033190424510280403 0 -0.0063428114298602059 -0.0027276685720114984 0 -0.0066739928711673831 -0.0029481556742046262 0 -0.0064797288459016288 -0.0032031843556267455 0 -0.0060934094264533138 -0.0029132926042168142 0 -0.0063428114298602059 -0.0027276685720114984 0 -0.0064797288459016288 -0.0032031843556267455 0 -0.0060934094264533138 -0.0029132926042168142 0 -0.0063428114298602059 -0.0027276685720114984 0 -0.0058734882322917601 -0.0023967809887248817 0 -0.0058734882322917601 -0.0023967809887248817 0 -0.0063292139805555935 -0.0023693153064172088 0 -0.0061128686549156959 -0.0019888566781848492 0 -0.0063428114298602059 -0.0027276685720114984 0 -0.0058734882322917601 -0.0023967809887248817 0 -0.0063292139805555935 -0.0023693153064172088 0 -0.0055977639211395348 -0.0018440786135495268 0 -0.0058734882322917601 -0.0023967809887248817 0 -0.0061128686549156959 -0.0019888566781848492 0 -0.0068589943569202635 -0.0018319460990969766 0 -0.0064147232557518422 -0.0017762859403115533 0 -0.0066674744103570006 -0.0022393370555598212 0 -0.0068589943569202635 -0.0018319460990969766 0 -0.0069680430460410522 -0.0021791425485304604 0 -0.0066674744103570006 -0.0022393370555598212 0 -0.0064147232557518422 -0.0017762859403115533 0 -0.0061128686549156959 -0.0019888566781848492 0 -0.0066674744103570006 -0.0022393370555598212 0 -0.0063292139805555935 -0.0023693153064172088 0 -0.0061128686549156959 -0.0019888566781848492 0 -0.0066674744103570006 -0.0022393370555598212 0 -0.0063292139805555935 -0.0023693153064172088 0 -0.0066674744103570006 -0.0022393370555598212 0 -0.0066330336343379277 -0.0025816680804149656 0 -0.0066674744103570006 -0.0022393370555598212 0 -0.0069363237070751713 -0.0024547607110495247 0 -0.0066330336343379277 -0.0025816680804149656 0 -0.0069680430460410522 -0.0021791425485304604 0 -0.0066674744103570006 -0.0022393370555598212 0 -0.0069363237070751713 -0.0024547607110495247 0 -0.0069363237070751713 -0.0024547607110495247 0 -0.0069212969141858142 -0.002782164855664663 0 -0.0066330336343379277 -0.0025816680804149656 0 -0.0069212969141858142 -0.002782164855664663 0 -0.0066330336343379277 -0.0025816680804149656 0 -0.0066739928711673831 -0.0029481556742046262 0 -0.0063428114298602059 -0.0027276685720114984 0 -0.0066330336343379277 -0.0025816680804149656 0 -0.0066739928711673831 -0.0029481556742046262 0 -0.0063428114298602059 -0.0027276685720114984 0 -0.0063292139805555935 -0.0023693153064172088 0 -0.0066330336343379277 -0.0025816680804149656 0 -0.0069212969141858142 -0.002782164855664663 0 -0.0066739928711673831 -0.0029481556742046262 0 -0.0069073007674466452 -0.0030191978307252372 0 -0.0066739928711673831 -0.0029481556742046262 0 -0.0069073007674466452 -0.0030191978307252372 0 -0.0068784520869412547 -0.0032204312879864638 0 -0.0070919180735529884 -0.0030086744898468825 0 -0.0069212969141858142 -0.002782164855664663 0 -0.0069073007674466452 -0.0030191978307252372 0 -0.0070919180735529884 -0.0030086744898468825 0 -0.0069073007674466452 -0.0030191978307252372 0 -0.0070768829986261779 -0.0032071562769670344 0 -0.0069073007674466452 -0.0030191978307252372 0 -0.0070768829986261779 -0.0032071562769670344 0 -0.0068784520869412547 -0.0032204312879864638 0 -0.0070768829986261779 -0.0032071562769670344 0 -0.0068784520869412547 -0.0032204312879864638 0 -0.0070498484449565387 -0.0034243535173774991 0 -0.0066739928711673831 -0.0029481556742046262 0 -0.0068784520869412547 -0.0032204312879864638 0 -0.0064797288459016288 -0.0032031843556267455 0 -0.0068784520869412547 -0.0032204312879864638 0 -0.0067860846147886717 -0.0034418416524186349 0 -0.0064797288459016288 -0.0032031843556267455 0 -0.0067860846147886717 -0.0034418416524186349 0 -0.0070498484449565387 -0.0034243535173774991 0 -0.0070672291183564093 -0.0036896549805009366 0 -0.0068784520869412547 -0.0032204312879864638 0 -0.0067860846147886717 -0.0034418416524186349 0 -0.0070498484449565387 -0.0034243535173774991 0 -0.0060934094264533138 -0.0029132926042168142 0 -0.0064797288459016288 -0.0032031843556267455 0 -0.0060857647959250477 -0.0033190424510280403 0 -0.0067860846147886717 -0.0034418416524186349 0 -0.0064797288459016288 -0.0032031843556267455 0 -0.0065800767787822928 -0.0036068696392201434 0 -0.0064797288459016288 -0.0032031843556267455 0 -0.0065800767787822928 -0.0036068696392201434 0 -0.0060857647959250477 -0.0033190424510280403 0 -0.0065800767787822928 -0.0036068696392201434 0 -0.0061386015775792262 -0.0034751227088950843 0 -0.0060857647959250477 -0.0033190424510280403 0 -0.0065800767787822928 -0.0036068696392201434 0 -0.0070906729333921224 -0.0040749072036899538 0 -0.0067890891618958317 -0.0039138175636337655 0 -0.0065800767787822928 -0.0036068696392201434 0 -0.0061876383368074011 -0.0034663615069775652 0 -0.0061386015775792262 -0.0034751227088950843 0 -0.0060905785579090394 -0.0044157518632445651 0 -0.010212708783668183 -0.0024455433464959427 0 -0.007344773248120811 -0.0039088475562695643 0 -0.0070672291183564093 -0.0036896549805009366 0 -0.0070906729333921224 -0.0040749072036899538 0 -0.0067860846147886717 -0.0034418416524186349 0 -0.0065800767787822928 -0.0036068696392201434 0 -0.0070672291183564093 -0.0036896549805009366 0 -0.0065800767787822928 -0.0036068696392201434 0 -0.0070672291183564093 -0.0036896549805009366 0 -0.0070906729333921224 -0.0040749072036899538 0 -0.0072267279269098801 -0.0035691882261099941 0 -0.0070498484449565387 -0.0034243535173774991 0 -0.0070672291183564093 -0.0036896549805009366 0 -0.018616939889337766 -0.0013273893347250485 0 -0.018693272451353462 -0.001284583683717555 0 -0.018415873381685991 -0.0012376177249306198 0 -0.013893517606226254 -0.0025056523694723322 0 -0.013056906641396583 -0.0027416103426362391 0 -0.018415873381685991 -0.0012376177249306198 0 -0.018557555344741326 -0.0013432759942469301 0 -0.018597822248385659 -0.0013602388175250827 0 -0.018616939889337766 -0.0013273893347250485 0 -0.018415873381685991 -0.0012376177249306198 0 -0.018597822248385659 -0.0013602388175250827 0 -0.018415873381685991 -0.0012376177249306198 0 -0.018557555344741326 -0.0013432759942469301 0 -0.018300238842901474 -0.0012529375081146656 0 -0.013056906641396583 -0.0027416103426362391 0 -0.010212708783668183 -0.0024455433464959427 0 -0.018557555344741326 -0.0013432759942469301 0 -0.018843008939831898 -0.0014051183053277129 0 -0.018765411811136709 -0.0014525119894529639 0 -0.018557555344741326 -0.0013432759942469301 0 -0.018597822248385659 -0.0013602388175250827 0 -0.018765411811136709 -0.0014525119894529639 0 -0.018677172109596192 -0.0013474768970415723 0 -0.018597822248385659 -0.0013602388175250827 0 -0.018680466843136928 -0.0014024740475566285 0 -0.018650142584368836 -0.0013279156867604526 0 -0.018843008939831898 -0.0014051183053277129 0 -0.018588066228053667 -0.0014061875234514056 0 -0.006472853191345552 -0.00083204765569086406 0 -0.0080133672019156565 -0.00087404003512965979 0 -0.0079421805670055121 0.00084332788601708354 0 -0.012830153894578122 -0.0008659138841162488 0 -0.012899733752434117 -0.00038486644845294712 0 -0.018557555344741326 -0.0013432759942469301 0 -0.018650142584368836 -0.0013279156867604526 0 -0.018843008939831898 -0.0014051183053277129 0 -0.018557555344741326 -0.0013432759942469301 0 -0.018650142584368836 -0.0013279156867604526 0 -0.018300238842901474 -0.0012529375081146656 0 -0.006472853191345552 -0.00083204765569086406 0 -0.0068079901295624206 -0.0020133683361850921 0 -0.0049664977762958872 -0.0025711743298138562 0 -0.012830153894578122 -0.0008659138841162488 0 -0.010212708783668183 -0.0024455433464959427 0 -0.006472853191345552 -0.00083204765569086406 0 -0.0068079901295624206 -0.0020133683361850921 0 -0.0080133672019156565 -0.00087404003512965979 0 -0.0068079901295624206 -0.0020133683361850921 0 -0.0078210934004669056 -0.002110343416974273 0 -0.0080133672019156565 -0.00087404003512965979 0 -0.0068079901295624206 -0.0020133683361850921 0 -0.0078210934004669056 -0.002110343416974273 0 -0.0072536178813225596 -0.0028282323852331882 0 -0.0078210934004669056 -0.002110343416974273 0 -0.0072536178813225596 -0.0028282323852331882 0 -0.0082755852517762459 -0.0028433979776608469 0 -0.0068079901295624206 -0.0020133683361850921 0 -0.0072536178813225596 -0.0028282323852331882 0 -0.0062669382520409008 -0.0030491445321728489 0 -0.0072536178813225596 -0.0028282323852331882 0 -0.0069653900220667912 -0.0033634385466467754 0 -0.0062669382520409008 -0.0030491445321728489 0 -0.0069653900220667912 -0.0033634385466467754 0 -0.0062669382520409008 -0.0030491445321728489 0 -0.0060966427097486984 -0.0036031338298644256 0 -0.0072536178813225596 -0.0028282323852331882 0 -0.0077469162214147333 -0.0034506474911549941 0 -0.0082755852517762459 -0.0028433979776608469 0 -0.0069653900220667912 -0.0033634385466467754 0 -0.0077469162214147333 -0.0034506474911549941 0 -0.0076469318760203873 -0.0040941125397086896 0 -0.0072536178813225596 -0.0028282323852331882 0 -0.0069653900220667912 -0.0033634385466467754 0 -0.0077469162214147333 -0.0034506474911549941 0 -0.0068079901295624206 -0.0020133683361850921 0 -0.0049664977762958872 -0.0025711743298138562 0 -0.0062669382520409008 -0.0030491445321728489 0 -0.0061876383368074011 -0.0034663615069775652 0 -0.0062669382520409008 -0.0030491445321728489 0 -0.0061386015775792262 -0.0034751227088950843 0 -0.010212708783668183 -0.0024455433464959427 0 -0.0052396735329905842 -0.0024861136372117845 0 -0.0062669382520409008 -0.0030491445321728489 0 -0.0061386015775792262 -0.0034751227088950843 0 -0.0060966427097486984 -0.0036031338298644256 0 -0.0061386015775792262 -0.0034751227088950843 0 -0.0060966427097486984 -0.0036031338298644256 0 -0.0060857647959250477 -0.0033190424510280403 0 -0.0060966427097486984 -0.0036031338298644256 0 -0.0056919722382868304 -0.0031751361138858138 0 -0.0060857647959250477 -0.0033190424510280403 0 -0.0056857150829001122 -0.00286231216964466 0 -0.0056919722382868304 -0.0031751361138858138 0 -0.0060857647959250477 -0.0033190424510280403 0 -0.0076809394729234447 -0.0056913246797300442 0 -0.0060966427097486984 -0.0036031338298644256 0 -0.0076469318760203873 -0.0040941125397086896 0 -0.0046936883907179308 -0.0028382438151283904 0 -0.0060966427097486984 -0.0036031338298644256 0 -0.0056919722382868304 -0.0031751361138858138 0 -0.0064444387624796665 -0.004380573109183254 0 -0.0059514330522941966 -0.0035317724966636996 0 -0.0069653900220667912 -0.0033634385466467754 0 -0.0060966427097486984 -0.0036031338298644256 0 -0.0076469318760203873 -0.0040941125397086896 0 -0.0076809394729234447 -0.0056913246797300442 0 -0.0076469318760203873 -0.0040941125397086896 0 -0.0087597480611497375 -0.0046838065249811796 0 -0.0087597480611497375 -0.0046838065249811796 0 -0.008606902513308038 -0.003758366813098634 0 -0.0096470717545598279 -0.0039117225366222582 0 -0.0077469162214147333 -0.0034506474911549941 0 -0.0076469318760203873 -0.0040941125397086896 0 -0.008606902513308038 -0.003758366813098634 0 -0.0076469318760203873 -0.0040941125397086896 0 -0.0087597480611497375 -0.0046838065249811796 0 -0.008606902513308038 -0.003758366813098634 0 -0.010482160148124225 -0.0044022903113268017 0 -0.0096864497749808761 -0.0047251939341715482 0 -0.010299872380460312 -0.0052441141278775144 0 -0.0087597480611497375 -0.0046838065249811796 0 -0.0096864497749808761 -0.0047251939341715482 0 -0.0096470717545598279 -0.0039117225366222582 0 -0.010482160148124225 -0.0044022903113268017 0 -0.0096864497749808761 -0.0047251939341715482 0 -0.0096470717545598279 -0.0039117225366222582 0 -0.010482160148124225 -0.0044022903113268017 0 -0.0096470717545598279 -0.0039117225366222582 0 -0.010581683348365185 -0.003681460567631265 0 -0.010581683348365185 -0.003681460567631265 0 -0.010070922365097887 -0.0031284817284251685 0 -0.010908489330171755 -0.0030671942049923097 0 -0.0096470717545598279 -0.0039117225366222582 0 -0.010581683348365185 -0.003681460567631265 0 -0.010070922365097887 -0.0031284817284251685 0 -0.0096470717545598279 -0.0039117225366222582 0 -0.010070922365097887 -0.0031284817284251685 0 -0.009168120820068501 -0.0030627161949704882 0 -0.010070922365097887 -0.0031284817284251685 0 -0.009673555188034073 -0.0024468940445847563 0 -0.009168120820068501 -0.0030627161949704882 0 -0.010070922365097887 -0.0031284817284251685 0 -0.010491421475901005 -0.0024549983533567197 0 -0.010908489330171755 -0.0030671942049923097 0 -0.010070922365097887 -0.0031284817284251685 0 -0.009673555188034073 -0.0024468940445847563 0 -0.010491421475901005 -0.0024549983533567197 0 -0.0077469162214147333 -0.0034506474911549941 0 -0.008606902513308038 -0.003758366813098634 0 -0.0082755852517762459 -0.0028433979776608469 0 -0.008606902513308038 -0.003758366813098634 0 -0.009168120820068501 -0.0030627161949704882 0 -0.0082755852517762459 -0.0028433979776608469 0 -0.008606902513308038 -0.003758366813098634 0 -0.0096470717545598279 -0.0039117225366222582 0 -0.009168120820068501 -0.0030627161949704882 0 -0.009168120820068501 -0.0030627161949704882 0 -0.0082755852517762459 -0.0028433979776608469 0 -0.0088324523260863951 -0.0021674670079823012 0 -0.009673555188034073 -0.0024468940445847563 0 -0.009168120820068501 -0.0030627161949704882 0 -0.0088324523260863951 -0.0021674670079823012 0 -0.0078210934004669056 -0.002110343416974273 0 -0.0082755852517762459 -0.0028433979776608469 0 -0.0088324523260863951 -0.0021674670079823012 0 -0.0078210934004669056 -0.002110343416974273 0 -0.0088324523260863951 -0.0021674670079823012 0 -0.0080133672019156565 -0.00087404003512965979 0 -0.009409339412601754 -0.0011832248117178083 0 -0.0088324523260863951 -0.0021674670079823012 0 -0.0080133672019156565 -0.00087404003512965979 0 -0.009673555188034073 -0.0024468940445847563 0 -0.009409339412601754 -0.0011832248117178083 0 -0.0088324523260863951 -0.0021674670079823012 0 -0.009673555188034073 -0.0024468940445847563 0 -0.009409339412601754 -0.0011832248117178083 0 -0.010125686517533617 -0.0017290175886170919 0 -0.009673555188034073 -0.0024468940445847563 0 -0.010491421475901005 -0.0024549983533567197 0 -0.010125686517533617 -0.0017290175886170919 0 -0.010491421475901005 -0.0024549983533567197 0 -0.010125686517533617 -0.0017290175886170919 0 -0.010736882857555799 -0.0017518637945407624 0 -0.010491421475901005 -0.0024549983533567197 0 -0.010736882857555799 -0.0017518637945407624 0 -0.011034542911678758 -0.0022490573064093237 0 -0.010736882857555799 -0.0017518637945407624 0 -0.010475396027753355 -0.00097590562505122205 0 -0.0113743132470174 -0.0011174783997898146 0 -0.010125686517533617 -0.0017290175886170919 0 -0.010736882857555799 -0.0017518637945407624 0 -0.010475396027753355 -0.00097590562505122205 0 -0.009409339412601754 -0.0011832248117178083 0 -0.010125686517533617 -0.0017290175886170919 0 -0.010475396027753355 -0.00097590562505122205 0 -0.009409339412601754 -0.0011832248117178083 0 -0.010475396027753355 -0.00097590562505122205 0 -0.0098730321239516895 -0.00027694905567788734 0 -0.010475396027753355 -0.00097590562505122205 0 -0.011041993905004188 -0.00061822556972884887 0 -0.0113743132470174 -0.0011174783997898146 0 -0.010475396027753355 -0.00097590562505122205 0 -0.011041993905004188 -0.00061822556972884887 0 -0.010524297020441284 -0.00027519302451714506 0 -0.010475396027753355 -0.00097590562505122205 0 -0.0098730321239516895 -0.00027694905567788734 0 -0.010524297020441284 -0.00027519302451714506 0 -0.011041993905004188 -0.00061822556972884887 0 -0.010524297020441284 -0.00027519302451714506 0 -0.011120156784200017 -0.00012918805670792915 0 -0.010524297020441284 -0.00027519302451714506 0 -0.011120156784200017 -0.00012918805670792915 0 -0.01005097691606706 0.000736170136141328 0 -0.0098730321239516895 -0.00027694905567788734 0 -0.010524297020441284 -0.00027519302451714506 0 -0.01005097691606706 0.000736170136141328 0 -0.0098730321239516895 -0.00027694905567788734 0 -0.0094189332992513607 0.00064831412528360422 0 -0.01005097691606706 0.000736170136141328 0 -0.0089297652121167748 -0.00017398424010062552 0 -0.0080133672019156565 -0.00087404003512965979 0 -0.0079421805670055121 0.00084332788601708354 0 -0.0098730321239516895 -0.00027694905567788734 0 -0.0089297652121167748 -0.00017398424010062552 0 -0.0094189332992513607 0.00064831412528360422 0 -0.0089297652121167748 -0.00017398424010062552 0 -0.0094189332992513607 0.00064831412528360422 0 -0.0079421805670055121 0.00084332788601708354 0 -0.009409339412601754 -0.0011832248117178083 0 -0.0089297652121167748 -0.00017398424010062552 0 -0.0080133672019156565 -0.00087404003512965979 0 -0.009409339412601754 -0.0011832248117178083 0 -0.0098730321239516895 -0.00027694905567788734 0 -0.0089297652121167748 -0.00017398424010062552 0 -0.013636264260126306 -0.00049687609670087348 0 -0.012749116297804279 -0.00042773830195057082 0 -0.013783312638491727 -0.0023607289513886236 0 -0.013636264260126306 -0.00049687609670087348 0 -0.015000604610642026 -0.00084975877511539336 0 -0.014338290388834489 0.0010134883445415128 0 -0.013636264260126306 -0.00049687609670087348 0 -0.012795094449849895 0.00053389207923169662 0 -0.014338290388834489 0.0010134883445415128 0 -0.013636264260126306 -0.00049687609670087348 0 -0.012795094449849895 0.00053389207923169662 0 -0.012749116297804279 -0.00042773830195057082 0 -0.011502422753586514 -0.0001651581354376832 0 -0.012749116297804279 -0.00042773830195057082 0 -0.013783312638491727 -0.0023607289513886236 0 -0.012795094449849895 0.00053389207923169662 0 -0.012028951703946671 0.00030462704922366602 0 -0.012749116297804279 -0.00042773830195057082 0 -0.012028951703946671 0.00030462704922366602 0 -0.011502422753586514 -0.0001651581354376832 0 -0.012749116297804279 -0.00042773830195057082 0 -0.012795094449849895 0.00053389207923169662 0 -0.012028951703946671 0.00030462704922366602 0 -0.011581839977544563 0.00081391875152401908 0 -0.011332826237201167 0.00044268292071519708 0 -0.012028951703946671 0.00030462704922366602 0 -0.011581839977544563 0.00081391875152401908 0 -0.011120156784200017 -0.00012918805670792915 0 -0.011332826237201167 0.00044268292071519708 0 -0.011502422753586514 -0.0001651581354376832 0 -0.011332826237201167 0.00044268292071519708 0 -0.012028951703946671 0.00030462704922366602 0 -0.011502422753586514 -0.0001651581354376832 0 -0.011041993905004188 -0.00061822556972884887 0 -0.011502422753586514 -0.0001651581354376832 0 -0.0113743132470174 -0.0011174783997898146 0 -0.011041993905004188 -0.00061822556972884887 0 -0.011120156784200017 -0.00012918805670792915 0 -0.011502422753586514 -0.0001651581354376832 0 -0.0113743132470174 -0.0011174783997898146 0 -0.012708543035565636 -0.0018159439487226319 0 -0.012173200766740585 -0.0025412176767867982 0 -0.011502422753586514 -0.0001651581354376832 0 -0.0113743132470174 -0.0011174783997898146 0 -0.012708543035565636 -0.0018159439487226319 0 -0.0113743132470174 -0.0011174783997898146 0 -0.011034542911678758 -0.0022490573064093237 0 -0.011666065522191375 -0.0027515056903379149 0 -0.011381229575291847 -0.001267699652708064 0 -0.011878369527679946 -0.0025263087981940422 0 -0.011622037357298137 -0.00031060256313198212 0 -0.013149005223487607 -0.0019488217415500313 0 -0.010736882857555799 -0.0017518637945407624 0 -0.0113743132470174 -0.0011174783997898146 0 -0.011034542911678758 -0.0022490573064093237 0 -0.015000604610642026 -0.00084975877511539336 0 -0.013783312638491727 -0.0023607289513886236 0 -0.015825001033379797 -0.0024517765792440339 0 -0.013636264260126306 -0.00049687609670087348 0 -0.015000604610642026 -0.00084975877511539336 0 -0.013783312638491727 -0.0023607289513886236 0 -0.012708543035565636 -0.0018159439487226319 0 -0.012909579425610411 -0.0028182181170910742 0 -0.013875011477193071 -0.0031301757707129603 0 -0.012909579425610411 -0.0028182181170910742 0 -0.012173200766740585 -0.0025412176767867982 0 -0.012876014385394494 -0.0037534465707457936 0 -0.011878369527679946 -0.0025263087981940422 0 -0.012618179628275529 -0.004152345004159899 0 -0.013149005223487607 -0.0019488217415500313 0 -0.015052869019660037 -0.0042273556215533508 0 -0.012708543035565636 -0.0018159439487226319 0 -0.012909579425610411 -0.0028182181170910742 0 -0.012173200766740585 -0.0025412176767867982 0 -0.012909579425610411 -0.0028182181170910742 0 -0.012876014385394494 -0.0037534465707457936 0 -0.013875011477193071 -0.0031301757707129603 0 -0.011666065522191375 -0.0027515056903379149 0 -0.011207274609681541 -0.0038431219329482101 0 -0.012061667693703641 -0.0040627804064277909 0 -0.011034542911678758 -0.0022490573064093237 0 -0.011666065522191375 -0.0027515056903379149 0 -0.010908489330171755 -0.0030671942049923097 0 -0.010491421475901005 -0.0024549983533567197 0 -0.011034542911678758 -0.0022490573064093237 0 -0.010908489330171755 -0.0030671942049923097 0 -0.011666065522191375 -0.0027515056903379149 0 -0.010908489330171755 -0.0030671942049923097 0 -0.011207274609681541 -0.0038431219329482101 0 -0.010581683348365185 -0.003681460567631265 0 -0.010908489330171755 -0.0030671942049923097 0 -0.011207274609681541 -0.0038431219329482101 0 -0.010482160148124225 -0.0044022903113268017 0 -0.010581683348365185 -0.003681460567631265 0 -0.011207274609681541 -0.0038431219329482101 0 -0.011207274609681541 -0.0038431219329482101 0 -0.012061667693703641 -0.0040627804064277909 0 -0.011238414526603584 -0.004787205666066538 0 -0.010482160148124225 -0.0044022903113268017 0 -0.011207274609681541 -0.0038431219329482101 0 -0.011238414526603584 -0.004787205666066538 0 -0.012876014385394494 -0.0037534465707457936 0 -0.013510923010524294 -0.0049204074031897289 0 -0.014034186703807823 -0.0041194518153714601 0 -0.012061667693703641 -0.0040627804064277909 0 -0.011238414526603584 -0.004787205666066538 0 -0.012590063484890324 -0.005244837517533958 0 -0.012618179628275529 -0.004152345004159899 0 -0.012160147130599323 -0.0038385374678608693 0 -0.010621315180727843 -0.0056374733713579154 0 -0.011238414526603584 -0.004787205666066538 0 -0.012590063484890324 -0.005244837517533958 0 -0.0099151543576938717 -0.0062898886010575193 0 -0.012160147130599323 -0.0038385374678608693 0 -0.0092401285098555989 -0.0052055750268807186 0 -0.0086440132369432661 -0.0047220980284454119 0 -0.0087358732079371986 -0.0063461520819229492 0 -0.009969461430329743 -0.0052788549008874423 0 -0.010621315180727843 -0.0056374733713579154 0 -0.0087358732079371986 -0.0063461520819229492 0 -0.0092401285098555989 -0.0052055750268807186 0 -0.009969461430329743 -0.0052788549008874423 0 -0.0087358732079371986 -0.0063461520819229492 0 -0.0092401285098555989 -0.0052055750268807186 0 -0.009969461430329743 -0.0052788549008874423 0 -0.0093397182767793688 -0.0043900177338853843 0 -0.0090365400106108273 -0.0038393561600301674 0 -0.0053109087507926429 -0.0043065700521630265 0 -0.010569689067249454 -0.0052677752160854583 0 -0.009969461430329743 -0.0052788549008874423 0 -0.010141321301025115 -0.0044264647444144014 0 -0.010569689067249454 -0.0052677752160854583 0 -0.009969461430329743 -0.0052788549008874423 0 -0.010621315180727843 -0.0056374733713579154 0 -0.010569689067249454 -0.0052677752160854583 0 -0.010621315180727843 -0.0056374733713579154 0 -0.010544235767361639 -0.0054682444939291369 0 -0.010621315180727843 -0.0056374733713579154 0 -0.011238414526603584 -0.004787205666066538 0 -0.010299872380460312 -0.0052441141278775144 0 -0.010482160148124225 -0.0044022903113268017 0 -0.011238414526603584 -0.004787205666066538 0 -0.010299872380460312 -0.0052441141278775144 0 -0.0096864497749808761 -0.0047251939341715482 0 -0.010299872380460312 -0.0052441141278775144 0 -0.009157297161182059 -0.0054416469175673152 0 -0.010418350270164115 -0.0050591533537711819 0 -0.0077435932980927788 -0.0058589965130229054 0 -0.010299872380460312 -0.0052441141278775144 0 -0.009157297161182059 -0.0054416469175673152 0 -0.0095151533306688865 -0.0066656456383924409 0 -0.010299872380460312 -0.0052441141278775144 0 -0.010544235767361639 -0.0054682444939291369 0 -0.010496606091966404 -0.0054675159992073957 0 -0.010621315180727843 -0.0056374733713579154 0 -0.010299872380460312 -0.0052441141278775144 0 -0.010544235767361639 -0.0054682444939291369 0 -0.0076809394729234447 -0.0056913246797300442 0 -0.009157297161182059 -0.0054416469175673152 0 -0.0095151533306688865 -0.0066656456383924409 0 -0.0076809394729234447 -0.0056913246797300442 0 -0.0087597480611497375 -0.0046838065249811796 0 -0.009157297161182059 -0.0054416469175673152 0 -0.0087597480611497375 -0.0046838065249811796 0 -0.0096864497749808761 -0.0047251939341715482 0 -0.009157297161182059 -0.0054416469175673152 0 -0.0064444387624796665 -0.004380573109183254 0 -0.0049612680737454061 -0.0043242206587716875 0 -0.0076809394729234447 -0.0056913246797300442 0 -0.0095151533306688865 -0.0066656456383924409 0 -0.0089698197730475101 -0.0076300858236066109 0 -0.0045667850737526302 -0.0018169593860042899 0 -0.0046936883907179308 -0.0028382438151283904 0 -0.0038611940337129748 -0.0018968832663421996 0 -0.0077435932980927788 -0.0058589965130229054 0 -0.0049612680737454061 -0.0043242206587716875 0 -0.004779574621183124 -0.0053593660379504275 0 -0.0040014646049337755 -0.0043010942300969893 0 -0.0052315296917659513 -0.0044799979633627371 0 -0.010544235767361639 -0.0054682444939291369 0 -0.010496606091966404 -0.0054675159992073957 0 -0.010558238338021551 -0.0052882661186884217 0 -0.0077435932980927788 -0.0058589965130229054 0 -0.0053109087507926429 -0.0043065700521630265 0 -0.010569689067249454 -0.0052677752160854583 0 -0.010544235767361639 -0.0054682444939291369 0 -0.010558238338021551 -0.0052882661186884217 0 -0.0040014646049337755 -0.0043010942300969893 0 -0.0045770232930145774 -0.0034662301921008641 0 -0.0052315296917659513 -0.0044799979633627371 0 0.0017055402981095919 -0.0032914271008745721 0 0.001248294170725284 -0.0025893832061271603 0 0.0024436848116837452 -0.0022879781390479992 0 -0.00086900995608025632 -0.0031151852891024372 0 -0.0049612680737454061 -0.0043242206587716875 0 -0.0053109087507926429 -0.0043065700521630265 0 -0.00086900995608025632 -0.0031151852891024372 0 -0.00056818608584644121 -0.0030876273246369947 0 -0.0011802388556763558 -0.0040217725816177113 0 -0.0018273771163497465 -0.0027560740579404205 0 -0.0045667850737526302 -0.0018169593860042899 0 -0.0038611940337129748 -0.0018968832663421996 0 -0.0041287299575043859 -0.0011944789975799164 0 -0.0049612680737454061 -0.0043242206587716875 0 -0.0028476880081278956 -0.0018913417275487096 0 -0.00064192426756272002 -0.0014402883409846052 0 -0.00086900995608025632 -0.0031151852891024372 0 -0.0016587654978586401 -0.0014347308770079996 0 -0.00056818608584644121 -0.0030876273246369947 0 -0.0018273771163497465 -0.0027560740579404205 0 0.0012103831156062559 -0.0015510681108460245 0 0.00014226627992884066 -0.0015831667652377718 0 0.0013560404794251018 -0.0025599934447057271 0 0.0012103831156062559 -0.0015510681108460245 0 0.0013560404794251018 -0.0025599934447057271 0 0.0016323914331649709 -0.0020454005249111334 0 0.001248294170725284 -0.0025893832061271603 0 0.0016323914331649709 -0.0020454005249111334 0 0.0024436848116837452 -0.0022879781390479992 0 -0.00086900995608025632 -0.0031151852891024372 0 0.0011614795366121893 -0.0017266366475182052 0 0.0017021594082228845 -0.0015352153455169628 0 0.0016323914331649709 -0.0020454005249111334 0 0.0020771720648005698 -0.0017495699269658366 0 0.0017021594082228845 -0.0015352153455169628 0 0.0012103831156062559 -0.0015510681108460245 0 0.0016323914331649709 -0.0020454005249111334 0 0.0021366296493991106 -0.0013061209432061144 0 0.0017021594082228845 -0.0015352153455169628 0 0.0020771720648005698 -0.0017495699269658366 0 0.0020771720648005698 -0.0017495699269658366 0 0.0024436848116837452 -0.0022879781390479992 0 0.0025092705590691877 -0.0016312366401425437 0 0.0021366296493991106 -0.0013061209432061144 0 0.0020771720648005698 -0.0017495699269658366 0 0.0025092705590691877 -0.0016312366401425437 0 0.0016323914331649709 -0.0020454005249111334 0 0.0020771720648005698 -0.0017495699269658366 0 0.0024436848116837452 -0.0022879781390479992 0 0.003134618965731131 -0.0011090807117555405 0 0.0024436848116837452 -0.0022879781390479992 0 0.0025092705590691877 -0.0016312366401425437 0 -0.0022122282895692806 -0.00034107313790610993 0 -0.0039856655384034609 -0.0030654679583822114 0 -0.009418281623611819 -0.0024560391146824347 0 -0.01019817137374872 -0.00352617246884922 0 -0.0089576729333121895 -0.0035814329077837131 0 -0.009418281623611819 -0.0024560391146824347 0 -0.0089576729333121895 -0.0035814329077837131 0 -0.0081522261686089014 -0.0026838686961942354 0 -0.01019817137374872 -0.00352617246884922 0 -0.0089576729333121895 -0.0035814329077837131 0 -0.0093397182767793688 -0.0043900177338853843 0 -0.0089576729333121895 -0.0035814329077837131 0 -0.0093397182767793688 -0.0043900177338853843 0 -0.0086440132369432661 -0.0047220980284454119 0 -0.0092401285098555989 -0.0052055750268807186 0 -0.0093397182767793688 -0.0043900177338853843 0 -0.0086440132369432661 -0.0047220980284454119 0 -0.009969461430329743 -0.0052788549008874423 0 -0.0093397182767793688 -0.0043900177338853843 0 -0.010141321301025115 -0.0044264647444144014 0 -0.010569689067249454 -0.0052677752160854583 0 -0.010988228663604077 -0.0046509451713897471 0 -0.010141321301025115 -0.0044264647444144014 0 -0.0053109087507926429 -0.0043065700521630265 0 -0.0039856655384034609 -0.0030654679583822114 0 -0.010988228663604077 -0.0046509451713897471 0 -0.01019817137374872 -0.00352617246884922 0 -0.010141321301025115 -0.0044264647444144014 0 -0.01019817137374872 -0.00352617246884922 0 -0.0093397182767793688 -0.0043900177338853843 0 -0.010141321301025115 -0.0044264647444144014 0 -0.014711899368840592 -0.0010396989578697917 0 -0.014612622867838862 -0.00098655000097051869 0 -0.014838058849694904 -0.0010080008779374341 0 -0.01174388727638215 -0.0032129906424258775 0 -0.0071743917507574419 -0.00032206713765353038 0 -0.0077852566253269776 -0.0046322136016741736 0 -0.0080223669114777175 -0.0036661541429211485 0 -0.0068592846278081546 -0.0028967826131678052 0 -0.014711899368840592 -0.0010396989578697917 0 -0.014482444547612969 -0.00092602379271901987 0 -0.014612622867838862 -0.00098655000097051869 0 -0.0089576729333121895 -0.0035814329077837131 0 -0.0086440132369432661 -0.0047220980284454119 0 -0.0080223669114777175 -0.0036661541429211485 0 -0.0077852566253269776 -0.0046322136016741736 0 -0.0086440132369432661 -0.0047220980284454119 0 -0.0080223669114777175 -0.0036661541429211485 0 -0.0080223669114777175 -0.0036661541429211485 0 -0.0081522261686089014 -0.0026838686961942354 0 -0.0068592846278081546 -0.0028967826131678052 0 -0.0089576729333121895 -0.0035814329077837131 0 -0.0080223669114777175 -0.0036661541429211485 0 -0.0081522261686089014 -0.0026838686961942354 0 -0.005328346863827842 -7.9810137312339962e-05 0 -0.0071743917507574419 -0.00032206713765353038 0 -0.014482444547612969 -0.00092602379271901987 0 -0.014369497815500891 -0.00088504834882678456 0 -0.014612622867838862 -0.00098655000097051869 0 -0.0071743917507574419 -0.00032206713765353038 0 -0.0091435657535647724 0.00098404863293440796 0 -0.0091435657535647724 0.00098404863293440796 0 -0.011266415351911913 0.00064565766881134821 0 -0.014369497815500891 -0.00088504834882678456 0 -0.014215103280538271 -0.00089087925981856534 0 -0.014417294057683699 -0.0010129357520769532 0 -0.0041572399139593397 0.0024101229826783066 0 -0.0038634061852662739 0.0029053422542744188 0 -0.0044745770803356925 0.003102925737204196 0 -0.011266415351911913 0.00064565766881134821 0 -0.01514188916768635 -0.0012210147277362923 0 -0.014807074881740927 -0.00016983174725111147 0 -0.0148489959137986 -0.00075691081324691541 0 -0.015125161341609824 -0.00075337703906136 0 -0.0148489959137986 -0.00075691081324691541 0 -0.015125161341609824 -0.00075337703906136 0 -0.015130414646938527 -0.00092629305105857796 0 -0.015125161341609824 -0.00075337703906136 0 -0.014838058849694904 -0.0010080008779374341 0 -0.015130414646938527 -0.00092629305105857796 0 -0.014369497815500891 -0.00088504834882678456 0 -0.014612622867838862 -0.00098655000097051869 0 -0.014417294057683699 -0.0010129357520769532 0 -0.01514188916768635 -0.0012210147277362923 0 -0.014667569207014782 -0.0008313123740490018 0 -0.014612622867838862 -0.00098655000097051869 0 -0.014417294057683699 -0.0010129357520769532 0 -0.014838058849694904 -0.0010080008779374341 0 -0.014838058849694904 -0.0010080008779374341 0 -0.015130414646938527 -0.00092629305105857796 0 -0.015146413924346368 -0.00091894458968545258 0 -0.014838058849694904 -0.0010080008779374341 0 -0.015146413924346368 -0.00091894458968545258 0 -0.014894824188539641 -0.00091668616781112437 0 -0.0148489959137986 -0.00075691081324691541 0 -0.015130414646938527 -0.00092629305105857796 0 -0.015193618792959565 -0.00092535376244504315 0 -0.015130414646938527 -0.00092629305105857796 0 -0.015315563312810115 -0.00092416698173965726 0 -0.015146413924346368 -0.00091894458968545258 0 -0.015130414646938527 -0.00092629305105857796 0 -0.015315563312810115 -0.00092416698173965726 0 -0.015193618792959565 -0.00092535376244504315 0 -0.015315563312810115 -0.00092416698173965726 0 -0.015615105185573084 -0.00086824753155411544 0 -0.015193618792959565 -0.00092535376244504315 0 -0.015315563312810115 -0.00092416698173965726 0 -0.015431861004512279 -0.00083466863360933297 0 -0.015146413924346368 -0.00091894458968545258 0 -0.015315563312810115 -0.00092416698173965726 0 -0.015431861004512279 -0.00083466863360933297 0 -0.015615105185573084 -0.00086824753155411544 0 -0.015431861004512279 -0.00083466863360933297 0 -0.015819844862557931 -0.00076557771041597326 0 -0.015615105185573084 -0.00086824753155411544 0 -0.015073297368590933 -0.00082612113317717011 0 -0.014887618520470564 -0.00081654703020611228 0 -0.014894824188539641 -0.00091668616781112437 0 -0.015146413924346368 -0.00091894458968545258 0 -0.015073297368590933 -0.00082612113317717011 0 -0.014894824188539641 -0.00091668616781112437 0 -0.015431861004512279 -0.00083466863360933297 0 -0.015073297368590933 -0.00082612113317717011 0 -0.015138726835270549 -0.00063909717959189977 0 -0.015431861004512279 -0.00083466863360933297 0 -0.015146413924346368 -0.00091894458968545258 0 -0.015073297368590933 -0.00082612113317717011 0 -0.014989144540140609 -0.00075252711698945178 0 -0.015073297368590933 -0.00082612113317717011 0 -0.015138726835270549 -0.00063909717959189977 0 -0.014989144540140609 -0.00075252711698945178 0 -0.015073297368590933 -0.00082612113317717011 0 -0.014887618520470564 -0.00081654703020611228 0 -0.014989144540140609 -0.00075252711698945178 0 -0.014887618520470564 -0.00081654703020611228 0 -0.014783584704644939 -0.00071299140130273242 0 -0.014887618520470564 -0.00081654703020611228 0 -0.014828915268826544 -0.00082255401419249372 0 -0.014821988816734622 -0.00076494235206581856 0 -0.014811868704890969 -0.0011723978676958758 0 -0.01595924695333456 -0.0026906551261334632 0 -0.014887618520470564 -0.00081654703020611228 0 -0.014828915268826544 -0.00082255401419249372 0 -0.01483712275232927 -0.00086183769052083025 0 -0.014803733758293948 -0.00078861179477908579 0 -0.014828915268826544 -0.00082255401419249372 0 -0.014777892409788083 -0.00082688095624361738 0 -0.014803733758293948 -0.00078861179477908579 0 -0.014828915268826544 -0.00082255401419249372 0 -0.014821988816734622 -0.00076494235206581856 0 -0.015567972911429147 -0.00232476307415465 0 -0.015593990557728546 -0.0020341183494923705 0 -0.015567972911429147 -0.00232476307415465 0 -0.01595924695333456 -0.0026906551261334632 0 -0.014828915268826544 -0.00082255401419249372 0 -0.014805859296611735 -0.00085091154778561839 0 -0.014777892409788083 -0.00082688095624361738 0 -0.014805859296611735 -0.00085091154778561839 0 -0.014777892409788083 -0.00082688095624361738 0 -0.014781935093685349 -0.00089038440592550938 0 -0.014828915268826544 -0.00082255401419249372 0 -0.014805859296611735 -0.00085091154778561839 0 -0.01483712275232927 -0.00086183769052083025 0 -0.014781935093685349 -0.00089038440592550938 0 -0.014894824188539641 -0.00091668616781112437 0 -0.014772686445461048 -0.00095713690472728488 0 -0.014805859296611735 -0.00085091154778561839 0 -0.014781935093685349 -0.00089038440592550938 0 -0.01483712275232927 -0.00086183769052083025 0 -0.014781935093685349 -0.00089038440592550938 0 -0.014894824188539641 -0.00091668616781112437 0 -0.01483712275232927 -0.00086183769052083025 0 -0.014887618520470564 -0.00081654703020611228 0 -0.014894824188539641 -0.00091668616781112437 0 -0.01483712275232927 -0.00086183769052083025 0 -0.014711899368840592 -0.0010396989578697917 0 -0.014838058849694904 -0.0010080008779374341 0 -0.014772686445461048 -0.00095713690472728488 0 -0.014838058849694904 -0.0010080008779374341 0 -0.014894824188539641 -0.00091668616781112437 0 -0.014772686445461048 -0.00095713690472728488 0 -0.014711899368840592 -0.0010396989578697917 0 -0.014772686445461048 -0.00095713690472728488 0 -0.014604235352348982 -0.00089350374949412239 0 -0.01174388727638215 -0.0032129906424258775 0 -0.012160147130599323 -0.0038385374678608693 0 -0.0077852566253269776 -0.0046322136016741736 0 -0.0086440132369432661 -0.0047220980284454119 0 -0.0087358732079371986 -0.0063461520819229492 0 -0.015567972911429147 -0.00232476307415465 0 -0.012160147130599323 -0.0038385374678608693 0 -0.014781935093685349 -0.00089038440592550938 0 -0.014772686445461048 -0.00095713690472728488 0 -0.014604235352348982 -0.00089350374949412239 0 -0.014777892409788083 -0.00082688095624361738 0 -0.014781935093685349 -0.00089038440592550938 0 -0.014604235352348982 -0.00089350374949412239 0 -0.014898351421503777 -0.0044624072878850984 0 -0.013510923010524294 -0.0049204074031897289 0 -0.014034186703807823 -0.0041194518153714601 0 -0.014795288776035033 -0.00080161943329303486 0 -0.014777892409788083 -0.00082688095624361738 0 -0.014604235352348982 -0.00089350374949412239 0 -0.012876014385394494 -0.0037534465707457936 0 -0.014034186703807823 -0.0041194518153714601 0 -0.013875011477193071 -0.0031301757707129603 0 -0.014034186703807823 -0.0041194518153714601 0 -0.014996886648176491 -0.0043275413004260242 0 -0.013875011477193071 -0.0031301757707129603 0 -0.01595924695333456 -0.0026906551261334632 0 -0.015052869019660037 -0.0042273556215533508 0 -0.017727243191178334 -0.0064015860125576788 0 -0.017532717950328028 -0.0045877127567884096 0 -0.019101956095246592 -0.0045703874865177171 0 -0.01595924695333456 -0.0026906551261334632 0 -0.015515068592052431 -0.0006969908813615923 0 -0.017727243191178334 -0.0064015860125576788 0 -0.017532717950328028 -0.0045877127567884096 0 -0.015802131962365046 -0.004387871684792639 0 -0.01595924695333456 -0.0026906551261334632 0 -0.017525870850753116 -0.0027039103868930843 0 -0.014898351421503777 -0.0044624072878850984 0 -0.014034186703807823 -0.0041194518153714601 0 -0.014996886648176491 -0.0043275413004260242 0 -0.017532717950328028 -0.0045877127567884096 0 -0.018221122078924779 -0.0037059728838609047 0 -0.019101956095246592 -0.0045703874865177171 0 -0.017532717950328028 -0.0045877127567884096 0 -0.017071038525568266 -0.0033207625075833015 0 -0.018221122078924779 -0.0037059728838609047 0 -0.018221122078924779 -0.0037059728838609047 0 -0.018387442496285437 -0.0026385092931307877 0 -0.019132476605265715 -0.003132926248997173 0 -0.017071038525568266 -0.0033207625075833015 0 -0.018221122078924779 -0.0037059728838609047 0 -0.018387442496285437 -0.0026385092931307877 0 -0.017071038525568266 -0.0033207625075833015 0 -0.015802131962365046 -0.004387871684792639 0 -0.015825001033379797 -0.0024517765792440339 0 -0.013783312638491727 -0.0023607289513886236 0 -0.015802131962365046 -0.004387871684792639 0 -0.015825001033379797 -0.0024517765792440339 0 -0.017532717950328028 -0.0045877127567884096 0 -0.017071038525568266 -0.0033207625075833015 0 -0.015802131962365046 -0.004387871684792639 0 -0.015000604610642026 -0.00084975877511539336 0 -0.015825001033379797 -0.0024517765792440339 0 -0.016082291522261177 -0.0012647935072952715 0 -0.016082291522261177 -0.0012647935072952715 0 -0.01736554044319907 -0.0021721257670771067 0 -0.01727542314833282 -0.0010674994951868889 0 -0.015825001033379797 -0.0024517765792440339 0 -0.016082291522261177 -0.0012647935072952715 0 -0.01736554044319907 -0.0021721257670771067 0 -0.017071038525568266 -0.0033207625075833015 0 -0.015825001033379797 -0.0024517765792440339 0 -0.01736554044319907 -0.0021721257670771067 0 -0.017071038525568266 -0.0033207625075833015 0 -0.01736554044319907 -0.0021721257670771067 0 -0.018387442496285437 -0.0026385092931307877 0 -0.01736554044319907 -0.0021721257670771067 0 -0.018387442496285437 -0.0026385092931307877 0 -0.018401410947372604 -0.0014461490656714107 0 -0.01736554044319907 -0.0021721257670771067 0 -0.018401410947372604 -0.0014461490656714107 0 -0.01727542314833282 -0.0010674994951868889 0 -0.01727542314833282 -0.0010674994951868889 0 -0.018234022251416925 -1.0687516197207349e-05 0 -0.016308273672796612 0.00047876470991361489 0 -0.018234022251416925 -1.0687516197207349e-05 0 -0.016308273672796612 0.00047876470991361489 0 -0.018169835434608914 0.0014869376580980106 0 -0.018401410947372604 -0.0014461490656714107 0 -0.018234022251416925 -1.0687516197207349e-05 0 -0.019544566830441895 -0.00056930255609711155 0 -0.018401410947372604 -0.0014461490656714107 0 -0.01727542314833282 -0.0010674994951868889 0 -0.018234022251416925 -1.0687516197207349e-05 0 -0.015000604610642026 -0.00084975877511539336 0 -0.016308273672796612 0.00047876470991361489 0 -0.014338290388834489 0.0010134883445415128 0 -0.015000604610642026 -0.00084975877511539336 0 -0.016082291522261177 -0.0012647935072952715 0 -0.016308273672796612 0.00047876470991361489 0 -0.016082291522261177 -0.0012647935072952715 0 -0.01727542314833282 -0.0010674994951868889 0 -0.016308273672796612 0.00047876470991361489 0 -0.017707727323930455 -0.00024891959326884009 0 -0.019976974965599931 0.0016893378836461193 0 -0.021927128045600468 -0.0007910818122918345 0 -0.020903855144302944 0.00034769150116725371 0 -0.022518701766065428 0.0011827526268621601 0 -0.021927128045600468 -0.0007910818122918345 0 -0.020903855144302944 0.00034769150116725371 0 -0.020483380934976706 -0.0011235587960346711 0 -0.020903855144302944 0.00034769150116725371 0 -0.019544566830441895 -0.00056930255609711155 0 -0.01968530475440591 0.0010593220685627875 0 -0.018234022251416925 -1.0687516197207349e-05 0 -0.019544566830441895 -0.00056930255609711155 0 -0.01968530475440591 0.0010593220685627875 0 -0.020903855144302944 0.00034769150116725371 0 -0.019544566830441895 -0.00056930255609711155 0 -0.020483380934976706 -0.0011235587960346711 0 -0.020483380934976706 -0.0011235587960346711 0 -0.019496230661584887 -0.0019101336433948173 0 -0.020518017058477105 -0.0026939216284759576 0 -0.019544566830441895 -0.00056930255609711155 0 -0.020483380934976706 -0.0011235587960346711 0 -0.019496230661584887 -0.0019101336433948173 0 -0.018387442496285437 -0.0026385092931307877 0 -0.018401410947372604 -0.0014461490656714107 0 -0.019496230661584887 -0.0019101336433948173 0 -0.018401410947372604 -0.0014461490656714107 0 -0.019544566830441895 -0.00056930255609711155 0 -0.019496230661584887 -0.0019101336433948173 0 -0.018387442496285437 -0.0026385092931307877 0 -0.019496230661584887 -0.0019101336433948173 0 -0.019132476605265715 -0.003132926248997173 0 -0.019496230661584887 -0.0019101336433948173 0 -0.020518017058477105 -0.0026939216284759576 0 -0.019132476605265715 -0.003132926248997173 0 -0.017707727323930455 -0.00024891959326884009 0 -0.016028309377816855 -0.00058043782643437563 0 -0.021927128045600468 -0.0007910818122918345 0 -0.020483380934976706 -0.0011235587960346711 0 -0.020518017058477105 -0.0026939216284759576 0 -0.016004715296493117 -0.00057794072775734407 0 -0.015915946427438227 -0.00068025161723873559 0 -0.015942271439393894 -0.00068112586798582621 0 -0.017707727323930455 -0.00024891959326884009 0 -0.018317287086217614 -0.0016532133116253238 0 -0.01642723447784079 0.00024163908739727625 0 -0.016254757789103097 -0.00039259891518797241 0 -0.016736539685275151 -0.00018773732001234065 0 -0.016254757789103097 -0.00039259891518797241 0 -0.016577309103636004 -0.00042182330271002213 0 -0.016736539685275151 -0.00018773732001234065 0 -0.016254757789103097 -0.00039259891518797241 0 -0.01619630588835648 -0.00055251642011250053 0 -0.016577309103636004 -0.00042182330271002213 0 -0.016313751535874003 -0.00056841335376366987 0 -0.01619630588835648 -0.00055251642011250053 0 -0.016577309103636004 -0.00042182330271002213 0 -0.016254757789103097 -0.00039259891518797241 0 -0.01619630588835648 -0.00055251642011250053 0 -0.015880403840535351 -0.00068828292714799501 0 -0.016028309377816855 -0.00058043782643437563 0 -0.015938003895407761 -0.00068227809890520155 0 -0.015915946427438227 -0.00068025161723873559 0 -0.015942271439393894 -0.00068112586798582621 0 -0.015880403840535351 -0.00068828292714799501 0 -0.016064196278328623 -0.00063403341487945424 0 -0.01619630588835648 -0.00055251642011250053 0 -0.015880403840535351 -0.00068828292714799501 0 -0.016064196278328623 -0.00063403341487945424 0 -0.016313751535874003 -0.00056841335376366987 0 -0.016093041611389056 -0.00067873737312243389 0 -0.016064196278328623 -0.00063403341487945424 0 -0.016313751535874003 -0.00056841335376366987 0 -0.01619630588835648 -0.00055251642011250053 0 -0.018317287086217614 -0.0016532133116253238 0 -0.017525870850753116 -0.0027039103868930843 0 -0.015915946427438227 -0.00068025161723873559 0 -0.01590789890499664 -0.00069467332468717811 0 -0.015880403840535351 -0.00068828292714799501 0 -0.020518017058477105 -0.0026939216284759576 0 -0.019132476605265715 -0.003132926248997173 0 -0.019101956095246592 -0.0045703874865177171 0 -0.018221122078924779 -0.0037059728838609047 0 -0.019132476605265715 -0.003132926248997173 0 -0.019101956095246592 -0.0045703874865177171 0 -0.01591978156600149 -0.00069303103701212772 0 -0.01590789890499664 -0.00069467332468717811 0 -0.015906411239168798 -0.00067372011689864977 0 -0.014989144540140609 -0.00075252711698945178 0 -0.014783584704644939 -0.00071299140130273242 0 -0.015138726835270549 -0.00063909717959189977 0 -0.01590789890499664 -0.00069467332468717811 0 -0.015906411239168798 -0.00067372011689864977 0 -0.015880403840535351 -0.00068828292714799501 0 -0.015515068592052431 -0.0006969908813615923 0 -0.015736785506240209 -0.00065077752552282042 0 -0.016093041611389056 -0.00067873737312243389 0 -0.015799556903396777 -0.00066487064980784926 0 -0.015819844862557931 -0.00076557771041597326 0 -0.016064196278328623 -0.00063403341487945424 0 -0.016093041611389056 -0.00067873737312243389 0 -0.015799556903396777 -0.00066487064980784926 0 -0.016064196278328623 -0.00063403341487945424 0 -0.015880403840535351 -0.00068828292714799501 0 -0.015799556903396777 -0.00066487064980784926 0 -0.015906411239168798 -0.00067372011689864977 0 -0.015880403840535351 -0.00068828292714799501 0 -0.015799556903396777 -0.00066487064980784926 0 -0.015431861004512279 -0.00083466863360933297 0 -0.015138726835270549 -0.00063909717959189977 0 -0.015799556903396777 -0.00066487064980784926 0 -0.015431861004512279 -0.00083466863360933297 0 -0.015799556903396777 -0.00066487064980784926 0 -0.015819844862557931 -0.00076557771041597326 0 -0.015819844862557931 -0.00076557771041597326 0 -0.016158508416589782 -0.0007460434382939807 0 -0.015615105185573084 -0.00086824753155411544 0 -0.016158508416589782 -0.0007460434382939807 0 -0.016474738535194652 -0.00070171663912155886 0 -0.015704783697451822 -0.00086222589913581929 0 -0.016093041611389056 -0.00067873737312243389 0 -0.015819844862557931 -0.00076557771041597326 0 -0.016158508416589782 -0.0007460434382939807 0 -0.016093041611389056 -0.00067873737312243389 0 -0.016158508416589782 -0.0007460434382939807 0 -0.016606977493328873 -0.0005626344858001126 0 -0.016474738535194652 -0.00070171663912155886 0 -0.017167635059443635 -0.00051211219205764161 0 -0.017668477115745214 -0.00040032256500396998 0 -0.016158508416589782 -0.0007460434382939807 0 -0.016474738535194652 -0.00070171663912155886 0 -0.017167635059443635 -0.00051211219205764161 0 -0.017167635059443635 -0.00051211219205764161 0 -0.017176230534478639 -0.00038866130998577283 0 -0.017911822303952284 -0.00020705958509331722 0 -0.017167635059443635 -0.00051211219205764161 0 -0.017911822303952284 -0.00020705958509331722 0 -0.018333744278376123 -0.00027978898988608407 0 -0.016313751535874003 -0.00056841335376366987 0 -0.016093041611389056 -0.00067873737312243389 0 -0.016606977493328873 -0.0005626344858001126 0 -0.016158508416589782 -0.0007460434382939807 0 -0.017167635059443635 -0.00051211219205764161 0 -0.016606977493328873 -0.0005626344858001126 0 -0.017167635059443635 -0.00051211219205764161 0 -0.016606977493328873 -0.0005626344858001126 0 -0.017176230534478639 -0.00038866130998577283 0 -0.016606977493328873 -0.0005626344858001126 0 -0.017176230534478639 -0.00038866130998577283 0 -0.016577309103636004 -0.00042182330271002213 0 -0.016313751535874003 -0.00056841335376366987 0 -0.016606977493328873 -0.0005626344858001126 0 -0.016577309103636004 -0.00042182330271002213 0 -0.017176230534478639 -0.00038866130998577283 0 -0.016577309103636004 -0.00042182330271002213 0 -0.017241460506400998 -0.00019802691283364216 0 -0.016577309103636004 -0.00042182330271002213 0 -0.016736539685275151 -0.00018773732001234065 0 -0.017241460506400998 -0.00019802691283364216 0 -0.017290209854850535 6.5879745181780496e-05 0 -0.016736539685275151 -0.00018773732001234065 0 -0.017241460506400998 -0.00019802691283364216 0 -0.01642723447784079 0.00024163908739727625 0 -0.017290209854850535 6.5879745181780496e-05 0 -0.016736539685275151 -0.00018773732001234065 0 -0.01786813555354547 0.0001189647924775629 0 -0.017241460506400998 -0.00019802691283364216 0 -0.017911822303952284 -0.00020705958509331722 0 -0.017290209854850535 6.5879745181780496e-05 0 -0.01786813555354547 0.0001189647924775629 0 -0.017241460506400998 -0.00019802691283364216 0 -0.017176230534478639 -0.00038866130998577283 0 -0.017241460506400998 -0.00019802691283364216 0 -0.017911822303952284 -0.00020705958509331722 0 -0.017911822303952284 -0.00020705958509331722 0 -0.018568445208301636 0.00033213867471934875 0 -0.019208400216999866 2.6372802065941706e-05 0 -0.01786813555354547 0.0001189647924775629 0 -0.017911822303952284 -0.00020705958509331722 0 -0.018568445208301636 0.00033213867471934875 0 -0.017911822303952284 -0.00020705958509331722 0 -0.019208400216999866 2.6372802065941706e-05 0 -0.018333744278376123 -0.00027978898988608407 0 -0.018568445208301636 0.00033213867471934875 0 -0.018625572010218031 0.00082815294579384306 0 -0.019303310208253981 0.00046612017724491866 0 -0.018568445208301636 0.00033213867471934875 0 -0.019208400216999866 2.6372802065941706e-05 0 -0.019303310208253981 0.00046612017724491866 0 -0.018568445208301636 0.00033213867471934875 0 -0.017917045977692656 0.00063240777407881155 0 -0.018625572010218031 0.00082815294579384306 0 -0.017707727323930455 -0.00024891959326884009 0 -0.018825592626413982 0.0028417528639651658 0 -0.01642723447784079 0.00024163908739727625 0 -0.017917045977692656 0.00063240777407881155 0 -0.01937112091214593 0.003066022434812527 0 -0.018249914315105344 0.00073048565301977 0 -0.019296745483951733 0.0015889836589061694 0 -0.01642723447784079 0.00024163908739727625 0 -0.017290209854850535 6.5879745181780496e-05 0 -0.017917045977692656 0.00063240777407881155 0 -0.017290209854850535 6.5879745181780496e-05 0 -0.01786813555354547 0.0001189647924775629 0 -0.017917045977692656 0.00063240777407881155 0 -0.01786813555354547 0.0001189647924775629 0 -0.018568445208301636 0.00033213867471934875 0 -0.017917045977692656 0.00063240777407881155 0 -0.021933823217294635 -1.2364241218629079e-06 0 -0.020318119108615897 3.4337059249460549e-05 0 -0.019578858998737101 -0.00014816573192654884 0 -0.021933823217294635 -1.2364241218629079e-06 0 -0.020318119108615897 3.4337059249460549e-05 0 -0.020800661905181785 0.00031058647457249356 0 -0.019208400216999866 2.6372802065941706e-05 0 -0.020800661905181785 0.00031058647457249356 0 -0.019303310208253981 0.00046612017724491866 0 -0.020318119108615897 3.4337059249460549e-05 0 -0.019208400216999866 2.6372802065941706e-05 0 -0.020800661905181785 0.00031058647457249356 0 -0.020318119108615897 3.4337059249460549e-05 0 -0.019208400216999866 2.6372802065941706e-05 0 -0.019578858998737101 -0.00014816573192654884 0 -0.019208400216999866 2.6372802065941706e-05 0 -0.018333744278376123 -0.00027978898988608407 0 -0.019578858998737101 -0.00014816573192654884 0 -0.021933823217294635 -1.2364241218629079e-06 0 -0.019578858998737101 -0.00014816573192654884 0 -0.019332415422783852 -1.29743189239487e-07 0 -0.019578858998737101 -0.00014816573192654884 0 -0.019332415422783852 -1.29743189239487e-07 0 -0.017668477115745214 -0.00040032256500396998 0 -0.017167635059443635 -0.00051211219205764161 0 -0.018333744278376123 -0.00027978898988608407 0 -0.017668477115745214 -0.00040032256500396998 0 -0.018333744278376123 -0.00027978898988608407 0 -0.019578858998737101 -0.00014816573192654884 0 -0.017668477115745214 -0.00040032256500396998 0 -0.016474738535194652 -0.00070171663912155886 0 -0.017668477115745214 -0.00040032256500396998 0 -0.015898886680614004 -0.00079118500760831526 0 -0.017668477115745214 -0.00040032256500396998 0 -0.016744549723547837 -0.00035975576060697781 0 -0.015898886680614004 -0.00079118500760831526 0 -0.017668477115745214 -0.00040032256500396998 0 -0.016732108768277847 -1.7084474251593006e-06 0 -0.016744549723547837 -0.00035975576060697781 0 -0.019332415422783852 -1.29743189239487e-07 0 -0.017668477115745214 -0.00040032256500396998 0 -0.016732108768277847 -1.7084474251593006e-06 0 -0.016732108768277847 -1.7084474251593006e-06 0 -0.016285446640663274 -0.00028065457894227528 0 -0.016744549723547837 -0.00035975576060697781 0 -0.014127099626639968 -8.6475556574548982e-07 0 -0.013639903372192395 -0.00035653002117279315 0 -0.013894667147639485 -0.0004692283034537287 0 -0.016732108768277847 -1.7084474251593006e-06 0 -0.014134344122647977 1.187707174295317e-06 0 -0.016285446640663274 -0.00028065457894227528 0 -0.014131893312031641 -2.5743792029739976e-07 0 -0.015111023887511843 -0.00040990791648803893 0 -0.013639903372192395 -0.00035653002117279315 0 -0.013894667147639485 -0.0004692283034537287 0 -0.014704025569617349 -0.00062522412837026425 0 -0.016285446640663274 -0.00028065457894227528 0 -0.016744549723547837 -0.00035975576060697781 0 -0.015898886680614004 -0.00079118500760831526 0 -0.013894667147639485 -0.0004692283034537287 0 -0.015898886680614004 -0.00079118500760831526 0 -0.014704025569617349 -0.00062522412837026425 0 -0.015111023887511843 -0.00040990791648803893 0 -0.01569336763211544 -0.00068631024762542676 0 -0.016474738535194652 -0.00070171663912155886 0 -0.015898886680614004 -0.00079118500760831526 0 -0.015704783697451822 -0.00086222589913581929 0 -0.015898886680614004 -0.00079118500760831526 0 -0.015704783697451822 -0.00086222589913581929 0 -0.015082431211163568 -0.00084366232194624062 0 -0.015898886680614004 -0.00079118500760831526 0 -0.014704025569617349 -0.00062522412837026425 0 -0.015082431211163568 -0.00084366232194624062 0 -0.016158508416589782 -0.0007460434382939807 0 -0.015615105185573084 -0.00086824753155411544 0 -0.015704783697451822 -0.00086222589913581929 0 -0.015704783697451822 -0.00086222589913581929 0 -0.015193618792959565 -0.00092535376244504315 0 -0.015082431211163568 -0.00084366232194624062 0 -0.015615105185573084 -0.00086824753155411544 0 -0.015704783697451822 -0.00086222589913581929 0 -0.015193618792959565 -0.00092535376244504315 0 -0.0148489959137986 -0.00075691081324691541 0 -0.015193618792959565 -0.00092535376244504315 0 -0.014524303553259288 -0.00071830695713072151 0 -0.015193618792959565 -0.00092535376244504315 0 -0.015082431211163568 -0.00084366232194624062 0 -0.014524303553259288 -0.00071830695713072151 0 -0.014704025569617349 -0.00062522412837026425 0 -0.015082431211163568 -0.00084366232194624062 0 -0.014441346374961356 -0.00065564492058322807 0 -0.015082431211163568 -0.00084366232194624062 0 -0.014441346374961356 -0.00065564492058322807 0 -0.014524303553259288 -0.00071830695713072151 0 -0.013639903372192395 -0.00035653002117279315 0 -0.014704025569617349 -0.00062522412837026425 0 -0.014441346374961356 -0.00065564492058322807 0 -0.013639903372192395 -0.00035653002117279315 0 -0.014441346374961356 -0.00065564492058322807 0 -0.013599427743937456 -0.00042516154010691375 0 -0.013599427743937456 -0.00042516154010691375 0 -0.014524303553259288 -0.00071830695713072151 0 -0.013808702087881567 -0.00027904591555102812 0 -0.014441346374961356 -0.00065564492058322807 0 -0.013599427743937456 -0.00042516154010691375 0 -0.014524303553259288 -0.00071830695713072151 0 -0.014807074881740927 -0.00016983174725111147 0 -0.0148489959137986 -0.00075691081324691541 0 -0.013808702087881567 -0.00027904591555102812 0 -0.0148489959137986 -0.00075691081324691541 0 -0.014524303553259288 -0.00071830695713072151 0 -0.013808702087881567 -0.00027904591555102812 0 -0.011266415351911913 0.00064565766881134821 0 -0.014919409995393247 -5.8419129855372837e-05 0 -0.012846939195327339 0.00060387748745818726 0 -0.014532941242112216 -0.00013376364632857496 0 -0.013808702087881567 -0.00027904591555102812 0 -0.0088306293316232961 0.0016700853213735759 0 -0.011266415351911913 0.00064565766881134821 0 -0.012846939195327339 0.00060387748745818726 0 -0.013808702087881567 -0.00027904591555102812 0 -0.012653691482227242 -0.00015312287888240612 0 -0.013599427743937456 -0.00042516154010691375 0 -0.013808702087881567 -0.00027904591555102812 0 -0.012653691482227242 -0.00015312287888240612 0 -0.010783488670641645 0.00016553565578970574 0 -0.012653691482227242 -0.00015312287888240612 0 -0.012581529229502614 -0.0002484932667656537 0 -0.013599427743937456 -0.00042516154010691375 0 -0.012653691482227242 -0.00015312287888240612 0 -0.012581529229502614 -0.0002484932667656537 0 -0.010783488670641645 0.00016553565578970574 0 -0.012581529229502614 -0.0002484932667656537 0 -0.011674263449965843 -2.2752595358835524e-07 0 -0.014127099626639968 -8.6475556574548982e-07 0 -0.012581529229502614 -0.0002484932667656537 0 -0.011674263449965843 -2.2752595358835524e-07 0 -0.014127099626639968 -8.6475556574548982e-07 0 -0.013639903372192395 -0.00035653002117279315 0 -0.012581529229502614 -0.0002484932667656537 0 -0.013639903372192395 -0.00035653002117279315 0 -0.013599427743937456 -0.00042516154010691375 0 -0.012581529229502614 -0.0002484932667656537 0 -0.033633870270790733 0.00039690167185918142 0 -0.031933360338755365 -1.1375647537857315e-06 0 -0.032139632666391998 0.00037166191366524065 0 -0.033633870270790733 0.00039690167185918142 0 -0.031933360338755365 -1.1375647537857315e-06 0 -0.034723416673932209 6.2055492196858033e-05 0 -0.031933360338755365 -1.1375647537857315e-06 0 -0.034723416673932209 6.2055492196858033e-05 0 -0.034507308369948551 1.3808251315096609e-07 0 -0.033633870270790733 0.00039690167185918142 0 -0.034723416673932209 6.2055492196858033e-05 0 -0.035401192476699254 0.00049025244791779589 0 -0.035401192476699254 0.00049025244791779589 0 -0.034906640554094058 0.0006984880384192046 0 -0.0351654230181336 0.00043634635206989998 0 -0.035789696115399665 0.00045719314657377216 0 -0.035725794353173988 0.00056005421857412401 0 -0.035401192476699254 0.00049025244791779589 0 -0.034906640554094058 0.0006984880384192046 0 -0.034305195603149527 0.00084615152303172737 0 -0.033633870270790733 0.00039690167185918142 0 -0.035401192476699254 0.00049025244791779589 0 -0.034305195603149527 0.00084615152303172737 0 -0.034305195603149527 0.00084615152303172737 0 -0.033824613442892927 0.0016411876898829547 0 -0.033509521349679938 0.0012912455702623002 0 -0.033633870270790733 0.00039690167185918142 0 -0.034305195603149527 0.00084615152303172737 0 -0.033509521349679938 0.0012912455702623002 0 -0.034906640554094058 0.0006984880384192046 0 -0.034305195603149527 0.00084615152303172737 0 -0.033824613442892927 0.0016411876898829547 0 -0.034906640554094058 0.0006984880384192046 0 -0.033824613442892927 0.0016411876898829547 0 -0.035179572701917135 0.0014529002833899801 0 -0.033758210405428632 0.001702062654800985 0 -0.033405546262279068 0.0018771071706167655 0 -0.033824613442892927 0.0016411876898829547 0 -0.033617394027255353 0.0015193405203844366 0 -0.032594061321040493 0.0013655142488693177 0 -0.033824613442892927 0.0016411876898829547 0 -0.032594061321040493 0.0013655142488693177 0 -0.031736756919445726 0.0023742429448271509 0 -0.033824613442892927 0.0016411876898829547 0 -0.033509521349679938 0.0012912455702623002 0 -0.033617394027255353 0.0015193405203844366 0 -0.033509521349679938 0.0012912455702623002 0 -0.03263316057641049 0.001864453970611038 0 -0.033617394027255353 0.0015193405203844366 0 -0.033509521349679938 0.0012912455702623002 0 -0.03263316057641049 0.001864453970611038 0 -0.032139632666391998 0.00037166191366524065 0 -0.033633870270790733 0.00039690167185918142 0 -0.033509521349679938 0.0012912455702623002 0 -0.032139632666391998 0.00037166191366524065 0 -0.031933360338755365 -1.1375647537857315e-06 0 -0.032139632666391998 0.00037166191366524065 0 -0.029364989920577234 4.7407169632808702e-06 0 -0.03263316057641049 0.001864453970611038 0 -0.032139632666391998 0.00037166191366524065 0 -0.029364989920577234 4.7407169632808702e-06 0 -0.029016323115643592 -0.00033754739306305259 0 -0.029354330889268882 -6.7943098305508113e-07 0 -0.028049569645956157 2.8379610121896789e-07 0 -0.030842001464561539 0.00069293636441307698 0 -0.02935996373927597 2.3469826666660841e-07 0 -0.029016323115643592 -0.00033754739306305259 0 -0.028049569645956157 2.8379610121896789e-07 0 -0.028795610537633003 0.00089224582998673684 0 -0.028043266382095887 -2.6052189070729118e-07 0 -0.027714083264068004 0.0003001103575158254 0 -0.028042070383585662 7.627348406866339e-07 0 -0.026289613896589629 -7.465797142208726e-07 0 -0.025754243908291462 -6.5930659854388632e-05 0 -0.030842001464561539 0.00069293636441307698 0 -0.031951693745105147 0.00075803020598172455 0 -0.029016323115643592 -0.00033754739306305259 0 -0.028795610537633003 0.00089224582998673684 0 -0.03040559387115414 -4.7491372212636679e-05 0 -0.028795610537633003 0.00089224582998673684 0 -0.030129357498392368 0.0010387864007518086 0 -0.03040559387115414 -4.7491372212636679e-05 0 -0.028795610537633003 0.00089224582998673684 0 -0.029667442034634603 0.0023401054859454626 0 -0.030129357498392368 0.0010387864007518086 0 -0.027714083264068004 0.0003001103575158254 0 -0.02461993811575694 0.0024825241036184826 0 -0.026289613896589629 -7.465797142208726e-07 0 -0.025553071964703699 -0.0001072844973124016 0 -0.024537310187997284 7.7150611688908315e-07 0 -0.025754243908291462 -6.5930659854388632e-05 0 -0.025553071964703699 -0.0001072844973124016 0 -0.025727900746813505 0.00016337077027525149 0 -0.026289613896589629 -7.465797142208726e-07 0 -0.025754243908291462 -6.5930659854388632e-05 0 -0.025553071964703699 -0.0001072844973124016 0 -0.025553071964703699 -0.0001072844973124016 0 -0.024537310187997284 7.7150611688908315e-07 0 -0.025727900746813505 0.00016337077027525149 0 -0.024530561861782891 4.7698176737310704e-06 0 -0.021605842802900212 0.0014318313713021613 0 -0.020800661905181785 0.00031058647457249356 0 -0.024534813848281933 5.0991470702014135e-07 0 -0.023306587454756032 0.00073252534860010282 0 -0.025754243908291462 -6.5930659854388632e-05 0 -0.025727900746813505 0.00016337077027525149 0 -0.025898930369425154 0.0001797036058165426 0 -0.021605842802900212 0.0014318313713021613 0 -0.019757884768312514 0.0018314200749272799 0 -0.019896191844657699 0.00095886361613595444 0 -0.023306587454756032 0.00073252534860010282 0 -0.02461993811575694 0.0024825241036184826 0 -0.021605842802900212 0.0014318313713021613 0 -0.019896191844657699 0.00095886361613595444 0 -0.020800661905181785 0.00031058647457249356 0 -0.019896191844657699 0.00095886361613595444 0 -0.020800661905181785 0.00031058647457249356 0 -0.019303310208253981 0.00046612017724491866 0 -0.021933823217294635 -1.2364241218629079e-06 0 -0.024530561861782891 4.7698176737310704e-06 0 -0.020800661905181785 0.00031058647457249356 0 -0.016716070696393592 -0.00060693587667471282 0 -0.01937112091214593 0.003066022434812527 0 -0.017479105039525159 0.0021161275085459369 0 -0.019976974965599931 0.0016893378836461193 0 -0.026380910216160222 0.0023191527973473306 0 -0.017917045977692656 0.00063240777407881155 0 -0.01937112091214593 0.003066022434812527 0 -0.020494124031022062 0.0024772058428054228 0 -0.01937112091214593 0.003066022434812527 0 -0.017479105039525159 0.0021161275085459369 0 -0.018306418574597059 0.005001444977540734 0 -0.023025768893347964 0.0051509932783061659 0 -0.01937112091214593 0.003066022434812527 0 -0.020494124031022062 0.0024772058428054228 0 -0.019896191844657699 0.00095886361613595444 0 -0.018625572010218031 0.00082815294579384306 0 -0.019303310208253981 0.00046612017724491866 0 -0.02461993811575694 0.0024825241036184826 0 -0.019296745483951733 0.0015889836589061694 0 -0.019757884768312514 0.0018314200749272799 0 -0.019896191844657699 0.00095886361613595444 0 -0.018625572010218031 0.00082815294579384306 0 -0.029667442034634603 0.0023401054859454626 0 -0.031754047382319857 0.0023334623637236533 0 -0.031673929364332325 0.001040267482166057 0 -0.023025768893347964 0.0051509932783061659 0 -0.01937112091214593 0.003066022434812527 0 -0.018306418574597059 0.005001444977540734 0 -0.02461993811575694 0.0024825241036184826 0 -0.026380910216160222 0.0023191527973473306 0 -0.026380910216160222 0.0023191527973473306 0 -0.031516996668826 0.0010942057719247112 0 -0.032141953700522412 -0.00017600054327807056 0 -0.031710411185047145 0.00045058853844235519 0 -0.031673929364332325 0.001040267482166057 0 -0.031710411185047145 0.00045058853844235519 0 -0.031891209785043104 0.00066236508940814575 0 -0.031673929364332325 0.001040267482166057 0 -0.031673929364332325 0.001040267482166057 0 -0.032219498264141985 0.00062693903498698236 0 -0.03040559387115414 -4.7491372212636679e-05 0 -0.031891209785043104 0.00066236508940814575 0 -0.031673929364332325 0.001040267482166057 0 -0.032219498264141985 0.00062693903498698236 0 -0.029667442034634603 0.0023401054859454626 0 -0.031673929364332325 0.001040267482166057 0 -0.030129357498392368 0.0010387864007518086 0 -0.031673929364332325 0.001040267482166057 0 -0.030129357498392368 0.0010387864007518086 0 -0.03040559387115414 -4.7491372212636679e-05 0 -0.032215107533494644 0.00066815137621571426 0 -0.031951693745105147 0.00075803020598172455 0 -0.032219498264141985 0.00062693903498698236 0 -0.033617394027255353 0.0015193405203844366 0 -0.032594061321040493 0.0013655142488693177 0 -0.032594061321040493 0.0013655142488693177 0 -0.031641065824344644 0.0015440260292969056 0 -0.031838956084803083 0.0009336054081493675 0 -0.031641065824344644 0.0015440260292969056 0 -0.031838956084803083 0.0009336054081493675 0 -0.031171675493054454 0.0012190832152129041 0 -0.032219498264141985 0.00062693903498698236 0 -0.032594061321040493 0.0013655142488693177 0 -0.031838956084803083 0.0009336054081493675 0 -0.031171675493054454 0.0012190832152129041 0 -0.030757302943570496 0.00076554559098080321 0 -0.03013797056881334 0.001909914318567736 0 -0.031171675493054454 0.0012190832152129041 0 -0.03013797056881334 0.001909914318567736 0 -0.030954069723883208 0.0019138697989696683 0 -0.031641065824344644 0.0015440260292969056 0 -0.031171675493054454 0.0012190832152129041 0 -0.030954069723883208 0.0019138697989696683 0 -0.031171675493054454 0.0012190832152129041 0 -0.030757302943570496 0.00076554559098080321 0 -0.031404467859444181 0.00067729842513435752 0 -0.031838956084803083 0.0009336054081493675 0 -0.031171675493054454 0.0012190832152129041 0 -0.031404467859444181 0.00067729842513435752 0 -0.030757302943570496 0.00076554559098080321 0 -0.031292378108817756 0.00015939979985945022 0 -0.029388089036868924 2.301320434861482e-05 0 -0.030757302943570496 0.00076554559098080321 0 -0.031404467859444181 0.00067729842513435752 0 -0.031292378108817756 0.00015939979985945022 0 -0.031710411185047145 0.00045058853844235519 0 -0.031292378108817756 0.00015939979985945022 0 -0.031704836165652409 0.0005409225705246451 0 -0.03159967850601373 0.00039629466703916923 0 -0.030192557187415221 0.00043417819256798924 0 -0.031891209785043104 0.00066236508940814575 0 -0.032219498264141985 0.00062693903498698236 0 -0.031704836165652409 0.0005409225705246451 0 -0.032219498264141985 0.00062693903498698236 0 -0.031838956084803083 0.0009336054081493675 0 -0.031704836165652409 0.0005409225705246451 0 -0.031838956084803083 0.0009336054081493675 0 -0.031404467859444181 0.00067729842513435752 0 -0.031704836165652409 0.0005409225705246451 0 -0.031404467859444181 0.00067729842513435752 0 -0.031292378108817756 0.00015939979985945022 0 -0.031704836165652409 0.0005409225705246451 0 -0.031710411185047145 0.00045058853844235519 0 -0.031891209785043104 0.00066236508940814575 0 -0.031704836165652409 0.0005409225705246451 0 -0.032141953700522412 -0.00017600054327807056 0 -0.031710411185047145 0.00045058853844235519 0 -0.03018172729258032 0.00022073654363024471 0 -0.032141953700522412 -0.00017600054327807056 0 -0.03018172729258032 0.00022073654363024471 0 -0.029066255788604622 -0.00065674653002444885 0 -0.031710411185047145 0.00045058853844235519 0 -0.029111733250159845 0.00071358094559314936 0 -0.03018172729258032 0.00022073654363024471 0 -0.026380910216160222 0.0023191527973473306 0 -0.024787766809359606 0.0011395499582473655 0 -0.023110780547698294 0.0031461719277117244 0 -0.019974121919541499 0.0031071355392913664 0 -0.021239399241131968 0.001769369165543547 0 -0.03018172729258032 0.00022073654363024471 0 -0.029066255788604622 -0.00065674653002444885 0 -0.027116540996490444 -4.9190088737992548e-05 0 -0.029987643778958035 0.00016760988531519077 0 -0.02725528685216317 -0.00016119196171512053 0 -0.029111733250159845 0.00071358094559314936 0 -0.03018172729258032 0.00022073654363024471 0 -0.027297404088752631 -0.00029921316420993812 0 -0.019974121919541499 0.0031071355392913664 0 -0.01968530475440591 0.0010593220685627875 0 -0.018169835434608914 0.0014869376580980106 0 -0.019974121919541499 0.0031071355392913664 0 -0.01968530475440591 0.0010593220685627875 0 -0.021239399241131968 0.001769369165543547 0 -0.022518701766065428 0.0011827526268621601 0 -0.023110780547698294 0.0031461719277117244 0 -0.021239399241131968 0.001769369165543547 0 -0.020903855144302944 0.00034769150116725371 0 -0.01968530475440591 0.0010593220685627875 0 -0.021239399241131968 0.001769369165543547 0 -0.020903855144302944 0.00034769150116725371 0 -0.022518701766065428 0.0011827526268621601 0 -0.021239399241131968 0.001769369165543547 0 -0.016308273672796612 0.00047876470991361489 0 -0.016804345150298959 0.0030914714110399279 0 -0.014338290388834489 0.0010134883445415128 0 -0.016308273672796612 0.00047876470991361489 0 -0.018169835434608914 0.0014869376580980106 0 -0.016804345150298959 0.0030914714110399279 0 -0.018234022251416925 -1.0687516197207349e-05 0 -0.01968530475440591 0.0010593220685627875 0 -0.018169835434608914 0.0014869376580980106 0 -0.019974121919541499 0.0031071355392913664 0 -0.018169835434608914 0.0014869376580980106 0 -0.016804345150298959 0.0030914714110399279 0 -0.024787766809359606 0.0011395499582473655 0 -0.021266146844801815 0.0011817677667192031 0 -0.029066255788604622 -0.00065674653002444885 0 -0.027116540996490444 -4.9190088737992548e-05 0 -0.025928167077117363 -0.00075642664919456414 0 -0.021266146844801815 0.0011817677667192031 0 -0.018646977714739357 0.0010026683487138089 0 -0.027297404088752631 -0.00029921316420993812 0 -0.025384708740362447 0.00052503077289507531 0 -0.024682979740218849 -0.00057335086096983918 0 -0.027116540996490444 -4.9190088737992548e-05 0 -0.025928167077117363 -0.00075642664919456414 0 -0.02441431343241111 -0.00040024472230843248 0 -0.02725528685216317 -0.00016119196171512053 0 -0.024521927496024054 -0.00048523374248711347 0 -0.028008537314675789 0.00051385804393208959 0 -0.02529166257689593 0.000900812628150433 0 -0.029388089036868924 2.301320434861482e-05 0 -0.028009953534043827 0.001303703644387199 0 -0.026241924986236762 0.00046342187597339033 0 -0.025384708740362447 0.00052503077289507531 0 -0.026665387213834116 0.00095799842474343134 0 -0.024392466138799321 0.0012661624773620248 0 -0.025384708740362447 0.00052503077289507531 0 -0.024392466138799321 0.0012661624773620248 0 -0.024682979740218849 -0.00057335086096983918 0 -0.030192557187415221 0.00043417819256798924 0 -0.028008537314675789 0.00051385804393208959 0 -0.029111733250159845 0.00071358094559314936 0 -0.027297404088752631 -0.00029921316420993812 0 -0.026665387213834116 0.00095799842474343134 0 -0.027297404088752631 -0.00029921316420993812 0 -0.025384708740362447 0.00052503077289507531 0 -0.026665387213834116 0.00095799842474343134 0 -0.029388089036868924 2.301320434861482e-05 0 -0.03013797056881334 0.001909914318567736 0 -0.028009953534043827 0.001303703644387199 0 -0.030757302943570496 0.00076554559098080321 0 -0.029388089036868924 2.301320434861482e-05 0 -0.03013797056881334 0.001909914318567736 0 -0.030277790420620562 0.0019024858977383769 0 -0.027229603262641629 0.0027466342544855749 0 -0.03013797056881334 0.001909914318567736 0 -0.028009953534043827 0.001303703644387199 0 -0.026023937522068389 0.0029018528814670321 0 -0.03013797056881334 0.001909914318567736 0 -0.02993058916836705 0.0021322224987515501 0 -0.029659983523047394 0.0020592261582071062 0 -0.032477711917371734 0.0019334591005410811 0 -0.033083065193500745 0.0018378331231854704 0 -0.02993058916836705 0.0021322224987515501 0 -0.029746076596034815 0.002240245777135619 0 -0.030272840862405836 0.002401989776163582 0 -0.02993058916836705 0.0021322224987515501 0 -0.029746076596034815 0.002240245777135619 0 -0.029659983523047394 0.0020592261582071062 0 -0.036094663937908639 0.0012572885328873023 0 -0.035900134444948897 0.00099270701479325712 0 -0.036241279320587953 0.00092334452729652707 0 -0.036094663937908639 0.0012572885328873023 0 -0.035900134444948897 0.00099270701479325712 0 -0.035668863244242136 0.0013146537979348116 0 -0.035900134444948897 0.00099270701479325712 0 -0.035583306984479382 0.0010487395830977961 0 -0.035668863244242136 0.0013146537979348116 0 -0.03013797056881334 0.001909914318567736 0 -0.02993058916836705 0.0021322224987515501 0 -0.030272840862405836 0.002401989776163582 0 -0.03013797056881334 0.001909914318567736 0 -0.030272840862405836 0.002401989776163582 0 -0.030954069723883208 0.0019138697989696683 0 -0.030272840862405836 0.002401989776163582 0 -0.030954069723883208 0.0019138697989696683 0 -0.031736756919445726 0.0023742429448271509 0 -0.033083065193500745 0.0018378331231854704 0 -0.033405546262279068 0.0018771071706167655 0 -0.031641065824344644 0.0015440260292969056 0 -0.030954069723883208 0.0019138697989696683 0 -0.031736756919445726 0.0023742429448271509 0 -0.032594061321040493 0.0013655142488693177 0 -0.031641065824344644 0.0015440260292969056 0 -0.031736756919445726 0.0023742429448271509 0 -0.034906640554094058 0.0006984880384192046 0 -0.035179572701917135 0.0014529002833899801 0 -0.035379716903177059 0.00075061608509093024 0 -0.035583306984479382 0.0010487395830977961 0 -0.035668863244242136 0.0013146537979348116 0 -0.035179572701917135 0.0014529002833899801 0 -0.035583306984479382 0.0010487395830977961 0 -0.035179572701917135 0.0014529002833899801 0 -0.035379716903177059 0.00075061608509093024 0 -0.035583306984479382 0.0010487395830977961 0 -0.035379716903177059 0.00075061608509093024 0 -0.03570077321875955 0.0007774686301263282 0 -0.035379716903177059 0.00075061608509093024 0 -0.035598169248857781 0.00054944253476303412 0 -0.03570077321875955 0.0007774686301263282 0 -0.034906640554094058 0.0006984880384192046 0 -0.035379716903177059 0.00075061608509093024 0 -0.0351654230181336 0.00043634635206989998 0 -0.0351654230181336 0.00043634635206989998 0 -0.035598169248857781 0.00054944253476303412 0 -0.035649694272642717 0.00021841668834218293 0 -0.035379716903177059 0.00075061608509093024 0 -0.0351654230181336 0.00043634635206989998 0 -0.035598169248857781 0.00054944253476303412 0 -0.035598169248857781 0.00054944253476303412 0 -0.035957347199340697 0.00055892578128043232 0 -0.035649694272642717 0.00021841668834218293 0 -0.039054582066068266 -0.0015763813918255368 0 -0.039742879342958684 0.00041254525163425776 0 -0.035598169248857781 0.00054944253476303412 0 -0.035957347199340697 0.00055892578128043232 0 -0.03570077321875955 0.0007774686301263282 0 -0.042638087770404912 -0.0030667378631889673 0 -0.042321014201748552 -0.0032056774248457862 0 -0.042194528099350037 -0.0028571102769725399 0 -0.042638087770404912 -0.0030667378631889673 0 -0.042194528099350037 -0.0028571102769725399 0 -0.042452622206963608 -0.0026549590180467591 0 -0.042638087770404912 -0.0030667378631889673 0 -0.042259603956789772 -0.0035629023939117506 0 -0.042321014201748552 -0.0032056774248457862 0 -0.035900134444948897 0.00099270701479325712 0 -0.035957347199340697 0.00055892578128043232 0 -0.036241279320587953 0.00092334452729652707 0 -0.039054582066068266 -0.0015763813918255368 0 -0.039879619294487113 -0.0012933763123710652 0 -0.035900134444948897 0.00099270701479325712 0 -0.035957347199340697 0.00055892578128043232 0 -0.03570077321875955 0.0007774686301263282 0 -0.035900134444948897 0.00099270701479325712 0 -0.035583306984479382 0.0010487395830977961 0 -0.03570077321875955 0.0007774686301263282 0 -0.041826104744359854 -0.0033435794206075134 0 -0.042080360496384563 -0.0034007800825866124 0 -0.042046619051425919 -0.0031542447434354851 0 -0.041826104744359854 -0.0033435794206075134 0 -0.041583175143977365 -0.0035294108548171816 0 -0.041823673044267255 -0.0036215657794671599 0 -0.041826104744359854 -0.0033435794206075134 0 -0.042080360496384563 -0.0034007800825866124 0 -0.041823673044267255 -0.0036215657794671599 0 -0.042080360496384563 -0.0034007800825866124 0 -0.042003069800872969 -0.0036501912251255177 0 -0.041823673044267255 -0.0036215657794671599 0 -0.042259603956789772 -0.0035629023939117506 0 -0.042080360496384563 -0.0034007800825866124 0 -0.042003069800872969 -0.0036501912251255177 0 -0.042259603956789772 -0.0035629023939117506 0 -0.042321014201748552 -0.0032056774248457862 0 -0.042080360496384563 -0.0034007800825866124 0 -0.042080360496384563 -0.0034007800825866124 0 -0.042379576064665643 -0.0029861610265008963 0 -0.042046619051425919 -0.0031542447434354851 0 -0.042321014201748552 -0.0032056774248457862 0 -0.042080360496384563 -0.0034007800825866124 0 -0.042194528099350037 -0.0028571102769725399 0 -0.042155299585186726 -0.0032081280965826722 0 -0.042172102490123202 -0.0032922357402942791 0 -0.042046619051425919 -0.0031542447434354851 0 -0.041850320397582692 -0.0030459879410189086 0 -0.042095694717811626 -0.0027068443916389681 0 -0.042379576064665643 -0.0029861610265008963 0 -0.042046619051425919 -0.0031542447434354851 0 -0.042095694717811626 -0.0027068443916389681 0 -0.041826104744359854 -0.0033435794206075134 0 -0.042046619051425919 -0.0031542447434354851 0 -0.041850320397582692 -0.0030459879410189086 0 -0.041560502272931413 -0.0032498200876337198 0 -0.041237029628898358 -0.0031559828535028633 0 -0.041730878688545879 -0.0027626766384776622 0 -0.041850320397582692 -0.0030459879410189086 0 -0.041560502272931413 -0.0032498200876337198 0 -0.041730878688545879 -0.0027626766384776622 0 -0.041826104744359854 -0.0033435794206075134 0 -0.041850320397582692 -0.0030459879410189086 0 -0.041560502272931413 -0.0032498200876337198 0 -0.041560502272931413 -0.0032498200876337198 0 -0.041237029628898358 -0.0031559828535028633 0 -0.041299459174214716 -0.003576194534457977 0 -0.041237029628898358 -0.0031559828535028633 0 -0.041299459174214716 -0.003576194534457977 0 -0.040947052137377024 -0.0035065582948338677 0 -0.041104732907967893 -0.0032501772072712526 0 -0.041140205842687926 -0.0035306332192470207 0 -0.041560502272931413 -0.0032498200876337198 0 -0.041299459174214716 -0.003576194534457977 0 -0.041583175143977365 -0.0035294108548171816 0 -0.041826104744359854 -0.0033435794206075134 0 -0.041560502272931413 -0.0032498200876337198 0 -0.041583175143977365 -0.0035294108548171816 0 -0.041560510969183638 -0.0037745638302501016 0 -0.041294288111641583 -0.0040605690358139135 0 -0.041848605605366344 -0.0040176569156873893 0 -0.041583175143977365 -0.0035294108548171816 0 -0.041560510969183638 -0.0037745638302501016 0 -0.041823673044267255 -0.0036215657794671599 0 -0.041299459174214716 -0.003576194534457977 0 -0.041560510969183638 -0.0037745638302501016 0 -0.041294288111641583 -0.0040605690358139135 0 -0.041299459174214716 -0.003576194534457977 0 -0.041583175143977365 -0.0035294108548171816 0 -0.041560510969183638 -0.0037745638302501016 0 -0.041299459174214716 -0.003576194534457977 0 -0.040953412275058283 -0.0038397948023783895 0 -0.041294288111641583 -0.0040605690358139135 0 -0.041299459174214716 -0.003576194534457977 0 -0.040953412275058283 -0.0038397948023783895 0 -0.040947052137377024 -0.0035065582948338677 0 -0.037196819308227609 -0.0025790011113682771 0 -0.032848809141412208 -0.0023158988761802623 0 -0.031182837988850656 -0.0006390694768644233 0 -0.030721400600046054 -0.00086154478737051482 0 -0.030741850683416897 -0.00082835114661319886 0 -0.040953412275058283 -0.0038397948023783895 0 -0.041294288111641583 -0.0040605690358139135 0 -0.040666517842881986 -0.0040853470898051239 0 -0.027919092628793319 0.00059919608788618637 0 -0.032045821780490744 -0.0013513508388463154 0 -0.031182837988850656 -0.0006390694768644233 0 -0.031537031951116012 -0.00098510377857664259 0 -0.030721400600046054 -0.00086154478737051482 0 -0.037196819308227609 -0.0025790011113682771 0 -0.035067600647640272 -1.2701081480038065e-05 0 -0.031182837988850656 -0.0006390694768644233 0 -0.031923043013366688 -0.0005947716778854121 0 -0.031537031951116012 -0.00098510377857664259 0 -0.035067600647640272 -1.2701081480038065e-05 0 -0.027919092628793319 0.00059919608788618637 0 -0.029510017452425878 0.0021847193822223982 0 -0.029659983523047394 0.0020592261582071062 0 -0.029394209406120246 0.0020552811616871953 0 -0.042259603956789772 -0.0035629023939117506 0 -0.041848605605366344 -0.0040176569156873893 0 -0.042003069800872969 -0.0036501912251255177 0 -0.041560510969183638 -0.0037745638302501016 0 -0.041848605605366344 -0.0040176569156873893 0 -0.041823673044267255 -0.0036215657794671599 0 -0.041848605605366344 -0.0040176569156873893 0 -0.042003069800872969 -0.0036501912251255177 0 -0.041823673044267255 -0.0036215657794671599 0 -0.039879619294487113 -0.0012933763123710652 0 -0.035067600647640272 -1.2701081480038065e-05 0 -0.036094663937908639 0.0012572885328873023 0 -0.036241279320587953 0.00092334452729652707 0 -0.036483663186609901 0.0012300204525556237 0 -0.029746076596034815 0.002240245777135619 0 -0.029510017452425878 0.0021847193822223982 0 -0.029659983523047394 0.0020592261582071062 0 -0.032477711917371734 0.0019334591005410811 0 -0.035067600647640272 -1.2701081480038065e-05 0 -0.022791050949366527 0.0014693189870887773 0 -0.02529166257689593 0.000900812628150433 0 -0.028009953534043827 0.001303703644387199 0 -0.026023937522068389 0.0029018528814670321 0 -0.026241924986236762 0.00046342187597339033 0 -0.026023937522068389 0.0029018528814670321 0 -0.022573853693590284 0.0015291461171065492 0 -0.026241924986236762 0.00046342187597339033 0 -0.026023937522068389 0.0029018528814670321 0 -0.022573853693590284 0.0015291461171065492 0 -0.021444946689902503 0.0031775506716571656 0 -0.027229603262641629 0.0027466342544855749 0 -0.027919092628793319 0.00059919608788618637 0 -0.022573853693590284 0.0015291461171065492 0 -0.023197886455775758 0.00033698621457518786 0 -0.024392466138799321 0.0012661624773620248 0 -0.022573853693590284 0.0015291461171065492 0 -0.022226974079451085 0.00081512875602389337 0 -0.021305347844210652 0.0013013399647263449 0 -0.022573853693590284 0.0015291461171065492 0 -0.022226974079451085 0.00081512875602389337 0 -0.023197886455775758 0.00033698621457518786 0 -0.022226974079451085 0.00081512875602389337 0 -0.023197886455775758 0.00033698621457518786 0 -0.02245153538056625 0.00010511429585460961 0 -0.023197886455775758 0.00033698621457518786 0 -0.024392466138799321 0.0012661624773620248 0 -0.024682979740218849 -0.00057335086096983918 0 -0.023197886455775758 0.00033698621457518786 0 -0.024682979740218849 -0.00057335086096983918 0 -0.022141997842607911 -0.00071839087967409329 0 -0.024521927496024054 -0.00048523374248711347 0 -0.022292890917728774 -0.00069441164918077145 0 -0.025928167077117363 -0.00075642664919456414 0 -0.023316456584114142 -0.00092092871959163335 0 -0.02441431343241111 -0.00040024472230843248 0 -0.023316456584114142 -0.00092092871959163335 0 -0.02441431343241111 -0.00040024472230843248 0 -0.022141997842607911 -0.00071839087967409329 0 -0.018646977714739357 0.0010026683487138089 0 -0.014928662584543693 0.0014772210078537677 0 -0.013588164979362417 0.0030589132875857346 0 -0.012631618850443014 0.0017816169233061882 0 -0.010551775721839617 0.0029777787199018442 0 -0.023197886455775758 0.00033698621457518786 0 -0.02245153538056625 0.00010511429585460961 0 -0.022141997842607911 -0.00071839087967409329 0 -0.023316456584114142 -0.00092092871959163335 0 -0.022141997842607911 -0.00071839087967409329 0 -0.020953123310798735 -0.001067489519539511 0 -0.012631618850443014 0.0017816169233061882 0 -0.011581839977544563 0.00081391875152401908 0 -0.010551775721839617 0.0029777787199018442 0 -0.012795094449849895 0.00053389207923169662 0 -0.012631618850443014 0.0017816169233061882 0 -0.011581839977544563 0.00081391875152401908 0 -0.016804345150298959 0.0030914714110399279 0 -0.013588164979362417 0.0030589132875857346 0 -0.014338290388834489 0.0010134883445415128 0 -0.012795094449849895 0.00053389207923169662 0 -0.012631618850443014 0.0017816169233061882 0 -0.014338290388834489 0.0010134883445415128 0 -0.013588164979362417 0.0030589132875857346 0 -0.012631618850443014 0.0017816169233061882 0 -0.014338290388834489 0.0010134883445415128 0 -0.018332999673277933 -0.0016501844206429118 0 -0.018674927823748133 -0.0016510337361359264 0 -0.018588066228053667 -0.0014061875234514056 0 -0.016498124478113437 -0.00016798422713720641 0 -0.012899733752434117 -0.00038486644845294712 0 -0.0095474896996546963 0.0016691824670915525 0 -0.0094189332992513607 0.00064831412528360422 0 -0.0079421805670055121 0.00084332788601708354 0 -0.0095474896996546963 0.0016691824670915525 0 -0.0094602251885194024 0.0025864546539983066 0 -0.0079421805670055121 0.00084332788601708354 0 -0.011581839977544563 0.00081391875152401908 0 -0.010463307112310888 0.0028692398761245791 0 -0.0099965885323616589 0.0028715255138716134 0 -0.0095474896996546963 0.0016691824670915525 0 -0.01005097691606706 0.000736170136141328 0 -0.0097828493290471434 0.0025962705291082341 0 -0.010428693819832885 0.0019247136969547769 0 -0.014928662584543693 0.0014772210078537677 0 -0.011120156784200017 -0.00012918805670792915 0 -0.011332826237201167 0.00044268292071519708 0 -0.0099965885323616589 0.0028715255138716134 0 -0.011332826237201167 0.00044268292071519708 0 -0.011581839977544563 0.00081391875152401908 0 -0.0099965885323616589 0.0028715255138716134 0 -0.0095474896996546963 0.0016691824670915525 0 -0.0094189332992513607 0.00064831412528360422 0 -0.01005097691606706 0.000736170136141328 0 -0.011120156784200017 -0.00012918805670792915 0 -0.01005097691606706 0.000736170136141328 0 -0.0097828493290471434 0.0025962705291082341 0 -0.0096547936430745954 0.00079782171098623255 0 -0.014180995456797801 0.0013585100513140188 0 -0.0095474896996546963 0.0016691824670915525 0 -0.0097828493290471434 0.0025962705291082341 0 -0.0094602251885194024 0.0025864546539983066 0 -0.02245153538056625 0.00010511429585460961 0 -0.022141997842607911 -0.00071839087967409329 0 -0.020692573700675218 -0.00059479448046104123 0 -0.022141997842607911 -0.00071839087967409329 0 -0.020953123310798735 -0.001067489519539511 0 -0.020692573700675218 -0.00059479448046104123 0 -0.014928662584543693 0.0014772210078537677 0 -0.014180995456797801 0.0013585100513140188 0 -0.014928662584543693 0.0014772210078537677 0 -0.018398794363951459 -2.7034293169868175e-05 0 -0.016055035801672328 0.00085858606504110872 0 -0.016214734044789528 0.00085867865888960995 0 -0.016172882592917794 0.00067007944039329081 0 -0.01625802093639472 0.00077171194453406014 0 -0.016214734044789528 0.00085867865888960995 0 -0.016172882592917794 0.00067007944039329081 0 -0.014180995456797801 0.0013585100513140188 0 -0.016498124478113437 -0.00016798422713720641 0 -0.017069239542283607 -0.00026215188894982067 0 -0.014180995456797801 0.0013585100513140188 0 -0.016988386996071494 0.00077433393514581722 0 -0.017620602712322516 -0.00053926651134608152 0 -0.015813498392468296 -0.00057008802032671401 0 -0.017069239542283607 -0.00026215188894982067 0 -0.018398794363951459 -2.7034293169868175e-05 0 -0.019763327250693203 0.00088353746437050645 0 -0.019411962095287023 0.00047794344598928737 0 -0.020875950204129457 -0.0018198166027130452 0 -0.016498124478113437 -0.00016798422713720641 0 -0.020314646710340497 -0.0017378141165132767 0 -0.021519612728005282 -0.001597744658179256 0 -0.021218583437698401 -0.0014130432394322287 0 -0.021248407397306993 -0.00083412358221452657 0 -0.021437030077399312 -0.0016930677848925615 0 -0.020940573094698607 -0.0014720952721020448 0 -0.020672174385000009 -0.001771158752247996 0 -0.021218583437698401 -0.0014130432394322287 0 -0.021437030077399312 -0.0016930677848925615 0 -0.020940573094698607 -0.0014720952721020448 0 -0.021519612728005282 -0.001597744658179256 0 -0.021218583437698401 -0.0014130432394322287 0 -0.021437030077399312 -0.0016930677848925615 0 -0.017069239542283607 -0.00026215188894982067 0 -0.016498124478113437 -0.00016798422713720641 0 -0.021218583437698401 -0.0014130432394322287 0 -0.020940573094698607 -0.0014720952721020448 0 -0.020952091528295989 -0.0011543386682323238 0 -0.021218583437698401 -0.0014130432394322287 0 -0.020952091528295989 -0.0011543386682323238 0 -0.021248407397306993 -0.00083412358221452657 0 -0.021240099924218499 -0.0016332015094020816 0 -0.023415639696393726 -0.00076176986630097239 0 -0.018398794363951459 -2.7034293169868175e-05 0 -0.023415639696393726 -0.00076176986630097239 0 -0.017069239542283607 -0.00026215188894982067 0 -0.023415639696393726 -0.00076176986630097239 0 -0.020952091528295989 -0.0011543386682323238 0 -0.020972385843478582 -0.00099063947951590244 0 -0.020881088179748312 -0.00103017241409979 0 -0.020972385843478582 -0.00099063947951590244 0 -0.02093818047796232 -0.00099592453906915371 0 -0.020881088179748312 -0.00103017241409979 0 -0.022226974079451085 0.00081512875602389337 0 -0.020541925578039862 -0.0011793931763097868 0 -0.02084754434394713 0.00044880604290331257 0 -0.022226974079451085 0.00081512875602389337 0 -0.02245153538056625 0.00010511429585460961 0 -0.020692573700675218 -0.00059479448046104123 0 -0.020541925578039862 -0.0011793931763097868 0 -0.019420979586258328 0.00064079809086276982 0 -0.02084754434394713 0.00044880604290331257 0 -0.022571037696402001 0.00070165958903062266 0 -0.018398794363951459 -2.7034293169868175e-05 0 -0.019420979586258328 0.00064079809086276982 0 -0.02084754434394713 0.00044880604290331257 0 -0.021305347844210652 0.0013013399647263449 0 -0.022226974079451085 0.00081512875602389337 0 -0.02084754434394713 0.00044880604290331257 0 -0.021305347844210652 0.0013013399647263449 0 -0.023415639696393726 -0.00076176986630097239 0 -0.027919092628793319 0.00059919608788618637 0 -0.019420979586258328 0.00064079809086276982 0 -0.021305347844210652 0.0013013399647263449 0 -0.021444946689902503 0.0031775506716571656 0 -0.022573853693590284 0.0015291461171065492 0 -0.021305347844210652 0.0013013399647263449 0 -0.021444946689902503 0.0031775506716571656 0 -0.030241240992701576 -0.00095297886058156569 0 -0.030685896263224034 -0.00086275202654860494 0 -0.030721400600046054 -0.00086154478737051482 0 -0.030499516485150341 -0.00062004857685396206 0 -0.030241240992701576 -0.00095297886058156569 0 -0.030685896263224034 -0.00086275202654860494 0 -0.020972385843478582 -0.00099063947951590244 0 -0.020920103296746262 -0.0011117808428492786 0 -0.02093818047796232 -0.00099592453906915371 0 -0.023415639696393726 -0.00076176986630097239 0 -0.023929284417037504 -0.0013457922345484967 0 -0.02156595870894876 -0.0011995234650823603 0 -0.022886501171631768 0.00015813376283697116 0 -0.021594543820698493 -0.0012272644649067479 0 -0.021045347884431399 -0.0010038356659658404 0 -0.019893188720501696 -0.00079151752048710745 0 -0.021594543820698493 -0.0012272644649067479 0 -0.02361373972286774 -0.0025138074210046455 0 -0.02598466555838011 -0.0011901619927476368 0 -0.020920103296746262 -0.0011117808428492786 0 -0.0219931556945408 -0.0021864680206651731 0 -0.022218499564894256 -0.0039058082769465366 0 -0.023929284417037504 -0.0013457922345484967 0 -0.022020922823663448 -0.0029229974634980621 0 -0.020920103296746262 -0.0011117808428492786 0 -0.021594543820698493 -0.0012272644649067479 0 -0.0219931556945408 -0.0021864680206651731 0 -0.021594543820698493 -0.0012272644649067479 0 -0.0219931556945408 -0.0021864680206651731 0 -0.02361373972286774 -0.0025138074210046455 0 -0.020920103296746262 -0.0011117808428492786 0 -0.021594543820698493 -0.0012272644649067479 0 -0.021045347884431399 -0.0010038356659658404 0 -0.020920103296746262 -0.0011117808428492786 0 -0.021045347884431399 -0.0010038356659658404 0 -0.02093818047796232 -0.00099592453906915371 0 -0.021594543820698493 -0.0012272644649067479 0 -0.02598466555838011 -0.0011901619927476368 0 -0.026047346124660007 0.0014501909069834817 0 -0.028943074193295604 0.0012753005891888275 0 -0.028628362649076859 0.0013726998511594288 0 -0.028950898069288234 0.0013474672612636687 0 -0.026047346124660007 0.0014501909069834817 0 -0.028577889529594971 0.0024569925299483186 0 -0.027931522613879895 0.0016490100979422878 0 -0.02598466555838011 -0.0011901619927476368 0 -0.026047346124660007 0.0014501909069834817 0 -0.027931522613879895 0.0016490100979422878 0 -0.026959749551251005 -8.7028180845729282e-05 0 -0.028104186123501462 0.0017160594353499605 0 -0.028943074193295604 0.0012753005891888275 0 -0.027931522613879895 0.0016490100979422878 0 -0.028628362649076859 0.0013726998511594288 0 -0.019893188720501696 -0.00079151752048710745 0 -0.020566066007675271 -0.0011834564069754582 0 -0.019735109420136808 -0.0012815775750851523 0 -0.020778568394059116 -0.00098187923783239891 0 -0.02093818047796232 -0.00099592453906915371 0 -0.020881088179748312 -0.00103017241409979 0 -0.021045347884431399 -0.0010038356659658404 0 -0.020778568394059116 -0.00098187923783239891 0 -0.02093818047796232 -0.00099592453906915371 0 -0.021045347884431399 -0.0010038356659658404 0 -0.019893188720501696 -0.00079151752048710745 0 -0.020778568394059116 -0.00098187923783239891 0 -0.019893188720501696 -0.00079151752048710745 0 -0.020778568394059116 -0.00098187923783239891 0 -0.020566066007675271 -0.0011834564069754582 0 -0.020778568394059116 -0.00098187923783239891 0 -0.020566066007675271 -0.0011834564069754582 0 -0.020881088179748312 -0.00103017241409979 0 -0.020952091528295989 -0.0011543386682323238 0 -0.020566066007675271 -0.0011834564069754582 0 -0.020881088179748312 -0.00103017241409979 0 -0.020940573094698607 -0.0014720952721020448 0 -0.020566066007675271 -0.0011834564069754582 0 -0.020672174385000009 -0.001771158752247996 0 -0.020940573094698607 -0.0014720952721020448 0 -0.020952091528295989 -0.0011543386682323238 0 -0.020566066007675271 -0.0011834564069754582 0 -0.020314646710340497 -0.0017378141165132767 0 -0.019053697454295557 -0.0016413978842444003 0 -0.020566066007675271 -0.0011834564069754582 0 -0.020672174385000009 -0.001771158752247996 0 -0.019735109420136808 -0.0012815775750851523 0 -0.019234360319980635 -0.0016109213304403272 0 -0.019735109420136808 -0.0012815775750851523 0 -0.018842387787841485 -0.0014183079885802844 0 -0.020672174385000009 -0.001771158752247996 0 -0.019234360319980635 -0.0016109213304403272 0 -0.019735109420136808 -0.0012815775750851523 0 -0.019893188720501696 -0.00079151752048710745 0 -0.019735109420136808 -0.0012815775750851523 0 -0.018842387787841485 -0.0014183079885802844 0 -0.022886501171631768 0.00015813376283697116 0 -0.023620984005978174 0.00048127770391761875 0 -0.018674927823748133 -0.0016510337361359264 0 -0.019234360319980635 -0.0016109213304403272 0 -0.018843008939831898 -0.0014051183053277129 0 -0.019234360319980635 -0.0016109213304403272 0 -0.018843008939831898 -0.0014051183053277129 0 -0.018765411811136709 -0.0014525119894529639 0 -0.018674927823748133 -0.0016510337361359264 0 -0.018843008939831898 -0.0014051183053277129 0 -0.018588066228053667 -0.0014061875234514056 0 -0.028880683800983669 0.0023207786646279537 0 -0.028914580985502487 0.002158744641962813 0 -0.028952972163995692 0.0022463680932459326 0 -0.018597822248385659 -0.0013602388175250827 0 -0.018680466843136928 -0.0014024740475566285 0 -0.018765411811136709 -0.0014525119894529639 0 -0.028880683800983669 0.0023207786646279537 0 -0.028956507099199637 0.0022921275905389551 0 -0.028952972163995692 0.0022463680932459326 0 -0.028880683800983669 0.0023207786646279537 0 -0.028956507099199637 0.0022921275905389551 0 -0.028940437595725472 0.0023129548669107969 0 -0.023906747976058716 0.00060277604570993959 0 -0.023620984005978174 0.00048127770391761875 0 -0.018680466843136928 -0.0014024740475566285 0 -0.018765411811136709 -0.0014525119894529639 0 -0.018842387787841485 -0.0014183079885802844 0 -0.019234360319980635 -0.0016109213304403272 0 -0.018765411811136709 -0.0014525119894529639 0 -0.018842387787841485 -0.0014183079885802844 0 -0.028577889529594971 0.0024569925299483186 0 -0.028786520365530074 0.0022714684372045369 0 -0.028746785972040521 0.0018713106183081017 0 -0.028577889529594971 0.0024569925299483186 0 -0.027931522613879895 0.0016490100979422878 0 -0.028746785972040521 0.0018713106183081017 0 -0.028786520365530074 0.0022714684372045369 0 -0.028914580985502487 0.002158744641962813 0 -0.028746785972040521 0.0018713106183081017 0 -0.028880683800983669 0.0023207786646279537 0 -0.028577889529594971 0.0024569925299483186 0 -0.028786520365530074 0.0022714684372045369 0 -0.028880683800983669 0.0023207786646279537 0 -0.028786520365530074 0.0022714684372045369 0 -0.028914580985502487 0.002158744641962813 0 -0.028914580985502487 0.002158744641962813 0 -0.028938106563093178 0.0018025804289617915 0 -0.028746785972040521 0.0018713106183081017 0 -0.028914580985502487 0.002158744641962813 0 -0.029011374828353254 0.0021130742207916132 0 -0.028952972163995692 0.0022463680932459326 0 -0.028914580985502487 0.002158744641962813 0 -0.028938106563093178 0.0018025804289617915 0 -0.029020168237375729 0.0019881870696443257 0 -0.028914580985502487 0.002158744641962813 0 -0.029020168237375729 0.0019881870696443257 0 -0.029011374828353254 0.0021130742207916132 0 -0.028938106563093178 0.0018025804289617915 0 -0.028808055342275263 0.0014972367883935385 0 -0.028746785972040521 0.0018713106183081017 0 -0.028938106563093178 0.0018025804289617915 0 -0.028808055342275263 0.0014972367883935385 0 -0.028961705315829502 0.0015197618557526524 0 -0.027931522613879895 0.0016490100979422878 0 -0.028746785972040521 0.0018713106183081017 0 -0.028551302174896761 0.001553014261625428 0 -0.028808055342275263 0.0014972367883935385 0 -0.028746785972040521 0.0018713106183081017 0 -0.028551302174896761 0.001553014261625428 0 -0.028808055342275263 0.0014972367883935385 0 -0.028551302174896761 0.001553014261625428 0 -0.028628362649076859 0.0013726998511594288 0 -0.027931522613879895 0.0016490100979422878 0 -0.028551302174896761 0.001553014261625428 0 -0.028628362649076859 0.0013726998511594288 0 -0.028808055342275263 0.0014972367883935385 0 -0.028628362649076859 0.0013726998511594288 0 -0.028846808586812028 0.0013480513190301457 0 -0.028628362649076859 0.0013726998511594288 0 -0.028846808586812028 0.0013480513190301457 0 -0.028950898069288234 0.0013474672612636687 0 -0.028808055342275263 0.0014972367883935385 0 -0.028961705315829502 0.0015197618557526524 0 -0.028941461840109251 0.0013438742702147474 0 -0.028808055342275263 0.0014972367883935385 0 -0.028846808586812028 0.0013480513190301457 0 -0.028941461840109251 0.0013438742702147474 0 -0.028846808586812028 0.0013480513190301457 0 -0.028941461840109251 0.0013438742702147474 0 -0.029004450263373279 0.0014249995502468198 0 -0.034592783305611101 -0.0013092083596301228 0 -0.033394567955151 -0.0018914627828999077 0 -0.028941461840109251 0.0013438742702147474 0 -0.029004450263373279 0.0014249995502468198 0 -0.029004722751787258 0.0014651671538141657 0 -0.038741792272312142 -0.0040370238325479826 0 -0.038928902373170454 -0.0044007011112749744 0 -0.038301519774276087 -0.0043163683610301998 0 -0.038741792272312142 -0.0040370238325479826 0 -0.039313191979254564 -0.0039767059272840513 0 -0.038928902373170454 -0.0044007011112749744 0 -0.028846808586812028 0.0013480513190301457 0 -0.029004450263373279 0.0014249995502468198 0 -0.028950898069288234 0.0013474672612636687 0 -0.02361373972286774 -0.0025138074210046455 0 -0.02598466555838011 -0.0011901619927476368 0 -0.023631481552846216 -0.0052612994061334338 0 -0.034592783305611101 -0.0013092083596301228 0 -0.032067660700334011 -0.0023613472865231929 0 -0.026959749551251005 -8.7028180845729282e-05 0 -0.032067660700334011 -0.0023613472865231929 0 -0.029004450263373279 0.0014249995502468198 0 -0.028950898069288234 0.0013474672612636687 0 -0.029553542432143195 0.0015043240147076743 0 -0.028943074193295604 0.0012753005891888275 0 -0.028950898069288234 0.0013474672612636687 0 -0.029553542432143195 0.0015043240147076743 0 -0.030685896263224034 -0.00086275202654860494 0 -0.030721400600046054 -0.00086154478737051482 0 -0.030741850683416897 -0.00082835114661319886 0 -0.020597038485192787 -0.0011406927667831801 0 -0.022218499564894256 -0.0039058082769465366 0 -0.022511790427340146 -0.0052479108619891881 0 -0.023929284417037504 -0.0013457922345484967 0 -0.032848809141412208 -0.0023158988761802623 0 -0.02361373972286774 -0.0025138074210046455 0 -0.022218499564894256 -0.0039058082769465366 0 -0.023631481552846216 -0.0052612994061334338 0 -0.0219931556945408 -0.0021864680206651731 0 -0.02361373972286774 -0.0025138074210046455 0 -0.022218499564894256 -0.0039058082769465366 0 -0.032067660700334011 -0.0023613472865231929 0 -0.036298281380444421 -0.0035704350235644345 0 -0.033113717480351745 -0.0025262801345167264 0 -0.033000565913123482 -0.0025264489230214112 0 -0.033065054478449311 -0.00264573084936105 0 -0.032848809141412208 -0.0023158988761802623 0 -0.036298281380444421 -0.0035704350235644345 0 -0.032067660700334011 -0.0023613472865231929 0 -0.032848809141412208 -0.0023158988761802623 0 -0.022218499564894256 -0.0039058082769465366 0 -0.023631481552846216 -0.0052612994061334338 0 -0.022511790427340146 -0.0052479108619891881 0 -0.040953412275058283 -0.0038397948023783895 0 -0.040611814468294767 -0.0039510023991125584 0 -0.040947052137377024 -0.0035065582948338677 0 -0.039997754765239174 -0.0044505569240550005 0 -0.039906565292752438 -0.004216206833828509 0 -0.040633412128119793 -0.0038174947268859653 0 -0.036298281380444421 -0.0035704350235644345 0 -0.041140205842687926 -0.0035306332192470207 0 -0.040953412275058283 -0.0038397948023783895 0 -0.040666517842881986 -0.0040853470898051239 0 -0.040611814468294767 -0.0039510023991125584 0 -0.039692985586282543 -0.0045271030735998582 0 -0.039859183198464362 -0.0043821411520593954 0 -0.039906565292752438 -0.004216206833828509 0 -0.036298281380444421 -0.0035704350235644345 0 -0.037996889582350105 -0.0047445652692384857 0 -0.039313191979254564 -0.0039767059272840513 0 -0.038928902373170454 -0.0044007011112749744 0 -0.039692985586282543 -0.0045271030735998582 0 -0.039692985586282543 -0.0045271030735998582 0 -0.039906565292752438 -0.004216206833828509 0 -0.039714150079723454 -0.00400824773836008 0 -0.039313191979254564 -0.0039767059272840513 0 -0.039692985586282543 -0.0045271030735998582 0 -0.039714150079723454 -0.00400824773836008 0 -0.039906565292752438 -0.004216206833828509 0 -0.039714150079723454 -0.00400824773836008 0 -0.040086772471558625 -0.0038117197753758502 0 -0.039313191979254564 -0.0039767059272840513 0 -0.039714150079723454 -0.00400824773836008 0 -0.039840668310643743 -0.0036194123381654442 0 -0.039714150079723454 -0.00400824773836008 0 -0.039840668310643743 -0.0036194123381654442 0 -0.040086772471558625 -0.0038117197753758502 0 -0.039840668310643743 -0.0036194123381654442 0 -0.040086772471558625 -0.0038117197753758502 0 -0.040370314118399912 -0.0033834377955305984 0 -0.039906565292752438 -0.004216206833828509 0 -0.040633412128119793 -0.0038174947268859653 0 -0.040086772471558625 -0.0038117197753758502 0 -0.040633412128119793 -0.0038174947268859653 0 -0.040086772471558625 -0.0038117197753758502 0 -0.040370314118399912 -0.0033834377955305984 0 -0.041237029628898358 -0.0031559828535028633 0 -0.040370314118399912 -0.0033834377955305984 0 -0.040530283393510634 -0.0027832111130271344 0 -0.041237029628898358 -0.0031559828535028633 0 -0.040633412128119793 -0.0038174947268859653 0 -0.040370314118399912 -0.0033834377955305984 0 -0.039840668310643743 -0.0036194123381654442 0 -0.040370314118399912 -0.0033834377955305984 0 -0.039945749812077963 -0.0031177294153438046 0 -0.039840668310643743 -0.0036194123381654442 0 -0.039945749812077963 -0.0031177294153438046 0 -0.039405254112850514 -0.0035030698960556903 0 -0.040370314118399912 -0.0033834377955305984 0 -0.039945749812077963 -0.0031177294153438046 0 -0.040530283393510634 -0.0027832111130271344 0 -0.039437837269189861 -0.0030812122854603245 0 -0.038873198384833878 -0.0035451665038518372 0 -0.039405254112850514 -0.0035030698960556903 0 -0.039945749812077963 -0.0031177294153438046 0 -0.039437837269189861 -0.0030812122854603245 0 -0.039405254112850514 -0.0035030698960556903 0 -0.038873198384833878 -0.0035451665038518372 0 -0.038986441356213375 -0.0029621320400914346 0 -0.038535305735459477 -0.0031516411776011796 0 -0.039437837269189861 -0.0030812122854603245 0 -0.038873198384833878 -0.0035451665038518372 0 -0.038986441356213375 -0.0029621320400914346 0 -0.038741792272312142 -0.0040370238325479826 0 -0.039313191979254564 -0.0039767059272840513 0 -0.038873198384833878 -0.0035451665038518372 0 -0.038741792272312142 -0.0040370238325479826 0 -0.038873198384833878 -0.0035451665038518372 0 -0.038347083682137351 -0.003878257988902989 0 -0.039313191979254564 -0.0039767059272840513 0 -0.038873198384833878 -0.0035451665038518372 0 -0.039405254112850514 -0.0035030698960556903 0 -0.039313191979254564 -0.0039767059272840513 0 -0.039840668310643743 -0.0036194123381654442 0 -0.039405254112850514 -0.0035030698960556903 0 -0.039023305218492232 -0.0020700022558123518 0 -0.039644610304572045 -0.0025017262881265583 0 -0.039472307679727411 -0.0018211239051374522 0 -0.039644610304572045 -0.0025017262881265583 0 -0.040208592265847748 -0.0017453206340968543 0 -0.039472307679727411 -0.0018211239051374522 0 -0.039023305218492232 -0.0020700022558123518 0 -0.038868685809501868 -0.0025261095994172675 0 -0.039644610304572045 -0.0025017262881265583 0 -0.039023305218492232 -0.0020700022558123518 0 -0.038868685809501868 -0.0025261095994172675 0 -0.038507455884912854 -0.0018734858923571008 0 -0.038868685809501868 -0.0025261095994172675 0 -0.038986441356213375 -0.0029621320400914346 0 -0.039644610304572045 -0.0025017262881265583 0 -0.038868685809501868 -0.0025261095994172675 0 -0.038986441356213375 -0.0029621320400914346 0 -0.038535305735459477 -0.0031516411776011796 0 -0.039945749812077963 -0.0031177294153438046 0 -0.039437837269189861 -0.0030812122854603245 0 -0.039644610304572045 -0.0025017262881265583 0 -0.039437837269189861 -0.0030812122854603245 0 -0.038986441356213375 -0.0029621320400914346 0 -0.039644610304572045 -0.0025017262881265583 0 -0.039644610304572045 -0.0025017262881265583 0 -0.040530283393510634 -0.0027832111130271344 0 -0.040536424603072822 -0.0022229238701454569 0 -0.039945749812077963 -0.0031177294153438046 0 -0.039644610304572045 -0.0025017262881265583 0 -0.040530283393510634 -0.0027832111130271344 0 -0.041237029628898358 -0.0031559828535028633 0 -0.040530283393510634 -0.0027832111130271344 0 -0.041271944680378779 -0.0023849812411358413 0 -0.040530283393510634 -0.0027832111130271344 0 -0.040536424603072822 -0.0022229238701454569 0 -0.041271944680378779 -0.0023849812411358413 0 -0.040536424603072822 -0.0022229238701454569 0 -0.041061563232239459 -0.0015578359404109152 0 -0.041271944680378779 -0.0023849812411358413 0 -0.039644610304572045 -0.0025017262881265583 0 -0.040536424603072822 -0.0022229238701454569 0 -0.040208592265847748 -0.0017453206340968543 0 -0.040208592265847748 -0.0017453206340968543 0 -0.041061563232239459 -0.0015578359404109152 0 -0.040770752629742973 -0.00093380510166241005 0 -0.040536424603072822 -0.0022229238701454569 0 -0.040208592265847748 -0.0017453206340968543 0 -0.041061563232239459 -0.0015578359404109152 0 -0.041061563232239459 -0.0015578359404109152 0 -0.040770752629742973 -0.00093380510166241005 0 -0.041792492525884649 -0.00077106347246179516 0 -0.040208592265847748 -0.0017453206340968543 0 -0.040770752629742973 -0.00093380510166241005 0 -0.039679614500887944 -0.0011849847205695375 0 -0.040208592265847748 -0.0017453206340968543 0 -0.039679614500887944 -0.0011849847205695375 0 -0.039472307679727411 -0.0018211239051374522 0 -0.039679614500887944 -0.0011849847205695375 0 -0.039472307679727411 -0.0018211239051374522 0 -0.039106222536035455 -0.0016202533154754362 0 -0.039106222536035455 -0.0016202533154754362 0 -0.038977863660103702 -0.0011345759821469181 0 -0.038507455884912854 -0.0018734858923571008 0 -0.039023305218492232 -0.0020700022558123518 0 -0.039106222536035455 -0.0016202533154754362 0 -0.038507455884912854 -0.0018734858923571008 0 -0.039023305218492232 -0.0020700022558123518 0 -0.039472307679727411 -0.0018211239051374522 0 -0.039106222536035455 -0.0016202533154754362 0 -0.038977863660103702 -0.0011345759821469181 0 -0.039260796302194659 -0.00068325106451867736 0 -0.038456201054567832 -0.0012532432883850676 0 -0.039679614500887944 -0.0011849847205695375 0 -0.038977863660103702 -0.0011345759821469181 0 -0.039260796302194659 -0.00068325106451867736 0 -0.039679614500887944 -0.0011849847205695375 0 -0.039106222536035455 -0.0016202533154754362 0 -0.038977863660103702 -0.0011345759821469181 0 -0.045000756635482482 3.4829065550584218e-08 0 -0.044913930533083138 2.3280866543546693e-05 0 -0.044861443988375015 6.2996428951888256e-05 0 -0.045014328486317007 -0.00016303629027129599 0 -0.044996053504503516 -5.6589055652169e-05 0 -0.045017028706399606 -0.00017768369119103121 0 -0.042060385761786286 -0.00046754259125439477 0 -0.042655308966354492 -9.9187274833941152e-05 0 -0.039679614500887944 -0.0011849847205695375 0 -0.039260796302194659 -0.00068325106451867736 0 -0.040314695308545145 -0.000154769999119982 0 -0.045014328486317007 -0.00016303629027129599 0 -0.044996053504503516 -5.6589055652169e-05 0 -0.044962674493114176 -4.187792620373556e-05 0 -0.044996053504503516 -5.6589055652169e-05 0 -0.044987119073558776 -9.0692919904577742e-05 0 -0.045017028706399606 -0.00017768369119103121 0 -0.044996053504503516 -5.6589055652169e-05 0 -0.045000756635482482 3.4829065550584218e-08 0 -0.044987119073558776 -9.0692919904577742e-05 0 -0.044996053504503516 -5.6589055652169e-05 0 -0.045000756635482482 3.4829065550584218e-08 0 -0.044913930533083138 2.3280866543546693e-05 0 -0.044996053504503516 -5.6589055652169e-05 0 -0.044913930533083138 2.3280866543546693e-05 0 -0.044962674493114176 -4.187792620373556e-05 0 -0.043236085988729557 0.0001415539852919144 0 -0.042655308966354492 -9.9187274833941152e-05 0 -0.040770752629742973 -0.00093380510166241005 0 -0.039679614500887944 -0.0011849847205695375 0 -0.040314695308545145 -0.000154769999119982 0 -0.040770752629742973 -0.00093380510166241005 0 -0.041585809369537569 0.00028577591728271159 0 -0.040314695308545145 -0.000154769999119982 0 -0.040770752629742973 -0.00093380510166241005 0 -0.041585809369537569 0.00028577591728271159 0 -0.041792492525884649 -0.00077106347246179516 0 -0.041585809369537569 0.00028577591728271159 0 -0.041792492525884649 -0.00077106347246179516 0 -0.04310561043486584 -0.00031391362200704616 0 -0.045000756635482482 3.4829065550584218e-08 0 -0.04480829597289631 8.6163456698201427e-05 0 -0.044996821046429061 -3.2074049529114179e-07 0 -0.045000756635482482 3.4829065550584218e-08 0 -0.044861443988375015 6.2996428951888256e-05 0 -0.04480829597289631 8.6163456698201427e-05 0 -0.041792492525884649 -0.00077106347246179516 0 -0.04310561043486584 -0.00031391362200704616 0 -0.042250650693554971 -0.00119904916125851 0 -0.04310561043486584 -0.00031391362200704616 0 -0.043044458125408795 0.00051662544819758099 0 -0.044058380000282352 -2.9075236389636339e-06 0 -0.041585809369537569 0.00028577591728271159 0 -0.04310561043486584 -0.00031391362200704616 0 -0.043044458125408795 0.00051662544819758099 0 -0.043236085988729557 0.0001415539852919144 0 -0.043944950575582391 0.00023845879206403341 0 -0.04480829597289631 8.6163456698201427e-05 0 -0.044432515183184723 -0.00021040888654807341 0 -0.044996821046429061 -3.2074049529114179e-07 0 -0.043944950575582391 0.00023845879206403341 0 -0.044676118950163643 0.00013856200685782196 0 -0.043044458125408795 0.00051662544819758099 0 -0.04480829597289631 8.6163456698201427e-05 0 -0.044058380000282352 -2.9075236389636339e-06 0 -0.04480829597289631 8.6163456698201427e-05 0 -0.044058380000282352 -2.9075236389636339e-06 0 -0.044432515183184723 -0.00021040888654807341 0 -0.044002825401443749 -0.00027643725745104685 0 -0.044227124927850837 -0.00031375026816683429 0 -0.044432515183184723 -0.00021040888654807341 0 -0.044002825401443749 -0.00027643725745104685 0 -0.044058380000282352 -2.9075236389636339e-06 0 -0.044432515183184723 -0.00021040888654807341 0 -0.04310561043486584 -0.00031391362200704616 0 -0.044002825401443749 -0.00027643725745104685 0 -0.044058380000282352 -2.9075236389636339e-06 0 -0.04310561043486584 -0.00031391362200704616 0 -0.044002825401443749 -0.00027643725745104685 0 -0.043464968947339921 -0.00053938676998588353 0 -0.04310561043486584 -0.00031391362200704616 0 -0.043464968947339921 -0.00053938676998588353 0 -0.043078902874808485 -0.00096202760608402266 0 -0.043464968947339921 -0.00053938676998588353 0 -0.044002682390684875 -0.00051369281235856827 0 -0.04370832306905445 -0.00084445259141370781 0 -0.044002825401443749 -0.00027643725745104685 0 -0.044002682390684875 -0.00051369281235856827 0 -0.044227124927850837 -0.00031375026816683429 0 -0.044002825401443749 -0.00027643725745104685 0 -0.043464968947339921 -0.00053938676998588353 0 -0.044002682390684875 -0.00051369281235856827 0 -0.044002682390684875 -0.00051369281235856827 0 -0.044101467004782756 -0.00066232205873282288 0 -0.04417835230550287 -0.000440555313847475 0 -0.044101467004782756 -0.00066232205873282288 0 -0.04370832306905445 -0.00084445259141370781 0 -0.044114691853490103 -0.001164015951075896 0 -0.04370832306905445 -0.00084445259141370781 0 -0.044114691853490103 -0.001164015951075896 0 -0.0433406972217086 -0.0013154379072328022 0 -0.044002682390684875 -0.00051369281235856827 0 -0.044101467004782756 -0.00066232205873282288 0 -0.04370832306905445 -0.00084445259141370781 0 -0.044114691853490103 -0.001164015951075896 0 -0.0433406972217086 -0.0013154379072328022 0 -0.043122718099582527 -0.0021290213928853675 0 -0.042671586297130019 -0.0014022964438489102 0 -0.042721629525663933 -0.0019431619135518233 0 -0.042431409600997061 -0.0021225140103370847 0 -0.042671586297130019 -0.0014022964438489102 0 -0.042431409600997061 -0.0021225140103370847 0 -0.042014272811747015 -0.0022259774677229364 0 -0.043365019338592853 -0.0012991120520214096 0 -0.042568107002198069 -0.0021480326783590025 0 -0.0433406972217086 -0.0013154379072328022 0 -0.042619326430108267 -0.001568010992102808 0 -0.043122718099582527 -0.0021290213928853675 0 -0.0433406972217086 -0.0013154379072328022 0 -0.043078902874808485 -0.00096202760608402266 0 -0.042619326430108267 -0.001568010992102808 0 -0.04370832306905445 -0.00084445259141370781 0 -0.0433406972217086 -0.0013154379072328022 0 -0.043078902874808485 -0.00096202760608402266 0 -0.043464968947339921 -0.00053938676998588353 0 -0.04370832306905445 -0.00084445259141370781 0 -0.043078902874808485 -0.00096202760608402266 0 -0.043078902874808485 -0.00096202760608402266 0 -0.042250650693554971 -0.00119904916125851 0 -0.042619326430108267 -0.001568010992102808 0 -0.04310561043486584 -0.00031391362200704616 0 -0.043078902874808485 -0.00096202760608402266 0 -0.042250650693554971 -0.00119904916125851 0 -0.041061563232239459 -0.0015578359404109152 0 -0.041792492525884649 -0.00077106347246179516 0 -0.042250650693554971 -0.00119904916125851 0 -0.041061563232239459 -0.0015578359404109152 0 -0.041703394988140734 -0.0017494861891915706 0 -0.041271944680378779 -0.0023849812411358413 0 -0.041061563232239459 -0.0015578359404109152 0 -0.042250650693554971 -0.00119904916125851 0 -0.041703394988140734 -0.0017494861891915706 0 -0.042619326430108267 -0.001568010992102808 0 -0.042062348125782384 -0.0021300354213574682 0 -0.043122718099582527 -0.0021290213928853675 0 -0.042250650693554971 -0.00119904916125851 0 -0.041703394988140734 -0.0017494861891915706 0 -0.042619326430108267 -0.001568010992102808 0 -0.041703394988140734 -0.0017494861891915706 0 -0.042619326430108267 -0.001568010992102808 0 -0.042062348125782384 -0.0021300354213574682 0 -0.042062348125782384 -0.0021300354213574682 0 -0.041730878688545879 -0.0027626766384776622 0 -0.043122718099582527 -0.0021290213928853675 0 -0.041810992550182127 -0.0027281240215105886 0 -0.042568107002198069 -0.0021480326783590025 0 -0.041703394988140734 -0.0017494861891915706 0 -0.042062348125782384 -0.0021300354213574682 0 -0.041271944680378779 -0.0023849812411358413 0 -0.042062348125782384 -0.0021300354213574682 0 -0.041271944680378779 -0.0023849812411358413 0 -0.041730878688545879 -0.0027626766384776622 0 -0.041237029628898358 -0.0031559828535028633 0 -0.041271944680378779 -0.0023849812411358413 0 -0.041730878688545879 -0.0027626766384776622 0 -0.041850320397582692 -0.0030459879410189086 0 -0.041730878688545879 -0.0027626766384776622 0 -0.042095694717811626 -0.0027068443916389681 0 -0.042379576064665643 -0.0029861610265008963 0 -0.042095694717811626 -0.0027068443916389681 0 -0.042381318324526483 -0.0026423597389482857 0 -0.042194528099350037 -0.0028571102769725399 0 -0.042366605968680214 -0.002325069371048209 0 -0.042452622206963608 -0.0026549590180467591 0 -0.042379576064665643 -0.0029861610265008963 0 -0.042381318324526483 -0.0026423597389482857 0 -0.042668008603358891 -0.0024697638363380923 0 -0.042172102490123202 -0.0032922357402942791 0 -0.042903185788521168 -0.00057329794340701262 0 -0.042095694717811626 -0.0027068443916389681 0 -0.042381318324526483 -0.0026423597389482857 0 -0.04228607364958218 -0.002440577564855227 0 -0.04228607364958218 -0.002440577564855227 0 -0.042543589095205739 -0.002423598049473303 0 -0.042431409600997061 -0.0021225140103370847 0 -0.042381318324526483 -0.0026423597389482857 0 -0.04228607364958218 -0.002440577564855227 0 -0.042543589095205739 -0.002423598049473303 0 -0.042381318324526483 -0.0026423597389482857 0 -0.042668008603358891 -0.0024697638363380923 0 -0.042543589095205739 -0.002423598049473303 0 -0.042754365737351085 -0.0025024408545337869 0 -0.042543589095205739 -0.002423598049473303 0 -0.042600060093303554 -0.0022259453534219692 0 -0.042903185788521168 -0.00057329794340701262 0 -0.042959810913663243 -0.0011021135758603263 0 -0.042721629525663933 -0.0019431619135518233 0 -0.042754365737351085 -0.0025024408545337869 0 -0.042600060093303554 -0.0022259453534219692 0 -0.042721629525663933 -0.0019431619135518233 0 -0.042600060093303554 -0.0022259453534219692 0 -0.042431409600997061 -0.0021225140103370847 0 -0.042543589095205739 -0.002423598049473303 0 -0.042600060093303554 -0.0022259453534219692 0 -0.042431409600997061 -0.0021225140103370847 0 -0.04228607364958218 -0.002440577564855227 0 -0.042431409600997061 -0.0021225140103370847 0 -0.042014272811747015 -0.0022259774677229364 0 -0.042095694717811626 -0.0027068443916389681 0 -0.04228607364958218 -0.002440577564855227 0 -0.042014272811747015 -0.0022259774677229364 0 -0.041730878688545879 -0.0027626766384776622 0 -0.042095694717811626 -0.0027068443916389681 0 -0.042014272811747015 -0.0022259774677229364 0 -0.043415639550377687 0.0034353138075939658 0 -0.044337110809156206 0.0028586853044699607 0 -0.044387890959521177 0.0042308996061640597 0 -0.043415639550377687 0.0034353138075939658 0 -0.044337110809156206 0.0028586853044699607 0 -0.043353433602279126 0.0022951951655648586 0 -0.045544348628531073 0.003788041839731692 0 -0.044337110809156206 0.0028586853044699607 0 -0.0448424012641465 0.0018495235544311679 0 -0.042903185788521168 -0.00057329794340701262 0 -0.044190528564172576 0.00043268067284344617 0 -0.045544348628531073 0.003788041839731692 0 -0.044337110809156206 0.0028586853044699607 0 -0.044387890959521177 0.0042308996061640597 0 -0.042903185788521168 -0.00057329794340701262 0 -0.043977850705625918 0.00058111950480927463 0 -0.042638087770404912 -0.0030667378631889673 0 -0.042707031595109156 -0.0024499567222812414 0 -0.042452622206963608 -0.0026549590180467591 0 -0.042366605968680214 -0.002325069371048209 0 -0.042707031595109156 -0.0024499567222812414 0 -0.042452622206963608 -0.0026549590180467591 0 -0.042638087770404912 -0.0030667378631889673 0 -0.042707031595109156 -0.0024499567222812414 0 -0.043026507635656221 -0.0025575990636119953 0 -0.043415639550377687 0.0034353138075939658 0 -0.044387890959521177 0.0042308996061640597 0 -0.043208541811854365 0.004667432023306487 0 -0.043977850705625918 0.00058111950480927463 0 -0.039742879342958684 0.00041254525163425776 0 -0.03759433972329803 0.00057389431176181843 0 -0.038058466667859593 0.0004865227615770843 0 -0.037876616186855477 0.00024297447999793473 0 -0.035725794353173988 0.00056005421857412401 0 -0.039742879342958684 0.00041254525163425776 0 -0.03759433972329803 0.00057389431176181843 0 -0.037876616186855477 0.00024297447999793473 0 -0.037572127537696079 0.00015315792753937106 0 -0.043415639550377687 0.0034353138075939658 0 -0.041696940414947876 0.003208396896650059 0 -0.043353433602279126 0.0022951951655648586 0 -0.043415639550377687 0.0034353138075939658 0 -0.043208541811854365 0.004667432023306487 0 -0.041696940414947876 0.003208396896650059 0 -0.039742879342958684 0.00041254525163425776 0 -0.040062167532164975 0.0021217352458988725 0 -0.041696940414947876 0.003208396896650059 0 -0.041235329598170299 0.00078841030246534305 0 -0.042725115586044228 0.0012751592301503635 0 -0.041696940414947876 0.003208396896650059 0 -0.042725115586044228 0.0012751592301503635 0 -0.043353433602279126 0.0022951951655648586 0 -0.041696940414947876 0.003208396896650059 0 -0.041235329598170299 0.00078841030246534305 0 -0.039305844474481232 0.00082486821385422142 0 -0.037876616186855477 0.00024297447999793473 0 -0.039305844474481232 0.00082486821385422142 0 -0.037572127537696079 0.00015315792753937106 0 -0.040062167532164975 0.0021217352458988725 0 -0.039143597660159589 0.00068759320975355081 0 -0.041235329598170299 0.00078841030246534305 0 -0.040086501857429624 0.0002208652900768927 0 -0.039305844474481232 0.00082486821385422142 0 -0.041235329598170299 0.00078841030246534305 0 -0.042355379554427419 0.00031910492594311354 0 -0.040086501857429624 0.0002208652900768927 0 -0.041235329598170299 0.00078841030246534305 0 -0.042725115586044228 0.0012751592301503635 0 -0.042355379554427419 0.00031910492594311354 0 -0.042725115586044228 0.0012751592301503635 0 -0.043427755684490685 0.00056965552136168372 0 -0.042355379554427419 0.00031910492594311354 0 -0.043427755684490685 0.00056965552136168372 0 -0.043873810660049792 0.00074046244367126769 0 -0.043634512865381947 0.0012755473586960795 0 -0.043427755684490685 0.00056965552136168372 0 -0.043873810660049792 0.00074046244367126769 0 -0.043876231887021055 0.00034217563866345725 0 -0.044059467835937852 0.00049805419177030639 0 -0.044296364714537656 0.0010867658297699771 0 -0.044214340877017699 8.6167868980804594e-05 0 -0.044059467835937852 0.00049805419177030639 0 -0.043873810660049792 0.00074046244367126769 0 -0.044296364714537656 0.0010867658297699771 0 -0.044059467835937852 0.00049805419177030639 0 -0.043873810660049792 0.00074046244367126769 0 -0.043876231887021055 0.00034217563866345725 0 -0.043873810660049792 0.00074046244367126769 0 -0.044296364714537656 0.0010867658297699771 0 -0.043634512865381947 0.0012755473586960795 0 -0.044296364714537656 0.0010867658297699771 0 -0.043634512865381947 0.0012755473586960795 0 -0.044098934978145279 0.0018618389325678114 0 -0.042725115586044228 0.0012751592301503635 0 -0.043427755684490685 0.00056965552136168372 0 -0.043634512865381947 0.0012755473586960795 0 -0.042725115586044228 0.0012751592301503635 0 -0.043634512865381947 0.0012755473586960795 0 -0.043353433602279126 0.0022951951655648586 0 -0.043634512865381947 0.0012755473586960795 0 -0.044098934978145279 0.0018618389325678114 0 -0.043353433602279126 0.0022951951655648586 0 -0.044337110809156206 0.0028586853044699607 0 -0.044098934978145279 0.0018618389325678114 0 -0.043353433602279126 0.0022951951655648586 0 -0.042721629525663933 -0.0019431619135518233 0 -0.042754365737351085 -0.0025024408545337869 0 -0.043157443864270346 -0.0015954617264671738 0 -0.044337110809156206 0.0028586853044699607 0 -0.044098934978145279 0.0018618389325678114 0 -0.0448424012641465 0.0018495235544311679 0 -0.044296364714537656 0.0010867658297699771 0 -0.044098934978145279 0.0018618389325678114 0 -0.0448424012641465 0.0018495235544311679 0 -0.042671586297130019 -0.0014022964438489102 0 -0.042721629525663933 -0.0019431619135518233 0 -0.043157443864270346 -0.0015954617264671738 0 -0.044101467004782756 -0.00066232205873282288 0 -0.044114691853490103 -0.001164015951075896 0 -0.044194307393629249 -0.00048754442894043457 0 -0.044190528564172576 0.00043268067284344617 0 -0.043924410968177716 -0.00032448425513564231 0 -0.043365019338592853 -0.0012991120520214096 0 -0.043924410968177716 -0.00032448425513564231 0 -0.044296364714537656 0.0010867658297699771 0 -0.0448424012641465 0.0018495235544311679 0 -0.044214340877017699 8.6167868980804594e-05 0 -0.044114691853490103 -0.001164015951075896 0 -0.044194307393629249 -0.00048754442894043457 0 -0.044286542317331423 -0.00023759394925519176 0 -0.042671586297130019 -0.0014022964438489102 0 -0.043157443864270346 -0.0015954617264671738 0 -0.043562625457268044 -0.00053473165012766762 0 -0.044101467004782756 -0.00066232205873282288 0 -0.04417835230550287 -0.000440555313847475 0 -0.044194307393629249 -0.00048754442894043457 0 -0.043894239385996917 -0.00030839433170645351 0 -0.044432515183184723 -0.00021040888654807341 0 -0.044118205183948773 -0.00064310316995626912 0 -0.044002682390684875 -0.00051369281235856827 0 -0.04417835230550287 -0.000440555313847475 0 -0.044227124927850837 -0.00031375026816683429 0 -0.044996821046429061 -3.2074049529114179e-07 0 -0.044118205183948773 -0.00064310316995626912 0 -0.0444093656477716 -0.00036442542847323983 0 -0.04417835230550287 -0.000440555313847475 0 -0.044194307393629249 -0.00048754442894043457 0 -0.044229800793375108 -0.0002841070117075758 0 -0.044194307393629249 -0.00048754442894043457 0 -0.044242378635359 -0.00024408585937786762 0 -0.044286542317331423 -0.00023759394925519176 0 -0.044242378635359 -0.00024408585937786762 0 -0.044229800793375108 -0.0002841070117075758 0 -0.044214180114546267 -0.00019333361572796597 0 -0.044194307393629249 -0.00048754442894043457 0 -0.044242378635359 -0.00024408585937786762 0 -0.044229800793375108 -0.0002841070117075758 0 -0.044229800793375108 -0.0002841070117075758 0 -0.044227124927850837 -0.00031375026816683429 0 -0.044210496411077889 -0.00023401276301098989 0 -0.044229800793375108 -0.0002841070117075758 0 -0.044214180114546267 -0.00019333361572796597 0 -0.044210496411077889 -0.00023401276301098989 0 -0.04417835230550287 -0.000440555313847475 0 -0.044229800793375108 -0.0002841070117075758 0 -0.044227124927850837 -0.00031375026816683429 0 -0.043427755684490685 0.00056965552136168372 0 -0.043789048688041496 0.00016564165199431247 0 -0.043509617769260545 3.7896478186734481e-06 0 -0.043789048688041496 0.00016564165199431247 0 -0.044072684533296713 -8.3631567895751854e-05 0 -0.043509617769260545 3.7896478186734481e-06 0 -0.043427755684490685 0.00056965552136168372 0 -0.043789048688041496 0.00016564165199431247 0 -0.043876231887021055 0.00034217563866345725 0 -0.043789048688041496 0.00016564165199431247 0 -0.044072684533296713 -8.3631567895751854e-05 0 -0.04400923016417551 0.00013691828370138159 0 -0.043789048688041496 0.00016564165199431247 0 -0.043876231887021055 0.00034217563866345725 0 -0.04400923016417551 0.00013691828370138159 0 -0.044059467835937852 0.00049805419177030639 0 -0.043876231887021055 0.00034217563866345725 0 -0.044053870782994484 0.00024964101073404618 0 -0.043876231887021055 0.00034217563866345725 0 -0.04400923016417551 0.00013691828370138159 0 -0.044053870782994484 0.00024964101073404618 0 -0.044059467835937852 0.00049805419177030639 0 -0.044053870782994484 0.00024964101073404618 0 -0.044214340877017699 8.6167868980804594e-05 0 -0.04400923016417551 0.00013691828370138159 0 -0.044053870782994484 0.00024964101073404618 0 -0.044214340877017699 8.6167868980804594e-05 0 -0.044242378635359 -0.00024408585937786762 0 -0.044286542317331423 -0.00023759394925519176 0 -0.04420702182810031 -0.00014682500003470648 0 -0.044072684533296713 -8.3631567895751854e-05 0 -0.04420702182810031 -0.00014682500003470648 0 -0.044214180114546267 -0.00019333361572796597 0 -0.043996622351285708 -0.00024731143436364136 0 -0.043924410968177716 -0.00032448425513564231 0 -0.044072684533296713 -8.3631567895751854e-05 0 -0.044253783769120272 -0.0001378777968053358 0 -0.04420702182810031 -0.00014682500003470648 0 -0.044072684533296713 -8.3631567895751854e-05 0 -0.04400923016417551 0.00013691828370138159 0 -0.044214340877017699 8.6167868980804594e-05 0 -0.043924410968177716 -0.00032448425513564231 0 -0.04393714208246885 -0.00030711266792824885 0 -0.044242378635359 -0.00024408585937786762 0 -0.04420702182810031 -0.00014682500003470648 0 -0.044214180114546267 -0.00019333361572796597 0 -0.044072684533296713 -8.3631567895751854e-05 0 -0.044210496411077889 -0.00023401276301098989 0 -0.043894239385996917 -0.00030839433170645351 0 -0.044072684533296713 -8.3631567895751854e-05 0 -0.044214180114546267 -0.00019333361572796597 0 -0.044210496411077889 -0.00023401276301098989 0 -0.044072684533296713 -8.3631567895751854e-05 0 -0.043509617769260545 3.7896478186734481e-06 0 -0.043894239385996917 -0.00030839433170645351 0 -0.044210496411077889 -0.00023401276301098989 0 -0.043894239385996917 -0.00030839433170645351 0 -0.044432515183184723 -0.00021040888654807341 0 -0.044227124927850837 -0.00031375026816683429 0 -0.044210496411077889 -0.00023401276301098989 0 -0.044432515183184723 -0.00021040888654807341 0 -0.044432515183184723 -0.00021040888654807341 0 -0.044996821046429061 -3.2074049529114179e-07 0 -0.044118205183948773 -0.00064310316995626912 0 -0.04395616061979201 -0.00067410537565587613 0 -0.042525120652299124 -0.00060093747996896145 0 -0.044118205183948773 -0.00064310316995626912 0 -0.042853850221076857 -0.00013616614559577815 0 -0.04054003658516054 -0.00097132726672859453 0 -0.042853850221076857 -0.00013616614559577815 0 -0.040086501857429624 0.0002208652900768927 0 -0.04054003658516054 -0.00097132726672859453 0 -0.043894239385996917 -0.00030839433170645351 0 -0.044118205183948773 -0.00064310316995626912 0 -0.042853850221076857 -0.00013616614559577815 0 -0.043509617769260545 3.7896478186734481e-06 0 -0.043894239385996917 -0.00030839433170645351 0 -0.042853850221076857 -0.00013616614559577815 0 -0.043509617769260545 3.7896478186734481e-06 0 -0.042853850221076857 -0.00013616614559577815 0 -0.042355379554427419 0.00031910492594311354 0 -0.043427755684490685 0.00056965552136168372 0 -0.043509617769260545 3.7896478186734481e-06 0 -0.042355379554427419 0.00031910492594311354 0 -0.042853850221076857 -0.00013616614559577815 0 -0.042355379554427419 0.00031910492594311354 0 -0.040086501857429624 0.0002208652900768927 0 -0.040086501857429624 0.0002208652900768927 0 -0.039527398475161193 -0.00022864766384269418 0 -0.04054003658516054 -0.00097132726672859453 0 -0.044996821046429061 -3.2074049529114179e-07 0 -0.0444093656477716 -0.00036442542847323983 0 -0.044995810445851353 -1.4864005749676712e-06 0 -0.040086501857429624 0.0002208652900768927 0 -0.038893008045900436 -5.0939844488068729e-05 0 -0.039527398475161193 -0.00022864766384269418 0 -0.039527398475161193 -0.00022864766384269418 0 -0.04054003658516054 -0.00097132726672859453 0 -0.039531418022282015 2.1486051472720984e-05 0 -0.042525120652299124 -0.00060093747996896145 0 -0.041988905784778735 -0.00012683055212591517 0 -0.0444093656477716 -0.00036442542847323983 0 -0.044995810445851353 -1.4864005749676712e-06 0 -0.044371777749738633 -0.00017624865831753584 0 -0.041988905784778735 -0.00012683055212591517 0 -0.042227047534379884 -3.3803815989315808e-09 0 -0.044995810445851353 -1.4864005749676712e-06 0 -0.044371777749738633 -0.00017624865831753584 0 -0.042234367130442596 1.9162876864861806e-06 0 -0.039531418022282015 2.1486051472720984e-05 0 -0.042222406252961399 1.6390374967904687e-06 0 -0.03978425681052386 -0.00025951939736985067 0 -0.042222406252961399 1.6390374967904687e-06 0 -0.03978425681052386 -0.00025951939736985067 0 -0.039653732691222639 -1.1958046946819889e-06 0 -0.038893008045900436 -5.0939844488068729e-05 0 -0.03978425681052386 -0.00025951939736985067 0 -0.039653732691222639 -1.1958046946819889e-06 0 -0.039527398475161193 -0.00022864766384269418 0 -0.039531418022282015 2.1486051472720984e-05 0 -0.03978425681052386 -0.00025951939736985067 0 -0.038893008045900436 -5.0939844488068729e-05 0 -0.039527398475161193 -0.00022864766384269418 0 -0.03978425681052386 -0.00025951939736985067 0 -0.038893008045900436 -5.0939844488068729e-05 0 -0.039653732691222639 -1.1958046946819889e-06 0 -0.037763166934676032 -3.0938276390304904e-05 0 -0.039653732691222639 -1.1958046946819889e-06 0 -0.037080270415158829 3.8611496941277995e-08 0 -0.037763166934676032 -3.0938276390304904e-05 0 -0.037080270415158829 3.8611496941277995e-08 0 -0.037763166934676032 -3.0938276390304904e-05 0 -0.036194938558771525 -4.6391293471667639e-05 0 -0.038893008045900436 -5.0939844488068729e-05 0 -0.037763166934676032 -3.0938276390304904e-05 0 -0.038301201969520443 0.00032066243297683829 0 -0.040086501857429624 0.0002208652900768927 0 -0.038893008045900436 -5.0939844488068729e-05 0 -0.038301201969520443 0.00032066243297683829 0 -0.040086501857429624 0.0002208652900768927 0 -0.039305844474481232 0.00082486821385422142 0 -0.038301201969520443 0.00032066243297683829 0 -0.039305844474481232 0.00082486821385422142 0 -0.038301201969520443 0.00032066243297683829 0 -0.037572127537696079 0.00015315792753937106 0 -0.037763166934676032 -3.0938276390304904e-05 0 -0.038301201969520443 0.00032066243297683829 0 -0.036574415192453039 5.1219024995765974e-05 0 -0.038301201969520443 0.00032066243297683829 0 -0.036574415192453039 5.1219024995765974e-05 0 -0.037572127537696079 0.00015315792753937106 0 -0.035401192476699254 0.00049025244791779589 0 -0.03759433972329803 0.00057389431176181843 0 -0.037572127537696079 0.00015315792753937106 0 -0.035401192476699254 0.00049025244791779589 0 -0.036574415192453039 5.1219024995765974e-05 0 -0.037572127537696079 0.00015315792753937106 0 -0.034723416673932209 6.2055492196858033e-05 0 -0.035401192476699254 0.00049025244791779589 0 -0.036574415192453039 5.1219024995765974e-05 0 -0.034723416673932209 6.2055492196858033e-05 0 -0.036574415192453039 5.1219024995765974e-05 0 -0.036194938558771525 -4.6391293471667639e-05 0 -0.034723416673932209 6.2055492196858033e-05 0 -0.034507308369948551 1.3808251315096609e-07 0 -0.036194938558771525 -4.6391293471667639e-05 0 -0.037080270415158829 3.8611496941277995e-08 0 -0.034507308369948551 1.3808251315096609e-07 0 -0.036194938558771525 -4.6391293471667639e-05 0 -0.037763166934676032 -3.0938276390304904e-05 0 -0.036574415192453039 5.1219024995765974e-05 0 -0.036194938558771525 -4.6391293471667639e-05 0 -0.036491448786367529 -0.0054663707933066729 0 -0.037899585680273976 -0.003851648271908792 0 -0.036700567640285578 -0.0040327919458028882 0 -0.036491448786367529 -0.0054663707933066729 0 -0.038204659179777375 -0.0049066408651522479 0 -0.037899585680273976 -0.003851648271908792 0 -0.036491448786367529 -0.0054663707933066729 0 -0.036700567640285578 -0.0040327919458028882 0 -0.035284019344491428 -0.0045655171751107278 0 -0.02629824236692645 0.011399041486016266 0 -0.028232592008755029 0.011270488861903516 0 -0.026743229219539949 0.010004576568939844 0 -0.031307433714222975 0.0029500537451157233 0 -0.033355824590363438 0.0032786797656526008 0 -0.028232592008755029 0.011270488861903516 0 -0.028389394506349162 0.0098612010912078624 0 -0.03038038823769099 0.011202928200320832 0 -0.033355824590363438 0.0032786797656526008 0 -0.034038795078356492 0.0024951342202337427 0 -0.038204659179777375 -0.0049066408651522479 0 -0.038894128368958114 -0.0040651567897442738 0 -0.038433109332879668 -0.0039929097451176874 0 -0.038204659179777375 -0.0049066408651522479 0 -0.038894128368958114 -0.0040651567897442738 0 -0.039189133226961437 -0.004581138912228026 0 -0.038204659179777375 -0.0049066408651522479 0 -0.038433109332879668 -0.0039929097451176874 0 -0.037899585680273976 -0.003851648271908792 0 -0.037899585680273976 -0.003851648271908792 0 -0.038701313857512812 -0.0034605310752207417 0 -0.038215351715179008 -0.0028270594015124559 0 -0.038433109332879668 -0.0039929097451176874 0 -0.037899585680273976 -0.003851648271908792 0 -0.038701313857512812 -0.0034605310752207417 0 -0.038894128368958114 -0.0040651567897442738 0 -0.038701313857512812 -0.0034605310752207417 0 -0.038983327429902237 -0.0036269381429904373 0 -0.038894128368958114 -0.0040651567897442738 0 -0.038433109332879668 -0.0039929097451176874 0 -0.038701313857512812 -0.0034605310752207417 0 -0.038701313857512812 -0.0034605310752207417 0 -0.038983327429902237 -0.0036269381429904373 0 -0.038992025375336789 -0.0032625782108805174 0 -0.038701313857512812 -0.0034605310752207417 0 -0.038694493729870293 -0.0032011132823615328 0 -0.038992025375336789 -0.0032625782108805174 0 -0.038701313857512812 -0.0034605310752207417 0 -0.038694493729870293 -0.0032011132823615328 0 -0.038450084502922872 -0.0032389746021588457 0 -0.038694493729870293 -0.0032011132823615328 0 -0.038992025375336789 -0.0032625782108805174 0 -0.038896478627193982 -0.0029864217760928072 0 -0.038694493729870293 -0.0032011132823615328 0 -0.038450084502922872 -0.0032389746021588457 0 -0.038525042335172489 -0.0029348314380580318 0 -0.038725273640240795 -0.0034451404865052404 0 -0.038135317511935711 -0.0028949208295891778 0 -0.038135317511935711 -0.0028949208295891778 0 -0.039703420089542606 -0.0027526341186300926 0 -0.038215351715179008 -0.0028270594015124559 0 -0.037648501446495099 -0.0027828982147045799 0 -0.037768610519506127 -0.002369216550294801 0 -0.037648501446495099 -0.0027828982147045799 0 -0.03734459351149462 -0.0019134123581839707 0 -0.037991359270957641 -0.0018273848819421392 0 -0.038000123212666992 -0.00267763754388569 0 -0.039703420089542606 -0.0027526341186300926 0 -0.037899585680273976 -0.003851648271908792 0 -0.037648501446495099 -0.0027828982147045799 0 -0.036700567640285578 -0.0040327919458028882 0 -0.037899585680273976 -0.003851648271908792 0 -0.038215351715179008 -0.0028270594015124559 0 -0.037648501446495099 -0.0027828982147045799 0 -0.037648501446495099 -0.0027828982147045799 0 -0.036700567640285578 -0.0040327919458028882 0 -0.036772232182133137 -0.0030812815648152817 0 -0.036700567640285578 -0.0040327919458028882 0 -0.036772232182133137 -0.0030812815648152817 0 -0.035284019344491428 -0.0045655171751107278 0 -0.036772232182133137 -0.0030812815648152817 0 -0.03734459351149462 -0.0019134123581839707 0 -0.036821827158763809 -0.0022486949637388126 0 -0.037648501446495099 -0.0027828982147045799 0 -0.036772232182133137 -0.0030812815648152817 0 -0.03734459351149462 -0.0019134123581839707 0 -0.03734459351149462 -0.0019134123581839707 0 -0.036821827158763809 -0.0022486949637388126 0 -0.037331639570851248 -0.0013924199190067288 0 -0.036772232182133137 -0.0030812815648152817 0 -0.036821827158763809 -0.0022486949637388126 0 -0.035568574438502441 -0.0032332667027908072 0 -0.036189959624815103 -0.0019688766168522325 0 -0.034271148529733231 -0.0027867918167081606 0 -0.035568574438502441 -0.0032332667027908072 0 -0.036821827158763809 -0.0022486949637388126 0 -0.036189959624815103 -0.0019688766168522325 0 -0.035568574438502441 -0.0032332667027908072 0 -0.036821827158763809 -0.0022486949637388126 0 -0.036189959624815103 -0.0019688766168522325 0 -0.037331639570851248 -0.0013924199190067288 0 -0.036189959624815103 -0.0019688766168522325 0 -0.034271148529733231 -0.0027867918167081606 0 -0.03317271997425722 -0.0012958335115133685 0 -0.034271148529733231 -0.0027867918167081606 0 -0.032648206963528444 -0.004205986849721754 0 -0.03317271997425722 -0.0012958335115133685 0 -0.034271148529733231 -0.0027867918167081606 0 -0.035568574438502441 -0.0032332667027908072 0 -0.032648206963528444 -0.004205986849721754 0 -0.035568574438502441 -0.0032332667027908072 0 -0.032648206963528444 -0.004205986849721754 0 -0.035284019344491428 -0.0045655171751107278 0 -0.036772232182133137 -0.0030812815648152817 0 -0.035568574438502441 -0.0032332667027908072 0 -0.035284019344491428 -0.0045655171751107278 0 -0.030319717674801652 -0.0028442809884733854 0 -0.031150796488922956 -0.0038263632026109152 0 -0.03317271997425722 -0.0012958335115133685 0 -0.034476667915455776 -0.0026354402647903613 0 -0.03698524620730502 -0.0011435653505098573 0 -0.032648206963528444 -0.004205986849721754 0 -0.031150796488922956 -0.0038263632026109152 0 -0.03317271997425722 -0.0012958335115133685 0 -0.032648206963528444 -0.004205986849721754 0 -0.031150796488922956 -0.0038263632026109152 0 -0.030787346395420145 -0.0052544977466494319 0 -0.031150796488922956 -0.0038263632026109152 0 -0.030787346395420145 -0.0052544977466494319 0 -0.029758092800402095 -0.0046790601429001219 0 -0.030319717674801652 -0.0028442809884733854 0 -0.031150796488922956 -0.0038263632026109152 0 -0.029758092800402095 -0.0046790601429001219 0 -0.030787346395420145 -0.0052544977466494319 0 -0.029758092800402095 -0.0046790601429001219 0 -0.028954345674260164 -0.0066144746095713599 0 -0.032648206963528444 -0.004205986849721754 0 -0.030787346395420145 -0.0052544977466494319 0 -0.031459591830950977 -0.0064787220064134229 0 -0.026355989502300878 0.0025763685175633744 0 -0.023962167351432886 0.0024904925643046715 0 -0.030787346395420145 -0.0052544977466494319 0 -0.031459591830950977 -0.0064787220064134229 0 -0.028954345674260164 -0.0066144746095713599 0 -0.021259740881410798 0.011625844227373526 0 -0.019953143840026402 0.010372390090392872 0 -0.018959112398036666 0.011587441665019285 0 -0.036491448786367529 -0.0054663707933066729 0 -0.035284019344491428 -0.0045655171751107278 0 -0.034027410988921772 -0.0061542571640494474 0 -0.032648206963528444 -0.004205986849721754 0 -0.031459591830950977 -0.0064787220064134229 0 -0.034027410988921772 -0.0061542571640494474 0 -0.032648206963528444 -0.004205986849721754 0 -0.035284019344491428 -0.0045655171751107278 0 -0.034027410988921772 -0.0061542571640494474 0 -0.021259740881410798 0.011625844227373526 0 -0.024034631226411484 0.011589310159714884 0 -0.021404671833828527 0.010012123883485333 0 -0.026355989502300878 0.0025763685175633744 0 -0.02900269095669997 0.0027278933702898143 0 -0.031307433714222975 0.0029500537451157233 0 -0.02900269095669997 0.0027278933702898143 0 -0.02629824236692645 0.011399041486016266 0 -0.024034631226411484 0.011589310159714884 0 -0.024649153324734861 0.0098331541563593805 0 -0.024034631226411484 0.011589310159714884 0 -0.024649153324734861 0.0098331541563593805 0 -0.022813877830299825 0.0091725694455495332 0 -0.024034631226411484 0.011589310159714884 0 -0.022813877830299825 0.0091725694455495332 0 -0.021404671833828527 0.010012123883485333 0 -0.022813877830299825 0.0091725694455495332 0 -0.020868016600017209 0.0083590738297967555 0 -0.021883647918740916 0.0075988685936421319 0 -0.022813877830299825 0.0091725694455495332 0 -0.023993800369513651 0.0076512625833484805 0 -0.021883647918740916 0.0075988685936421319 0 -0.022813877830299825 0.0091725694455495332 0 -0.021404671833828527 0.010012123883485333 0 -0.020868016600017209 0.0083590738297967555 0 -0.024649153324734861 0.0098331541563593805 0 -0.022813877830299825 0.0091725694455495332 0 -0.023993800369513651 0.0076512625833484805 0 -0.019953143840026402 0.010372390090392872 0 -0.019698766167585011 0.0089711854201871329 0 -0.018517640526823149 0.0095782780919869918 0 -0.021259740881410798 0.011625844227373526 0 -0.019953143840026402 0.010372390090392872 0 -0.021404671833828527 0.010012123883485333 0 -0.019953143840026402 0.010372390090392872 0 -0.021404671833828527 0.010012123883485333 0 -0.019698766167585011 0.0089711854201871329 0 -0.020868016600017209 0.0083590738297967555 0 -0.019698766167585011 0.0089711854201871329 0 -0.019179456401904365 0.0074640940890540967 0 -0.021404671833828527 0.010012123883485333 0 -0.020868016600017209 0.0083590738297967555 0 -0.019698766167585011 0.0089711854201871329 0 -0.019698766167585011 0.0089711854201871329 0 -0.019179456401904365 0.0074640940890540967 0 -0.017420767852005158 0.0080752183872581026 0 -0.019179456401904365 0.0074640940890540967 0 -0.020251725496020164 0.0068710319298905392 0 -0.018708378262011823 0.0059791629340469376 0 -0.019179456401904365 0.0074640940890540967 0 -0.018708378262011823 0.0059791629340469376 0 -0.017380588645008681 0.0065976393696312551 0 -0.020868016600017209 0.0083590738297967555 0 -0.019179456401904365 0.0074640940890540967 0 -0.020251725496020164 0.0068710319298905392 0 -0.020868016600017209 0.0083590738297967555 0 -0.020251725496020164 0.0068710319298905392 0 -0.021883647918740916 0.0075988685936421319 0 -0.020251725496020164 0.0068710319298905392 0 -0.019872365026496024 0.0059209525571452181 0 -0.02110713058298376 0.0058984881682491892 0 -0.019491350808356719 0.0049257163600150092 0 -0.019872365026496024 0.0059209525571452181 0 -0.02110713058298376 0.0058984881682491892 0 -0.019491350808356719 0.0049257163600150092 0 -0.019872365026496024 0.0059209525571452181 0 -0.018708378262011823 0.0059791629340469376 0 -0.020251725496020164 0.0068710319298905392 0 -0.019872365026496024 0.0059209525571452181 0 -0.018708378262011823 0.0059791629340469376 0 -0.017776836249730876 0.0047249852743284195 0 -0.019491350808356719 0.0049257163600150092 0 -0.018708378262011823 0.0059791629340469376 0 -0.017776836249730876 0.0047249852743284195 0 -0.018708378262011823 0.0059791629340469376 0 -0.01685591493782073 0.005293314725461999 0 -0.022594419725578622 0.006672689394772436 0 -0.023993800369513651 0.0076512625833484805 0 -0.021883647918740916 0.0075988685936421319 0 -0.022594419725578622 0.006672689394772436 0 -0.023993800369513651 0.0076512625833484805 0 -0.023597408446631985 0.0062426792685754675 0 -0.023993800369513651 0.0076512625833484805 0 -0.023597408446631985 0.0062426792685754675 0 -0.024740326792236075 0.0064874314960814469 0 -0.020251725496020164 0.0068710319298905392 0 -0.021883647918740916 0.0075988685936421319 0 -0.02110713058298376 0.0058984881682491892 0 -0.022594419725578622 0.006672689394772436 0 -0.021883647918740916 0.0075988685936421319 0 -0.02110713058298376 0.0058984881682491892 0 -0.022594419725578622 0.006672689394772436 0 -0.02110713058298376 0.0058984881682491892 0 -0.022455495652855987 0.0056004811766605647 0 -0.020552015416436774 0.0045962086396234142 0 -0.019491350808356719 0.0049257163600150092 0 -0.02110713058298376 0.0058984881682491892 0 -0.021611892129800424 0.004966037787154421 0 -0.020552015416436774 0.0045962086396234142 0 -0.02110713058298376 0.0058984881682491892 0 -0.021611892129800424 0.004966037787154421 0 -0.02110713058298376 0.0058984881682491892 0 -0.022455495652855987 0.0056004811766605647 0 -0.022455495652855987 0.0056004811766605647 0 -0.023597408446631985 0.0062426792685754675 0 -0.023435544465248884 0.0051147040633288347 0 -0.022434026810099737 0.0046072889071386534 0 -0.022455495652855987 0.0056004811766605647 0 -0.023435544465248884 0.0051147040633288347 0 -0.022594419725578622 0.006672689394772436 0 -0.022455495652855987 0.0056004811766605647 0 -0.023597408446631985 0.0062426792685754675 0 -0.023597408446631985 0.0062426792685754675 0 -0.023435544465248884 0.0051147040633288347 0 -0.024398879071657761 0.005525299169493094 0 -0.024072237897637631 0.0046645600330058722 0 -0.023435544465248884 0.0051147040633288347 0 -0.024398879071657761 0.005525299169493094 0 -0.025522042519820775 0.0056920235456200275 0 -0.024740326792236075 0.0064874314960814469 0 -0.026127806770534633 0.0072041770907316643 0 -0.024904018895763078 0.0048052817899176528 0 -0.024398879071657761 0.005525299169493094 0 -0.025522042519820775 0.0056920235456200275 0 -0.026292177714160436 0.0050039774468768105 0 -0.024904018895763078 0.0048052817899176528 0 -0.025522042519820775 0.0056920235456200275 0 -0.023597408446631985 0.0062426792685754675 0 -0.024398879071657761 0.005525299169493094 0 -0.024740326792236075 0.0064874314960814469 0 -0.024398879071657761 0.005525299169493094 0 -0.025522042519820775 0.0056920235456200275 0 -0.024740326792236075 0.0064874314960814469 0 -0.025522042519820775 0.0056920235456200275 0 -0.026636843476299441 0.006205114552387021 0 -0.026127806770534633 0.0072041770907316643 0 -0.026292177714160436 0.0050039774468768105 0 -0.026636843476299441 0.006205114552387021 0 -0.027943506744626308 0.0062258804017964967 0 -0.025805135884108033 0.0047945223072583081 0 -0.027791093230875905 0.0061426727198145232 0 -0.02690691268210952 0.0044337759314290563 0 -0.025368682424488784 0.0046338792843885765 0 -0.027943506744626308 0.0062258804017964967 0 -0.026292177714160436 0.0050039774468768105 0 -0.025522042519820775 0.0056920235456200275 0 -0.026636843476299441 0.006205114552387021 0 -0.027207475972302986 0.0068848717613977546 0 -0.026127806770534633 0.0072041770907316643 0 -0.027954118079859834 0.007830873935222837 0 -0.026127806770534633 0.0072041770907316643 0 -0.026983315557098438 0.0087055185813967213 0 -0.027954118079859834 0.007830873935222837 0 -0.026636843476299441 0.006205114552387021 0 -0.027207475972302986 0.0068848717613977546 0 -0.026127806770534633 0.0072041770907316643 0 -0.023993800369513651 0.0076512625833484805 0 -0.026127806770534633 0.0072041770907316643 0 -0.025572244240112233 0.008667674916650046 0 -0.023993800369513651 0.0076512625833484805 0 -0.024740326792236075 0.0064874314960814469 0 -0.026127806770534633 0.0072041770907316643 0 -0.024649153324734861 0.0098331541563593805 0 -0.023993800369513651 0.0076512625833484805 0 -0.025572244240112233 0.008667674916650046 0 -0.025572244240112233 0.008667674916650046 0 -0.026983315557098438 0.0087055185813967213 0 -0.026743229219539949 0.010004576568939844 0 -0.026127806770534633 0.0072041770907316643 0 -0.025572244240112233 0.008667674916650046 0 -0.026983315557098438 0.0087055185813967213 0 -0.026983315557098438 0.0087055185813967213 0 -0.026743229219539949 0.010004576568939844 0 -0.028389394506349162 0.0098612010912078624 0 -0.02629824236692645 0.011399041486016266 0 -0.024649153324734861 0.0098331541563593805 0 -0.026743229219539949 0.010004576568939844 0 -0.024649153324734861 0.0098331541563593805 0 -0.025572244240112233 0.008667674916650046 0 -0.026743229219539949 0.010004576568939844 0 -0.029881437860252744 0.0096335414669780975 0 -0.028389394506349162 0.0098612010912078624 0 -0.03038038823769099 0.011202928200320832 0 -0.029767434905545131 0.0092148661962669128 0 -0.029881437860252744 0.0096335414669780975 0 -0.028389394506349162 0.0098612010912078624 0 -0.02798705189859595 0.0075370358451716801 0 -0.028272053246317451 0.0063600241753621438 0 -0.028232592008755029 0.011270488861903516 0 -0.026743229219539949 0.010004576568939844 0 -0.028389394506349162 0.0098612010912078624 0 -0.026983315557098438 0.0087055185813967213 0 -0.028389394506349162 0.0098612010912078624 0 -0.027954118079859834 0.007830873935222837 0 -0.028272053246317451 0.0063600241753621438 0 -0.027783558036932055 0.002826371515263749 0 -0.029767434905545131 0.0092148661962669128 0 -0.028389394506349162 0.0098612010912078624 0 -0.027954118079859834 0.007830873935222837 0 -0.025744082236099978 0.0064056430188175525 0 -0.025003995102311424 0.0040950243722002585 0 -0.025984231064817155 0.0048403027228054044 0 -0.025744082236099978 0.0064056430188175525 0 -0.02589782708071392 0.006885642295280262 0 -0.025984231064817155 0.0048403027228054044 0 -0.02798705189859595 0.0075370358451716801 0 -0.027325490511922745 0.0055956323429280103 0 -0.029767434905545131 0.0092148661962669128 0 -0.029196548035630869 0.0069952476342991779 0 -0.027954118079859834 0.007830873935222837 0 -0.025003995102311424 0.0040950243722002585 0 -0.02604683900245118 0.0028083928834397244 0 -0.025984231064817155 0.0048403027228054044 0 -0.029196548035630869 0.0069952476342991779 0 -0.027954118079859834 0.007830873935222837 0 -0.027943506744626308 0.0062258804017964967 0 -0.027207475972302986 0.0068848717613977546 0 -0.027954118079859834 0.007830873935222837 0 -0.027943506744626308 0.0062258804017964967 0 -0.02690691268210952 0.0044337759314290563 0 -0.028460699937833376 0.0039294661429628642 0 -0.027943506744626308 0.0062258804017964967 0 -0.028460699937833376 0.0039294661429628642 0 -0.029196548035630869 0.0069952476342991779 0 -0.027943506744626308 0.0062258804017964967 0 -0.026636843476299441 0.006205114552387021 0 -0.027207475972302986 0.0068848717613977546 0 -0.027943506744626308 0.0062258804017964967 0 -0.024729539441940691 0.0019515886321344442 0 -0.024261204379958663 0.0017919984816820789 0 -0.025003995102311424 0.0040950243722002585 0 -0.024729539441940691 0.0019515886321344442 0 -0.025003995102311424 0.0040950243722002585 0 -0.02604683900245118 0.0028083928834397244 0 -0.02444882644391811 0.0029793484523886202 0 -0.027325490511922745 0.0055956323429280103 0 -0.024684253914983634 -0.0027335806323967957 0 -0.025363317010177671 -0.0034185102982124196 0 -0.024933438659890006 -0.0036719645671789316 0 -0.025660891170222858 -0.001399833382952649 0 -0.026515866680569478 0.00054726040465805819 0 -0.025363317010177671 -0.0034185102982124196 0 -0.024933438659890006 -0.0036719645671789316 0 -0.024897209377925108 -0.0036514644872984018 0 -0.026770164332219865 -0.00063755965304035291 0 -0.026777149503068046 -0.00075291929086961258 0 -0.026627385602360432 -0.0011942394249439359 0 -0.025660891170222858 -0.001399833382952649 0 -0.02751532761801901 -0.0015795774358044682 0 -0.026515866680569478 0.00054726040465805819 0 -0.02751532761801901 -0.0015795774358044682 0 -0.024933438659890006 -0.0036719645671789316 0 -0.024897209377925108 -0.0036514644872984018 0 -0.025002098857299954 -0.003418439203287299 0 -0.024897209377925108 -0.0036514644872984018 0 -0.025002098857299954 -0.003418439203287299 0 -0.024977889843043707 -0.0028116646478874557 0 -0.02944512595383551 0.0011762228674699663 0 -0.029676542952718727 0.00059974046647836448 0 -0.030090277856401428 0.0019571831326457992 0 -0.026515866680569478 0.00054726040465805819 0 -0.027783558036932055 0.002826371515263749 0 -0.029450306324365492 3.3587848492867881e-05 0 -0.02944512595383551 0.0011762228674699663 0 -0.029676542952718727 0.00059974046647836448 0 -0.025002098857299954 -0.003418439203287299 0 -0.024735265942457535 -0.0039143675652024276 0 -0.025706896497687991 -0.0032826157828091175 0 -0.024933438659890006 -0.0036719645671789316 0 -0.025002098857299954 -0.003418439203287299 0 -0.024735265942457535 -0.0039143675652024276 0 -0.024684253914983634 -0.0027335806323967957 0 -0.024933438659890006 -0.0036719645671789316 0 -0.024735265942457535 -0.0039143675652024276 0 -0.024735265942457535 -0.0039143675652024276 0 -0.026261725814766497 -0.0042842068597978965 0 -0.025706896497687991 -0.0032826157828091175 0 -0.024684253914983634 -0.0027335806323967957 0 -0.024735265942457535 -0.0039143675652024276 0 -0.02218581009818801 -0.0038335983224256002 0 -0.024706773207565567 -0.00395420515338541 0 -0.024109589472928329 -0.0040090804734859544 0 -0.026261725814766497 -0.0042842068597978965 0 -0.025706896497687991 -0.0032826157828091175 0 -0.026680101974516555 -0.003627266705747278 0 -0.025706896497687991 -0.0032826157828091175 0 -0.026634889873294529 -0.0028983261950781868 0 -0.026680101974516555 -0.003627266705747278 0 -0.025706896497687991 -0.0032826157828091175 0 -0.02605184602928896 -0.0024537419905883715 0 -0.024977889843043707 -0.0028116646478874557 0 -0.025706896497687991 -0.0032826157828091175 0 -0.026634889873294529 -0.0028983261950781868 0 -0.02605184602928896 -0.0024537419905883715 0 -0.026634889873294529 -0.0028983261950781868 0 -0.026753217248632635 -0.0022657332260285581 0 -0.02605184602928896 -0.0024537419905883715 0 -0.026753217248632635 -0.0022657332260285581 0 -0.02605184602928896 -0.0024537419905883715 0 -0.026508326898861932 -0.0017404947405644487 0 -0.02605184602928896 -0.0024537419905883715 0 -0.024977889843043707 -0.0028116646478874557 0 -0.025668331088552765 -0.0017085740470900715 0 -0.029398263131234264 0.0010932552718476807 0 -0.033269388908170258 -0.00043429452999753056 0 -0.026459538080043178 -0.0019820250225611249 0 -0.031006685761988343 -0.0020596364789159296 0 -0.029065804259774636 -0.00095500304014788865 0 -0.029136849822580219 -0.00095643497143422726 0 -0.029378495850467218 -0.00016546671620909807 0 -0.029436784566068384 0.0022941958454189013 0 -0.030090277856401428 0.0019571831326457992 0 -0.029766002536418253 0.0032339650611098009 0 -0.028712535719583904 -0.0017640256548502324 0 -0.029065804259774636 -0.00095500304014788865 0 -0.029136849822580219 -0.00095643497143422726 0 -0.029436784566068384 0.0022941958454189013 0 -0.02944512595383551 0.0011762228674699663 0 -0.030090277856401428 0.0019571831326457992 0 -0.02751532761801901 -0.0015795774358044682 0 -0.029398263131234264 0.0010932552718476807 0 -0.02751532761801901 -0.0015795774358044682 0 -0.026459538080043178 -0.0019820250225611249 0 -0.025002098857299954 -0.003418439203287299 0 -0.025706896497687991 -0.0032826157828091175 0 -0.024977889843043707 -0.0028116646478874557 0 -0.0294065790875499 -0.001807548545820731 0 -0.027887953802622985 -0.00044788377543330263 0 -0.029283832797390785 0.0014845389245073664 0 -0.028938853739139389 0.001292323160109 0 -0.029011374828353254 0.0021130742207916132 0 -0.029033972411766102 0.0022789845330919069 0 -0.029185797992568492 0.0018189638582074071 0 -0.028518889260113311 0.00034228515803357397 0 -0.02860146359282981 0.0002500039723665498 0 -0.028821939433637152 0.00085587195009348698 0 -0.029020168237375729 0.0019881870696443257 0 -0.029011374828353254 0.0021130742207916132 0 -0.029185797992568492 0.0018189638582074071 0 -0.029011374828353254 0.0021130742207916132 0 -0.028952972163995692 0.0022463680932459326 0 -0.029033972411766102 0.0022789845330919069 0 -0.028956507099199637 0.0022921275905389551 0 -0.028952972163995692 0.0022463680932459326 0 -0.029033972411766102 0.0022789845330919069 0 -0.021839701284808444 -0.0024466253929775971 0 -0.0294065790875499 -0.001807548545820731 0 -0.02317343048938084 -0.00021007823856373229 0 -0.029283832797390785 0.0014845389245073664 0 -0.028921340745667688 0.00233295641135163 0 -0.028940437595725472 0.0023129548669107969 0 -0.029033972411766102 0.0022789845330919069 0 -0.028349217941970459 -0.00074279031866192368 0 -0.028518889260113311 0.00034228515803357397 0 -0.02860146359282981 0.0002500039723665498 0 -0.028956507099199637 0.0022921275905389551 0 -0.028940437595725472 0.0023129548669107969 0 -0.029033972411766102 0.0022789845330919069 0 -0.027766394436343468 -0.0042847642169871166 0 -0.028317100737083756 -0.0036892842621394236 0 -0.027427463222531197 -0.0035090317443989129 0 -0.028317100737083756 -0.0036892842621394236 0 -0.027427463222531197 -0.0035090317443989129 0 -0.027875201560400197 -0.0029823772034402026 0 -0.027235047475732223 -0.0044530497784284672 0 -0.027766394436343468 -0.0042847642169871166 0 -0.027427463222531197 -0.0035090317443989129 0 -0.027235047475732223 -0.0044530497784284672 0 -0.027427463222531197 -0.0035090317443989129 0 -0.026680101974516555 -0.003627266705747278 0 -0.027235047475732223 -0.0044530497784284672 0 -0.026261725814766497 -0.0042842068597978965 0 -0.026680101974516555 -0.003627266705747278 0 -0.026634889873294529 -0.0028983261950781868 0 -0.027427463222531197 -0.0035090317443989129 0 -0.026680101974516555 -0.003627266705747278 0 -0.026634889873294529 -0.0028983261950781868 0 -0.027427463222531197 -0.0035090317443989129 0 -0.027437596274643424 -0.0025062303964701904 0 -0.026753217248632635 -0.0022657332260285581 0 -0.027437596274643424 -0.0025062303964701904 0 -0.027168517438389505 -0.0017744461383994688 0 -0.026634889873294529 -0.0028983261950781868 0 -0.026753217248632635 -0.0022657332260285581 0 -0.027437596274643424 -0.0025062303964701904 0 -0.027437596274643424 -0.0025062303964701904 0 -0.027875201560400197 -0.0029823772034402026 0 -0.028029070705522623 -0.0023251405864052892 0 -0.027437596274643424 -0.0025062303964701904 0 -0.028029070705522623 -0.0023251405864052892 0 -0.027856720484764945 -0.0017664130971527224 0 -0.027427463222531197 -0.0035090317443989129 0 -0.027437596274643424 -0.0025062303964701904 0 -0.027875201560400197 -0.0029823772034402026 0 -0.027875201560400197 -0.0029823772034402026 0 -0.028029070705522623 -0.0023251405864052892 0 -0.028481473423049349 -0.0027041437825328597 0 -0.028317100737083756 -0.0036892842621394236 0 -0.027875201560400197 -0.0029823772034402026 0 -0.028481473423049349 -0.0027041437825328597 0 -0.027887953802622985 -0.00044788377543330263 0 -0.033394567955151 -0.0018914627828999077 0 -0.028029070705522623 -0.0023251405864052892 0 -0.028481473423049349 -0.0027041437825328597 0 -0.028611554370341449 -0.0017482579421750745 0 -0.028970586403853704 0.0012695386588551293 0 -0.02886297775176816 0.0010563680499338967 0 -0.029004722751787258 0.0014651671538141657 0 -0.028989531778003255 0.0013181351964147126 0 -0.028938853739139389 0.001292323160109 0 -0.028961705315829502 0.0015197618557526524 0 -0.028941461840109251 0.0013438742702147474 0 -0.028970586403853704 0.0012695386588551293 0 -0.028970586403853704 0.0012695386588551293 0 -0.02886297775176816 0.0010563680499338967 0 -0.028821939433637152 0.00085587195009348698 0 -0.028518889260113311 0.00034228515803357397 0 -0.02886297775176816 0.0010563680499338967 0 -0.028821939433637152 0.00085587195009348698 0 -0.028961705315829502 0.0015197618557526524 0 -0.028970586403853704 0.0012695386588551293 0 -0.029185797992568492 0.0018189638582074071 0 -0.028938106563093178 0.0018025804289617915 0 -0.028961705315829502 0.0015197618557526524 0 -0.029185797992568492 0.0018189638582074071 0 -0.028938106563093178 0.0018025804289617915 0 -0.029020168237375729 0.0019881870696443257 0 -0.029185797992568492 0.0018189638582074071 0 -0.038347083682137351 -0.003878257988902989 0 -0.038270418789725133 -0.0041395663571842005 0 -0.038027290604722541 -0.0039250589912915232 0 -0.038089677067089545 -0.004546013397123929 0 -0.033394567955151 -0.0018914627828999077 0 -0.038741792272312142 -0.0040370238325479826 0 -0.038347083682137351 -0.003878257988902989 0 -0.038301519774276087 -0.0043163683610301998 0 -0.028941461840109251 0.0013438742702147474 0 -0.028970586403853704 0.0012695386588551293 0 -0.029004722751787258 0.0014651671538141657 0 -0.028029070705522623 -0.0023251405864052892 0 -0.028611554370341449 -0.0017482579421750745 0 -0.027856720484764945 -0.0017664130971527224 0 -0.033394567955151 -0.0018914627828999077 0 -0.032833281575541426 -0.0030369587433822401 0 -0.038270418789725133 -0.0041395663571842005 0 -0.037794312272182967 -0.0041324025852234507 0 -0.038027290604722541 -0.0039250589912915232 0 -0.038027290604722541 -0.0039250589912915232 0 -0.037572981988005232 -0.0036155461036985808 0 -0.037967350577742087 -0.0036140115754515908 0 -0.038347083682137351 -0.003878257988902989 0 -0.038027290604722541 -0.0039250589912915232 0 -0.037967350577742087 -0.0036140115754515908 0 -0.037794312272182967 -0.0041324025852234507 0 -0.038027290604722541 -0.0039250589912915232 0 -0.037572981988005232 -0.0036155461036985808 0 -0.037794312272182967 -0.0041324025852234507 0 -0.037207113355807189 -0.0041075761485010751 0 -0.037572981988005232 -0.0036155461036985808 0 -0.027437596274643424 -0.0025062303964701904 0 -0.027856720484764945 -0.0017664130971527224 0 -0.027168517438389505 -0.0017744461383994688 0 -0.032833281575541426 -0.0030369587433822401 0 -0.032199074505494842 -0.0029272426680042396 0 -0.037207113355807189 -0.0041075761485010751 0 -0.037168383722489366 -0.0035831206408081873 0 -0.037572981988005232 -0.0036155461036985808 0 -0.037207113355807189 -0.0041075761485010751 0 -0.037168383722489366 -0.0035831206408081873 0 -0.036819460273275449 -0.0037380709624049067 0 -0.037168383722489366 -0.0035831206408081873 0 -0.037340302914071463 -0.0031834608937555894 0 -0.036914833669379345 -0.0033023155701819452 0 -0.037168383722489366 -0.0035831206408081873 0 -0.037340302914071463 -0.0031834608937555894 0 -0.037572981988005232 -0.0036155461036985808 0 -0.037340302914071463 -0.0031834608937555894 0 -0.03730023475411369 -0.0028682556123989901 0 -0.03711450502103493 -0.002963720261980678 0 -0.037340302914071463 -0.0031834608937555894 0 -0.03730023475411369 -0.0028682556123989901 0 -0.037594655049145116 -0.0028300847613810256 0 -0.037340302914071463 -0.0031834608937555894 0 -0.037855116404573425 -0.0030754509994773238 0 -0.037594655049145116 -0.0028300847613810256 0 -0.037572981988005232 -0.0036155461036985808 0 -0.037967350577742087 -0.0036140115754515908 0 -0.037797605198984528 -0.0032191727687982718 0 -0.03758949053331298 -0.0035873376999786956 0 -0.037823961143945692 -0.0031520234469013014 0 -0.037340302914071463 -0.0031834608937555894 0 -0.037572981988005232 -0.0036155461036985808 0 -0.037855116404573425 -0.0030754509994773238 0 -0.037967350577742087 -0.0036140115754515908 0 -0.037797605198984528 -0.0032191727687982718 0 -0.038305759147960861 -0.0035115993446669593 0 -0.037797605198984528 -0.0032191727687982718 0 -0.038535305735459477 -0.0031516411776011796 0 -0.038107897555486055 -0.0025938241259373077 0 -0.038873198384833878 -0.0035451665038518372 0 -0.038535305735459477 -0.0031516411776011796 0 -0.038305759147960861 -0.0035115993446669593 0 -0.037797605198984528 -0.0032191727687982718 0 -0.038535305735459477 -0.0031516411776011796 0 -0.038305759147960861 -0.0035115993446669593 0 -0.038873198384833878 -0.0035451665038518372 0 -0.038347083682137351 -0.003878257988902989 0 -0.038305759147960861 -0.0035115993446669593 0 -0.038347083682137351 -0.003878257988902989 0 -0.037967350577742087 -0.0036140115754515908 0 -0.038305759147960861 -0.0035115993446669593 0 -0.033269388908170258 -0.00043429452999753056 0 -0.037389929295527799 -0.0026112398666741183 0 -0.038307775573450248 -0.00097519250119584031 0 -0.038225284447256765 -0.00073279675379780138 0 -0.038166221587207026 -0.0011701575927998049 0 -0.035944828998274038 -0.0038400746506076769 0 -0.035653431197128826 -0.0040726296351604159 0 -0.036048939270356559 -0.0034572286863086888 0 -0.038307775573450248 -0.00097519250119584031 0 -0.038376517647850293 -0.00087859262877866388 0 -0.038225284447256765 -0.00073279675379780138 0 -0.038307775573450248 -0.00097519250119584031 0 -0.038166221587207026 -0.0011701575927998049 0 -0.038463948886954986 -0.0011763646358898385 0 -0.038376517647850293 -0.00087859262877866388 0 -0.038508035296051089 -0.00071750498742588118 0 -0.038463948886954986 -0.0011763646358898385 0 -0.038894128368958114 -0.0040651567897442738 0 -0.039189133226961437 -0.004581138912228026 0 -0.039322050606154735 -0.0037237631417959926 0 -0.038307775573450248 -0.00097519250119584031 0 -0.038376517647850293 -0.00087859262877866388 0 -0.038463948886954986 -0.0011763646358898385 0 -0.034038795078356492 0.0024951342202337427 0 -0.039168588154445176 -0.0033320106007166898 0 -0.028272053246317451 0.0063600241753621438 0 -0.034038795078356492 0.0024951342202337427 0 -0.038376517647850293 -0.00087859262877866388 0 -0.038508035296051089 -0.00071750498742588118 0 -0.038225284447256765 -0.00073279675379780138 0 -0.034038795078356492 0.0024951342202337427 0 -0.033269388908170258 -0.00043429452999753056 0 -0.030090277856401428 0.0019571831326457992 0 -0.029766002536418253 0.0032339650611098009 0 -0.030476846804585928 0.0032200179963236017 0 -0.029136849822580219 -0.00095643497143422726 0 -0.029378495850467218 -0.00016546671620909807 0 -0.029516919581130799 -0.00016800555313704245 0 -0.033269388908170258 -0.00043429452999753056 0 -0.031006685761988343 -0.0020596364789159296 0 -0.033581124102907235 -0.0031557143355784136 0 -0.031006685761988343 -0.0020596364789159296 0 -0.035944828998274038 -0.0038400746506076769 0 -0.035653431197128826 -0.0040726296351604159 0 -0.035808164234218065 -0.0040797616336638795 0 -0.035944828998274038 -0.0038400746506076769 0 -0.035707373636186764 -0.0041261489720140947 0 -0.036495303415231203 -0.0041193422188145175 0 -0.031006685761988343 -0.0020596364789159296 0 -0.03142774166162457 -0.0030027823305093133 0 -0.02605184602928896 -0.0024537419905883715 0 -0.025668331088552765 -0.0017085740470900715 0 -0.026508326898861932 -0.0017404947405644487 0 -0.032199074505494842 -0.0029272426680042396 0 -0.03142774166162457 -0.0030027823305093133 0 -0.026753217248632635 -0.0022657332260285581 0 -0.027168517438389505 -0.0017744461383994688 0 -0.026508326898861932 -0.0017404947405644487 0 -0.036495303415231203 -0.0041193422188145175 0 -0.036819460273275449 -0.0037380709624049067 0 -0.036472518126683416 -0.003602348440385799 0 -0.037207113355807189 -0.0041075761485010751 0 -0.036495303415231203 -0.0041193422188145175 0 -0.036819460273275449 -0.0037380709624049067 0 -0.036819460273275449 -0.0037380709624049067 0 -0.036472518126683416 -0.003602348440385799 0 -0.036914833669379345 -0.0033023155701819452 0 -0.035944828998274038 -0.0038400746506076769 0 -0.036495303415231203 -0.0041193422188145175 0 -0.036472518126683416 -0.003602348440385799 0 -0.035944828998274038 -0.0038400746506076769 0 -0.036472518126683416 -0.003602348440385799 0 -0.036048939270356559 -0.0034572286863086888 0 -0.036472518126683416 -0.003602348440385799 0 -0.036604927357389162 -0.0032278336876145112 0 -0.036048939270356559 -0.0034572286863086888 0 -0.036604927357389162 -0.0032278336876145112 0 -0.036663833694461148 -0.0028559747304721379 0 -0.036048939270356559 -0.0034572286863086888 0 -0.036472518126683416 -0.003602348440385799 0 -0.036604927357389162 -0.0032278336876145112 0 -0.036914833669379345 -0.0033023155701819452 0 -0.036604927357389162 -0.0032278336876145112 0 -0.036914833669379345 -0.0033023155701819452 0 -0.036885706490321878 -0.00298123997532915 0 -0.037340302914071463 -0.0031834608937555894 0 -0.036914833669379345 -0.0033023155701819452 0 -0.03711450502103493 -0.002963720261980678 0 -0.037168383722489366 -0.0035831206408081873 0 -0.036819460273275449 -0.0037380709624049067 0 -0.036914833669379345 -0.0033023155701819452 0 -0.036914833669379345 -0.0033023155701819452 0 -0.03711450502103493 -0.002963720261980678 0 -0.036885706490321878 -0.00298123997532915 0 -0.03711450502103493 -0.002963720261980678 0 -0.037147316710095517 -0.0027307255551153242 0 -0.037227825732697457 -0.0027613487190006505 0 -0.03711450502103493 -0.002963720261980678 0 -0.036885706490321878 -0.00298123997532915 0 -0.037147316710095517 -0.0027307255551153242 0 -0.03730023475411369 -0.0028682556123989901 0 -0.03711450502103493 -0.002963720261980678 0 -0.037227825732697457 -0.0027613487190006505 0 -0.036604927357389162 -0.0032278336876145112 0 -0.036885706490321878 -0.00298123997532915 0 -0.036663833694461148 -0.0028559747304721379 0 -0.036885706490321878 -0.00298123997532915 0 -0.036663833694461148 -0.0028559747304721379 0 -0.037147316710095517 -0.0027307255551153242 0 -0.038049668524588798 -0.0016814977738057078 0 -0.038455416724939809 -0.0016730283926681836 0 -0.038166221587207026 -0.0011701575927998049 0 -0.038049668524588798 -0.0016814977738057078 0 -0.038455416724939809 -0.0016730283926681836 0 -0.038165404570342482 -0.0022658050500644756 0 -0.038455416724939809 -0.0016730283926681836 0 -0.038166221587207026 -0.0011701575927998049 0 -0.038463948886954986 -0.0011763646358898385 0 -0.037343670550139499 -0.0022809535163329834 0 -0.037389929295527799 -0.0026112398666741183 0 -0.039179903812408406 -0.0029876770778124399 0 -0.039322050606154735 -0.0037237631417959926 0 -0.038992025375336789 -0.0032625782108805174 0 -0.038788926535741182 -0.0022190059980514826 0 -0.039168588154445176 -0.0033320106007166898 0 -0.038894128368958114 -0.0040651567897442738 0 -0.038983327429902237 -0.0036269381429904373 0 -0.039322050606154735 -0.0037237631417959926 0 -0.038983327429902237 -0.0036269381429904373 0 -0.039322050606154735 -0.0037237631417959926 0 -0.038992025375336789 -0.0032625782108805174 0 -0.039179903812408406 -0.0029876770778124399 0 -0.038992025375336789 -0.0032625782108805174 0 -0.039009069942628455 -0.0030061312486610843 0 -0.039179903812408406 -0.0029876770778124399 0 -0.039009069942628455 -0.0030061312486610843 0 -0.038978681541351264 -0.0028010113440327384 0 -0.038992025375336789 -0.0032625782108805174 0 -0.039009069942628455 -0.0030061312486610843 0 -0.038896478627193982 -0.0029864217760928072 0 -0.039009069942628455 -0.0030061312486610843 0 -0.038978681541351264 -0.0028010113440327384 0 -0.038896478627193982 -0.0029864217760928072 0 -0.038978681541351264 -0.0028010113440327384 0 -0.038896478627193982 -0.0029864217760928072 0 -0.039035738956417508 -0.002825432929665877 0 -0.038978681541351264 -0.0028010113440327384 0 -0.038939874155338068 -0.0027343883944545015 0 -0.039035738956417508 -0.002825432929665877 0 -0.038939874155338068 -0.0027343883944545015 0 -0.039365308085746419 -0.0027402608683776766 0 -0.039035738956417508 -0.002825432929665877 0 -0.038939874155338068 -0.0027343883944545015 0 -0.038512618470777985 -0.0026554402241073124 0 -0.038095562989856023 -0.0032150594420243556 0 -0.038512618470777985 -0.0026554402241073124 0 -0.03794497237397465 -0.0028162009827238633 0 -0.038095562989856023 -0.0032150594420243556 0 -0.038939874155338068 -0.0027343883944545015 0 -0.039365308085746419 -0.0027402608683776766 0 -0.038095562989856023 -0.0032150594420243556 0 -0.038455416724939809 -0.0016730283926681836 0 -0.038512618470777985 -0.0026554402241073124 0 -0.038165404570342482 -0.0022658050500644756 0 -0.038788926535741182 -0.0022190059980514826 0 -0.038538268390762236 -0.0027611686096493575 0 -0.039179903812408406 -0.0029876770778124399 0 -0.038978681541351264 -0.0028010113440327384 0 -0.038512618470777985 -0.0026554402241073124 0 -0.038512618470777985 -0.0026554402241073124 0 -0.038165404570342482 -0.0022658050500644756 0 -0.03794497237397465 -0.0028162009827238633 0 -0.038978681541351264 -0.0028010113440327384 0 -0.038939874155338068 -0.0027343883944545015 0 -0.038512618470777985 -0.0026554402241073124 0 -0.038049668524588798 -0.0016814977738057078 0 -0.038165404570342482 -0.0022658050500644756 0 -0.037620898640332787 -0.0026356882695377564 0 -0.036663833694461148 -0.0028559747304721379 0 -0.037147316710095517 -0.0027307255551153242 0 -0.037620898640332787 -0.0026356882695377564 0 -0.037343670550139499 -0.0022809535163329834 0 -0.037533871079025408 -0.0026693973312431007 0 -0.037147316710095517 -0.0027307255551153242 0 -0.037620898640332787 -0.0026356882695377564 0 -0.037271799866925352 -0.0026421147471315147 0 -0.038165404570342482 -0.0022658050500644756 0 -0.037620898640332787 -0.0026356882695377564 0 -0.03794497237397465 -0.0028162009827238633 0 -0.037620898640332787 -0.0026356882695377564 0 -0.037271799866925352 -0.0026421147471315147 0 -0.037266630901591005 -0.0025981566538199313 0 -0.037147316710095517 -0.0027307255551153242 0 -0.037227825732697457 -0.0027613487190006505 0 -0.037271799866925352 -0.0026421147471315147 0 -0.037227825732697457 -0.0027613487190006505 0 -0.037271799866925352 -0.0026421147471315147 0 -0.037319740875427124 -0.002688655541582285 0 -0.037271799866925352 -0.0026421147471315147 0 -0.037266630901591005 -0.0025981566538199313 0 -0.037319740875427124 -0.002688655541582285 0 -0.037620898640332787 -0.0026356882695377564 0 -0.037266630901591005 -0.0025981566538199313 0 -0.037194497698357074 -0.0025351904792397357 0 -0.037266630901591005 -0.0025981566538199313 0 -0.037194497698357074 -0.0025351904792397357 0 -0.037331070412530705 -0.0025951383616756025 0 -0.03794497237397465 -0.0028162009827238633 0 -0.038095562989856023 -0.0032150594420243556 0 -0.037822221807589172 -0.003108670070204364 0 -0.037620898640332787 -0.0026356882695377564 0 -0.03794497237397465 -0.0028162009827238633 0 -0.037194497698357074 -0.0025351904792397357 0 -0.038144880616148402 -0.0027054056486038596 0 -0.037089320093108259 -0.0029834111113911065 0 -0.042000416463721886 -0.0025113504000524225 0 -0.042037853247679842 -0.0012330944251240882 0 -0.043058005578908348 -0.0014457689959852438 0 -0.039951221801652843 -0.002822360482237113 0 -0.04127455308172872 -0.0024154969244083455 0 -0.042000416463721886 -0.0025113504000524225 0 -0.044041005414561192 -0.0017350832538414879 0 -0.043058005578908348 -0.0014457689959852438 0 -0.038095562989856023 -0.0032150594420243556 0 -0.037822221807589172 -0.003108670070204364 0 -0.03784166057901675 -0.0030985560682262837 0 -0.044041005414561192 -0.0017350832538414879 0 -0.044001755489852898 -0.00092446953649888734 0 -0.044411157663470063 -0.0010684308525695581 0 -0.044041005414561192 -0.0017350832538414879 0 -0.044001755489852898 -0.00092446953649888734 0 -0.043058005578908348 -0.0014457689959852438 0 -0.044001755489852898 -0.00092446953649888734 0 -0.043058005578908348 -0.0014457689959852438 0 -0.04316589271013116 -0.00070074419837403562 0 -0.042037853247679842 -0.0012330944251240882 0 -0.043058005578908348 -0.0014457689959852438 0 -0.04316589271013116 -0.00070074419837403562 0 -0.042037853247679842 -0.0012330944251240882 0 -0.040541682694111951 -0.0010633229337080792 0 -0.042116778736117209 0.00056629038524612732 0 -0.042000416463721886 -0.0025113504000524225 0 -0.042037853247679842 -0.0012330944251240882 0 -0.040541682694111951 -0.0010633229337080792 0 -0.040541682694111951 -0.0010633229337080792 0 -0.039115853849711772 -0.00067172511977247446 0 -0.039387343626987023 -0.0016922837030472202 0 -0.039365308085746419 -0.0027402608683776766 0 -0.040541682694111951 -0.0010633229337080792 0 -0.039387343626987023 -0.0016922837030472202 0 -0.039365308085746419 -0.0027402608683776766 0 -0.042000416463721886 -0.0025113504000524225 0 -0.040541682694111951 -0.0010633229337080792 0 -0.039437165092295841 -0.0027809691851716856 0 -0.039951221801652843 -0.002822360482237113 0 -0.038117785123152961 -0.0026375203415057264 0 -0.038519736572379795 -0.0019907120605797061 0 -0.038868685809501868 -0.0025261095994172675 0 -0.038107897555486055 -0.0025938241259373077 0 -0.038507455884912854 -0.0018734858923571008 0 -0.038868685809501868 -0.0025261095994172675 0 -0.038535305735459477 -0.0031516411776011796 0 -0.038107897555486055 -0.0025938241259373077 0 -0.037823961143945692 -0.0031520234469013014 0 -0.038117785123152961 -0.0026375203415057264 0 -0.038109326501505288 -0.0026892813107762701 0 -0.037982328943380481 -0.0022851150087086435 0 -0.03759615899149478 -0.0025392650625307416 0 -0.038109326501505288 -0.0026892813107762701 0 -0.037982328943380481 -0.0022851150087086435 0 -0.038527136488046468 -0.0021503060600624692 0 -0.03759615899149478 -0.0025392650625307416 0 -0.037331070412530705 -0.0025951383616756025 0 -0.037676023203099152 -0.0019879394568418449 0 -0.037982328943380481 -0.0022851150087086435 0 -0.03759615899149478 -0.0025392650625307416 0 -0.037676023203099152 -0.0019879394568418449 0 -0.037855116404573425 -0.0030754509994773238 0 -0.038109326501505288 -0.0026892813107762701 0 -0.037594655049145116 -0.0028300847613810256 0 -0.038109326501505288 -0.0026892813107762701 0 -0.03759615899149478 -0.0025392650625307416 0 -0.037594655049145116 -0.0028300847613810256 0 -0.03730023475411369 -0.0028682556123989901 0 -0.037594655049145116 -0.0028300847613810256 0 -0.037319740875427124 -0.002688655541582285 0 -0.03759615899149478 -0.0025392650625307416 0 -0.037594655049145116 -0.0028300847613810256 0 -0.037319740875427124 -0.002688655541582285 0 -0.03730023475411369 -0.0028682556123989901 0 -0.037227825732697457 -0.0027613487190006505 0 -0.037319740875427124 -0.002688655541582285 0 -0.037266630901591005 -0.0025981566538199313 0 -0.037319740875427124 -0.002688655541582285 0 -0.037331070412530705 -0.0025951383616756025 0 -0.03759615899149478 -0.0025392650625307416 0 -0.037319740875427124 -0.002688655541582285 0 -0.037331070412530705 -0.0025951383616756025 0 -0.037194497698357074 -0.0025351904792397357 0 -0.037331070412530705 -0.0025951383616756025 0 -0.037676023203099152 -0.0019879394568418449 0 -0.044041005414561192 -0.0017350832538414879 0 -0.044411157663470063 -0.0010684308525695581 0 -0.044891324079209281 -0.00094033997701345115 0 -0.04127455308172872 -0.0024154969244083455 0 -0.039874495688962563 -0.0018630748247552037 0 -0.037089320093108259 -0.0029834111113911065 0 -0.039874495688962563 -0.0018630748247552037 0 -0.037822221807589172 -0.003108670070204364 0 -0.03784166057901675 -0.0030985560682262837 0 -0.038143203869970423 -0.0030149691620950949 0 -0.044001755489852898 -0.00092446953649888734 0 -0.044411157663470063 -0.0010684308525695581 0 -0.044597301887374562 -0.00062451892832559165 0 -0.044411157663470063 -0.0010684308525695581 0 -0.044597301887374562 -0.00062451892832559165 0 -0.044891324079209281 -0.00094033997701345115 0 -0.044597301887374562 -0.00062451892832559165 0 -0.044921560534072029 -0.00048809369807304858 0 -0.044891324079209281 -0.00094033997701345115 0 -0.037982328943380481 -0.0022851150087086435 0 -0.037676023203099152 -0.0019879394568418449 0 -0.038135855427255456 -0.0020369285780825067 0 -0.039874495688962563 -0.0018630748247552037 0 -0.037928090266723911 -0.0016346968790092486 0 -0.037982328943380481 -0.0022851150087086435 0 -0.038135855427255456 -0.0020369285780825067 0 -0.038527136488046468 -0.0021503060600624692 0 -0.037676023203099152 -0.0019879394568418449 0 -0.038135855427255456 -0.0020369285780825067 0 -0.038103903775878398 -0.0017529148537905495 0 -0.038135855427255456 -0.0020369285780825067 0 -0.038103903775878398 -0.0017529148537905495 0 -0.038361757303160902 -0.0018546861000903758 0 -0.044921560534072029 -0.00048809369807304858 0 -0.044891324079209281 -0.00094033997701345115 0 -0.045045397458113597 -0.00041762419395087501 0 -0.038134927292823535 -0.0014829673456406901 0 -0.038348222438760841 -0.0014050278689469295 0 -0.038456201054567832 -0.0012532432883850676 0 -0.039874495688962563 -0.0018630748247552037 0 -0.04210654794508277 -0.00068653919226199767 0 -0.038977863660103702 -0.0011345759821469181 0 -0.038456201054567832 -0.0012532432883850676 0 -0.038706053046650944 -0.0014348491509647322 0 -0.038348222438760841 -0.0014050278689469295 0 -0.038456201054567832 -0.0012532432883850676 0 -0.038706053046650944 -0.0014348491509647322 0 -0.042060385761786286 -0.00046754259125439477 0 -0.04210654794508277 -0.00068653919226199767 0 -0.037928090266723911 -0.0016346968790092486 0 -0.03878320870075419 -0.0014440248097080334 0 -0.038103903775878398 -0.0017529148537905495 0 -0.038706053046650944 -0.0014348491509647322 0 -0.038361757303160902 -0.0018546861000903758 0 -0.038977863660103702 -0.0011345759821469181 0 -0.038706053046650944 -0.0014348491509647322 0 -0.038527136488046468 -0.0021503060600624692 0 -0.03894292746934773 -0.0012037938453020832 0 -0.038519736572379795 -0.0019907120605797061 0 -0.038706053046650944 -0.0014348491509647322 0 -0.038361757303160902 -0.0018546861000903758 0 -0.038527136488046468 -0.0021503060600624692 0 -0.038135855427255456 -0.0020369285780825067 0 -0.038361757303160902 -0.0018546861000903758 0 -0.038527136488046468 -0.0021503060600624692 0 -0.045000756635482482 3.4829065550584218e-08 0 -0.04482573140533188 5.6295222433837453e-06 0 -0.044999016162810782 -5.0929890313302404e-08 0 -0.044987119073558776 -9.0692919904577742e-05 0 -0.045017028706399606 -0.00017768369119103121 0 -0.04497461527062642 -0.00021797950447008418 0 -0.045014328486317007 -0.00016303629027129599 0 -0.045045397458113597 -0.00041762419395087501 0 -0.045017028706399606 -0.00017768369119103121 0 -0.045045397458113597 -0.00041762419395087501 0 -0.045017028706399606 -0.00017768369119103121 0 -0.04497461527062642 -0.00021797950447008418 0 -0.044921560534072029 -0.00048809369807304858 0 -0.04497461527062642 -0.00021797950447008418 0 -0.04484319956786377 -0.00020035472786690816 0 -0.044921560534072029 -0.00048809369807304858 0 -0.045045397458113597 -0.00041762419395087501 0 -0.04497461527062642 -0.00021797950447008418 0 -0.044987119073558776 -9.0692919904577742e-05 0 -0.04497461527062642 -0.00021797950447008418 0 -0.04492690708840659 -6.6419385571989893e-05 0 -0.04497461527062642 -0.00021797950447008418 0 -0.04492690708840659 -6.6419385571989893e-05 0 -0.04484319956786377 -0.00020035472786690816 0 -0.04492690708840659 -6.6419385571989893e-05 0 -0.04484319956786377 -0.00020035472786690816 0 -0.04482573140533188 5.6295222433837453e-06 0 -0.044597301887374562 -0.00062451892832559165 0 -0.044921560534072029 -0.00048809369807304858 0 -0.04484319956786377 -0.00020035472786690816 0 -0.044001755489852898 -0.00092446953649888734 0 -0.044597301887374562 -0.00062451892832559165 0 -0.044381084153260988 5.3515395898078533e-05 0 -0.044597301887374562 -0.00062451892832559165 0 -0.04484319956786377 -0.00020035472786690816 0 -0.044381084153260988 5.3515395898078533e-05 0 -0.04484319956786377 -0.00020035472786690816 0 -0.04482573140533188 5.6295222433837453e-06 0 -0.044381084153260988 5.3515395898078533e-05 0 -0.045000756635482482 3.4829065550584218e-08 0 -0.044987119073558776 -9.0692919904577742e-05 0 -0.04492690708840659 -6.6419385571989893e-05 0 -0.045000756635482482 3.4829065550584218e-08 0 -0.04492690708840659 -6.6419385571989893e-05 0 -0.04482573140533188 5.6295222433837453e-06 0 -0.044999016162810782 -5.0929890313302404e-08 0 -0.044928449077789402 -3.1935132314529679e-05 0 -0.045000482531030207 -1.0148212887965733e-07 0 -0.04489514061881713 -3.9799760594743291e-05 0 -0.044833385577241869 5.8314339978587069e-05 0 -0.044928449077789402 -3.1935132314529679e-05 0 -0.044833385577241869 5.8314339978587069e-05 0 -0.044785919878573034 -3.0662576653836822e-05 0 -0.044928449077789402 -3.1935132314529679e-05 0 -0.04489514061881713 -3.9799760594743291e-05 0 -0.044928449077789402 -3.1935132314529679e-05 0 -0.044895985543385995 -5.456622497313749e-05 0 -0.040541682694111951 -0.0010633229337080792 0 -0.040076489100657212 0.00056550710180135557 0 -0.039115853849711772 -0.00067172511977247446 0 -0.042220748990913916 0.00034042120491804552 0 -0.043538080513730835 0.00026762654017285727 0 -0.040541682694111951 -0.0010633229337080792 0 -0.040076489100657212 0.00056550710180135557 0 -0.042116778736117209 0.00056629038524612732 0 -0.042037853247679842 -0.0012330944251240882 0 -0.04316589271013116 -0.00070074419837403562 0 -0.042116778736117209 0.00056629038524612732 0 -0.043538080513730835 0.00026762654017285727 0 -0.04428507845399119 0.00010548893220297023 0 -0.04316589271013116 -0.00070074419837403562 0 -0.042116778736117209 0.00056629038524612732 0 -0.044381084153260988 5.3515395898078533e-05 0 -0.044001755489852898 -0.00092446953649888734 0 -0.04316589271013116 -0.00070074419837403562 0 -0.044381084153260988 5.3515395898078533e-05 0 -0.04482573140533188 5.6295222433837453e-06 0 -0.044381084153260988 5.3515395898078533e-05 0 -0.044785919878573034 -3.0662576653836822e-05 0 -0.044833385577241869 5.8314339978587069e-05 0 -0.044381084153260988 5.3515395898078533e-05 0 -0.044785919878573034 -3.0662576653836822e-05 0 -0.044785919878573034 -3.0662576653836822e-05 0 -0.044999016162810782 -5.0929890313302404e-08 0 -0.044928449077789402 -3.1935132314529679e-05 0 -0.04482573140533188 5.6295222433837453e-06 0 -0.044785919878573034 -3.0662576653836822e-05 0 -0.044999016162810782 -5.0929890313302404e-08 0 -0.044928449077789402 -3.1935132314529679e-05 0 -0.045000482531030207 -1.0148212887965733e-07 0 -0.044893711664201509 -2.9349244894138137e-05 0 -0.044893711664201509 -2.9349244894138137e-05 0 -0.044546104979291734 -5.8173429469591251e-05 0 -0.044814121404427511 -0.00013466675962021257 0 -0.045000482531030207 -1.0148212887965733e-07 0 -0.044893711664201509 -2.9349244894138137e-05 0 -0.044546104979291734 -5.8173429469591251e-05 0 -0.044895985543385995 -5.456622497313749e-05 0 -0.044893711664201509 -2.9349244894138137e-05 0 -0.044814121404427511 -0.00013466675962021257 0 -0.044928449077789402 -3.1935132314529679e-05 0 -0.044895985543385995 -5.456622497313749e-05 0 -0.044893711664201509 -2.9349244894138137e-05 0 -0.045000482531030207 -1.0148212887965733e-07 0 -0.044546104979291734 -5.8173429469591251e-05 0 -0.044050751539230083 8.1149592446974293e-06 0 -0.044546104979291734 -5.8173429469591251e-05 0 -0.044076906663830795 -0.00026240628730962723 0 -0.044050751539230083 8.1149592446974293e-06 0 -0.044076906663830795 -0.00026240628730962723 0 -0.043440133902391383 -0.0003548951140230096 0 -0.044050751539230083 8.1149592446974293e-06 0 -0.044546104979291734 -5.8173429469591251e-05 0 -0.044076906663830795 -0.00026240628730962723 0 -0.044487718369934252 -0.00019727826504258822 0 -0.044076906663830795 -0.00026240628730962723 0 -0.044043796227824859 -0.00055951429574487737 0 -0.044410054082810173 -0.00023968925642152273 0 -0.044076906663830795 -0.00026240628730962723 0 -0.044043796227824859 -0.00055951429574487737 0 -0.043592166476597069 -0.00056762051076568204 0 -0.043440133902391383 -0.0003548951140230096 0 -0.04293603399670233 -0.00082723314952817318 0 -0.042603784142093232 -0.00068715543467999225 0 -0.044076906663830795 -0.00026240628730962723 0 -0.043592166476597069 -0.00056762051076568204 0 -0.043440133902391383 -0.0003548951140230096 0 -0.043592166476597069 -0.00056762051076568204 0 -0.043440133902391383 -0.0003548951140230096 0 -0.04293603399670233 -0.00082723314952817318 0 -0.04489514061881713 -3.9799760594743291e-05 0 -0.044814121404427511 -0.00013466675962021257 0 -0.044803915861415008 -0.00014356539664321489 0 -0.04489514061881713 -3.9799760594743291e-05 0 -0.044895985543385995 -5.456622497313749e-05 0 -0.044814121404427511 -0.00013466675962021257 0 -0.042220748990913916 0.00034042120491804552 0 -0.042780780789450357 -0.00039067642348301483 0 -0.044824823061476789 -0.00029666296792347092 0 -0.042780780789450357 -0.00039067642348301483 0 -0.044076906663830795 -0.00026240628730962723 0 -0.044487718369934252 -0.00019727826504258822 0 -0.044782116124825057 -0.00042050374303550153 0 -0.044546104979291734 -5.8173429469591251e-05 0 -0.044814121404427511 -0.00013466675962021257 0 -0.044487718369934252 -0.00019727826504258822 0 -0.043962855222103144 3.8925026103247836e-05 0 -0.042780780789450357 -0.00039067642348301483 0 -0.044814121404427511 -0.00013466675962021257 0 -0.044487718369934252 -0.00019727826504258822 0 -0.044782116124825057 -0.00042050374303550153 0 -0.03835229232541381 0.00052984139703270323 0 -0.039115853849711772 -0.00067172511977247446 0 -0.038069557309898069 -0.0012413678016600356 0 -0.044043796227824859 -0.00055951429574487737 0 -0.044410054082810173 -0.00023968925642152273 0 -0.04434720657525329 -0.00094463852209214169 0 -0.042780780789450357 -0.00039067642348301483 0 -0.041043979955944339 -0.00097518721785485912 0 -0.040076489100657212 0.00056550710180135557 0 -0.03835229232541381 0.00052984139703270323 0 -0.039115853849711772 -0.00067172511977247446 0 -0.039115853849711772 -0.00067172511977247446 0 -0.038691920746225274 -0.0021908215165536249 0 -0.039387343626987023 -0.0016922837030472202 0 -0.039365308085746419 -0.0027402608683776766 0 -0.038691920746225274 -0.0021908215165536249 0 -0.039387343626987023 -0.0016922837030472202 0 -0.041043979955944339 -0.00097518721785485912 0 -0.041285479121173668 -0.0026232325811490062 0 -0.038691920746225274 -0.0021908215165536249 0 -0.038069557309898069 -0.0012413678016600356 0 -0.038153937367249938 -0.0024839694966237334 0 -0.039115853849711772 -0.00067172511977247446 0 -0.038691920746225274 -0.0021908215165536249 0 -0.038069557309898069 -0.0012413678016600356 0 -0.044043796227824859 -0.00055951429574487737 0 -0.04434720657525329 -0.00094463852209214169 0 -0.04357554640210401 -0.0011722030645595883 0 -0.044043796227824859 -0.00055951429574487737 0 -0.043592166476597069 -0.00056762051076568204 0 -0.04357554640210401 -0.0011722030645595883 0 -0.04357554640210401 -0.0011722030645595883 0 -0.04293603399670233 -0.00082723314952817318 0 -0.042574201911484012 -0.0016771743947864607 0 -0.04293603399670233 -0.00082723314952817318 0 -0.042574201911484012 -0.0016771743947864607 0 -0.04191548995178037 -0.0011219548664847686 0 -0.043592166476597069 -0.00056762051076568204 0 -0.04357554640210401 -0.0011722030645595883 0 -0.04293603399670233 -0.00082723314952817318 0 -0.04357554640210401 -0.0011722030645595883 0 -0.042574201911484012 -0.0016771743947864607 0 -0.043258523942252297 -0.0025593500889662343 0 -0.04357554640210401 -0.0011722030645595883 0 -0.044132534686730229 -0.0024266775608268593 0 -0.043258523942252297 -0.0025593500889662343 0 -0.04434720657525329 -0.00094463852209214169 0 -0.04357554640210401 -0.0011722030645595883 0 -0.044132534686730229 -0.0024266775608268593 0 -0.044132534686730229 -0.0024266775608268593 0 -0.043258523942252297 -0.0025593500889662343 0 -0.043721680822441107 -0.0042776202034631771 0 -0.042574201911484012 -0.0016771743947864607 0 -0.042481101309860797 -0.0032959091432766155 0 -0.040523392631271846 -0.001865382358238993 0 -0.042574201911484012 -0.0016771743947864607 0 -0.043258523942252297 -0.0025593500889662343 0 -0.042481101309860797 -0.0032959091432766155 0 -0.03734459351149462 -0.0019134123581839707 0 -0.037367280671228964 -0.00105818564170397 0 -0.037331639570851248 -0.0013924199190067288 0 -0.03734459351149462 -0.0019134123581839707 0 -0.037367280671228964 -0.00105818564170397 0 -0.037991359270957641 -0.0018273848819421392 0 -0.037367280671228964 -0.00105818564170397 0 -0.037331639570851248 -0.0013924199190067288 0 -0.038143539549638492 -0.00072926722563283861 0 -0.040186767181463447 -0.0022427122274338825 0 -0.039703420089542606 -0.0027526341186300926 0 -0.043258523942252297 -0.0025593500889662343 0 -0.042481101309860797 -0.0032959091432766155 0 -0.043721680822441107 -0.0042776202034631771 0 -0.041285479121173668 -0.0026232325811490062 0 -0.039703420089542606 -0.0027526341186300926 0 -0.038153937367249938 -0.0024839694966237334 0 -0.038161805132559783 -0.0030583868443351575 0 -0.038525042335172489 -0.0029348314380580318 0 -0.038450084502922872 -0.0032389746021588457 0 -0.038161805132559783 -0.0030583868443351575 0 -0.038525042335172489 -0.0029348314380580318 0 -0.038525042335172489 -0.0029348314380580318 0 -0.038896478627193982 -0.0029864217760928072 0 -0.039035738956417508 -0.002825432929665877 0 -0.038694493729870293 -0.0032011132823615328 0 -0.038525042335172489 -0.0029348314380580318 0 -0.038896478627193982 -0.0029864217760928072 0 -0.038691920746225274 -0.0021908215165536249 0 -0.038525042335172489 -0.0029348314380580318 0 -0.039035738956417508 -0.002825432929665877 0 -0.039365308085746419 -0.0027402608683776766 0 -0.038691920746225274 -0.0021908215165536249 0 -0.039035738956417508 -0.002825432929665877 0 -0.038691920746225274 -0.0021908215165536249 0 -0.038153937367249938 -0.0024839694966237334 0 -0.038525042335172489 -0.0029348314380580318 0 -0.040567112993917652 -0.00096002432034375626 0 -0.040408716794564356 -0.00095556655472083202 0 -0.040767509007410781 -0.0012996699646312267 0 -0.040567112993917652 -0.00096002432034375626 0 -0.040408716794564356 -0.00095556655472083202 0 -0.040016823283171882 -0.00067209111956904421 0 -0.040408716794564356 -0.00095556655472083202 0 -0.039772501994452342 -0.00087132161746040148 0 -0.040076552845418729 -0.00094537979196762385 0 -0.040408716794564356 -0.00095556655472083202 0 -0.039772501994452342 -0.00087132161746040148 0 -0.040016823283171882 -0.00067209111956904421 0 -0.038838898467994092 -0.0026087799247475592 0 -0.040016823283171882 -0.00067209111956904421 0 -0.039002154503497033 -0.00063677747791128796 0 -0.039772501994452342 -0.00087132161746040148 0 -0.040016823283171882 -0.00067209111956904421 0 -0.039002154503497033 -0.00063677747791128796 0 -0.038838898467994092 -0.0026087799247475592 0 -0.040016823283171882 -0.00067209111956904421 0 -0.040886836681197934 -0.00077610753013857752 0 -0.040567112993917652 -0.00096002432034375626 0 -0.040016823283171882 -0.00067209111956904421 0 -0.040886836681197934 -0.00077610753013857752 0 -0.040886836681197934 -0.00077610753013857752 0 -0.038143539549638492 -0.00072926722563283861 0 -0.040199057989075429 -0.0012795301558921298 0 -0.03698524620730502 -0.0011435653505098573 0 -0.037977019136077241 -0.00075031314717324317 0 -0.036189959624815103 -0.0019688766168522325 0 -0.03317271997425722 -0.0012958335115133685 0 -0.038143539549638492 -0.00072926722563283861 0 -0.040567112993917652 -0.00096002432034375626 0 -0.040886836681197934 -0.00077610753013857752 0 -0.040199057989075429 -0.0012795301558921298 0 -0.036189959624815103 -0.0019688766168522325 0 -0.037331639570851248 -0.0013924199190067288 0 -0.038143539549638492 -0.00072926722563283861 0 -0.038143539549638492 -0.00072926722563283861 0 -0.040199057989075429 -0.0012795301558921298 0 -0.040523392631271846 -0.001865382358238993 0 -0.037367280671228964 -0.00105818564170397 0 -0.038143539549638492 -0.00072926722563283861 0 -0.040523392631271846 -0.001865382358238993 0 -0.040186767181463447 -0.0022427122274338825 0 -0.040240935606172715 -0.0018299536679214907 0 -0.040199057989075429 -0.0012795301558921298 0 -0.040767509007410781 -0.0012996699646312267 0 -0.040523392631271846 -0.001865382358238993 0 -0.040567112993917652 -0.00096002432034375626 0 -0.040199057989075429 -0.0012795301558921298 0 -0.040767509007410781 -0.0012996699646312267 0 -0.040767509007410781 -0.0012996699646312267 0 -0.040523392631271846 -0.001865382358238993 0 -0.041513287505001259 -0.0010760372117587756 0 -0.040523392631271846 -0.001865382358238993 0 -0.04191548995178037 -0.0011219548664847686 0 -0.041513287505001259 -0.0010760372117587756 0 -0.042574201911484012 -0.0016771743947864607 0 -0.040523392631271846 -0.001865382358238993 0 -0.04191548995178037 -0.0011219548664847686 0 -0.04191548995178037 -0.0011219548664847686 0 -0.041513287505001259 -0.0010760372117587756 0 -0.042603784142093232 -0.00068715543467999225 0 -0.04293603399670233 -0.00082723314952817318 0 -0.04191548995178037 -0.0011219548664847686 0 -0.042603784142093232 -0.00068715543467999225 0 -0.041513287505001259 -0.0010760372117587756 0 -0.041665070973514559 -0.00079424651869658674 0 -0.042731010305538518 -0.00044833711449233709 0 -0.041513287505001259 -0.0010760372117587756 0 -0.041665070973514559 -0.00079424651869658674 0 -0.040905975476295993 -0.00097499169406933069 0 -0.040408716794564356 -0.00095556655472083202 0 -0.040767509007410781 -0.0012996699646312267 0 -0.040905975476295993 -0.00097499169406933069 0 -0.040767509007410781 -0.0012996699646312267 0 -0.041513287505001259 -0.0010760372117587756 0 -0.040905975476295993 -0.00097499169406933069 0 -0.040408716794564356 -0.00095556655472083202 0 -0.040905975476295993 -0.00097499169406933069 0 -0.040076552845418729 -0.00094537979196762385 0 -0.040905975476295993 -0.00097499169406933069 0 -0.041250313624559595 -0.00070556038705207186 0 -0.040559204313879188 -0.00083089351682796159 0 -0.041665070973514559 -0.00079424651869658674 0 -0.040905975476295993 -0.00097499169406933069 0 -0.041250313624559595 -0.00070556038705207186 0 -0.041250313624559595 -0.00070556038705207186 0 -0.042280852057097029 -0.00041192212723762116 0 -0.041101562347578641 -0.00025197754944730386 0 -0.041665070973514559 -0.00079424651869658674 0 -0.041250313624559595 -0.00070556038705207186 0 -0.042280852057097029 -0.00041192212723762116 0 -0.045000482531030207 -1.0148212887965733e-07 0 -0.044050751539230083 8.1149592446974293e-06 0 -0.044991924144691171 1.4091079610818727e-06 0 -0.041665070973514559 -0.00079424651869658674 0 -0.042280852057097029 -0.00041192212723762116 0 -0.042731010305538518 -0.00044833711449233709 0 -0.042280852057097029 -0.00041192212723762116 0 -0.042731010305538518 -0.00044833711449233709 0 -0.043471611929103454 -0.00010836843921744237 0 -0.042280852057097029 -0.00041192212723762116 0 -0.042649513026480311 0.00010084711614989929 0 -0.043471611929103454 -0.00010836843921744237 0 -0.042280852057097029 -0.00041192212723762116 0 -0.042649513026480311 0.00010084711614989929 0 -0.041101562347578641 -0.00025197754944730386 0 -0.042731010305538518 -0.00044833711449233709 0 -0.044050751539230083 8.1149592446974293e-06 0 -0.043471611929103454 -0.00010836843921744237 0 -0.043440133902391383 -0.0003548951140230096 0 -0.042603784142093232 -0.00068715543467999225 0 -0.042731010305538518 -0.00044833711449233709 0 -0.041513287505001259 -0.0010760372117587756 0 -0.042603784142093232 -0.00068715543467999225 0 -0.042731010305538518 -0.00044833711449233709 0 -0.043440133902391383 -0.0003548951140230096 0 -0.042731010305538518 -0.00044833711449233709 0 -0.044050751539230083 8.1149592446974293e-06 0 -0.044050751539230083 8.1149592446974293e-06 0 -0.043471611929103454 -0.00010836843921744237 0 -0.044991924144691171 1.4091079610818727e-06 0 -0.042649513026480311 0.00010084711614989929 0 -0.043471611929103454 -0.00010836843921744237 0 -0.044991924144691171 1.4091079610818727e-06 0 -0.043787782031995424 -6.1371708034837607e-05 0 -0.044999410561062214 -1.5198141106896762e-07 0 -0.045001528661056618 -3.025957697586827e-05 0 -0.045000015179271088 -9.5320736959175271e-09 0 -0.045000006867868009 -6.8464531825663003e-09 0 -0.045001528661056618 -3.025957697586827e-05 0 -0.045000006867868009 -6.8464531825663003e-09 0 -0.044959332520737416 -3.5746950722701302e-05 0 -0.045001528661056618 -3.025957697586827e-05 0 -0.044959332520737416 -3.5746950722701302e-05 0 -0.044955513122581871 -0.00011271697271054176 0 -0.044959332520737416 -3.5746950722701302e-05 0 -0.044904980554245896 -3.3897142433152631e-05 0 -0.044910379247402127 -8.0161128922014605e-05 0 -0.044959332520737416 -3.5746950722701302e-05 0 -0.044968893981349053 -1.2269945988112584e-05 0 -0.044904980554245896 -3.3897142433152631e-05 0 -0.045000006867868009 -6.8464531825663003e-09 0 -0.044959332520737416 -3.5746950722701302e-05 0 -0.044968893981349053 -1.2269945988112584e-05 0 -0.045000006867868009 -6.8464531825663003e-09 0 -0.044968893981349053 -1.2269945988112584e-05 0 -0.044999773701085669 7.9689767902163304e-09 0 -0.044999966241017528 -1.8633180096272848e-08 0 -0.044908971403461645 -3.1222920351418639e-05 0 -0.045000027180873849 -3.7206752859623169e-10 0 -0.044982441493761717 -6.2433998850472862e-06 0 -0.044965709709611633 -2.121065670987011e-05 0 -0.044968893981349053 -1.2269945988112584e-05 0 -0.044999773701085669 7.9689767902163304e-09 0 -0.044904980554245896 -3.3897142433152631e-05 0 -0.045000027180873849 -3.7206752859623169e-10 0 -0.044982441493761717 -6.2433998850472862e-06 0 -0.044999927196239263 2.7140274936468195e-09 0 -0.044982441493761717 -6.2433998850472862e-06 0 -0.044999927196239263 2.7140274936468195e-09 0 -0.044953736882946543 -1.022150692691374e-05 0 -0.044982441493761717 -6.2433998850472862e-06 0 -0.044965709709611633 -2.121065670987011e-05 0 -0.044953736882946543 -1.022150692691374e-05 0 -0.044965709709611633 -2.121065670987011e-05 0 -0.044953736882946543 -1.022150692691374e-05 0 -0.044897935101670901 -3.2346962396729019e-05 0 -0.044999773701085669 7.9689767902163304e-09 0 -0.04485667951626509 -4.0361131147278911e-05 0 -0.044904980554245896 -3.3897142433152631e-05 0 -0.044760572283633074 4.2935775283070437e-05 0 -0.045324054102237409 -0.00029132940296621921 0 -0.044904980554245896 -3.3897142433152631e-05 0 -0.04481989410146512 -0.00014952931111921589 0 -0.044910379247402127 -8.0161128922014605e-05 0 -0.04485667951626509 -4.0361131147278911e-05 0 -0.044904980554245896 -3.3897142433152631e-05 0 -0.044807510596159186 -4.6849940526577157e-05 0 -0.044908971403461645 -3.1222920351418639e-05 0 -0.044841289315827947 -4.0478938793174215e-05 0 -0.044965709709611633 -2.121065670987011e-05 0 -0.044827593974305385 -4.2922120522402449e-05 0 -0.044897935101670901 -3.2346962396729019e-05 0 -0.04485667951626509 -4.0361131147278911e-05 0 -0.044827593974305385 -4.2922120522402449e-05 0 -0.044807510596159186 -4.6849940526577157e-05 0 -0.044827593974305385 -4.2922120522402449e-05 0 -0.044807510596159186 -4.6849940526577157e-05 0 -0.044770437863646137 -2.7479420303335558e-05 0 -0.04481989410146512 -0.00014952931111921589 0 -0.044844709386168892 -0.00021692283225666618 0 -0.044836018586520934 -0.00022917319589103763 0 -0.040765737333470012 -0.0005985904980593407 0 -0.041101562347578641 -0.00025197754944730386 0 -0.040180108559963755 -0.00062182001016359472 0 -0.04481989410146512 -0.00014952931111921589 0 -0.044844709386168892 -0.00021692283225666618 0 -0.044955513122581871 -0.00011271697271054176 0 -0.044844709386168892 -0.00021692283225666618 0 -0.044955513122581871 -0.00011271697271054176 0 -0.044838368392318528 -0.00022882152217474247 0 -0.043115783301278937 -0.00025586083086650744 0 -0.041792412654920306 -1.7953137742489577e-05 0 -0.041250313624559595 -0.00070556038705207186 0 -0.040765737333470012 -0.0005985904980593407 0 -0.041101562347578641 -0.00025197754944730386 0 -0.043787782031995424 -6.1371708034837607e-05 0 -0.043115783301278937 -0.00025586083086650744 0 -0.044959332520737416 -3.5746950722701302e-05 0 -0.044955513122581871 -0.00011271697271054176 0 -0.044910379247402127 -8.0161128922014605e-05 0 -0.04481989410146512 -0.00014952931111921589 0 -0.044955513122581871 -0.00011271697271054176 0 -0.044910379247402127 -8.0161128922014605e-05 0 -0.044817787219368646 5.1017267311620128e-05 0 -0.045000061793796828 -5.6372751480030004e-08 0 -0.044997815369427201 8.8727190459267901e-07 0 -0.044999997776998875 9.4534620385573831e-10 0 -0.044999999879128193 -4.5650385950193652e-10 0 -0.04499522201906108 2.8335199072446498e-06 0 -0.044999993601200619 6.2939753421793382e-10 0 -0.044997904880137399 1.6878396885871803e-06 0 -0.044817787219368646 5.1017267311620128e-05 0 -0.044999979088529242 -8.0833348460033995e-08 0 -0.044999709312436589 7.7674981844982859e-08 0 -0.044886856521748508 -2.3380295006604557e-05 0 -0.044944935692375773 -1.2065398288766662e-05 0 -0.044771146355423161 -3.1267811879891458e-05 0 -0.044999709312436589 7.7674981844982859e-08 0 -0.044886856521748508 -2.3380295006604557e-05 0 -0.044886856521748508 -2.3380295006604557e-05 0 -0.044896186533362498 -3.4568864167673528e-05 0 -0.044944935692375773 -1.2065398288766662e-05 0 -0.044886856521748508 -2.3380295006604557e-05 0 -0.044896186533362498 -3.4568864167673528e-05 0 -0.044867555269825679 -4.2519812150894554e-05 0 -0.044771146355423161 -3.1267811879891458e-05 0 -0.044886856521748508 -2.3380295006604557e-05 0 -0.044770122778776712 -8.9493672351444382e-05 0 -0.044869127643747377 -1.8091249027335757e-05 0 -0.04482479897632128 -6.9973235922111412e-05 0 -0.044896186533362498 -3.4568864167673528e-05 0 -0.044944935692375773 -1.2065398288766662e-05 0 -0.044910093688750423 -2.7885164444316621e-05 0 -0.044999709312436589 7.7674981844982859e-08 0 -0.04499998198407025 -2.7213700946850511e-08 0 -0.044944935692375773 -1.2065398288766662e-05 0 -0.04499998198407025 -2.7213700946850511e-08 0 -0.044944935692375773 -1.2065398288766662e-05 0 -0.044953736882946543 -1.022150692691374e-05 0 -0.044999927196239263 2.7140274936468195e-09 0 -0.04499998198407025 -2.7213700946850511e-08 0 -0.044953736882946543 -1.022150692691374e-05 0 -0.044953736882946543 -1.022150692691374e-05 0 -0.044910093688750423 -2.7885164444316621e-05 0 -0.044897935101670901 -3.2346962396729019e-05 0 -0.044944935692375773 -1.2065398288766662e-05 0 -0.044953736882946543 -1.022150692691374e-05 0 -0.044910093688750423 -2.7885164444316621e-05 0 -0.044910093688750423 -2.7885164444316621e-05 0 -0.044897935101670901 -3.2346962396729019e-05 0 -0.044857020834950377 -4.1504286894186753e-05 0 -0.044827593974305385 -4.2922120522402449e-05 0 -0.044897935101670901 -3.2346962396729019e-05 0 -0.044857020834950377 -4.1504286894186753e-05 0 -0.044827593974305385 -4.2922120522402449e-05 0 -0.044857020834950377 -4.1504286894186753e-05 0 -0.044795652731192577 -3.2031322154341871e-05 0 -0.044827593974305385 -4.2922120522402449e-05 0 -0.044795652731192577 -3.2031322154341871e-05 0 -0.0447649706064248 -2.5567558725577016e-05 0 -0.044857020834950377 -4.1504286894186753e-05 0 -0.044817585428614658 -3.4488351792451146e-05 0 -0.044795652731192577 -3.2031322154341871e-05 0 -0.044896186533362498 -3.4568864167673528e-05 0 -0.044910093688750423 -2.7885164444316621e-05 0 -0.044857020834950377 -4.1504286894186753e-05 0 -0.044896186533362498 -3.4568864167673528e-05 0 -0.044857020834950377 -4.1504286894186753e-05 0 -0.044867555269825679 -4.2519812150894554e-05 0 -0.044857020834950377 -4.1504286894186753e-05 0 -0.044867555269825679 -4.2519812150894554e-05 0 -0.044817585428614658 -3.4488351792451146e-05 0 -0.04482479897632128 -6.9973235922111412e-05 0 -0.044731274000790362 -6.5295364936448198e-05 0 -0.044770122778776712 -8.9493672351444382e-05 0 -0.044655077269181019 -0.00011695880022516716 0 -0.04471124709163482 -0.00016830477184375079 0 -0.044817787219368646 5.1017267311620128e-05 0 -0.044574175784987673 -3.6304985359064183e-05 0 -0.044771146355423161 -3.1267811879891458e-05 0 -0.044770122778776712 -8.9493672351444382e-05 0 -0.044655077269181019 -0.00011695880022516716 0 -0.04452540306593368 -0.00023398645024857862 0 -0.044689530466786483 -0.0003165972050983534 0 -0.044499063892138223 -0.00037932130648577524 0 -0.044574175784987673 -3.6304985359064183e-05 0 -0.044540806272660848 -0.00023588334382702747 0 -0.044655077269181019 -0.00011695880022516716 0 -0.04452540306593368 -0.00023398645024857862 0 -0.04471124709163482 -0.00016830477184375079 0 -0.04452540306593368 -0.00023398645024857862 0 -0.04471124709163482 -0.00016830477184375079 0 -0.044689530466786483 -0.0003165972050983534 0 -0.044731274000790362 -6.5295364936448198e-05 0 -0.04508402321352508 -0.00031983385704463464 0 -0.044758969972496877 -1.9129936233101888e-05 0 -0.044724233634107734 -1.0114278649832627e-05 0 -0.044710022088162722 -3.3888379370016635e-07 0 -0.044752646729767483 -1.0705130182435852e-05 0 -0.044758969972496877 -1.9129936233101888e-05 0 -0.044710022088162722 -3.3888379370016635e-07 0 -0.044817585428614658 -3.4488351792451146e-05 0 -0.044758969972496877 -1.9129936233101888e-05 0 -0.044795652731192577 -3.2031322154341871e-05 0 -0.044817585428614658 -3.4488351792451146e-05 0 -0.044752646729767483 -1.0705130182435852e-05 0 -0.044758969972496877 -1.9129936233101888e-05 0 -0.044758969972496877 -1.9129936233101888e-05 0 -0.044753048412421476 -2.1291695978424706e-05 0 -0.044795652731192577 -3.2031322154341871e-05 0 -0.044753048412421476 -2.1291695978424706e-05 0 -0.044795652731192577 -3.2031322154341871e-05 0 -0.0447649706064248 -2.5567558725577016e-05 0 -0.044753048412421476 -2.1291695978424706e-05 0 -0.0447649706064248 -2.5567558725577016e-05 0 -0.044718527415385415 -1.5393688117183486e-05 0 -0.044753048412421476 -2.1291695978424706e-05 0 -0.044724233634107734 -1.0114278649832627e-05 0 -0.044718527415385415 -1.5393688117183486e-05 0 -0.044758969972496877 -1.9129936233101888e-05 0 -0.044753048412421476 -2.1291695978424706e-05 0 -0.044724233634107734 -1.0114278649832627e-05 0 -0.044724233634107734 -1.0114278649832627e-05 0 -0.044686731895228746 -2.0788853742360437e-06 0 -0.044718527415385415 -1.5393688117183486e-05 0 -0.044686731895228746 -2.0788853742360437e-06 0 -0.0446915599964334 2.6872241929144008e-06 0 -0.044654846855553161 1.9006693440506064e-05 0 -0.044724233634107734 -1.0114278649832627e-05 0 -0.044686731895228746 -2.0788853742360437e-06 0 -0.0446915599964334 2.6872241929144008e-06 0 -0.0446915599964334 2.6872241929144008e-06 0 -0.044664561917384049 1.2027029033396066e-05 0 -0.044710022088162722 -3.3888379370016635e-07 0 -0.044724233634107734 -1.0114278649832627e-05 0 -0.0446915599964334 2.6872241929144008e-06 0 -0.044710022088162722 -3.3888379370016635e-07 0 -0.0446915599964334 2.6872241929144008e-06 0 -0.044664561917384049 1.2027029033396066e-05 0 -0.044654846855553161 1.9006693440506064e-05 0 -0.039682995632627602 0.00091320520236952505 0 -0.038095073325886207 0.0015143239033519151 0 -0.030179844359718235 0.0022712131492475382 0 -0.038095073325886207 0.0015143239033519151 0 -0.034610392196603355 0.001877275567949642 0 -0.034685427221225508 0.0018312926266615035 0 -0.034734650481894593 0.001888506095744816 0 -0.030179844359718235 0.0022712131492475382 0 -0.030324712218643295 0.0028017825675676388 0 -0.034849636847378074 0.0018305715357684427 0 -0.034609602086504425 0.0018437726513725 0 -0.034625141363035822 0.0014545808493247338 0 -0.034609602086504425 0.0018437726513725 0 -0.034495852512386807 0.0017534212515502943 0 -0.034625141363035822 0.0014545808493247338 0 -0.030179844359718235 0.0022712131492475382 0 -0.035063476407616881 0.001892218932085851 0 -0.034610392196603355 0.001877275567949642 0 -0.034685427221225508 0.0018312926266615035 0 -0.034609602086504425 0.0018437726513725 0 -0.034610392196603355 0.001877275567949642 0 -0.034538297221072545 0.001808539442059024 0 -0.034542856805326899 0.0018189688256206062 0 -0.034610392196603355 0.001877275567949642 0 -0.034609602086504425 0.0018437726513725 0 -0.034538297221072545 0.001808539442059024 0 -0.034538297221072545 0.001808539442059024 0 -0.034495852512386807 0.0017534212515502943 0 -0.034524196526110475 0.0017881761225195451 0 -0.034609602086504425 0.0018437726513725 0 -0.034538297221072545 0.001808539442059024 0 -0.034495852512386807 0.0017534212515502943 0 -0.034495852512386807 0.0017534212515502943 0 -0.033835941943572811 0.0017704238776132554 0 -0.034257295212720737 0.0014705972041728268 0 -0.03429636373587755 0.0017292668807434972 0 -0.035011185487257401 0.0017753759642428497 0 -0.035011185487257401 0.0017753759642428497 0 -0.040561642484631663 0.00021133901334772384 0 -0.034538297221072545 0.001808539442059024 0 -0.034524196526110475 0.0017881761225195451 0 -0.034542856805326899 0.0018189688256206062 0 -0.044752646729767483 -1.0705130182435852e-05 0 -0.044668148201914386 1.2364854348987486e-05 0 -0.044710022088162722 -3.3888379370016635e-07 0 -0.039682995632627602 0.00091320520236952505 0 -0.040561642484631663 0.00021133901334772384 0 -0.044664561917384049 1.2027029033396066e-05 0 -0.044668148201914386 1.2364854348987486e-05 0 -0.044710022088162722 -3.3888379370016635e-07 0 -0.04508402321352508 -0.00031983385704463464 0 -0.040561642484631663 0.00021133901334772384 0 -0.044662689323031191 -0.00047955518984677025 0 -0.044600621183054648 -0.00041796570056942622 0 -0.04452656962359617 -0.00050302258332533465 0 -0.044689530466786483 -0.0003165972050983534 0 -0.044662689323031191 -0.00047955518984677025 0 -0.044600621183054648 -0.00041796570056942622 0 -0.044689530466786483 -0.0003165972050983534 0 -0.044600621183054648 -0.00041796570056942622 0 -0.044499063892138223 -0.00037932130648577524 0 -0.040561642484631663 0.00021133901334772384 0 -0.040890606342831835 0.00011063481145439622 0 -0.037459892145714345 0.00065419195034889055 0 -0.037463202823588851 0.00075732898384933017 0 -0.037385501634817644 0.00069823893723599878 0 -0.037463202823588851 0.00075732898384933017 0 -0.037385501634817644 0.00069823893723599878 0 -0.037291010942831486 0.00074018869257562589 0 -0.035011185487257401 0.0017753759642428497 0 -0.035691238150598166 0.0013130215548482049 0 -0.037459892145714345 0.00065419195034889055 0 -0.037330454619213152 0.00064034311754608845 0 -0.037385501634817644 0.00069823893723599878 0 -0.037330454619213152 0.00064034311754608845 0 -0.037385501634817644 0.00069823893723599878 0 -0.037291010942831486 0.00074018869257562589 0 -0.037291010942831486 0.00074018869257562589 0 -0.037201633096867297 0.00063303528531397156 0 -0.037159405096703818 0.00070899380136010316 0 -0.040890606342831835 0.00011063481145439622 0 -0.041339971224209807 0.00010475560092865961 0 -0.037330454619213152 0.00064034311754608845 0 -0.037291010942831486 0.00074018869257562589 0 -0.037201633096867297 0.00063303528531397156 0 -0.04452656962359617 -0.00050302258332533465 0 -0.044499063892138223 -0.00037932130648577524 0 -0.044340036924009882 -0.00054158472202676304 0 -0.044600621183054648 -0.00041796570056942622 0 -0.04452656962359617 -0.00050302258332533465 0 -0.044499063892138223 -0.00037932130648577524 0 -0.040065730285847728 -0.00086607509521477303 0 -0.039754252015286873 -0.00082489907927420279 0 -0.039663578192169584 -0.00093077219553192351 0 -0.040065730285847728 -0.00086607509521477303 0 -0.039663578192169584 -0.00093077219553192351 0 -0.040076552845418729 -0.00094537979196762385 0 -0.040905975476295993 -0.00097499169406933069 0 -0.040559204313879188 -0.00083089351682796159 0 -0.040076552845418729 -0.00094537979196762385 0 -0.040065730285847728 -0.00086607509521477303 0 -0.040559204313879188 -0.00083089351682796159 0 -0.040076552845418729 -0.00094537979196762385 0 -0.041250313624559595 -0.00070556038705207186 0 -0.040765737333470012 -0.0005985904980593407 0 -0.040559204313879188 -0.00083089351682796159 0 -0.040065730285847728 -0.00086607509521477303 0 -0.040559204313879188 -0.00083089351682796159 0 -0.040180108559963755 -0.00062182001016359472 0 -0.040065730285847728 -0.00086607509521477303 0 -0.040180108559963755 -0.00062182001016359472 0 -0.039754252015286873 -0.00082489907927420279 0 -0.040765737333470012 -0.0005985904980593407 0 -0.040559204313879188 -0.00083089351682796159 0 -0.040180108559963755 -0.00062182001016359472 0 -0.041959131750517159 4.9679751285098575e-05 0 -0.041792412654920306 -1.7953137742489577e-05 0 -0.039651928434441479 0.00081744583919064631 0 -0.039368612353585221 0.00049036507405177663 0 -0.039455840230244364 0.00032633859548184679 0 -0.045324054102237409 -0.00029132940296621921 0 -0.040902845496024284 0.00075640815256265736 0 -0.044807510596159186 -4.6849940526577157e-05 0 -0.044730744781929392 -1.3973251317735374e-05 0 -0.044770437863646137 -2.7479420303335558e-05 0 -0.041792412654920306 -1.7953137742489577e-05 0 -0.039663475000448117 -0.00041335600820571229 0 -0.04481989410146512 -0.00014952931111921589 0 -0.044836018586520934 -0.00022917319589103763 0 -0.044732323020919867 -0.00030625214855882932 0 -0.044730744781929392 -1.3973251317735374e-05 0 -0.044770437863646137 -2.7479420303335558e-05 0 -0.044720989341116096 -1.3800463467471148e-05 0 -0.041792412654920306 -1.7953137742489577e-05 0 -0.040902845496024284 0.00075640815256265736 0 -0.044827593974305385 -4.2922120522402449e-05 0 -0.044770437863646137 -2.7479420303335558e-05 0 -0.0447649706064248 -2.5567558725577016e-05 0 -0.044770437863646137 -2.7479420303335558e-05 0 -0.0447649706064248 -2.5567558725577016e-05 0 -0.044720989341116096 -1.3800463467471148e-05 0 -0.0447649706064248 -2.5567558725577016e-05 0 -0.044718527415385415 -1.5393688117183486e-05 0 -0.044720989341116096 -1.3800463467471148e-05 0 -0.044718527415385415 -1.5393688117183486e-05 0 -0.044704630178280337 -1.4481446050578891e-05 0 -0.044720989341116096 -1.3800463467471148e-05 0 -0.044704630178280337 -1.4481446050578891e-05 0 -0.044720989341116096 -1.3800463467471148e-05 0 -0.044674771731809344 -1.4625193211778526e-05 0 -0.044720989341116096 -1.3800463467471148e-05 0 -0.044687691581704131 -3.6913566708548819e-05 0 -0.044674771731809344 -1.4625193211778526e-05 0 -0.044686731895228746 -2.0788853742360437e-06 0 -0.044674771731809344 -1.4625193211778526e-05 0 -0.044695962968319354 -1.2360266564464446e-05 0 -0.044686731895228746 -2.0788853742360437e-06 0 -0.044718527415385415 -1.5393688117183486e-05 0 -0.044695962968319354 -1.2360266564464446e-05 0 -0.044718527415385415 -1.5393688117183486e-05 0 -0.044704630178280337 -1.4481446050578891e-05 0 -0.044695962968319354 -1.2360266564464446e-05 0 -0.044704630178280337 -1.4481446050578891e-05 0 -0.044674771731809344 -1.4625193211778526e-05 0 -0.044695962968319354 -1.2360266564464446e-05 0 -0.035074468311193457 0.002409017029099219 0 -0.034688924795501522 0.0019868514409969581 0 -0.034964140526726806 0.0016555551995164719 0 -0.039368612353585221 0.00049036507405177663 0 -0.039455840230244364 0.00032633859548184679 0 -0.039242982581715463 -0.00016603084806888799 0 -0.040902845496024284 0.00075640815256265736 0 -0.035922798526854621 0.00057510369392974308 0 -0.040902845496024284 0.00075640815256265736 0 -0.039662935219858579 0.00091453172944027327 0 -0.044730744781929392 -1.3973251317735374e-05 0 -0.044720989341116096 -1.3800463467471148e-05 0 -0.044687691581704131 -3.6913566708548819e-05 0 -0.039754252015286873 -0.00082489907927420279 0 -0.039202635656472175 -0.00093721268203293738 0 -0.039663578192169584 -0.00093077219553192351 0 -0.039663475000448117 -0.00041335600820571229 0 -0.035922798526854621 0.00057510369392974308 0 -0.034688924795501522 0.0019868514409969581 0 -0.034964140526726806 0.0016555551995164719 0 -0.034753111619933441 0.0015456735450249236 0 -0.039202635656472175 -0.00093721268203293738 0 -0.039307788343954354 -0.0010028415570558272 0 -0.039663578192169584 -0.00093077219553192351 0 -0.039662935219858579 0.00091453172944027327 0 -0.038095073325886207 0.0015143239033519151 0 -0.033220243829400017 0.0014187780869856683 0 -0.038095073325886207 0.0015143239033519151 0 -0.045466106752434864 0.00017571292282473076 0 -0.038095073325886207 0.0015143239033519151 0 -0.044687691581704131 -3.6913566708548819e-05 0 -0.044674771731809344 -1.4625193211778526e-05 0 -0.043976772110193872 -0.00038779314075621695 0 -0.044686731895228746 -2.0788853742360437e-06 0 -0.044674771731809344 -1.4625193211778526e-05 0 -0.044654846855553161 1.9006693440506064e-05 0 -0.034688924795501522 0.0019868514409969581 0 -0.034753111619933441 0.0015456735450249236 0 -0.034369903058588322 0.0015252285061697439 0 -0.030179844359718235 0.0022712131492475382 0 -0.029418448010174816 0.0016874335560481154 0 -0.022929791754613463 0.0046230838664325508 0 -0.024978463252145831 0.004499070990783097 0 -0.024351462627459925 0.0026858819213379011 0 -0.032747473809819863 0.00079724519607029295 0 -0.033171296910335941 0.0014690871507686766 0 -0.034772884434030975 0.00071726976759711888 0 -0.034753111619933441 0.0015456735450249236 0 -0.033171296910335941 0.0014690871507686766 0 -0.034772884434030975 0.00071726976759711888 0 -0.026327380358881165 0.0012515967669649696 0 -0.025903783553194559 0.0012764353003138003 0 -0.0249755265721547 -0.0017713874085006516 0 -0.039202635656472175 -0.00093721268203293738 0 -0.039307788343954354 -0.0010028415570558272 0 -0.038824119660851711 -0.0011879405362437887 0 -0.032694835345738027 0.00090566302260512634 0 -0.03267396672357014 0.001119845132132644 0 -0.032718543065793117 0.0011178839405663074 0 -0.035922798526854621 0.00057510369392974308 0 -0.029418448010174816 0.0016874335560481154 0 -0.034964140526726806 0.0016555551995164719 0 -0.034753111619933441 0.0015456735450249236 0 -0.034772884434030975 0.00071726976759711888 0 -0.035922798526854621 0.00057510369392974308 0 -0.031277012031519863 0.00044843808768054886 0 -0.031277012031519863 0.00044843808768054886 0 -0.029418448010174816 0.0016874335560481154 0 -0.039307788343954354 -0.0010028415570558272 0 -0.038824119660851711 -0.0011879405362437887 0 -0.039497488903325793 -0.0010219033605646812 0 -0.031277012031519863 0.00044843808768054886 0 -0.035992004258543882 -0.00014645150896816151 0 -0.039307788343954354 -0.0010028415570558272 0 -0.039497488903325793 -0.0010219033605646812 0 -0.039663578192169584 -0.00093077219553192351 0 -0.026756490169462788 0.00095587786570061031 0 -0.031765580805917529 0.0010313387671806596 0 -0.028400996656252227 -0.0015131172938873619 0 -0.039497488903325793 -0.0010219033605646812 0 -0.039663578192169584 -0.00093077219553192351 0 -0.040076552845418729 -0.00094537979196762385 0 -0.039772501994452342 -0.00087132161746040148 0 -0.039497488903325793 -0.0010219033605646812 0 -0.040076552845418729 -0.00094537979196762385 0 -0.038501850135954169 -0.00048411558983605676 0 -0.035992004258543882 -0.00014645150896816151 0 -0.038838898467994092 -0.0026087799247475592 0 -0.039002154503497033 -0.00063677747791128796 0 -0.031765580805917529 0.0010313387671806596 0 -0.039772501994452342 -0.00087132161746040148 0 -0.039002154503497033 -0.00063677747791128796 0 -0.039497488903325793 -0.0010219033605646812 0 -0.038838898467994092 -0.0026087799247475592 0 -0.031765580805917529 0.0010313387671806596 0 -0.029310594018379339 -0.0042085087699208932 0 -0.034476667915455776 -0.0026354402647903613 0 -0.02977145898466993 -0.0041544535726529578 0 -0.031765580805917529 0.0010313387671806596 0 -0.029310594018379339 -0.0042085087699208932 0 -0.028400996656252227 -0.0015131172938873619 0 -0.029310594018379339 -0.0042085087699208932 0 -0.027917670440558238 -0.0034403303667346133 0 -0.028400996656252227 -0.0015131172938873619 0 -0.029310594018379339 -0.0042085087699208932 0 -0.028256022094823679 -0.0057186802299381487 0 -0.0274068329312891 -0.0048646648281151783 0 -0.029310594018379339 -0.0042085087699208932 0 -0.0274068329312891 -0.0048646648281151783 0 -0.027917670440558238 -0.0034403303667346133 0 -0.030319717674801652 -0.0028442809884733854 0 -0.029310594018379339 -0.0042085087699208932 0 -0.029758092800402095 -0.0046790601429001219 0 -0.029310594018379339 -0.0042085087699208932 0 -0.029758092800402095 -0.0046790601429001219 0 -0.028256022094823679 -0.0057186802299381487 0 -0.029758092800402095 -0.0046790601429001219 0 -0.028256022094823679 -0.0057186802299381487 0 -0.028954345674260164 -0.0066144746095713599 0 -0.028256022094823679 -0.0057186802299381487 0 -0.027083160164361384 -0.0058172684311624577 0 -0.0274068329312891 -0.0048646648281151783 0 -0.028256022094823679 -0.0057186802299381487 0 -0.02659676820476246 -0.0070516480659828414 0 -0.027083160164361384 -0.0058172684311624577 0 -0.028256022094823679 -0.0057186802299381487 0 -0.028954345674260164 -0.0066144746095713599 0 -0.02659676820476246 -0.0070516480659828414 0 -0.023962167351432886 0.0024904925643046715 0 -0.021374276315677454 0.0022076911537255782 0 -0.018959112398036666 0.011587441665019285 0 -0.016393647758998067 0.011663079525636858 0 -0.017047963639403588 0.0098663236356911019 0 -0.018635499519423476 0.0030630488814751759 0 -0.021374276315677454 0.0022076911537255782 0 -0.013286444126074978 0.011727878168410116 0 -0.016393647758998067 0.011663079525636858 0 -0.014188558541209121 0.010484061822238865 0 -0.013286444126074978 0.011727878168410116 0 -0.012666316485511545 0.010247622637439507 0 -0.014188558541209121 0.010484061822238865 0 -0.023286055055294252 -0.0072909528504210928 0 -0.02659676820476246 -0.0070516480659828414 0 -0.025720151449315304 -0.005728406688492167 0 -0.02659676820476246 -0.0070516480659828414 0 -0.027083160164361384 -0.0058172684311624577 0 -0.025720151449315304 -0.005728406688492167 0 -0.027083160164361384 -0.0058172684311624577 0 -0.025720151449315304 -0.005728406688492167 0 -0.0274068329312891 -0.0048646648281151783 0 -0.023286055055294252 -0.0072909528504210928 0 -0.025720151449315304 -0.005728406688492167 0 -0.024115678280872476 -0.0047654851530554336 0 -0.018635499519423476 0.0030630488814751759 0 -0.023961947758096291 -0.0030734160146336188 0 -0.024115678280872476 -0.0047654851530554336 0 -0.026034345668141973 -0.002277810793457501 0 -0.0249755265721547 -0.0017713874085006516 0 -0.023961947758096291 -0.0030734160146336188 0 -0.024489567459328301 0.0007441300287809922 0 -0.023717276262698709 0.00090900032824631867 0 -0.024351462627459925 0.0026858819213379011 0 -0.022995453074136831 0.0020950932721032732 0 -0.025720151449315304 -0.005728406688492167 0 -0.024115678280872476 -0.0047654851530554336 0 -0.026034345668141973 -0.002277810793457501 0 -0.025871854358171607 -0.0056109992741786774 0 -0.025767335477106156 -0.0028214893571193102 0 -0.025720151449315304 -0.005728406688492167 0 -0.0274068329312891 -0.0048646648281151783 0 -0.026371420152208003 -0.003562379911960407 0 -0.0274068329312891 -0.0048646648281151783 0 -0.026371420152208003 -0.003562379911960407 0 -0.027917670440558238 -0.0034403303667346133 0 -0.026327380358881165 0.0012515967669649696 0 -0.026034345668141973 -0.002277810793457501 0 -0.0249755265721547 -0.0017713874085006516 0 -0.026756490169462788 0.00095587786570061031 0 -0.026371420152208003 -0.003562379911960407 0 -0.028400996656252227 -0.0015131172938873619 0 -0.031277012031519863 0.00044843808768054886 0 -0.025767335477106156 -0.0028214893571193102 0 -0.026371420152208003 -0.003562379911960407 0 -0.027917670440558238 -0.0034403303667346133 0 -0.028400996656252227 -0.0015131172938873619 0 -0.022929791754613463 0.0046230838664325508 0 -0.024351462627459925 0.0026858819213379011 0 -0.022995453074136831 0.0020950932721032732 0 -0.029418448010174816 0.0016874335560481154 0 -0.024489567459328301 0.0007441300287809922 0 -0.022929791754613463 0.0046230838664325508 0 -0.021742290135514517 0.00277743836112887 0 -0.022995453074136831 0.0020950932721032732 0 -0.026849112225125708 0.0051176343042369753 0 -0.025462092173522893 0.0030828438357872853 0 -0.025640710189718335 0.0038315978744453889 0 -0.030179844359718235 0.0022712131492475382 0 -0.023086679826623206 0.0031980614292665584 0 -0.034495852512386807 0.0017534212515502943 0 -0.034625141363035822 0.0014545808493247338 0 -0.034257295212720737 0.0014705972041728268 0 -0.035011185487257401 0.0017753759642428497 0 -0.034623695283052904 0.0016627459439798352 0 -0.033835941943572811 0.0017704238776132554 0 -0.034257295212720737 0.0014705972041728268 0 -0.033844330563633986 0.0014215499548618827 0 -0.034257295212720737 0.0014705972041728268 0 -0.033844330563633986 0.0014215499548618827 0 -0.034113248469327312 0.00063520544448938683 0 -0.025462092173522893 0.0030828438357872853 0 -0.025640710189718335 0.0038315978744453889 0 -0.024551188276014178 0.002521441813532004 0 -0.034625141363035822 0.0014545808493247338 0 -0.034257295212720737 0.0014705972041728268 0 -0.034113248469327312 0.00063520544448938683 0 -0.030324712218643295 0.0028017825675676388 0 -0.028136189928643383 0.0018244276871799429 0 -0.025462092173522893 0.0030828438357872853 0 -0.024805396179504897 0.0024097149561069296 0 -0.024065293118962827 0.0010132282070437744 0 -0.0245344497040779 0.0025282628364658431 0 -0.023049302381275207 0.00073265762564816387 0 -0.024065293118962827 0.0010132282070437744 0 -0.025462092173522893 0.0030828438357872853 0 -0.024805396179504897 0.0024097149561069296 0 -0.024551188276014178 0.002521441813532004 0 -0.021742290135514517 0.00277743836112887 0 -0.022246974774560155 0.00084409704973896688 0 -0.020599647490981917 0.00097222951229109737 0 -0.023086679826623206 0.0031980614292665584 0 -0.022720026616997714 0.00049237422491027309 0 -0.028136189928643383 0.0018244276871799429 0 -0.023951042551760695 0.0004843581290872757 0 -0.027349415899628936 0.0021024723182162665 0 -0.028136189928643383 0.0018244276871799429 0 -0.024805396179504897 0.0024097149561069296 0 -0.0245344497040779 0.0025282628364658431 0 -0.024065293118962827 0.0010132282070437744 0 -0.021742290135514517 0.00277743836112887 0 -0.022995453074136831 0.0020950932721032732 0 -0.022246974774560155 0.00084409704973896688 0 -0.023717276262698709 0.00090900032824631867 0 -0.022995453074136831 0.0020950932721032732 0 -0.022246974774560155 0.00084409704973896688 0 -0.023852141816467887 0.0022010632374795331 0 -0.024646344875944404 0.0018645868420619218 0 -0.024384472287109653 0.0012283490544294472 0 -0.030466757708335953 0.0011301673929980248 0 -0.02860185065733542 0.0015327427004329494 0 -0.032729728341788666 0.0017496651959794706 0 -0.031614913950952277 0.0016016668138910375 0 -0.032921751212444082 0.0010784485515412362 0 -0.035691238150598166 0.0013130215548482049 0 -0.030466757708335953 0.0011301673929980248 0 -0.033844330563633986 0.0014215499548618827 0 -0.034113248469327312 0.00063520544448938683 0 -0.032921751212444082 0.0010784485515412362 0 -0.028136189928643383 0.0018244276871799429 0 -0.02860185065733542 0.0015327427004329494 0 -0.032729728341788666 0.0017496651959794706 0 -0.032921751212444082 0.0010784485515412362 0 -0.033300272659283502 0.0015320813067030924 0 -0.033798118780292388 0.0018698902440399279 0 -0.032729728341788666 0.0017496651959794706 0 -0.033300272659283502 0.0015320813067030924 0 -0.033844330563633986 0.0014215499548618827 0 -0.032921751212444082 0.0010784485515412362 0 -0.033300272659283502 0.0015320813067030924 0 -0.033798118780292388 0.0018698902440399279 0 -0.033844330563633986 0.0014215499548618827 0 -0.033300272659283502 0.0015320813067030924 0 -0.02546805106147355 0.0015235801220503079 0 -0.024646344875944404 0.0018645868420619218 0 -0.024384472287109653 0.0012283490544294472 0 -0.02546805106147355 0.0015235801220503079 0 -0.024384472287109653 0.0012283490544294472 0 -0.024853654393102848 0.0007416932332805459 0 -0.023852141816467887 0.0022010632374795331 0 -0.024384472287109653 0.0012283490544294472 0 -0.023635004634997302 0.0010163209050786609 0 -0.024224035995515779 -2.4263301932352595e-05 0 -0.023219895529700506 -1.5183914745578594e-05 0 -0.023635004634997302 0.0010163209050786609 0 -0.024384472287109653 0.0012283490544294472 0 -0.024224035995515779 -2.4263301932352595e-05 0 -0.023635004634997302 0.0010163209050786609 0 -0.016605798359177665 0.0030691681289214054 0 -0.022720026616997714 0.00049237422491027309 0 -0.023951042551760695 0.0004843581290872757 0 -0.018665945348807961 0.0017085499387404744 0 -0.023049302381275207 0.00073265762564816387 0 -0.022706814403848828 -0.0011058390467222085 0 -0.021598410298076971 -0.0011015915309501071 0 -0.023049302381275207 0.00073265762564816387 0 -0.022706814403848828 -0.0011058390467222085 0 -0.024065293118962827 0.0010132282070437744 0 -0.024384472287109653 0.0012283490544294472 0 -0.024853654393102848 0.0007416932332805459 0 -0.024224035995515779 -2.4263301932352595e-05 0 -0.01443305680829322 0.0035573729019197377 0 -0.014053949812634938 0.003551776828208657 0 -0.013954527788998652 0.0028315599557290376 0 -0.016605798359177665 0.0030691681289214054 0 -0.018665945348807961 0.0017085499387404744 0 -0.018665945348807961 0.0017085499387404744 0 -0.018390798137469896 0.0016613751996570772 0 -0.014064025191832783 0.0033666601379556331 0 -0.013479205622503865 0.0027670213499590493 0 -0.013343334023330232 0.0033559710664020533 0 -0.023112863923121656 -0.00081614348884077707 0 -0.023717276262698709 0.00090900032824631867 0 -0.022246974774560155 0.00084409704973896688 0 -0.023112863923121656 -0.00081614348884077707 0 -0.022246974774560155 0.00084409704973896688 0 -0.021298048478453402 -0.00081189286944695512 0 -0.022246974774560155 0.00084409704973896688 0 -0.020599647490981917 0.00097222951229109737 0 -0.021298048478453402 -0.00081189286944695512 0 -0.019480732424382575 -0.00079618756660629266 0 -0.020599647490981917 0.00097222951229109737 0 -0.021298048478453402 -0.00081189286944695512 0 -0.0094288869388642303 0.011298822748394902 0 -0.011219366506869381 0.011366879107140449 0 -0.0097837595219307499 0.0099011491558006499 0 -0.016605798359177665 0.0030691681289214054 0 -0.015762980183191139 0.0054869112596685849 0 -0.013060442244768645 0.011387996932120623 0 -0.011219366506869381 0.011366879107140449 0 -0.012666316485511545 0.010247622637439507 0 -0.011219366506869381 0.011366879107140449 0 -0.012666316485511545 0.010247622637439507 0 -0.011180268317768145 0.0099835626088574814 0 -0.018635499519423476 0.0030630488814751759 0 -0.015762980183191139 0.0054869112596685849 0 -0.018635499519423476 0.0030630488814751759 0 -0.014250035437031744 0.011865733516793722 0 -0.012666316485511545 0.010247622637439507 0 -0.011958420729680617 0.0092362058543767334 0 -0.011180268317768145 0.0099835626088574814 0 -0.012666316485511545 0.010247622637439507 0 -0.011958420729680617 0.0092362058543767334 0 -0.013417366862462988 0.0093317200017005511 0 -0.011180268317768145 0.0099835626088574814 0 -0.010531071127021783 0.0087149605931265174 0 -0.0097837595219307499 0.0099011491558006499 0 -0.011219366506869381 0.011366879107140449 0 -0.011180268317768145 0.0099835626088574814 0 -0.0097837595219307499 0.0099011491558006499 0 -0.011958420729680617 0.0092362058543767334 0 -0.011180268317768145 0.0099835626088574814 0 -0.010531071127021783 0.0087149605931265174 0 -0.010531071127021783 0.0087149605931265174 0 -0.011365329454313669 0.0077883279407555926 0 -0.010046385400157828 0.0071703992180421269 0 -0.011958420729680617 0.0092362058543767334 0 -0.010531071127021783 0.0087149605931265174 0 -0.011365329454313669 0.0077883279407555926 0 -0.011958420729680617 0.0092362058543767334 0 -0.012501785001201981 0.0083380241460273858 0 -0.011365329454313669 0.0077883279407555926 0 -0.011958420729680617 0.0092362058543767334 0 -0.012501785001201981 0.0083380241460273858 0 -0.013417366862462988 0.0093317200017005511 0 -0.018665945348807961 0.0017085499387404744 0 -0.012247132515018013 0.0030428394355426149 0 -0.014053949812634938 0.003551776828208657 0 -0.013954527788998652 0.0028315599557290376 0 -0.013479205622503865 0.0027670213499590493 0 -0.0094288869388642303 0.011298822748394902 0 -0.0083624684290183379 0.0095248713448362141 0 -0.0097837595219307499 0.0099011491558006499 0 -0.0083624684290183379 0.0095248713448362141 0 -0.0097837595219307499 0.0099011491558006499 0 -0.0089979877565108061 0.0080880271089307371 0 -0.016605798359177665 0.0030691681289214054 0 -0.010817965754803651 0.0067437679109878792 0 -0.010531071127021783 0.0087149605931265174 0 -0.0089979877565108061 0.0080880271089307371 0 -0.010046385400157828 0.0071703992180421269 0 -0.010531071127021783 0.0087149605931265174 0 -0.0097837595219307499 0.0099011491558006499 0 -0.0089979877565108061 0.0080880271089307371 0 -0.013954527788998652 0.0028315599557290376 0 -0.013485922762643482 0.0022456699229292673 0 -0.013479205622503865 0.0027670213499590493 0 -0.0083624684290183379 0.0095248713448362141 0 -0.0089979877565108061 0.0080880271089307371 0 -0.0074113478005356989 0.0078158048325404229 0 -0.010817965754803651 0.0067437679109878792 0 -0.010443636527698454 0.0049275540710616052 0 -0.0089979877565108061 0.0080880271089307371 0 -0.0085456230896888124 0.0064234641608497201 0 -0.0074113478005356989 0.0078158048325404229 0 -0.0085456230896888124 0.0064234641608497201 0 -0.0065598132099075725 0.0062481861528459835 0 -0.0074113478005356989 0.0078158048325404229 0 -0.0089979877565108061 0.0080880271089307371 0 -0.0085456230896888124 0.0064234641608497201 0 -0.010046385400157828 0.0071703992180421269 0 -0.0097146339366651485 0.0058755682230512843 0 -0.0085456230896888124 0.0064234641608497201 0 -0.0085656406483760224 0.0046764900893587723 0 -0.0097146339366651485 0.0058755682230512843 0 -0.0085456230896888124 0.0064234641608497201 0 -0.010046385400157828 0.0071703992180421269 0 -0.0085456230896888124 0.0064234641608497201 0 -0.0065598132099075725 0.0062481861528459835 0 -0.0072283631464800891 0.0050127818952093086 0 -0.011365329454313669 0.0077883279407555926 0 -0.011189537734291701 0.0063398542549223261 0 -0.012639608030364274 0.0071494464192079169 0 -0.012501785001201981 0.0083380241460273858 0 -0.011365329454313669 0.0077883279407555926 0 -0.012639608030364274 0.0071494464192079169 0 -0.011365329454313669 0.0077883279407555926 0 -0.010046385400157828 0.0071703992180421269 0 -0.011189537734291701 0.0063398542549223261 0 -0.0097146339366651485 0.0058755682230512843 0 -0.011189537734291701 0.0063398542549223261 0 -0.010299886416036961 0.0048645581433747719 0 -0.0097146339366651485 0.0058755682230512843 0 -0.010046385400157828 0.0071703992180421269 0 -0.011189537734291701 0.0063398542549223261 0 -0.011189537734291701 0.0063398542549223261 0 -0.012807821787406864 0.0059544502667823185 0 -0.01165062724168716 0.0052757417380100251 0 -0.011189537734291701 0.0063398542549223261 0 -0.01165062724168716 0.0052757417380100251 0 -0.010299886416036961 0.0048645581433747719 0 -0.011189537734291701 0.0063398542549223261 0 -0.012807821787406864 0.0059544502667823185 0 -0.012639608030364274 0.0071494464192079169 0 -0.012639608030364274 0.0071494464192079169 0 -0.014078926238070898 0.006674464700608479 0 -0.014180035888660606 0.008014294306624703 0 -0.012501785001201981 0.0083380241460273858 0 -0.012639608030364274 0.0071494464192079169 0 -0.014180035888660606 0.008014294306624703 0 -0.012807821787406864 0.0059544502667823185 0 -0.012639608030364274 0.0071494464192079169 0 -0.014078926238070898 0.006674464700608479 0 -0.01560026837319793 0.0069398149917227229 0 -0.015884451757484319 0.0084426995393277922 0 -0.014180035888660606 0.008014294306624703 0 -0.014078926238070898 0.006674464700608479 0 -0.01560026837319793 0.0069398149917227229 0 -0.014180035888660606 0.008014294306624703 0 -0.012807821787406864 0.0059544502667823185 0 -0.014078926238070898 0.006674464700608479 0 -0.014217348189363732 0.0053466472230054062 0 -0.014078926238070898 0.006674464700608479 0 -0.014217348189363732 0.0053466472230054062 0 -0.01560026837319793 0.0069398149917227229 0 -0.015871293429841903 0.0056915547279723601 0 -0.017380588645008681 0.0065976393696312551 0 -0.01560026837319793 0.0069398149917227229 0 -0.014217348189363732 0.0053466472230054062 0 -0.015871293429841903 0.0056915547279723601 0 -0.01560026837319793 0.0069398149917227229 0 -0.018708378262011823 0.0059791629340469376 0 -0.01685591493782073 0.005293314725461999 0 -0.017380588645008681 0.0065976393696312551 0 -0.015871293429841903 0.0056915547279723601 0 -0.01685591493782073 0.005293314725461999 0 -0.017380588645008681 0.0065976393696312551 0 -0.019179456401904365 0.0074640940890540967 0 -0.017380588645008681 0.0065976393696312551 0 -0.017420767852005158 0.0080752183872581026 0 -0.017380588645008681 0.0065976393696312551 0 -0.01560026837319793 0.0069398149917227229 0 -0.017420767852005158 0.0080752183872581026 0 -0.01560026837319793 0.0069398149917227229 0 -0.015884451757484319 0.0084426995393277922 0 -0.017420767852005158 0.0080752183872581026 0 -0.015884451757484319 0.0084426995393277922 0 -0.017420767852005158 0.0080752183872581026 0 -0.017047963639403588 0.0098663236356911019 0 -0.017420767852005158 0.0080752183872581026 0 -0.018517640526823149 0.0095782780919869918 0 -0.017047963639403588 0.0098663236356911019 0 -0.019698766167585011 0.0089711854201871329 0 -0.017420767852005158 0.0080752183872581026 0 -0.018517640526823149 0.0095782780919869918 0 -0.018959112398036666 0.011587441665019285 0 -0.018517640526823149 0.0095782780919869918 0 -0.017047963639403588 0.0098663236356911019 0 -0.019953143840026402 0.010372390090392872 0 -0.018959112398036666 0.011587441665019285 0 -0.018517640526823149 0.0095782780919869918 0 -0.015884451757484319 0.0084426995393277922 0 -0.017047963639403588 0.0098663236356911019 0 -0.015164776565416673 0.009594839149933523 0 -0.016393647758998067 0.011663079525636858 0 -0.015164776565416673 0.009594839149933523 0 -0.014188558541209121 0.010484061822238865 0 -0.016393647758998067 0.011663079525636858 0 -0.017047963639403588 0.0098663236356911019 0 -0.015164776565416673 0.009594839149933523 0 -0.015164776565416673 0.009594839149933523 0 -0.014188558541209121 0.010484061822238865 0 -0.013417366862462988 0.0093317200017005511 0 -0.012666316485511545 0.010247622637439507 0 -0.014188558541209121 0.010484061822238865 0 -0.013417366862462988 0.0093317200017005511 0 -0.012501785001201981 0.0083380241460273858 0 -0.013417366862462988 0.0093317200017005511 0 -0.014180035888660606 0.008014294306624703 0 -0.015164776565416673 0.009594839149933523 0 -0.013417366862462988 0.0093317200017005511 0 -0.014180035888660606 0.008014294306624703 0 -0.015884451757484319 0.0084426995393277922 0 -0.015164776565416673 0.009594839149933523 0 -0.014180035888660606 0.008014294306624703 0 -0.015875965952077645 -0.00026740948198962971 0 -0.016227286058918235 -0.00076942189904962344 0 -0.016335205186191363 -0.00032923787349642191 0 -0.015875965952077645 -0.00026740948198962971 0 -0.016335205186191363 -0.00032923787349642191 0 -0.016335225786883983 3.117485641515398e-05 0 -0.011056366251143286 0.0017381160411959519 0 -0.011181546025863617 0.0016974169882033288 0 -0.011015070593434897 0.0015848919151345054 0 -0.012131552460684439 0.0021254502329788329 0 -0.011508490872321194 0.0019081088354893664 0 -0.012250529415193079 0.0024209774437858392 0 -0.011872998360636846 0.0022356598598922031 0 -0.012016345024790416 0.0023377621444034226 0 -0.011181546025863617 0.0016974169882033288 0 -0.011205341606598244 0.0019544929288280366 0 -0.011237334516466043 0.0015813614132021596 0 -0.011181546025863617 0.0016974169882033288 0 -0.011143442356223287 0.0018214553873200524 0 -0.011205341606598244 0.0019544929288280366 0 -0.011056366251143286 0.0017381160411959519 0 -0.011181546025863617 0.0016974169882033288 0 -0.011143442356223287 0.0018214553873200524 0 -0.011056366251143286 0.0017381160411959519 0 -0.011143442356223287 0.0018214553873200524 0 -0.011121451592805531 0.0019504223437819994 0 -0.012260049719757424 0.0024068448252902211 0 -0.012250529415193079 0.0024209774437858392 0 -0.012016345024790416 0.0023377621444034226 0 -0.011143442356223287 0.0018214553873200524 0 -0.011205341606598244 0.0019544929288280366 0 -0.011121451592805531 0.0019504223437819994 0 -0.012354826118489507 0.0022963999680765514 0 -0.012286441026849237 0.0021813945285023839 0 -0.012542161820814834 0.0022040038775750842 0 -0.012260049719757424 0.0024068448252902211 0 -0.012354826118489507 0.0022963999680765514 0 -0.012274085806432397 0.0023185740249793189 0 -0.012260049719757424 0.0024068448252902211 0 -0.012444615115110216 0.0024086118378951471 0 -0.012354826118489507 0.0022963999680765514 0 -0.012193656021182489 0.0021616275654829215 0 -0.012131552460684439 0.0021254502329788329 0 -0.012131552460684439 0.0021254502329788329 0 -0.01227286210807613 0.0021946760989755365 0 -0.012444615115110216 0.0024086118378951471 0 -0.012354826118489507 0.0022963999680765514 0 -0.012542161820814834 0.0022040038775750842 0 -0.012354826118489507 0.0022963999680765514 0 -0.012274085806432397 0.0023185740249793189 0 -0.012286441026849237 0.0021813945285023839 0 -0.012131552460684439 0.0021254502329788329 0 -0.015627299028103264 0.00077194289203413305 0 -0.012507997415960008 0.0023732609230445244 0 -0.012694605800439284 0.0023635985696696081 0 -0.012542161820814834 0.0022040038775750842 0 -0.015875965952077645 -0.00026740948198962971 0 -0.015727810239279643 -0.0007245048644139052 0 -0.016227286058918235 -0.00076942189904962344 0 -0.013418252627590974 0.00061182995182015377 0 -0.015627299028103264 0.00077194289203413305 0 -0.015627299028103264 0.00077194289203413305 0 -0.019833965000521304 -0.00081316316341464986 0 -0.021125019254263196 -0.00066863625428384063 0 -0.02240032480424671 -0.00076843642367934893 0 -0.022553165842552975 -0.0017642975131816263 0 -0.019833965000521304 -0.00081316316341464986 0 -0.019998557512552362 -0.0014226305022532596 0 -0.016227286058918235 -0.00076942189904962344 0 -0.01673273063023515 -0.00081053471103709987 0 -0.016335205186191363 -0.00032923787349642191 0 -0.02240032480424671 -0.00076843642367934893 0 -0.023645035899680953 -0.00087472696270139943 0 -0.023307388326875813 -0.0012347401990307734 0 -0.019222591564195843 -0.0020618237153730598 0 -0.019675248688395208 -0.0018705103993933889 0 -0.019578218202116689 -0.0013745934037210773 0 -0.019646692081452734 -0.0020964248200753518 0 -0.019222591564195843 -0.0020618237153730598 0 -0.019675248688395208 -0.0018705103993933889 0 -0.022260727878759434 -0.0017811956785558397 0 -0.021471031157479024 -0.0020661192493147199 0 -0.022260727878759434 -0.0017811956785558397 0 -0.019998557512552362 -0.0014226305022532596 0 -0.024386079122907019 -0.00093269292896299013 0 -0.023644273839945554 -0.00087741679571796721 0 -0.023643405024275383 -0.00099796703070264051 0 -0.023645035899680953 -0.00087472696270139943 0 -0.023643405024275383 -0.00099796703070264051 0 -0.023307388326875813 -0.0012347401990307734 0 -0.019998557512552362 -0.0014226305022532596 0 -0.020112887242965734 -0.0013599022184097656 0 -0.019222591564195843 -0.0020618237153730598 0 -0.019578218202116689 -0.0013745934037210773 0 -0.019212049650691721 -0.0010496083882418265 0 -0.019998557512552362 -0.0014226305022532596 0 -0.018152911310634241 -0.00063858314380064876 0 -0.019578218202116689 -0.0013745934037210773 0 -0.019212049650691721 -0.0010496083882418265 0 -0.01959194119271369 -0.0010587374834468808 0 -0.01673273063023515 -0.00081053471103709987 0 -0.016704238742281934 -8.1406595543096405e-05 0 -0.016335205186191363 -0.00032923787349642191 0 -0.016704238742281934 -8.1406595543096405e-05 0 -0.016335205186191363 -0.00032923787349642191 0 -0.016335225786883983 3.117485641515398e-05 0 -0.016704238742281934 -8.1406595543096405e-05 0 -0.016676628038549832 0.0006151404662889491 0 -0.016355794393904322 0.00039877993321206701 0 -0.016704238742281934 -8.1406595543096405e-05 0 -0.016335225786883983 3.117485641515398e-05 0 -0.016355794393904322 0.00039877993321206701 0 -0.013511394068150278 0.00087783989149497327 0 -0.011950083131077427 0.0013398231264300257 0 -0.016335225786883983 3.117485641515398e-05 0 -0.016355794393904322 0.00039877993321206701 0 -0.016019229354867114 0.00018233432373822767 0 -0.019212049650691721 -0.0010496083882418265 0 -0.019608558196894457 -0.00068495307533545833 0 -0.019200969314443244 -0.00016367523837915605 0 -0.018152911310634241 -0.00063858314380064876 0 -0.014274313635434533 0.00056299388243620117 0 -0.019212049650691721 -0.0010496083882418265 0 -0.01959194119271369 -0.0010587374834468808 0 -0.019608558196894457 -0.00068495307533545833 0 -0.019608558196894457 -0.00068495307533545833 0 -0.019200969314443244 -0.00016367523837915605 0 -0.019610377187209489 -0.00027051837624626713 0 -0.019200969314443244 -0.00016367523837915605 0 -0.019610377187209489 -0.00027051837624626713 0 -0.019637860265355134 0.00010401413288717191 0 -0.014274313635434533 0.00056299388243620117 0 -0.014678954021193766 0.00011515263552153381 0 -0.010287164779962063 0.0010361886948807046 0 -0.010584108916042933 0.0012388408459322383 0 -0.010666289551684704 0.00087107178194601495 0 -0.010584108916042933 0.0012388408459322383 0 -0.010909132842992039 0.0014437924786165274 0 -0.010666289551684704 0.00087107178194601495 0 -0.014274313635434533 0.00056299388243620117 0 -0.013511394068150278 0.00087783989149497327 0 -0.011950083131077427 0.0013398231264300257 0 -0.010454300103050602 0.00089669439597126551 0 -0.010796132838297714 0.0011868366405754511 0 -0.010719032404495557 0.0014781860824797642 0 -0.010505090212708517 0.0009590470518797856 0 -0.010796132838297714 0.0011868366405754511 0 -0.010924106506739225 0.00097142405050110073 0 -0.010505090212708517 0.0009590470518797856 0 -0.010796132838297714 0.0011868366405754511 0 -0.010719032404495557 0.0014781860824797642 0 -0.011030220947945035 0.0013378845910176958 0 -0.013418252627590974 0.00061182995182015377 0 -0.011950083131077427 0.0013398231264300257 0 -0.015875965952077645 -0.00026740948198962971 0 -0.016335225786883983 3.117485641515398e-05 0 -0.016019229354867114 0.00018233432373822767 0 -0.011181546025863617 0.0016974169882033288 0 -0.010719032404495557 0.0014781860824797642 0 -0.011030220947945035 0.0013378845910176958 0 -0.011181546025863617 0.0016974169882033288 0 -0.011030220947945035 0.0013378845910176958 0 -0.011237334516466043 0.0015813614132021596 0 -0.010800306361461993 0.0016320062779124275 0 -0.011950083131077427 0.0013398231264300257 0 -0.010796132838297714 0.0011868366405754511 0 -0.011030220947945035 0.0013378845910176958 0 -0.010924106506739225 0.00097142405050110073 0 -0.011030220947945035 0.0013378845910176958 0 -0.011237334516466043 0.0015813614132021596 0 -0.011351556762633891 0.001031299673099495 0 -0.011030220947945035 0.0013378845910176958 0 -0.011351556762633891 0.001031299673099495 0 -0.010924106506739225 0.00097142405050110073 0 -0.012189835424628037 0.0016329599786575389 0 -0.011872998360636846 0.0022356598598922031 0 -0.011755850525063401 0.0014292339717160865 0 -0.011508490872321194 0.0019081088354893664 0 -0.011564996402923433 0.0012011888618723985 0 -0.012189835424628037 0.0016329599786575389 0 -0.0126754116813949 0.0016126199644005683 0 -0.012582403019583927 0.0019081434115651949 0 -0.012189835424628037 0.0016329599786575389 0 -0.0126754116813949 0.0016126199644005683 0 -0.012396444116861869 0.0013565659485759286 0 -0.012189835424628037 0.0016329599786575389 0 -0.012321492038448645 0.0020488604872067381 0 -0.012582403019583927 0.0019081434115651949 0 -0.012321492038448645 0.0020488604872067381 0 -0.012591537755587865 0.0022228621169767347 0 -0.012582403019583927 0.0019081434115651949 0 -0.012321492038448645 0.0020488604872067381 0 -0.012591537755587865 0.0022228621169767347 0 -0.012345777195424189 0.0023389551530057515 0 -0.012321492038448645 0.0020488604872067381 0 -0.012131983468362938 0.0022890520494168675 0 -0.012345777195424189 0.0023389551530057515 0 -0.012189835424628037 0.0016329599786575389 0 -0.012321492038448645 0.0020488604872067381 0 -0.011872998360636846 0.0022356598598922031 0 -0.012321492038448645 0.0020488604872067381 0 -0.011872998360636846 0.0022356598598922031 0 -0.012131983468362938 0.0022890520494168675 0 -0.0099879229130645092 0.0041224604828313891 0 -0.0080332307038393138 0.0027007956974981892 0 -0.013069920714828208 0.0017217831809962527 0 -0.0126754116813949 0.0016126199644005683 0 -0.012658821290712869 0.0011677778136927159 0 -0.013069920714828208 0.0017217831809962527 0 -0.0126754116813949 0.0016126199644005683 0 -0.012864374600335026 0.0019190273631893935 0 -0.0126754116813949 0.0016126199644005683 0 -0.012582403019583927 0.0019081434115651949 0 -0.012864374600335026 0.0019190273631893935 0 -0.013069920714828208 0.0017217831809962527 0 -0.012864374600335026 0.0019190273631893935 0 -0.013064452554989232 0.0021684989837720422 0 -0.012582403019583927 0.0019081434115651949 0 -0.012836062735435198 0.0021278006974321671 0 -0.012864374600335026 0.0019190273631893935 0 -0.012591537755587865 0.0022228621169767347 0 -0.012582403019583927 0.0019081434115651949 0 -0.012836062735435198 0.0021278006974321671 0 -0.012591537755587865 0.0022228621169767347 0 -0.012836062735435198 0.0021278006974321671 0 -0.012846183471125629 0.00231370159931929 0 -0.012836062735435198 0.0021278006974321671 0 -0.013064452554989232 0.0021684989837720422 0 -0.012846183471125629 0.00231370159931929 0 -0.012836062735435198 0.0021278006974321671 0 -0.012864374600335026 0.0019190273631893935 0 -0.013064452554989232 0.0021684989837720422 0 -0.013069920714828208 0.0017217831809962527 0 -0.013064452554989232 0.0021684989837720422 0 -0.013485922762643482 0.0022456699229292673 0 -0.0099879229130645092 0.0041224604828313891 0 -0.010443636527698454 0.0049275540710616052 0 -0.013485922762643482 0.0022456699229292673 0 -0.013092382003781352 0.0025142061700787095 0 -0.013479205622503865 0.0027670213499590493 0 -0.013064452554989232 0.0021684989837720422 0 -0.013485922762643482 0.0022456699229292673 0 -0.013092382003781352 0.0025142061700787095 0 -0.013092382003781352 0.0025142061700787095 0 -0.012656838351513865 0.0025301889781542404 0 -0.01287504552515162 0.0028810577330958429 0 -0.013092382003781352 0.0025142061700787095 0 -0.012846183471125629 0.00231370159931929 0 -0.012656838351513865 0.0025301889781542404 0 -0.013064452554989232 0.0021684989837720422 0 -0.013092382003781352 0.0025142061700787095 0 -0.012846183471125629 0.00231370159931929 0 -0.012591537755587865 0.0022228621169767347 0 -0.012846183471125629 0.00231370159931929 0 -0.012656838351513865 0.0025301889781542404 0 -0.012656838351513865 0.0025301889781542404 0 -0.01287504552515162 0.0028810577330958429 0 -0.012517376182182008 0.0027380486770726261 0 -0.01287504552515162 0.0028810577330958429 0 -0.013479205622503865 0.0027670213499590493 0 -0.013343334023330232 0.0033559710664020533 0 -0.013092382003781352 0.0025142061700787095 0 -0.01287504552515162 0.0028810577330958429 0 -0.013479205622503865 0.0027670213499590493 0 -0.012147981073030964 0.0025792116570604161 0 -0.012016345024790416 0.0023377621444034226 0 -0.012015638414166422 0.0028218665994035582 0 -0.012169458475214039 0.0024208459907625215 0 -0.012147981073030964 0.0025792116570604161 0 -0.012016345024790416 0.0023377621444034226 0 -0.012169458475214039 0.0024208459907625215 0 -0.012147981073030964 0.0025792116570604161 0 -0.012299471493901492 0.0025635841254593749 0 -0.011872998360636846 0.0022356598598922031 0 -0.012016345024790416 0.0023377621444034226 0 -0.012131983468362938 0.0022890520494168675 0 -0.012169458475214039 0.0024208459907625215 0 -0.012131983468362938 0.0022890520494168675 0 -0.012345777195424189 0.0023389551530057515 0 -0.012169458475214039 0.0024208459907625215 0 -0.012016345024790416 0.0023377621444034226 0 -0.012131983468362938 0.0022890520494168675 0 -0.012591537755587865 0.0022228621169767347 0 -0.012656838351513865 0.0025301889781542404 0 -0.012345777195424189 0.0023389551530057515 0 -0.012656838351513865 0.0025301889781542404 0 -0.012299471493901492 0.0025635841254593749 0 -0.012517376182182008 0.0027380486770726261 0 -0.012656838351513865 0.0025301889781542404 0 -0.012345777195424189 0.0023389551530057515 0 -0.012299471493901492 0.0025635841254593749 0 -0.012169458475214039 0.0024208459907625215 0 -0.012345777195424189 0.0023389551530057515 0 -0.012299471493901492 0.0025635841254593749 0 -0.012517376182182008 0.0027380486770726261 0 -0.012406881681912819 0.0029736082644114515 0 -0.012279428788027878 0.0027323750855997092 0 -0.01287504552515162 0.0028810577330958429 0 -0.012517376182182008 0.0027380486770726261 0 -0.012406881681912819 0.0029736082644114515 0 -0.012299471493901492 0.0025635841254593749 0 -0.012517376182182008 0.0027380486770726261 0 -0.012279428788027878 0.0027323750855997092 0 -0.012260049719757424 0.0024068448252902211 0 -0.012016345024790416 0.0023377621444034226 0 -0.012208100298464921 0.002393654995905721 0 -0.012406881681912819 0.0029736082644114515 0 -0.012279428788027878 0.0027323750855997092 0 -0.012015638414166422 0.0028218665994035582 0 -0.012037842977988867 0.0023482778973525692 0 -0.012163707089801948 0.0027353445203660161 0 -0.012147981073030964 0.0025792116570604161 0 -0.012279428788027878 0.0027323750855997092 0 -0.012015638414166422 0.0028218665994035582 0 -0.012147981073030964 0.0025792116570604161 0 -0.012299471493901492 0.0025635841254593749 0 -0.012279428788027878 0.0027323750855997092 0 -0.012208100298464921 0.002393654995905721 0 -0.012274085806432397 0.0023185740249793189 0 -0.012286441026849237 0.0021813945285023839 0 -0.012260049719757424 0.0024068448252902211 0 -0.012208100298464921 0.002393654995905721 0 -0.012274085806432397 0.0023185740249793189 0 -0.012286441026849237 0.0021813945285023839 0 -0.012189255238480023 0.0019903161267416035 0 -0.012588386653722113 0.0019620024227344191 0 -0.012208100298464921 0.002393654995905721 0 -0.012286441026849237 0.0021813945285023839 0 -0.012189255238480023 0.0019903161267416035 0 -0.012406881681912819 0.0029736082644114515 0 -0.012015638414166422 0.0028218665994035582 0 -0.01210821987706168 0.0032638922490588842 0 -0.012163707089801948 0.0027353445203660161 0 -0.016818464477369593 0.0011022795607096261 0 -0.01287504552515162 0.0028810577330958429 0 -0.012406881681912819 0.0029736082644114515 0 -0.012699291231033248 0.0033013078450411758 0 -0.012406881681912819 0.0029736082644114515 0 -0.01210821987706168 0.0032638922490588842 0 -0.012699291231033248 0.0033013078450411758 0 -0.016818464477369593 0.0011022795607096261 0 -0.017420603833253723 0.0016893420544424188 0 -0.021239138251855642 -1.2980499804607975e-05 0 -0.022233469107627257 -1.0405335614930088e-05 0 -0.021431745155084097 0.00095039094645137491 0 -0.022233469107627257 -1.0405335614930088e-05 0 -0.02263141331716835 0.00098922618591927277 0 -0.021431745155084097 0.00095039094645137491 0 -0.022750112184612509 -0.00088682807046685337 0 -0.022990915924942647 0.0001270450602718772 0 -0.022492214730412168 0.00010614703162363311 0 -0.016818464477369593 0.0011022795607096261 0 -0.02225443500223518 0.00046731856651520295 0 -0.01287504552515162 0.0028810577330958429 0 -0.012699291231033248 0.0033013078450411758 0 -0.013343334023330232 0.0033559710664020533 0 -0.017420603833253723 0.0016893420544424188 0 -0.018390798137469896 0.0016613751996570772 0 -0.022233469107627257 -1.0405335614930088e-05 0 -0.023219895529700506 -1.5183914745578594e-05 0 -0.02263141331716835 0.00098922618591927277 0 -0.023219895529700506 -1.5183914745578594e-05 0 -0.023635004634997302 0.0010163209050786609 0 -0.02263141331716835 0.00098922618591927277 0 -0.023852141816467887 0.0022010632374795331 0 -0.023635004634997302 0.0010163209050786609 0 -0.023207606064777897 0.0015641668941309991 0 -0.023635004634997302 0.0010163209050786609 0 -0.023207606064777897 0.0015641668941309991 0 -0.02263141331716835 0.00098922618591927277 0 -0.023207606064777897 0.0015641668941309991 0 -0.02263141331716835 0.00098922618591927277 0 -0.02271730613049593 0.0020559938400363459 0 -0.02263141331716835 0.00098922618591927277 0 -0.02271730613049593 0.0020559938400363459 0 -0.022100817042579796 0.0014768674093968172 0 -0.03062100987334871 0.00036367300378775826 0 -0.031048266567370683 0.00039203564513051606 0 -0.030915301435039871 0.00022274755050383308 0 -0.023852141816467887 0.0022010632374795331 0 -0.023207606064777897 0.0015641668941309991 0 -0.02271730613049593 0.0020559938400363459 0 -0.030466757708335953 0.0011301673929980248 0 -0.026124640614350127 0.0012816275078888157 0 -0.022990915924942647 0.0001270450602718772 0 -0.02322641626724235 0.0011440118083464702 0 -0.022928421729397182 0.0011078216742014661 0 -0.022990915924942647 0.0001270450602718772 0 -0.022928421729397182 0.0011078216742014661 0 -0.022492214730412168 0.00010614703162363311 0 -0.02225443500223518 0.00046731856651520295 0 -0.027000194527356323 0.00040261231458409738 0 -0.029652527455386306 -0.0010197475158653206 0 -0.027620765146150118 -0.00090511108674003117 0 -0.032600996738899074 -0.0013028284738226732 0 -0.032153433301292389 -0.0015963065378766775 0 -0.032245444091730739 -0.0020580914644551035 0 -0.021431745155084097 0.00095039094645137491 0 -0.022100817042579796 0.0014768674093968172 0 -0.021625115160716427 0.001909053749904502 0 -0.02263141331716835 0.00098922618591927277 0 -0.021431745155084097 0.00095039094645137491 0 -0.022100817042579796 0.0014768674093968172 0 -0.02271730613049593 0.0020559938400363459 0 -0.022100817042579796 0.0014768674093968172 0 -0.021625115160716427 0.001909053749904502 0 -0.031048266567370683 0.00039203564513051606 0 -0.031441343509675146 0.0004249148689639206 0 -0.031286627167527253 0.00025619389145829454 0 -0.026124640614350127 0.0012816275078888157 0 -0.027000194527356323 0.00040261231458409738 0 -0.032027597669149449 -0.0015053904480907142 0 -0.031397347022134391 -0.0015835686170453656 0 -0.032155037462887025 0.00043794638630222831 0 -0.027000194527356323 0.00040261231458409738 0 -0.029652527455386306 -0.0010197475158653206 0 -0.032600996738899074 -0.0013028284738226732 0 -0.032433061465418515 -0.001326680932140925 0 -0.032153433301292389 -0.0015963065378766775 0 -0.029652527455386306 -0.0010197475158653206 0 -0.031327700648422628 -0.00095168673690861311 0 -0.032655385156520826 -0.0013120956297264575 0 -0.032433061465418515 -0.001326680932140925 0 -0.032499068449994402 -0.00094794431357205769 0 -0.032433061465418515 -0.001326680932140925 0 -0.032179483990711064 -0.0010687138655167503 0 -0.032499068449994402 -0.00094794431357205769 0 -0.032433061465418515 -0.001326680932140925 0 -0.032179483990711064 -0.0010687138655167503 0 -0.032114809378883405 -0.0013465556776300362 0 -0.032179483990711064 -0.0010687138655167503 0 -0.031948203959335522 -0.0012442324415159434 0 -0.032114809378883405 -0.0013465556776300362 0 -0.032179483990711064 -0.0010687138655167503 0 -0.031948203959335522 -0.0012442324415159434 0 -0.031846869140751015 -0.0009368316984470007 0 -0.031948203959335522 -0.0012442324415159434 0 -0.031663241384098588 -0.0013046697033123531 0 -0.031846869140751015 -0.0009368316984470007 0 -0.031948203959335522 -0.0012442324415159434 0 -0.031862703196711091 -0.0014864969662202355 0 -0.032114809378883405 -0.0013465556776300362 0 -0.031948203959335522 -0.0012442324415159434 0 -0.031862703196711091 -0.0014864969662202355 0 -0.031663241384098588 -0.0013046697033123531 0 -0.032433061465418515 -0.001326680932140925 0 -0.032114809378883405 -0.0013465556776300362 0 -0.032153433301292389 -0.0015963065378766775 0 -0.031862703196711091 -0.0014864969662202355 0 -0.032114809378883405 -0.0013465556776300362 0 -0.032153433301292389 -0.0015963065378766775 0 -0.031258094357454129 -0.0010990794516638803 0 -0.031522961627515264 -0.0010714628402471614 0 -0.031386153698855709 -0.0013295806963785071 0 -0.031522961627515264 -0.0010714628402471614 0 -0.031663241384098588 -0.0013046697033123531 0 -0.031386153698855709 -0.0013295806963785071 0 -0.031522961627515264 -0.0010714628402471614 0 -0.031663241384098588 -0.0013046697033123531 0 -0.031846869140751015 -0.0009368316984470007 0 -0.031862703196711091 -0.0014864969662202355 0 -0.031663241384098588 -0.0013046697033123531 0 -0.031540323539512 -0.0015628809880566591 0 -0.031663241384098588 -0.0013046697033123531 0 -0.031386153698855709 -0.0013295806963785071 0 -0.031540323539512 -0.0015628809880566591 0 -0.031386153698855709 -0.0013295806963785071 0 -0.031234336022204504 -0.0016023162399180372 0 -0.031098448468399247 -0.0013443122881365379 0 -0.031386153698855709 -0.0013295806963785071 0 -0.031234336022204504 -0.0016023162399180372 0 -0.031540323539512 -0.0015628809880566591 0 -0.031258094357454129 -0.0010990794516638803 0 -0.031386153698855709 -0.0013295806963785071 0 -0.031098448468399247 -0.0013443122881365379 0 -0.031234336022204504 -0.0016023162399180372 0 -0.031394438890553593 -0.0018630791876229076 0 -0.031010070361315593 -0.0018825806778362891 0 -0.031234336022204504 -0.0016023162399180372 0 -0.031540323539512 -0.0015628809880566591 0 -0.031394438890553593 -0.0018630791876229076 0 -0.031862703196711091 -0.0014864969662202355 0 -0.031540323539512 -0.0015628809880566591 0 -0.031799653879458746 -0.0018011149548470818 0 -0.031540323539512 -0.0015628809880566591 0 -0.031394438890553593 -0.0018630791876229076 0 -0.031799653879458746 -0.0018011149548470818 0 -0.031394438890553593 -0.0018630791876229076 0 -0.031799653879458746 -0.0018011149548470818 0 -0.031592399833010681 -0.002228518116799904 0 -0.031799653879458746 -0.0018011149548470818 0 -0.032245444091730739 -0.0020580914644551035 0 -0.031592399833010681 -0.002228518116799904 0 -0.031862703196711091 -0.0014864969662202355 0 -0.032153433301292389 -0.0015963065378766775 0 -0.031799653879458746 -0.0018011149548470818 0 -0.032153433301292389 -0.0015963065378766775 0 -0.031799653879458746 -0.0018011149548470818 0 -0.032245444091730739 -0.0020580914644551035 0 -0.027620765146150118 -0.00090511108674003117 0 -0.022571281961115165 -0.00083955062042913797 0 -0.032245444091730739 -0.0020580914644551035 0 -0.031592399833010681 -0.002228518116799904 0 -0.031902068021896615 -0.0028135819432397418 0 -0.022750112184612509 -0.00088682807046685337 0 -0.022492214730412168 0.00010614703162363311 0 -0.022058577063235909 -0.00089348642629348465 0 -0.031592399833010681 -0.002228518116799904 0 -0.031057957483716644 -0.0028286304705694614 0 -0.031040357636350085 -0.0022872355453367739 0 -0.031394438890553593 -0.0018630791876229076 0 -0.031592399833010681 -0.002228518116799904 0 -0.031040357636350085 -0.0022872355453367739 0 -0.021125019254263196 -0.00066863625428384063 0 -0.020767025626188422 -0.0017600928507020862 0 -0.022553165842552975 -0.0017642975131816263 0 -0.031592399833010681 -0.002228518116799904 0 -0.031902068021896615 -0.0028135819432397418 0 -0.031057957483716644 -0.0028286304705694614 0 -0.022571281961115165 -0.00083955062042913797 0 -0.027724949383889204 -0.0024804605196665514 0 -0.015627299028103264 0.00077194289203413305 0 -0.022571281961115165 -0.00083955062042913797 0 -0.012694605800439284 0.0023635985696696081 0 -0.012542161820814834 0.0022040038775750842 0 -0.012588386653722113 0.0019620024227344191 0 -0.012286441026849237 0.0021813945285023839 0 -0.012542161820814834 0.0022040038775750842 0 -0.012588386653722113 0.0019620024227344191 0 -0.016818464477369593 0.0011022795607096261 0 -0.022571281961115165 -0.00083955062042913797 0 -0.027843370854769862 -0.0020695667096151918 0 -0.027969078052402889 -0.0013183783478301393 0 -0.027600903010055609 -0.0020701704124274183 0 -0.026554013363150969 -0.0019886634513246468 0 -0.026253538827107712 -0.0014018071149650853 0 -0.02424956721243967 -0.0022508648804170374 0 -0.024402841217537281 -0.001269952110185616 0 -0.024038258620134905 -0.0012713550430303558 0 -0.022260727878759434 -0.0017811956785558397 0 -0.026554013363150969 -0.0019886634513246468 0 -0.024386079122907019 -0.00093269292896299013 0 -0.023643405024275383 -0.00099796703070264051 0 -0.024286328199790937 -0.0017595966036775938 0 -0.023643405024275383 -0.00099796703070264051 0 -0.024286328199790937 -0.0017595966036775938 0 -0.023307388326875813 -0.0012347401990307734 0 -0.024286328199790937 -0.0017595966036775938 0 -0.023307388326875813 -0.0012347401990307734 0 -0.022553165842552975 -0.0017642975131816263 0 -0.030154614436507542 -0.0028383580934463301 0 -0.031057957483716644 -0.0028286304705694614 0 -0.030629717090680682 -0.0024566554647071789 0 -0.026554013363150969 -0.0019886634513246468 0 -0.027724949383889204 -0.0024804605196665514 0 -0.02240032480424671 -0.00076843642367934893 0 -0.023307388326875813 -0.0012347401990307734 0 -0.022553165842552975 -0.0017642975131816263 0 -0.031057957483716644 -0.0028286304705694614 0 -0.030629717090680682 -0.0024566554647071789 0 -0.031040357636350085 -0.0022872355453367739 0 -0.031040357636350085 -0.0022872355453367739 0 -0.030645584703566035 -0.0020630195122074988 0 -0.031010070361315593 -0.0018825806778362891 0 -0.030629717090680682 -0.0024566554647071789 0 -0.031040357636350085 -0.0022872355453367739 0 -0.030645584703566035 -0.0020630195122074988 0 -0.030629717090680682 -0.0024566554647071789 0 -0.030645584703566035 -0.0020630195122074988 0 -0.030245141564108544 -0.0023415892019672925 0 -0.030154614436507542 -0.0028383580934463301 0 -0.030629717090680682 -0.0024566554647071789 0 -0.030245141564108544 -0.0023415892019672925 0 -0.026554013363150969 -0.0019886634513246468 0 -0.029884507049510574 -0.001817653808747554 0 -0.029884507049510574 -0.001817653808747554 0 -0.026253538827107712 -0.0014018071149650853 0 -0.029884507049510574 -0.001817653808747554 0 -0.030793553305881495 -0.0015201463646472206 0 -0.03058746874771277 -0.0019175173237928088 0 -0.030848877240064767 -0.0013856999398647568 0 -0.0306920755059851 -0.0013120694955266704 0 -0.031087027138666758 -0.0018512115403655387 0 -0.031202382539681627 -0.0014080031486623872 0 -0.030845485129330691 -0.0015808857367744964 0 -0.030645584703566035 -0.0020630195122074988 0 -0.030245141564108544 -0.0023415892019672925 0 -0.030637750963146179 -0.0015931145227363959 0 -0.029884507049510574 -0.001817653808747554 0 -0.030624224918324998 -0.001200715754902313 0 -0.031394438890553593 -0.0018630791876229076 0 -0.031040357636350085 -0.0022872355453367739 0 -0.031010070361315593 -0.0018825806778362891 0 -0.030645584703566035 -0.0020630195122074988 0 -0.03081242996305537 -0.0017968274967345146 0 -0.030637750963146179 -0.0015931145227363959 0 -0.030645584703566035 -0.0020630195122074988 0 -0.031010070361315593 -0.0018825806778362891 0 -0.03081242996305537 -0.0017968274967345146 0 -0.03081242996305537 -0.0017968274967345146 0 -0.030637750963146179 -0.0015931145227363959 0 -0.030955288900217606 -0.0016463772066914412 0 -0.030637750963146179 -0.0015931145227363959 0 -0.030955288900217606 -0.0016463772066914412 0 -0.031098448468399247 -0.0013443122881365379 0 -0.031234336022204504 -0.0016023162399180372 0 -0.030955288900217606 -0.0016463772066914412 0 -0.031098448468399247 -0.0013443122881365379 0 -0.031234336022204504 -0.0016023162399180372 0 -0.031010070361315593 -0.0018825806778362891 0 -0.030955288900217606 -0.0016463772066914412 0 -0.031010070361315593 -0.0018825806778362891 0 -0.03081242996305537 -0.0017968274967345146 0 -0.030955288900217606 -0.0016463772066914412 0 -0.0306920755059851 -0.0013120694955266704 0 -0.030780662099928541 -0.00071534898841751188 0 -0.031090750365647915 -0.00085693954147252939 0 -0.030637750963146179 -0.0015931145227363959 0 -0.031098448468399247 -0.0013443122881365379 0 -0.031090750365647915 -0.00085693954147252939 0 -0.030793553305881495 -0.0015201463646472206 0 -0.031049874379597699 -0.00089463101396151912 0 -0.030848877240064767 -0.0013856999398647568 0 -0.0306920755059851 -0.0013120694955266704 0 -0.031090750365647915 -0.00085693954147252939 0 -0.031258094357454129 -0.0010990794516638803 0 -0.031098448468399247 -0.0013443122881365379 0 -0.031090750365647915 -0.00085693954147252939 0 -0.030624224918324998 -0.001200715754902313 0 -0.035331856570706519 -0.0019141325134629566 0 -0.039769604905127175 -0.0029891600698923305 0 -0.039231987979261647 -0.0024526145013145429 0 -0.038687487237544858 -0.0030178032184251125 0 -0.031202382539681627 -0.0014080031486623872 0 -0.031317763688253952 -0.0009577604141803699 0 -0.030860760269335888 -0.00097671442192655712 0 -0.035331856570706519 -0.0019141325134629566 0 -0.034861030920446741 -0.0019948737911414604 0 -0.039769604905127175 -0.0029891600698923305 0 -0.039231987979261647 -0.0024526145013145429 0 -0.039944325762450578 -0.0022042296757092857 0 -0.039231987979261647 -0.0024526145013145429 0 -0.039944325762450578 -0.0022042296757092857 0 -0.039291589984623267 -0.0016651211068008896 0 -0.035331856570706519 -0.0019141325134629566 0 -0.040023854059529046 -0.0025043565610124762 0 -0.039944325762450578 -0.0022042296757092857 0 -0.04096131721498468 -0.0031866386521552576 0 -0.041445483267270211 -0.0023441487270866707 0 -0.030780662099928541 -0.00071534898841751188 0 -0.031090750365647915 -0.00085693954147252939 0 -0.031355921165212026 -0.00063864008389927283 0 -0.039750518909935861 -0.0032244593602587029 0 -0.039944325762450578 -0.0022042296757092857 0 -0.04096131721498468 -0.0031866386521552576 0 -0.035331856570706519 -0.0019141325134629566 0 -0.036100804879686796 -0.0019145465352763038 0 -0.031258094357454129 -0.0010990794516638803 0 -0.031090750365647915 -0.00085693954147252939 0 -0.031355921165212026 -0.00063864008389927283 0 -0.04096131721498468 -0.0031866386521552576 0 -0.042136086183901848 -0.0031552383318287805 0 -0.041445483267270211 -0.0023441487270866707 0 -0.036100804879686796 -0.0019145465352763038 0 -0.037425125214442564 -0.0019025892258094147 0 -0.031355921165212026 -0.00063864008389927283 0 -0.031846869140751015 -0.0009368316984470007 0 -0.03215117016779466 -0.00054819448426853543 0 -0.031258094357454129 -0.0010990794516638803 0 -0.031522961627515264 -0.0010714628402471614 0 -0.031355921165212026 -0.00063864008389927283 0 -0.031522961627515264 -0.0010714628402471614 0 -0.031355921165212026 -0.00063864008389927283 0 -0.031846869140751015 -0.0009368316984470007 0 -0.032179483990711064 -0.0010687138655167503 0 -0.03215117016779466 -0.00054819448426853543 0 -0.032499068449994402 -0.00094794431357205769 0 -0.032179483990711064 -0.0010687138655167503 0 -0.031846869140751015 -0.0009368316984470007 0 -0.03215117016779466 -0.00054819448426853543 0 -0.042136086183901848 -0.0031552383318287805 0 -0.041445483267270211 -0.0023441487270866707 0 -0.042564904115556475 -0.00253351559793679 0 -0.041445483267270211 -0.0023441487270866707 0 -0.042242177540483365 -0.0017330378416475964 0 -0.042564904115556475 -0.00253351559793679 0 -0.042242177540483365 -0.0017330378416475964 0 -0.042564904115556475 -0.00253351559793679 0 -0.042808741665656208 -0.0019689282552262052 0 -0.041445483267270211 -0.0023441487270866707 0 -0.040963382128764735 -0.001479970322619404 0 -0.042242177540483365 -0.0017330378416475964 0 -0.042242177540483365 -0.0017330378416475964 0 -0.042269565951927997 -0.00076245958315022586 0 -0.043044662822787308 -0.0012103643240067323 0 -0.040963382128764735 -0.001479970322619404 0 -0.042242177540483365 -0.0017330378416475964 0 -0.042269565951927997 -0.00076245958315022586 0 -0.040963382128764735 -0.001479970322619404 0 -0.042269565951927997 -0.00076245958315022586 0 -0.041376773169063387 -0.00027232865652748837 0 -0.042363183677794652 -0.00042107000870226575 0 -0.043173106715897414 -0.00012576563387841459 0 -0.040963382128764735 -0.001479970322619404 0 -0.039959947726815943 -0.00069616118862710975 0 -0.041376773169063387 -0.00027232865652748837 0 -0.042363183677794652 -0.00042107000870226575 0 -0.042039900370606745 -0.00057561177612591187 0 -0.039959947726815943 -0.00069616118862710975 0 -0.039291589984623267 -0.0016651211068008896 0 -0.038707369582130051 -0.0011108017744527545 0 -0.039944325762450578 -0.0022042296757092857 0 -0.039959947726815943 -0.00069616118862710975 0 -0.039291589984623267 -0.0016651211068008896 0 -0.039944325762450578 -0.0022042296757092857 0 -0.040963382128764735 -0.001479970322619404 0 -0.039959947726815943 -0.00069616118862710975 0 -0.039944325762450578 -0.0022042296757092857 0 -0.041445483267270211 -0.0023441487270866707 0 -0.040963382128764735 -0.001479970322619404 0 -0.044499063892138223 -0.00037932130648577524 0 -0.044318779611980309 -0.00040240076359647828 0 -0.044340036924009882 -0.00054158472202676304 0 -0.037201633096867297 0.00063303528531397156 0 -0.03713238791460486 0.00067218712618510358 0 -0.037159405096703818 0.00070899380136010316 0 -0.030466757708335953 0.0011301673929980248 0 -0.034049646779791082 0.00043231145569100728 0 -0.031048266567370683 0.00039203564513051606 0 -0.030915301435039871 0.00022274755050383308 0 -0.0312129824595231 9.8124463893756238e-05 0 -0.031048266567370683 0.00039203564513051606 0 -0.0312129824595231 9.8124463893756238e-05 0 -0.031286627167527253 0.00025619389145829454 0 -0.03713238791460486 0.00067218712618510358 0 -0.037159405096703818 0.00070899380136010316 0 -0.037087806131469427 0.00067555115415576165 0 -0.034049646779791082 0.00043231145569100728 0 -0.03752379156333837 7.1554340825721927e-06 0 -0.041339971224209807 0.00010475560092865961 0 -0.03752379156333837 7.1554340825721927e-06 0 -0.044318779611980309 -0.00040240076359647828 0 -0.044154156031811262 -0.0004171161913567638 0 -0.044101033356174761 -0.00057401510819350785 0 -0.044318779611980309 -0.00040240076359647828 0 -0.044340036924009882 -0.00054158472202676304 0 -0.044101033356174761 -0.00057401510819350785 0 -0.044075114398588168 -0.00040033523874062762 0 -0.043967850400719925 -0.00048172556411930044 0 -0.044088348791041232 -0.00027734878467414344 0 -0.044154156031811262 -0.0004171161913567638 0 -0.044075114398588168 -0.00040033523874062762 0 -0.044045797714464326 -0.00048127579185513672 0 -0.044154156031811262 -0.0004171161913567638 0 -0.044075114398588168 -0.00040033523874062762 0 -0.044138921253343816 -0.00034468493630432497 0 -0.04236453639912191 -0.0015943007038718669 0 -0.043181341482001881 -0.0021581137758383178 0 -0.043551420028119368 -0.0025596833237763838 0 -0.043269787072671845 -0.0022216283437671643 0 -0.043697640438929472 -0.0019803047099828611 0 -0.044075114398588168 -0.00040033523874062762 0 -0.043967850400719925 -0.00048172556411930044 0 -0.044045797714464326 -0.00048127579185513672 0 -0.043967850400719925 -0.00048172556411930044 0 -0.043956301958294787 -0.00052368623646940904 0 -0.044045797714464326 -0.00048127579185513672 0 -0.043551420028119368 -0.0025596833237763838 0 -0.043512707477413065 -0.0027685896926141736 0 -0.043287188261110214 -0.0026687260143242989 0 -0.04236453639912191 -0.0015943007038718669 0 -0.040307423066810018 -0.0016414475228622447 0 -0.040307423066810018 -0.0016414475228622447 0 -0.041755562840864756 -0.0022220533382515703 0 -0.043956301958294787 -0.00052368623646940904 0 -0.044045797714464326 -0.00048127579185513672 0 -0.044101033356174761 -0.00057401510819350785 0 -0.044154156031811262 -0.0004171161913567638 0 -0.044045797714464326 -0.00048127579185513672 0 -0.044101033356174761 -0.00057401510819350785 0 -0.031441343509675146 0.0004249148689639206 0 -0.031286627167527253 0.00025619389145829454 0 -0.031439503184360527 0.00010944672131381098 0 -0.0312129824595231 9.8124463893756238e-05 0 -0.031286627167527253 0.00025619389145829454 0 -0.031439503184360527 0.00010944672131381098 0 -0.040307423066810018 -0.0016414475228622447 0 -0.03752379156333837 7.1554340825721927e-06 0 -0.03752379156333837 7.1554340825721927e-06 0 -0.035521649501267225 -0.0006848817080519951 0 -0.037993121967767801 -0.00048801987576600048 0 -0.037552785205346183 -0.00029185665152300683 0 -0.038018017704726403 -0.00027901669933593285 0 -0.040307423066810018 -0.0016414475228622447 0 -0.036766852307234227 -0.00088973135627432877 0 -0.040307423066810018 -0.0016414475228622447 0 -0.035521649501267225 -0.0006848817080519951 0 -0.03833715394119068 -0.00082646379876108705 0 -0.038164014648630014 -0.001960495395207258 0 -0.037794684379921929 -0.0019764780018696241 0 -0.035521649501267225 -0.0006848817080519951 0 -0.036766852307234227 -0.00088973135627432877 0 -0.03215117016779466 -0.00054819448426853543 0 -0.033035823182152153 -0.00048667418630600538 0 -0.032499068449994402 -0.00094794431357205769 0 -0.032027597669149449 -0.0015053904480907142 0 -0.032360929747464552 0.00044685534068551991 0 -0.032155037462887025 0.00043794638630222831 0 -0.029652527455386306 -0.0010197475158653206 0 -0.036766852307234227 -0.00088973135627432877 0 -0.042136086183901848 -0.0031552383318287805 0 -0.043298242705216435 -0.0031050805071009299 0 -0.042564904115556475 -0.00253351559793679 0 -0.032655385156520826 -0.0013120956297264575 0 -0.033035823182152153 -0.00048667418630600538 0 -0.032499068449994402 -0.00094794431357205769 0 -0.027000194527356323 0.00040261231458409738 0 -0.035521649501267225 -0.0006848817080519951 0 -0.037425125214442564 -0.0019025892258094147 0 -0.036766852307234227 -0.00088973135627432877 0 -0.043474203011465873 -0.0027558351685140849 0 -0.043298242705216435 -0.0031050805071009299 0 -0.043287188261110214 -0.0026687260143242989 0 -0.043298242705216435 -0.0031050805071009299 0 -0.042564904115556475 -0.00253351559793679 0 -0.043287188261110214 -0.0026687260143242989 0 -0.042564904115556475 -0.00253351559793679 0 -0.043287188261110214 -0.0026687260143242989 0 -0.043269787072671845 -0.0022216283437671643 0 -0.043551420028119368 -0.0025596833237763838 0 -0.043287188261110214 -0.0026687260143242989 0 -0.043269787072671845 -0.0022216283437671643 0 -0.042564904115556475 -0.00253351559793679 0 -0.043269787072671845 -0.0022216283437671643 0 -0.042808741665656208 -0.0019689282552262052 0 -0.043306550731689125 -0.0017547712114077622 0 -0.043044662822787308 -0.0012103643240067323 0 -0.044047099331282188 -0.0014832550522002738 0 -0.042242177540483365 -0.0017330378416475964 0 -0.042808741665656208 -0.0019689282552262052 0 -0.043044662822787308 -0.0012103643240067323 0 -0.043269787072671845 -0.0022216283437671643 0 -0.043306550731689125 -0.0017547712114077622 0 -0.043697640438929472 -0.0019803047099828611 0 -0.043269787072671845 -0.0022216283437671643 0 -0.042808741665656208 -0.0019689282552262052 0 -0.043306550731689125 -0.0017547712114077622 0 -0.042808741665656208 -0.0019689282552262052 0 -0.043306550731689125 -0.0017547712114077622 0 -0.043044662822787308 -0.0012103643240067323 0 -0.042269565951927997 -0.00076245958315022586 0 -0.043044662822787308 -0.0012103643240067323 0 -0.042908116477223708 9.8565030314292108e-05 0 -0.043044662822787308 -0.0012103643240067323 0 -0.043821262759998238 -0.00052204228956665235 0 -0.042908116477223708 9.8565030314292108e-05 0 -0.044240043061731765 -0.00013843591549804796 0 -0.044088348791041232 -0.00027734878467414344 0 -0.044321898837075824 -8.3784337731279076e-06 0 -0.043821262759998238 -0.00052204228956665235 0 -0.044047099331282188 -0.0014832550522002738 0 -0.044504044928232921 -0.00040232855035736236 0 -0.043044662822787308 -0.0012103643240067323 0 -0.043821262759998238 -0.00052204228956665235 0 -0.044047099331282188 -0.0014832550522002738 0 -0.044180158248132588 -0.00080335729514557366 0 -0.044393167623538558 -0.00023765751172231104 0 -0.04236453639912191 -0.0015943007038718669 0 -0.044180158248132588 -0.00080335729514557366 0 -0.044240043061731765 -0.00013843591549804796 0 -0.044088348791041232 -0.00027734878467414344 0 -0.044239570708228156 -0.00028269695045811247 0 -0.043562932234681578 -0.0025634537072985984 0 -0.044047099331282188 -0.0014832550522002738 0 -0.043697640438929472 -0.0019803047099828611 0 -0.043306550731689125 -0.0017547712114077622 0 -0.044047099331282188 -0.0014832550522002738 0 -0.043697640438929472 -0.0019803047099828611 0 -0.044088348791041232 -0.00027734878467414344 0 -0.044138921253343816 -0.00034468493630432497 0 -0.044239570708228156 -0.00028269695045811247 0 -0.044075114398588168 -0.00040033523874062762 0 -0.044088348791041232 -0.00027734878467414344 0 -0.044138921253343816 -0.00034468493630432497 0 -0.044154156031811262 -0.0004171161913567638 0 -0.044138921253343816 -0.00034468493630432497 0 -0.044239570708228156 -0.00028269695045811247 0 -0.044318779611980309 -0.00040240076359647828 0 -0.044239570708228156 -0.00028269695045811247 0 -0.044389900912078208 -0.00026342401022067105 0 -0.044318779611980309 -0.00040240076359647828 0 -0.044154156031811262 -0.0004171161913567638 0 -0.044239570708228156 -0.00028269695045811247 0 -0.044239570708228156 -0.00028269695045811247 0 -0.044306290110314457 -0.00015950159443939803 0 -0.044389900912078208 -0.00026342401022067105 0 -0.044240043061731765 -0.00013843591549804796 0 -0.044239570708228156 -0.00028269695045811247 0 -0.044306290110314457 -0.00015950159443939803 0 -0.044240043061731765 -0.00013843591549804796 0 -0.044321898837075824 -8.3784337731279076e-06 0 -0.044536309137184156 4.8966742891180042e-05 0 -0.044283153484873022 -0.00011639563910251386 0 -0.04440129054503051 -6.4682257342217911e-06 0 -0.044240043061731765 -0.00013843591549804796 0 -0.044306290110314457 -0.00015950159443939803 0 -0.044294673845295472 -5.6268416669091358e-05 0 -0.044306290110314457 -0.00015950159443939803 0 -0.044384173126384541 -0.00014185836936709835 0 -0.044294673845295472 -5.6268416669091358e-05 0 -0.044306290110314457 -0.00015950159443939803 0 -0.044384173126384541 -0.00014185836936709835 0 -0.044389900912078208 -0.00026342401022067105 0 -0.04452540306593368 -0.00023398645024857862 0 -0.044384173126384541 -0.00014185836936709835 0 -0.044424284535589068 -6.9144720593888982e-06 0 -0.04452540306593368 -0.00023398645024857862 0 -0.044384173126384541 -0.00014185836936709835 0 -0.044389900912078208 -0.00026342401022067105 0 -0.04452540306593368 -0.00023398645024857862 0 -0.044499063892138223 -0.00037932130648577524 0 -0.044389900912078208 -0.00026342401022067105 0 -0.044499063892138223 -0.00037932130648577524 0 -0.044318779611980309 -0.00040240076359647828 0 -0.044389900912078208 -0.00026342401022067105 0 -0.044817787219368646 5.1017267311620128e-05 0 -0.044650455880065623 8.7549088941628393e-05 0 -0.044552500565183631 0.00027517090258064194 0 -0.044535822482166622 3.1679993212877685e-05 0 -0.044387627316211049 6.7754965433751608e-05 0 -0.044535822482166622 3.1679993212877685e-05 0 -0.04452540306593368 -0.00023398645024857862 0 -0.044424284535589068 -6.9144720593888982e-06 0 -0.044535822482166622 3.1679993212877685e-05 0 -0.044387627316211049 6.7754965433751608e-05 0 -0.044424284535589068 -6.9144720593888982e-06 0 -0.044384173126384541 -0.00014185836936709835 0 -0.044424284535589068 -6.9144720593888982e-06 0 -0.044294673845295472 -5.6268416669091358e-05 0 -0.044650455880065623 8.7549088941628393e-05 0 -0.044509606532007556 7.2860610804257843e-05 0 -0.04438474447809794 6.7989194901461387e-05 0 -0.044424284535589068 -6.9144720593888982e-06 0 -0.044294673845295472 -5.6268416669091358e-05 0 -0.044504044928232921 -0.00040232855035736236 0 -0.044637240099180769 0.00022508464499903364 0 -0.044512904402158771 0.00020394964217328781 0 -0.044321898837075824 -8.3784337731279076e-06 0 -0.044536309137184156 4.8966742891180042e-05 0 -0.044637240099180769 0.00022508464499903364 0 -0.044393167623538558 -0.00023765751172231104 0 -0.044605237047414453 0.00018486705415826643 0 -0.044625738702335126 0.00021988719007876579 0 -0.044536309137184156 4.8966742891180042e-05 0 -0.044637240099180769 0.00022508464499903364 0 -0.044650455880065623 8.7549088941628393e-05 0 -0.04440129054503051 -6.4682257342217911e-06 0 -0.044650455880065623 8.7549088941628393e-05 0 -0.044866838541647892 4.9964775257975341e-05 0 -0.044637240099180769 0.00022508464499903364 0 -0.044694261423133215 0.00013133656204959341 0 -0.044678310607093687 7.6972267012494412e-05 0 -0.044637240099180769 0.00022508464499903364 0 -0.044694261423133215 0.00013133656204959341 0 -0.044512904402158771 0.00020394964217328781 0 -0.044625738702335126 0.00021988719007876579 0 -0.044637240099180769 0.00022508464499903364 0 -0.044678310607093687 7.6972267012494412e-05 0 -0.044694261423133215 0.00013133656204959341 0 -0.044761495611476909 0.00011283419433541724 0 -0.044891544055715132 5.0457067524973495e-05 0 -0.044694261423133215 0.00013133656204959341 0 -0.044761495611476909 0.00011283419433541724 0 -0.044512904402158771 0.00020394964217328781 0 -0.044761495611476909 0.00011283419433541724 0 -0.044512904402158771 0.00020394964217328781 0 -0.044899164263500532 0.00015486408932571959 0 -0.044454520919200519 0.00020738475710346349 0 -0.043890609289505722 0.00010835793713569404 0 -0.043821262759998238 -0.00052204228956665235 0 -0.044512904402158771 0.00020394964217328781 0 -0.042908116477223708 9.8565030314292108e-05 0 -0.043821262759998238 -0.00052204228956665235 0 -0.044504044928232921 -0.00040232855035736236 0 -0.044512904402158771 0.00020394964217328781 0 -0.044761495611476909 0.00011283419433541724 0 -0.044899164263500532 0.00015486408932571959 0 -0.044891544055715132 5.0457067524973495e-05 0 -0.044891544055715132 5.0457067524973495e-05 0 -0.045000006586727481 -9.1132765914986619e-09 0 -0.0448742323624918 3.0616496846308608e-05 0 -0.045000006586727481 -9.1132765914986619e-09 0 -0.04499955512718478 -6.1988387735049064e-08 0 -0.0448742323624918 3.0616496846308608e-05 0 -0.04499955512718478 -6.1988387735049064e-08 0 -0.0448742323624918 3.0616496846308608e-05 0 -0.044678310607093687 7.6972267012494412e-05 0 -0.044694261423133215 0.00013133656204959341 0 -0.0448742323624918 3.0616496846308608e-05 0 -0.044678310607093687 7.6972267012494412e-05 0 -0.044694261423133215 0.00013133656204959341 0 -0.044891544055715132 5.0457067524973495e-05 0 -0.0448742323624918 3.0616496846308608e-05 0 -0.04500000203393005 7.3817483404712968e-10 0 -0.044998744941096992 2.8801573351244341e-06 0 -0.044999997494513375 8.2887253185430934e-10 0 -0.044998744941096992 2.8801573351244341e-06 0 -0.044999997494513375 8.2887253185430934e-10 0 -0.044997904880137399 1.6878396885871803e-06 0 -0.044999902884211067 4.9915781666778772e-08 0 -0.044866838541647892 4.9964775257975341e-05 0 -0.044999993601200619 6.2939753421793382e-10 0 -0.044999997494513375 8.2887253185430934e-10 0 -0.044997904880137399 1.6878396885871803e-06 0 -0.044993954279548484 7.1514239213300012e-06 0 -0.044998744941096992 2.8801573351244341e-06 0 -0.044997904880137399 1.6878396885871803e-06 0 -0.04499522201906108 2.8335199072446498e-06 0 -0.044993954279548484 7.1514239213300012e-06 0 -0.044997904880137399 1.6878396885871803e-06 0 -0.044929921895589399 -1.9227551977575088e-05 0 -0.044961505957998221 4.9677833560871049e-05 0 -0.044965267792855493 1.7749128359717138e-05 0 -0.044929921895589399 -1.9227551977575088e-05 0 -0.044965267792855493 1.7749128359717138e-05 0 -0.044949872941580635 2.0125108045842267e-05 0 -0.044929921895589399 -1.9227551977575088e-05 0 -0.044949872941580635 2.0125108045842267e-05 0 -0.044860205576102173 -2.1482661484182684e-05 0 -0.044929921895589399 -1.9227551977575088e-05 0 -0.044860205576102173 -2.1482661484182684e-05 0 -0.044821516558383068 -9.9047637811529939e-05 0 -0.044901524516125509 -0.00010674976312305442 0 -0.044929921895589399 -1.9227551977575088e-05 0 -0.044821516558383068 -9.9047637811529939e-05 0 -0.044901524516125509 -0.00010674976312305442 0 -0.044929921895589399 -1.9227551977575088e-05 0 -0.044951648923991297 1.5574892415234799e-05 0 -0.044929921895589399 -1.9227551977575088e-05 0 -0.044951648923991297 1.5574892415234799e-05 0 -0.044961505957998221 4.9677833560871049e-05 0 -0.044899164263500532 0.00015486408932571959 0 -0.044951648923991297 1.5574892415234799e-05 0 -0.044961505957998221 4.9677833560871049e-05 0 -0.042269565951927997 -0.00076245958315022586 0 -0.042908116477223708 9.8565030314292108e-05 0 -0.041376773169063387 -0.00027232865652748837 0 -0.043890609289505722 0.00010835793713569404 0 -0.043173106715897414 -0.00012576563387841459 0 -0.044899164263500532 0.00015486408932571959 0 -0.044891544055715132 5.0457067524973495e-05 0 -0.044961505957998221 4.9677833560871049e-05 0 -0.044973169029841734 1.7557754278053345e-05 0 -0.044983109467019881 1.2297452549248517e-05 0 -0.044965267792855493 1.7749128359717138e-05 0 -0.044961505957998221 4.9677833560871049e-05 0 -0.044973169029841734 1.7557754278053345e-05 0 -0.044965267792855493 1.7749128359717138e-05 0 -0.044891544055715132 5.0457067524973495e-05 0 -0.044961505957998221 4.9677833560871049e-05 0 -0.044973169029841734 1.7557754278053345e-05 0 -0.044891544055715132 5.0457067524973495e-05 0 -0.045000006586727481 -9.1132765914986619e-09 0 -0.044973169029841734 1.7557754278053345e-05 0 -0.045000006586727481 -9.1132765914986619e-09 0 -0.044973169029841734 1.7557754278053345e-05 0 -0.044999947195299358 2.8252422112291336e-08 0 -0.044973169029841734 1.7557754278053345e-05 0 -0.044999947195299358 2.8252422112291336e-08 0 -0.044983109467019881 1.2297452549248517e-05 0 -0.044999947195299358 2.8252422112291336e-08 0 -0.044983109467019881 1.2297452549248517e-05 0 -0.045000017485950075 -4.1474313022186025e-08 0 -0.044983109467019881 1.2297452549248517e-05 0 -0.045000017485950075 -4.1474313022186025e-08 0 -0.044949872941580635 2.0125108045842267e-05 0 -0.044983109467019881 1.2297452549248517e-05 0 -0.044965267792855493 1.7749128359717138e-05 0 -0.044949872941580635 2.0125108045842267e-05 0 -0.045000017485950075 -4.1474313022186025e-08 0 -0.044949872941580635 2.0125108045842267e-05 0 -0.044999711852121635 2.3280883418637548e-07 0 -0.044949872941580635 2.0125108045842267e-05 0 -0.044999711852121635 2.3280883418637548e-07 0 -0.044886918815818799 2.5450126283786642e-05 0 -0.045000000240570069 1.7106212479766188e-09 0 -0.045000003659835905 -3.813964627813411e-09 0 -0.04500161255765444 -3.8578069600689201e-06 0 -0.045000033619100863 5.6806450760760918e-08 0 -0.044810751129022108 1.6842361709793748e-05 0 -0.044999711852121635 2.3280883418637548e-07 0 -0.044763430790689597 9.5509938001706469e-05 0 -0.044886918815818799 2.5450126283786642e-05 0 -0.044763430790689597 9.5509938001706469e-05 0 -0.044886918815818799 2.5450126283786642e-05 0 -0.044784179681349998 -6.0242362465667085e-06 0 -0.044763430790689597 9.5509938001706469e-05 0 -0.044784179681349998 -6.0242362465667085e-06 0 -0.044626923963059131 -3.5851085542784742e-05 0 -0.044949872941580635 2.0125108045842267e-05 0 -0.044886918815818799 2.5450126283786642e-05 0 -0.044860205576102173 -2.1482661484182684e-05 0 -0.044886918815818799 2.5450126283786642e-05 0 -0.044860205576102173 -2.1482661484182684e-05 0 -0.044784179681349998 -6.0242362465667085e-06 0 -0.044860205576102173 -2.1482661484182684e-05 0 -0.044784179681349998 -6.0242362465667085e-06 0 -0.044725561690140643 -7.6795480107126634e-05 0 -0.044784179681349998 -6.0242362465667085e-06 0 -0.044725561690140643 -7.6795480107126634e-05 0 -0.044626923963059131 -3.5851085542784742e-05 0 -0.044725561690140643 -7.6795480107126634e-05 0 -0.044821516558383068 -9.9047637811529939e-05 0 -0.044666491442993339 -0.00017062621935136666 0 -0.044860205576102173 -2.1482661484182684e-05 0 -0.044725561690140643 -7.6795480107126634e-05 0 -0.044821516558383068 -9.9047637811529939e-05 0 -0.044272965200297699 -0.00035305213717888269 0 -0.044539927800482264 -0.00028755378212012514 0 -0.044395063033097606 -0.00015869590075208738 0 -0.044725561690140643 -7.6795480107126634e-05 0 -0.044584604611252666 -0.00011617645550510502 0 -0.044666491442993339 -0.00017062621935136666 0 -0.044539927800482264 -0.00028755378212012514 0 -0.044626923963059131 -3.5851085542784742e-05 0 -0.044395063033097606 -0.00015869590075208738 0 -0.044665334139016452 -4.5103121533883656e-05 0 -0.044599198828471152 -0.00010999392453416742 0 -0.044725561690140643 -7.6795480107126634e-05 0 -0.044584604611252666 -0.00011617645550510502 0 -0.044626923963059131 -3.5851085542784742e-05 0 -0.044626923963059131 -3.5851085542784742e-05 0 -0.044395063033097606 -0.00015869590075208738 0 -0.044451653866783146 4.4723666104933444e-05 0 -0.044395063033097606 -0.00015869590075208738 0 -0.044451653866783146 4.4723666104933444e-05 0 -0.044059770494067022 -0.00015854508111692024 0 -0.044997616037257465 -1.7972659530813409e-05 0 -0.044996435607744675 -9.0916760545843641e-06 0 -0.044987992071020409 -2.1200636846747646e-05 0 -0.044997616037257465 -1.7972659530813409e-05 0 -0.04499987990549037 -5.3299068653373514e-06 0 -0.044996435607744675 -9.0916760545843641e-06 0 -0.044810751129022108 1.6842361709793748e-05 0 -0.045049675043764878 4.9856033992199909e-05 0 -0.044763430790689597 9.5509938001706469e-05 0 -0.044626923963059131 -3.5851085542784742e-05 0 -0.044451653866783146 4.4723666104933444e-05 0 -0.04500161255765444 -3.8578069600689201e-06 0 -0.044997616037257465 -1.7972659530813409e-05 0 -0.04499987990549037 -5.3299068653373514e-06 0 -0.045000003659835905 -3.813964627813411e-09 0 -0.04499987990549037 -5.3299068653373514e-06 0 -0.045000000018252669 -6.4824081383586844e-09 0 -0.045000003659835905 -3.813964627813411e-09 0 -0.04500161255765444 -3.8578069600689201e-06 0 -0.04499987990549037 -5.3299068653373514e-06 0 -0.04499987990549037 -5.3299068653373514e-06 0 -0.045000000018252669 -6.4824081383586844e-09 0 -0.044996435607744675 -9.0916760545843641e-06 0 -0.044996435607744675 -9.0916760545843641e-06 0 -0.044999981441363392 -3.556009924423549e-09 0 -0.04499034653773689 -1.7734777943072482e-05 0 -0.045000000018252669 -6.4824081383586844e-09 0 -0.044996435607744675 -9.0916760545843641e-06 0 -0.044999981441363392 -3.556009924423549e-09 0 -0.044999981441363392 -3.556009924423549e-09 0 -0.044988080264782196 -1.4026222731163473e-05 0 -0.04499034653773689 -1.7734777943072482e-05 0 -0.044999981441363392 -3.556009924423549e-09 0 -0.044988080264782196 -1.4026222731163473e-05 0 -0.045000003550031566 -2.9876310731745948e-08 0 -0.044988080264782196 -1.4026222731163473e-05 0 -0.04499034653773689 -1.7734777943072482e-05 0 -0.044983344328591274 -2.9397699534647605e-05 0 -0.044988080264782196 -1.4026222731163473e-05 0 -0.044983344328591274 -2.9397699534647605e-05 0 -0.044965784312780997 -4.4595279889932543e-05 0 -0.044983344328591274 -2.9397699534647605e-05 0 -0.044965784312780997 -4.4595279889932543e-05 0 -0.044981391803060329 -3.1342960021360699e-05 0 -0.0448894652872842 2.0844753906937918e-05 0 -0.045186394191011718 -0.0002979651905189341 0 -0.04499034653773689 -1.7734777943072482e-05 0 -0.044983344328591274 -2.9397699534647605e-05 0 -0.044984219579052659 -2.6640097415467829e-05 0 -0.044983344328591274 -2.9397699534647605e-05 0 -0.044984219579052659 -2.6640097415467829e-05 0 -0.044981391803060329 -3.1342960021360699e-05 0 -0.04499034653773689 -1.7734777943072482e-05 0 -0.044984219579052659 -2.6640097415467829e-05 0 -0.044987992071020409 -2.1200636846747646e-05 0 -0.044996435607744675 -9.0916760545843641e-06 0 -0.04499034653773689 -1.7734777943072482e-05 0 -0.044987992071020409 -2.1200636846747646e-05 0 -0.044967103262327481 -1.5229861676144182e-05 0 -0.04490848112071831 -4.5452733995052981e-05 0 -0.044999718055414459 7.3662973456072976e-08 0 -0.044967103262327481 -1.5229861676144182e-05 0 -0.045000003550031566 -2.9876310731745948e-08 0 -0.044999718055414459 7.3662973456072976e-08 0 -0.044988080264782196 -1.4026222731163473e-05 0 -0.044967103262327481 -1.5229861676144182e-05 0 -0.045000003550031566 -2.9876310731745948e-08 0 -0.044988080264782196 -1.4026222731163473e-05 0 -0.044967103262327481 -1.5229861676144182e-05 0 -0.044965784312780997 -4.4595279889932543e-05 0 -0.044965784312780997 -4.4595279889932543e-05 0 -0.044939901157093301 -9.5323861197323383e-05 0 -0.044953331628235754 -0.00011199698593471267 0 -0.044965784312780997 -4.4595279889932543e-05 0 -0.04490848112071831 -4.5452733995052981e-05 0 -0.044939901157093301 -9.5323861197323383e-05 0 -0.044967103262327481 -1.5229861676144182e-05 0 -0.044965784312780997 -4.4595279889932543e-05 0 -0.04490848112071831 -4.5452733995052981e-05 0 -0.044899664293845093 -0.00013187397522850132 0 -0.044848347696278441 -0.00024240993646191988 0 -0.044797976679314712 -0.00012804691260348249 0 -0.04490848112071831 -4.5452733995052981e-05 0 -0.044899664293845093 -0.00013187397522850132 0 -0.044939901157093301 -9.5323861197323383e-05 0 -0.04490848112071831 -4.5452733995052981e-05 0 -0.044899664293845093 -0.00013187397522850132 0 -0.044797976679314712 -0.00012804691260348249 0 -0.044899664293845093 -0.00013187397522850132 0 -0.044918610537331656 -0.00018115094160700015 0 -0.044848347696278441 -0.00024240993646191988 0 -0.044899664293845093 -0.00013187397522850132 0 -0.044944418859029091 -0.000144533571207275 0 -0.044918610537331656 -0.00018115094160700015 0 -0.044944418859029091 -0.000144533571207275 0 -0.044918610537331656 -0.00018115094160700015 0 -0.04497923492322943 -0.0002162920972254393 0 -0.044899664293845093 -0.00013187397522850132 0 -0.044944418859029091 -0.000144533571207275 0 -0.044939901157093301 -9.5323861197323383e-05 0 -0.044944418859029091 -0.000144533571207275 0 -0.044939901157093301 -9.5323861197323383e-05 0 -0.044953331628235754 -0.00011199698593471267 0 -0.044944418859029091 -0.000144533571207275 0 -0.04497923492322943 -0.0002162920972254393 0 -0.044953331628235754 -0.00011199698593471267 0 -0.044873488309797899 -0.00015811928889552216 0 -0.044912066423164129 -0.00018242663957496885 0 -0.044918610537331656 -0.00018115094160700015 0 -0.04497923492322943 -0.0002162920972254393 0 -0.044848347696278441 -0.00024240993646191988 0 -0.04497923492322943 -0.0002162920972254393 0 -0.044848347696278441 -0.00024240993646191988 0 -0.044927455910089301 -0.00038910306278660715 0 -0.040956126872116853 -0.00019758292466670366 0 -0.041480868425241672 5.2024118632299339e-05 0 -0.044721802569717889 -0.00035180256827436546 0 -0.04489449782088057 -0.00046328389530091152 0 -0.044516417210134336 -0.00070488885154661586 0 -0.044873488309797899 -0.00015811928889552216 0 -0.041480868425241672 5.2024118632299339e-05 0 -0.045049675043764878 4.9856033992199909e-05 0 -0.042795807854240413 0.00011955420712162085 0 -0.044997616037257465 -1.7972659530813409e-05 0 -0.044987992071020409 -2.1200636846747646e-05 0 -0.044974326493744644 -3.2671820774742164e-05 0 -0.044984219579052659 -2.6640097415467829e-05 0 -0.044987992071020409 -2.1200636846747646e-05 0 -0.044974326493744644 -3.2671820774742164e-05 0 -0.044984219579052659 -2.6640097415467829e-05 0 -0.044974326493744644 -3.2671820774742164e-05 0 -0.044981391803060329 -3.1342960021360699e-05 0 -0.044965784312780997 -4.4595279889932543e-05 0 -0.044974416837467342 -0.00010788833031618537 0 -0.044953331628235754 -0.00011199698593471267 0 -0.044974416837467342 -0.00010788833031618537 0 -0.044953331628235754 -0.00011199698593471267 0 -0.044959286853011357 -0.00019965922745033478 0 -0.044721802569717889 -0.00035180256827436546 0 -0.044953331628235754 -0.00011199698593471267 0 -0.044959286853011357 -0.00019965922745033478 0 -0.042795807854240413 0.00011955420712162085 0 -0.045186394191011718 -0.0002979651905189341 0 -0.045140169643007058 -0.00026334792715675321 0 -0.044974416837467342 -0.00010788833031618537 0 -0.044959286853011357 -0.00019965922745033478 0 -0.045140169643007058 -0.00026334792715675321 0 -0.044959286853011357 -0.00019965922745033478 0 -0.044947483823746699 -0.000300845197514528 0 -0.042795807854240413 0.00011955420712162085 0 -0.040956126872116853 -0.00019758292466670366 0 -0.045140169643007058 -0.00026334792715675321 0 -0.044947483823746699 -0.000300845197514528 0 -0.04489449782088057 -0.00046328389530091152 0 -0.03798993550877932 0.00065512397873649687 0 -0.037546564199412151 0.00038270814790419345 0 -0.037919225814593137 0.00011010458374982249 0 -0.044721802569717889 -0.00035180256827436546 0 -0.044959286853011357 -0.00019965922745033478 0 -0.044947483823746699 -0.000300845197514528 0 -0.044721802569717889 -0.00035180256827436546 0 -0.044947483823746699 -0.000300845197514528 0 -0.04489449782088057 -0.00046328389530091152 0 -0.044272965200297699 -0.00035305213717888269 0 -0.044395063033097606 -0.00015869590075208738 0 -0.044059770494067022 -0.00015854508111692024 0 -0.038361587622797511 0.00027957723096025687 0 -0.03798993550877932 0.00065512397873649687 0 -0.037919225814593137 0.00011010458374982249 0 -0.041148521189707923 9.1989790900896495e-05 0 -0.042795807854240413 0.00011955420712162085 0 -0.038361587622797511 0.00027957723096025687 0 -0.037919225814593137 0.00011010458374982249 0 -0.038226278520252913 -0.00029736486247133312 0 -0.037919225814593137 0.00011010458374982249 0 -0.037733468761030502 -0.00041087920031591789 0 -0.038226278520252913 -0.00029736486247133312 0 -0.037919225814593137 0.00011010458374982249 0 -0.037528322769140122 -1.64878185569458e-05 0 -0.037733468761030502 -0.00041087920031591789 0 -0.037546564199412151 0.00038270814790419345 0 -0.037919225814593137 0.00011010458374982249 0 -0.037528322769140122 -1.64878185569458e-05 0 -0.037733468761030502 -0.00041087920031591789 0 -0.037304854289528427 -0.00030848872718375076 0 -0.037311258278029849 -0.0008333942890936995 0 -0.037528322769140122 -1.64878185569458e-05 0 -0.037733468761030502 -0.00041087920031591789 0 -0.037304854289528427 -0.00030848872718375076 0 -0.037733468761030502 -0.00041087920031591789 0 -0.038226278520252913 -0.00029736486247133312 0 -0.038009568476928025 -0.00088797337667770868 0 -0.038226278520252913 -0.00029736486247133312 0 -0.038009568476928025 -0.00088797337667770868 0 -0.038567269006188995 -0.00073765208279895041 0 -0.044848347696278441 -0.00024240993646191988 0 -0.044927455910089301 -0.00038910306278660715 0 -0.044742904275136816 -0.0005444428020661287 0 -0.041480868425241672 5.2024118632299339e-05 0 -0.041854288976203122 0.00025609673576275187 0 -0.041480868425241672 5.2024118632299339e-05 0 -0.037744671533013897 6.1419780038164921e-06 0 -0.039507813336828623 0.0013959192114353478 0 -0.039097566307227341 0.00056830342530737898 0 -0.038692695737842502 0.00087888446987318878 0 -0.037103602003897736 0.00010845445382452202 0 -0.037304854289528427 -0.00030848872718375076 0 -0.036826589617426873 -0.00041009811651289478 0 -0.037546564199412151 0.00038270814790419345 0 -0.037528322769140122 -1.64878185569458e-05 0 -0.037103602003897736 0.00010845445382452202 0 -0.037528322769140122 -1.64878185569458e-05 0 -0.037103602003897736 0.00010845445382452202 0 -0.037304854289528427 -0.00030848872718375076 0 -0.037304854289528427 -0.00030848872718375076 0 -0.036826589617426873 -0.00041009811651289478 0 -0.037311258278029849 -0.0008333942890936995 0 -0.039097566307227341 0.00056830342530737898 0 -0.038685736129493956 -0.00025969381702163749 0 -0.038539174474725116 0.00029009013269510735 0 -0.039097566307227341 0.00056830342530737898 0 -0.038692695737842502 0.00087888446987318878 0 -0.038539174474725116 0.00029009013269510735 0 -0.037744671533013897 6.1419780038164921e-06 0 -0.037842247444126391 -0.00052457928081615121 0 -0.036826589617426873 -0.00041009811651289478 0 -0.036552208653398602 -0.00093165690760861034 0 -0.037311258278029849 -0.0008333942890936995 0 -0.036552208653398602 -0.00093165690760861034 0 -0.037311258278029849 -0.0008333942890936995 0 -0.037000613586810303 -0.0014338626755640196 0 -0.037311258278029849 -0.0008333942890936995 0 -0.037000613586810303 -0.0014338626755640196 0 -0.037702123047623423 -0.0014023699704271333 0 -0.03355806442037769 -0.00095519566063999295 0 -0.034539087673445823 -0.00081505993558673095 0 -0.03355806442037769 -0.00095519566063999295 0 -0.033990047266187789 -0.00053186022699376991 0 -0.036552208653398602 -0.00093165690760861034 0 -0.037000613586810303 -0.0014338626755640196 0 -0.036279185920795542 -0.0014620139946888834 0 -0.037311258278029849 -0.0008333942890936995 0 -0.038009568476928025 -0.00088797337667770868 0 -0.037702123047623423 -0.0014023699704271333 0 -0.037733468761030502 -0.00041087920031591789 0 -0.037311258278029849 -0.0008333942890936995 0 -0.038009568476928025 -0.00088797337667770868 0 -0.038009568476928025 -0.00088797337667770868 0 -0.037702123047623423 -0.0014023699704271333 0 -0.038385252608108066 -0.0013766371964891539 0 -0.034539087673445823 -0.00081505993558673095 0 -0.034203221363559459 -0.0014290838643431089 0 -0.038009568476928025 -0.00088797337667770868 0 -0.038385252608108066 -0.0013766371964891539 0 -0.038567269006188995 -0.00073765208279895041 0 -0.034203221363559459 -0.0014290838643431089 0 -0.037668608568148569 -0.0015288902462193793 0 -0.036517923999265525 -0.0030718806241473297 0 -0.036784249224113282 -0.0020305096974996793 0 -0.037053932701345271 -0.0026322102866850969 0 -0.036784249224113282 -0.0020305096974996793 0 -0.03746895172002191 -0.0019443533428301111 0 -0.037451716063381157 -0.0023714544192684189 0 -0.036784249224113282 -0.0020305096974996793 0 -0.037053932701345271 -0.0026322102866850969 0 -0.037451716063381157 -0.0023714544192684189 0 -0.02999106810221935 -0.0010141531523443241 0 -0.030417550415939455 -0.00099747061113219702 0 -0.030239942317263343 -0.001299232006841371 0 -0.036517923999265525 -0.0030718806241473297 0 -0.037053932701345271 -0.0026322102866850969 0 -0.037597721680120808 -0.0030416968308822588 0 -0.037053932701345271 -0.0026322102866850969 0 -0.037451716063381157 -0.0023714544192684189 0 -0.037597721680120808 -0.0030416968308822588 0 -0.034203221363559459 -0.0014290838643431089 0 -0.033797430484389421 -0.0020799315690206515 0 -0.030417550415939455 -0.00099747061113219702 0 -0.030860760269335888 -0.00097671442192655712 0 -0.030685822218527826 -0.0013051668804692398 0 -0.033797430484389421 -0.0020799315690206515 0 -0.034861030920446741 -0.0019948737911414604 0 -0.037597721680120808 -0.0030416968308822588 0 -0.038687487237544858 -0.0030178032184251125 0 -0.038461479737603388 -0.0023543229914597674 0 -0.039231987979261647 -0.0024526145013145429 0 -0.038687487237544858 -0.0030178032184251125 0 -0.038461479737603388 -0.0023543229914597674 0 -0.039231987979261647 -0.0024526145013145429 0 -0.039291589984623267 -0.0016651211068008896 0 -0.038461479737603388 -0.0023543229914597674 0 -0.037451716063381157 -0.0023714544192684189 0 -0.037597721680120808 -0.0030416968308822588 0 -0.038461479737603388 -0.0023543229914597674 0 -0.03746895172002191 -0.0019443533428301111 0 -0.037451716063381157 -0.0023714544192684189 0 -0.038461479737603388 -0.0023543229914597674 0 -0.037663907834865104 -0.0021966669286397279 0 -0.039722756856327569 -0.0012517713677440364 0 -0.038461479737603388 -0.0023543229914597674 0 -0.038707369582130051 -0.0011108017744527545 0 -0.037563875904649498 -0.0014491575818803117 0 -0.042039900370606745 -0.00057561177612591187 0 -0.039722756856327569 -0.0012517713677440364 0 -0.03746895172002191 -0.0019443533428301111 0 -0.038461479737603388 -0.0023543229914597674 0 -0.037518570726921836 -0.0014365024693229658 0 -0.039291589984623267 -0.0016651211068008896 0 -0.038461479737603388 -0.0023543229914597674 0 -0.038707369582130051 -0.0011108017744527545 0 -0.044821516558383068 -9.9047637811529939e-05 0 -0.044771509651421557 -0.00021795474352402414 0 -0.044666491442993339 -0.00017062621935136666 0 -0.044901524516125509 -0.00010674976312305442 0 -0.044821516558383068 -9.9047637811529939e-05 0 -0.044771509651421557 -0.00021795474352402414 0 -0.044771509651421557 -0.00021795474352402414 0 -0.044666491442993339 -0.00017062621935136666 0 -0.044581400702453304 -0.00029334870585805974 0 -0.044584604611252666 -0.00011617645550510502 0 -0.044666491442993339 -0.00017062621935136666 0 -0.044520349118718619 -0.00022456388441031972 0 -0.044666491442993339 -0.00017062621935136666 0 -0.044520349118718619 -0.00022456388441031972 0 -0.044581400702453304 -0.00029334870585805974 0 -0.044665334139016452 -4.5103121533883656e-05 0 -0.041039689200530027 -0.00056689693927671739 0 -0.038361587622797511 0.00027957723096025687 0 -0.038226278520252913 -0.00029736486247133312 0 -0.03874491163276414 -9.6799530489217583e-05 0 -0.044272965200297699 -0.00035305213717888269 0 -0.044539927800482264 -0.00028755378212012514 0 -0.044452811060674023 -0.00053271715576134614 0 -0.041148521189707923 9.1989790900896495e-05 0 -0.041039689200530027 -0.00056689693927671739 0 -0.038226278520252913 -0.00029736486247133312 0 -0.038567269006188995 -0.00073765208279895041 0 -0.03874491163276414 -9.6799530489217583e-05 0 -0.037668608568148569 -0.0015288902462193793 0 -0.041039689200530027 -0.00056689693927671739 0 -0.036784249224113282 -0.0020305096974996793 0 -0.037061574341558511 -0.00095075530530057753 0 -0.037141268751159313 -0.0015403038400636298 0 -0.03746895172002191 -0.0019443533428301111 0 -0.037518570726921836 -0.0014365024693229658 0 -0.037141268751159313 -0.0015403038400636298 0 -0.036784249224113282 -0.0020305096974996793 0 -0.03746895172002191 -0.0019443533428301111 0 -0.037141268751159313 -0.0015403038400636298 0 -0.037061574341558511 -0.00095075530530057753 0 -0.037568345156451605 -0.0014251508302406731 0 -0.037141268751159313 -0.0015403038400636298 0 -0.039722756856327569 -0.0012517713677440364 0 -0.037296429171417851 -0.0017078026923674527 0 -0.041039689200530027 -0.00056689693927671739 0 -0.039722756856327569 -0.0012517713677440364 0 -0.039776658734438933 4.9544504102835534e-07 0 -0.04099266324044834 -8.3293660325233017e-07 0 -0.044997277769588562 4.3756142955152476e-07 0 -0.039776658734438933 4.9544504102835534e-07 0 -0.04099266324044834 -8.3293660325233017e-07 0 -0.038827069879864513 0.00026388571727142726 0 -0.044997277769588562 4.3756142955152476e-07 0 -0.043777967467907901 0.00032191362230950005 0 -0.044998650356563627 5.8019946521515583e-07 0 -0.04099266324044834 -8.3293660325233017e-07 0 -0.044997277769588562 4.3756142955152476e-07 0 -0.043777967467907901 0.00032191362230950005 0 -0.043777967467907901 0.00032191362230950005 0 -0.044998650356563627 5.8019946521515583e-07 0 -0.044541472761063045 0.00018351512646438121 0 -0.044541472761063045 0.00018351512646438121 0 -0.043942784866672698 -0.00037921357224148991 0 -0.044681369516260346 0.00021698682036349058 0 -0.042004744055696326 0.00021836018240246961 0 -0.043087999602633639 0.00067566955284321625 0 -0.04099266324044834 -8.3293660325233017e-07 0 -0.043777967467907901 0.00032191362230950005 0 -0.043942784866672698 -0.00037921357224148991 0 -0.043777967467907901 0.00032191362230950005 0 -0.044541472761063045 0.00018351512646438121 0 -0.043942784866672698 -0.00037921357224148991 0 -0.041137605734763938 1.8731171838059685e-05 0 -0.042004744055696326 0.00021836018240246961 0 -0.04099266324044834 -8.3293660325233017e-07 0 -0.040011571952397025 0.00073456823135885797 0 -0.039834696598689906 0.00045737004254106975 0 -0.040011571952397025 0.00073456823135885797 0 -0.040201354422589 0.00025992398802273623 0 -0.039834696598689906 0.00045737004254106975 0 -0.040011571952397025 0.00073456823135885797 0 -0.041577708814301527 0.0012433770812304719 0 -0.041275524597269082 0.00035796590184717161 0 -0.040011571952397025 0.00073456823135885797 0 -0.041275524597269082 0.00035796590184717161 0 -0.040201354422589 0.00025992398802273623 0 -0.042876462878246153 0.00038907037522430913 0 -0.041577708814301527 0.0012433770812304719 0 -0.041275524597269082 0.00035796590184717161 0 -0.042876462878246153 0.00038907037522430913 0 -0.041577708814301527 0.0012433770812304719 0 -0.043904096404010509 0.00076370802758892039 0 -0.044681369516260346 0.00021698682036349058 0 -0.044718661375497834 0.00016985709897105638 0 -0.043904096404010509 0.00076370802758892039 0 -0.043087999602633639 0.00067566955284321625 0 -0.043787101742666548 0.00077180300936756483 0 -0.044541472761063045 0.00018351512646438121 0 -0.044681369516260346 0.00021698682036349058 0 -0.044718661375497834 0.00016985709897105638 0 -0.044998650356563627 5.8019946521515583e-07 0 -0.044541472761063045 0.00018351512646438121 0 -0.044718661375497834 0.00016985709897105638 0 -0.044998650356563627 5.8019946521515583e-07 0 -0.044999646683266954 -3.6909687863810401e-08 0 -0.044718661375497834 0.00016985709897105638 0 -0.044999646683266954 -3.6909687863810401e-08 0 -0.044718661375497834 0.00016985709897105638 0 -0.04448301988765866 0.00028036199266854754 0 -0.044718661375497834 0.00016985709897105638 0 -0.04448301988765866 0.00028036199266854754 0 -0.043904096404010509 0.00076370802758892039 0 -0.04448301988765866 0.00028036199266854754 0 -0.044385901918387496 0.00036307705627467373 0 -0.043904096404010509 0.00076370802758892039 0 -0.044999646683266954 -3.6909687863810401e-08 0 -0.04448301988765866 0.00028036199266854754 0 -0.044385901918387496 0.00036307705627467373 0 -0.044999646683266954 -3.6909687863810401e-08 0 -0.044999111718763841 2.5183585039317024e-07 0 -0.044385901918387496 0.00036307705627467373 0 -0.044999859400146933 1.2734245097500189e-07 0 -0.044608515810065558 0.00018723665535381307 0 -0.04490848112071831 -4.5452733995052981e-05 0 -0.044791439512947083 -4.4490298171676181e-05 0 -0.044797976679314712 -0.00012804691260348249 0 -0.04490848112071831 -4.5452733995052981e-05 0 -0.044999718055414459 7.3662973456072976e-08 0 -0.044791439512947083 -4.4490298171676181e-05 0 -0.044608515810065558 0.00018723665535381307 0 -0.044177558853742735 0.00021890442076209223 0 -0.044791439512947083 -4.4490298171676181e-05 0 -0.044797976679314712 -0.00012804691260348249 0 -0.044578002611230336 -0.00021583483818660211 0 -0.044385901918387496 0.00036307705627467373 0 -0.043904096404010509 0.00076370802758892039 0 -0.043864150386871692 0.00065887736111600742 0 -0.042876462878246153 0.00038907037522430913 0 -0.043904096404010509 0.00076370802758892039 0 -0.043864150386871692 0.00065887736111600742 0 -0.042876462878246153 0.00038907037522430913 0 -0.043864150386871692 0.00065887736111600742 0 -0.042998660245237796 -0.00016904607741176714 0 -0.044848347696278441 -0.00024240993646191988 0 -0.044578002611230336 -0.00021583483818660211 0 -0.044601446352414732 -0.00039739288881148783 0 -0.044848347696278441 -0.00024240993646191988 0 -0.044797976679314712 -0.00012804691260348249 0 -0.044578002611230336 -0.00021583483818660211 0 -0.044848347696278441 -0.00024240993646191988 0 -0.044742904275136816 -0.0005444428020661287 0 -0.044601446352414732 -0.00039739288881148783 0 -0.044578002611230336 -0.00021583483818660211 0 -0.044601446352414732 -0.00039739288881148783 0 -0.04435724262567755 -0.000520997556057943 0 -0.044177558853742735 0.00021890442076209223 0 -0.044036461542754972 -0.00034648550201616551 0 -0.044601446352414732 -0.00039739288881148783 0 -0.04435724262567755 -0.000520997556057943 0 -0.044489242215633489 -0.00073909371041097085 0 -0.044036461542754972 -0.00034648550201616551 0 -0.040513219545267341 -0.00058773147887483971 0 -0.04435724262567755 -0.000520997556057943 0 -0.044489242215633489 -0.00073909371041097085 0 -0.044145255477939883 -0.0009457867626323801 0 -0.041854288976203122 0.00025609673576275187 0 -0.041173527615283791 -0.00019809844008691002 0 -0.038692695737842502 0.00087888446987318878 0 -0.037883703626052659 0.00035819091186563127 0 -0.038539174474725116 0.00029009013269510735 0 -0.044742904275136816 -0.0005444428020661287 0 -0.044601446352414732 -0.00039739288881148783 0 -0.044489242215633489 -0.00073909371041097085 0 -0.038685736129493956 -0.00025969381702163749 0 -0.038539174474725116 0.00029009013269510735 0 -0.037999408982335496 -0.00032814737896661735 0 -0.037883703626052659 0.00035819091186563127 0 -0.038539174474725116 0.00029009013269510735 0 -0.037999408982335496 -0.00032814737896661735 0 -0.037842247444126391 -0.00052457928081615121 0 -0.033990047266187789 -0.00053186022699376991 0 -0.037999408982335496 -0.00032814737896661735 0 -0.038273649414197738 -0.0010876176560324739 0 -0.0375139813515422 -0.0011172200353681513 0 -0.033990047266187789 -0.00053186022699376991 0 -0.034653454081394364 -0.00022130342921216286 0 -0.038685736129493956 -0.00025969381702163749 0 -0.037999408982335496 -0.00032814737896661735 0 -0.038273649414197738 -0.0010876176560324739 0 -0.037999408982335496 -0.00032814737896661735 0 -0.0375139813515422 -0.0011172200353681513 0 -0.037077661358136831 -0.0001640206191350159 0 -0.041173527615283791 -0.00019809844008691002 0 -0.040513219545267341 -0.00058773147887483971 0 -0.037883703626052659 0.00035819091186563127 0 -0.037999408982335496 -0.00032814737896661735 0 -0.037077661358136831 -0.0001640206191350159 0 -0.042342100786855928 -0.0011277144095021285 0 -0.041396970457363028 -0.001605374705193273 0 -0.041537110526709144 -0.00084197491687048286 0 -0.040513219545267341 -0.00058773147887483971 0 -0.039361229939846046 -0.00084839030440391004 0 -0.037962313749216131 0.00059266431137268991 0 -0.037405909707248886 -0.0011280470892697765 0 -0.036582280106211965 -0.00031383412028829872 0 -0.0375139813515422 -0.0011172200353681513 0 -0.037077661358136831 -0.0001640206191350159 0 -0.036741839869306181 -0.0011474124757164064 0 -0.034653454081394364 -0.00022130342921216286 0 -0.033788439226399097 -0.00015761313362157691 0 -0.040513219545267341 -0.00058773147887483971 0 -0.033788439226399097 -0.00015761313362157691 0 -0.041396970457363028 -0.001605374705193273 0 -0.040607966741397231 -0.00087570115394162485 0 -0.040259904483734982 -0.0021760528377862839 0 -0.039361229939846046 -0.00084839030440391004 0 -0.034622138380119086 -0.00071525120328246679 0 -0.037405909707248886 -0.0011280470892697765 0 -0.036582280106211965 -0.00031383412028829872 0 -0.035212799667143885 -0.0012221936513559849 0 -0.033788439226399097 -0.00015761313362157691 0 -0.034622138380119086 -0.00071525120328246679 0 -0.041396970457363028 -0.001605374705193273 0 -0.041537110526709144 -0.00084197491687048286 0 -0.040607966741397231 -0.00087570115394162485 0 -0.041537110526709144 -0.00084197491687048286 0 -0.041076612500058826 -0.00024520387616363827 0 -0.040607966741397231 -0.00087570115394162485 0 -0.041537110526709144 -0.00084197491687048286 0 -0.041076612500058826 -0.00024520387616363827 0 -0.042027929676216672 -0.00026627306937206905 0 -0.042342100786855928 -0.0011277144095021285 0 -0.041537110526709144 -0.00084197491687048286 0 -0.042027929676216672 -0.00026627306937206905 0 -0.042998660245237796 -0.00016904607741176714 0 -0.042342100786855928 -0.0011277144095021285 0 -0.042027929676216672 -0.00026627306937206905 0 -0.042876462878246153 0.00038907037522430913 0 -0.042027929676216672 -0.00026627306937206905 0 -0.041275524597269082 0.00035796590184717161 0 -0.042876462878246153 0.00038907037522430913 0 -0.042998660245237796 -0.00016904607741176714 0 -0.042027929676216672 -0.00026627306937206905 0 -0.041076612500058826 -0.00024520387616363827 0 -0.042027929676216672 -0.00026627306937206905 0 -0.041275524597269082 0.00035796590184717161 0 -0.041076612500058826 -0.00024520387616363827 0 -0.041275524597269082 0.00035796590184717161 0 -0.040201354422589 0.00025992398802273623 0 -0.040201354422589 0.00025992398802273623 0 -0.039834696598689906 0.00045737004254106975 0 -0.039263437253943011 0.00010376673047333537 0 -0.040201354422589 0.00025992398802273623 0 -0.039263437253943011 0.00010376673047333537 0 -0.04008876171903001 -0.00027234271972432649 0 -0.039263437253943011 0.00010376673047333537 0 -0.04008876171903001 -0.00027234271972432649 0 -0.039307683248093278 -0.00080525949194388765 0 -0.041076612500058826 -0.00024520387616363827 0 -0.040201354422589 0.00025992398802273623 0 -0.04008876171903001 -0.00027234271972432649 0 -0.041076612500058826 -0.00024520387616363827 0 -0.04008876171903001 -0.00027234271972432649 0 -0.040607966741397231 -0.00087570115394162485 0 -0.04008876171903001 -0.00027234271972432649 0 -0.040607966741397231 -0.00087570115394162485 0 -0.039307683248093278 -0.00080525949194388765 0 -0.040607966741397231 -0.00087570115394162485 0 -0.040259904483734982 -0.0021760528377862839 0 -0.039307683248093278 -0.00080525949194388765 0 -0.040259904483734982 -0.0021760528377862839 0 -0.039307683248093278 -0.00080525949194388765 0 -0.038007384709218266 -0.0019082344354027457 0 -0.039307683248093278 -0.00080525949194388765 0 -0.037474476631696133 -0.00018802313412965991 0 -0.038007384709218266 -0.0019082344354027457 0 -0.039263437253943011 0.00010376673047333537 0 -0.039307683248093278 -0.00080525949194388765 0 -0.037474476631696133 -0.00018802313412965991 0 -0.037474476631696133 -0.00018802313412965991 0 -0.033764323888219733 -0.00016998984973892257 0 -0.038007384709218266 -0.0019082344354027457 0 -0.037474476631696133 -0.00018802313412965991 0 -0.035757602228191833 -6.9152703021640821e-07 0 -0.033764323888219733 -0.00016998984973892257 0 -0.037474476631696133 -0.00018802313412965991 0 -0.035757602228191833 -6.9152703021640821e-07 0 -0.038827069879864513 0.00026388571727142726 0 -0.039776658734438933 4.9544504102835534e-07 0 -0.035757602228191833 -6.9152703021640821e-07 0 -0.038827069879864513 0.00026388571727142726 0 -0.039263437253943011 0.00010376673047333537 0 -0.037474476631696133 -0.00018802313412965991 0 -0.038827069879864513 0.00026388571727142726 0 -0.04099266324044834 -8.3293660325233017e-07 0 -0.039834696598689906 0.00045737004254106975 0 -0.038827069879864513 0.00026388571727142726 0 -0.039834696598689906 0.00045737004254106975 0 -0.039263437253943011 0.00010376673047333537 0 -0.038827069879864513 0.00026388571727142726 0 -0.028822900154103825 -2.9049701044639921e-06 0 -0.025871111270203657 -0.00096572828590684617 0 -0.026458818702311513 -2.4716399964703916e-05 0 -0.028826541560226609 -2.8854766708696861e-07 0 -0.027941651663644422 -0.0005316970391501558 0 -0.02883186833932504 -4.4917467740028815e-07 0 -0.030013791188940323 -0.00024759392587670722 0 -0.029841633120260502 0.00011074563184279022 0 -0.030013791188940323 -0.00024759392587670722 0 -0.029841633120260502 0.00011074563184279022 0 -0.030114663150264943 1.2924314975681256e-05 0 -0.029841633120260502 0.00011074563184279022 0 -0.029891697483560808 0.00012254623675250488 0 -0.030114663150264943 1.2924314975681256e-05 0 -0.02883186833932504 -4.4917467740028815e-07 0 -0.030287282378932457 3.8052495654251661e-07 0 -0.029841633120260502 0.00011074563184279022 0 -0.030292639103712986 4.7020544761945776e-08 0 -0.031294963033820074 0.00018141621045706009 0 -0.030287282378932457 3.8052495654251661e-07 0 -0.029841633120260502 0.00011074563184279022 0 -0.029891697483560808 0.00012254623675250488 0 -0.035757602228191833 -6.9152703021640821e-07 0 -0.03029650738271816 -1.8186716687062609e-06 0 -0.033764323888219733 -0.00016998984973892257 0 -0.03029650738271816 -1.8186716687062609e-06 0 -0.033764323888219733 -0.00016998984973892257 0 -0.032498988191916364 5.6801534357008132e-05 0 -0.033794758482096315 -0.00035538545282734208 0 -0.035668231909422983 -0.0011061664991049249 0 -0.033764323888219733 -0.00016998984973892257 0 -0.032538870062924524 -0.00038415346211425971 0 -0.032498988191916364 5.6801534357008132e-05 0 -0.032538870062924524 -0.00038415346211425971 0 -0.032498988191916364 5.6801534357008132e-05 0 -0.032426229254078315 -0.00022080492814245014 0 -0.031294963033820074 0.00018141621045706009 0 -0.030828478171594849 1.0968637666426658e-05 0 -0.029891697483560808 0.00012254623675250488 0 -0.030226318706478537 0.00039301959872145852 0 -0.030114663150264943 1.2924314975681256e-05 0 -0.030226318706478537 0.00039301959872145852 0 -0.030536482909097464 5.50325841744301e-05 0 -0.030114663150264943 1.2924314975681256e-05 0 -0.032251794472760491 -0.00037217045612408892 0 -0.032538870062924524 -0.00038415346211425971 0 -0.032426229254078315 -0.00022080492814245014 0 -0.034622138380119086 -0.00071525120328246679 0 -0.035668231909422983 -0.0011061664991049249 0 -0.030592752869979235 0.00063534756401969236 0 -0.030226318706478537 0.00039301959872145852 0 -0.030688014612538301 0.00036441274078885403 0 -0.034622138380119086 -0.00071525120328246679 0 -0.030828478171594849 1.0968637666426658e-05 0 -0.030226318706478537 0.00039301959872145852 0 -0.030536482909097464 5.50325841744301e-05 0 -0.030688014612538301 0.00036441274078885403 0 -0.030536482909097464 5.50325841744301e-05 0 -0.030114663150264943 1.2924314975681256e-05 0 -0.030339064505275345 -0.00028401995658417601 0 -0.030013791188940323 -0.00024759392587670722 0 -0.030114663150264943 1.2924314975681256e-05 0 -0.030339064505275345 -0.00028401995658417601 0 -0.027941651663644422 -0.0005316970391501558 0 -0.027676062229719692 -0.00053586444220406454 0 -0.025871111270203657 -0.00096572828590684617 0 -0.024980991555390214 -0.00076570419909247631 0 -0.025388676151285049 -0.00036588780912123428 0 -0.030536482909097464 5.50325841744301e-05 0 -0.030339064505275345 -0.00028401995658417601 0 -0.030749731170031193 -0.00031870653020345632 0 -0.027676062229719692 -0.00053586444220406454 0 -0.027942956124772086 -0.00045042699451642811 0 -0.024980991555390214 -0.00076570419909247631 0 -0.024977949197083241 -0.00061785946993747393 0 -0.024954600517889908 -0.00061601284934281113 0 -0.024977949197083241 -0.00061785946993747393 0 -0.025113799624567744 -0.00060292711102386454 0 -0.025046022149683933 -0.00068657537969698591 0 -0.030749731170031193 -0.00031870653020345632 0 -0.031169028184799982 -0.00033543223149450644 0 -0.030957476864624373 2.7737879049097885e-05 0 -0.027942956124772086 -0.00045042699451642811 0 -0.027786177091617924 -0.00073141094895322529 0 -0.031169028184799982 -0.00033543223149450644 0 -0.030957476864624373 2.7737879049097885e-05 0 -0.031356300078013891 -2.2255395935480189e-06 0 -0.030536482909097464 5.50325841744301e-05 0 -0.030749731170031193 -0.00031870653020345632 0 -0.030957476864624373 2.7737879049097885e-05 0 -0.030957476864624373 2.7737879049097885e-05 0 -0.030688014612538301 0.00036441274078885403 0 -0.030991015812947244 0.00035489641683218959 0 -0.030536482909097464 5.50325841744301e-05 0 -0.030957476864624373 2.7737879049097885e-05 0 -0.030688014612538301 0.00036441274078885403 0 -0.031111237706120273 0.00065673972678668079 0 -0.030592752869979235 0.00063534756401969236 0 -0.030688014612538301 0.00036441274078885403 0 -0.031111237706120273 0.00065673972678668079 0 -0.030688014612538301 0.00036441274078885403 0 -0.030991015812947244 0.00035489641683218959 0 -0.031104636822654724 0.0006472394522715289 0 -0.030991015812947244 0.00035489641683218959 0 -0.031251943335194411 0.00043664558936010661 0 -0.031414276146370795 0.00066191137448235219 0 -0.031104636822654724 0.0006472394522715289 0 -0.031251943335194411 0.00043664558936010661 0 -0.033788439226399097 -0.00015761313362157691 0 -0.030997046499011326 0.00038868560452555613 0 -0.030957476864624373 2.7737879049097885e-05 0 -0.030991015812947244 0.00035489641683218959 0 -0.031189298556144242 0.00019508720187059794 0 -0.030957476864624373 2.7737879049097885e-05 0 -0.031189298556144242 0.00019508720187059794 0 -0.031356300078013891 -2.2255395935480189e-06 0 -0.030991015812947244 0.00035489641683218959 0 -0.031189298556144242 0.00019508720187059794 0 -0.031251943335194411 0.00043664558936010661 0 -0.030482315129074258 -0.00027325194036403373 0 -0.030750323001355138 -0.00041238420083312711 0 -0.031189298556144242 0.00019508720187059794 0 -0.031251943335194411 0.00043664558936010661 0 -0.031546115207238268 0.0003279854222209671 0 -0.031189298556144242 0.00019508720187059794 0 -0.031546115207238268 0.0003279854222209671 0 -0.031356300078013891 -2.2255395935480189e-06 0 -0.031414276146370795 0.00066191137448235219 0 -0.031251943335194411 0.00043664558936010661 0 -0.031546115207238268 0.0003279854222209671 0 -0.030083467875691022 -0.00038509413561397171 0 -0.029892238919342437 -0.00072924168858266056 0 -0.030253764221467888 -0.00073118034279712131 0 -0.033990047266187789 -0.00053186022699376991 0 -0.030482315129074258 -0.00027325194036403373 0 -0.031738096144171342 0.00067134932888855865 0 -0.031414276146370795 0.00066191137448235219 0 -0.031546115207238268 0.0003279854222209671 0 -0.029892238919342437 -0.00072924168858266056 0 -0.030032538275132532 -0.0010031876115014272 0 -0.029702646326692131 -0.0010762961879590169 0 -0.029892238919342437 -0.00072924168858266056 0 -0.030032538275132532 -0.0010031876115014272 0 -0.030253764221467888 -0.00073118034279712131 0 -0.030032538275132532 -0.0010031876115014272 0 -0.029702646326692131 -0.0010762961879590169 0 -0.030065358294300286 -0.0014312232219269849 0 -0.027786177091617924 -0.00073141094895322529 0 -0.030750323001355138 -0.00041238420083312711 0 -0.029517760002212685 -0.0014296515553307869 0 -0.029702646326692131 -0.0010762961879590169 0 -0.030065358294300286 -0.0014312232219269849 0 -0.027786177091617924 -0.00073141094895322529 0 -0.027243379096913246 -0.0012822712979807076 0 -0.02508616882824162 -0.00088678263590501638 0 -0.024679071100718292 -0.001012633805654413 0 -0.024977154629840747 -0.00078975280129137311 0 -0.024679071100718292 -0.001012633805654413 0 -0.024754132842270203 -0.00073782723123800187 0 -0.024977154629840747 -0.00078975280129137311 0 -0.024754132842270203 -0.00073782723123800187 0 -0.024850826446544492 -0.00046979411696088103 0 -0.024468477111045491 -0.00066188833840884393 0 -0.024679071100718292 -0.001012633805654413 0 -0.024754132842270203 -0.00073782723123800187 0 -0.024468477111045491 -0.00066188833840884393 0 -0.024754132842270203 -0.00073782723123800187 0 -0.024977154629840747 -0.00078975280129137311 0 -0.024850826446544492 -0.00046979411696088103 0 -0.024977154629840747 -0.00078975280129137311 0 -0.024983919246363617 -0.0006924663858052612 0 -0.024892227024514779 -0.00067368677853972135 0 -0.024977154629840747 -0.00078975280129137311 0 -0.024983919246363617 -0.0006924663858052612 0 -0.025046022149683933 -0.00068657537969698591 0 -0.024952631046945659 -0.00075222890558099937 0 -0.024955766519366384 -0.00058179789346183089 0 -0.024983919246363617 -0.0006924663858052612 0 -0.024994462623203824 -0.00063036168093706299 0 -0.024892227024514779 -0.00067368677853972135 0 -0.024983919246363617 -0.0006924663858052612 0 -0.024994462623203824 -0.00063036168093706299 0 -0.025046022149683933 -0.00068657537969698591 0 -0.024850826446544492 -0.00046979411696088103 0 -0.024640994063695239 -3.4922721863937497e-05 0 -0.024560351143713164 -0.00036428794944140666 0 -0.024955766519366384 -0.00058179789346183089 0 -0.023484862284732556 -0.00070670030495400128 0 -0.024994462623203824 -0.00063036168093706299 0 -0.024892227024514779 -0.00067368677853972135 0 -0.024802207239939086 -0.0005504416758732991 0 -0.024850826446544492 -0.00046979411696088103 0 -0.024468477111045491 -0.00066188833840884393 0 -0.024560351143713164 -0.00036428794944140666 0 -0.02401195179353717 -0.00061487425820919215 0 -0.023484862284732556 -0.00070670030495400128 0 -0.022179736767334805 -0.00053136803221723783 0 -0.022346342402082067 -7.9144923567640781e-05 0 -0.022728007115570506 -0.00027463320595914924 0 -0.022179736767334805 -0.00053136803221723783 0 -0.022346342402082067 -7.9144923567640781e-05 0 -0.021808886310397308 -0.00013824516742960691 0 -0.022346342402082067 -7.9144923567640781e-05 0 -0.022841558632811596 8.431214061641695e-05 0 -0.022247454928901483 0.0004144216924479237 0 -0.022346342402082067 -7.9144923567640781e-05 0 -0.021808886310397308 -0.00013824516742960691 0 -0.022247454928901483 0.0004144216924479237 0 -0.022841558632811596 8.431214061641695e-05 0 -0.023343210773404153 0.00026630956332858642 0 -0.02284549438971064 0.00054351486043248865 0 -0.022346342402082067 -7.9144923567640781e-05 0 -0.022841558632811596 8.431214061641695e-05 0 -0.022728007115570506 -0.00027463320595914924 0 -0.022841558632811596 8.431214061641695e-05 0 -0.022728007115570506 -0.00027463320595914924 0 -0.02321256755561113 -0.00019114461505469784 0 -0.023066209937439967 -0.00065742662145735142 0 -0.022179736767334805 -0.00053136803221723783 0 -0.022728007115570506 -0.00027463320595914924 0 -0.023066209937439967 -0.00065742662145735142 0 -0.022728007115570506 -0.00027463320595914924 0 -0.02321256755561113 -0.00019114461505469784 0 -0.023066209937439967 -0.00065742662145735142 0 -0.023628239688968149 -0.00035973566640063018 0 -0.02321256755561113 -0.00019114461505469784 0 -0.023628239688968149 -0.00035973566640063018 0 -0.02321256755561113 -0.00019114461505469784 0 -0.023712771108738328 -3.0482568925977117e-05 0 -0.02321256755561113 -0.00019114461505469784 0 -0.023343210773404153 0.00026630956332858642 0 -0.023712771108738328 -3.0482568925977117e-05 0 -0.022841558632811596 8.431214061641695e-05 0 -0.02321256755561113 -0.00019114461505469784 0 -0.023343210773404153 0.00026630956332858642 0 -0.023343210773404153 0.00026630956332858642 0 -0.023712771108738328 -3.0482568925977117e-05 0 -0.024316313336337773 0.00049529919313497561 0 -0.023712771108738328 -3.0482568925977117e-05 0 -0.024097496374642664 -0.00026721676244339783 0 -0.024316313336337773 0.00049529919313497561 0 -0.023628239688968149 -0.00035973566640063018 0 -0.023712771108738328 -3.0482568925977117e-05 0 -0.024097496374642664 -0.00026721676244339783 0 -0.024097496374642664 -0.00026721676244339783 0 -0.024027334258123804 -0.00066319511392963406 0 -0.02470381128312709 -9.7813079740934769e-05 0 -0.023628239688968149 -0.00035973566640063018 0 -0.024097496374642664 -0.00026721676244339783 0 -0.024027334258123804 -0.00066319511392963406 0 -0.02401195179353717 -0.00061487425820919215 0 -0.024508624427793859 -0.00064561050385053542 0 -0.024994462623203824 -0.00063036168093706299 0 -0.024998833317412612 -0.00067265258268358957 0 -0.025046022149683933 -0.00068657537969698591 0 -0.023066209937439967 -0.00065742662145735142 0 -0.023628239688968149 -0.00035973566640063018 0 -0.024027334258123804 -0.00066319511392963406 0 -0.027786177091617924 -0.00073141094895322529 0 -0.024825673497411535 -0.0010281522470942548 0 -0.02508616882824162 -0.00088678263590501638 0 -0.024977154629840747 -0.00078975280129137311 0 -0.025046022149683933 -0.00068657537969698591 0 -0.024998833317412612 -0.00067265258268358957 0 -0.025046022149683933 -0.00068657537969698591 0 -0.024954600517889908 -0.00061601284934281113 0 -0.024977949197083241 -0.00061785946993747393 0 -0.025046022149683933 -0.00068657537969698591 0 -0.024954600517889908 -0.00061601284934281113 0 -0.024508624427793859 -0.00064561050385053542 0 -0.02489841951521244 -0.00053322660023172785 0 -0.024980991555390214 -0.00076570419909247631 0 -0.024954600517889908 -0.00061601284934281113 0 -0.024947932148938631 -0.00048857295917824448 0 -0.024998833317412612 -0.00067265258268358957 0 -0.024954600517889908 -0.00061601284934281113 0 -0.024947932148938631 -0.00048857295917824448 0 -0.024947932148938631 -0.00048857295917824448 0 -0.025388676151285049 -0.00036588780912123428 0 -0.025045795650833577 -0.000106628609683378 0 -0.024980991555390214 -0.00076570419909247631 0 -0.024947932148938631 -0.00048857295917824448 0 -0.025388676151285049 -0.00036588780912123428 0 -0.025045795650833577 -0.000106628609683378 0 -0.02470381128312709 -9.7813079740934769e-05 0 -0.025124763681266531 0.00014619530818608733 0 -0.024947932148938631 -0.00048857295917824448 0 -0.025045795650833577 -0.000106628609683378 0 -0.02470381128312709 -9.7813079740934769e-05 0 -0.025388676151285049 -0.00036588780912123428 0 -0.025045795650833577 -0.000106628609683378 0 -0.025514663187994745 4.9931070440489474e-05 0 -0.024027334258123804 -0.00066319511392963406 0 -0.024947932148938631 -0.00048857295917824448 0 -0.02470381128312709 -9.7813079740934769e-05 0 -0.024097496374642664 -0.00026721676244339783 0 -0.02470381128312709 -9.7813079740934769e-05 0 -0.024316313336337773 0.00049529919313497561 0 -0.02470381128312709 -9.7813079740934769e-05 0 -0.02506292523038807 0.00016701964400739323 0 -0.024316313336337773 0.00049529919313497561 0 -0.023996053250737726 0.00022724177031841912 0 -0.023728647363072113 0.00046602568736188557 0 -0.02470381128312709 -9.7813079740934769e-05 0 -0.02506292523038807 0.00016701964400739323 0 -0.025124763681266531 0.00014619530818608733 0 -0.023996053250737726 0.00022724177031841912 0 -0.024351226434681315 6.2575358317648179e-05 0 -0.02506292523038807 0.00016701964400739323 0 -0.025124763681266531 0.00014619530818608733 0 -0.024425080341081734 3.8162148733380346e-05 0 -0.025124763681266531 0.00014619530818608733 0 -0.024425080341081734 3.8162148733380346e-05 0 -0.025440626861490588 0.0001345897666841833 0 -0.02291563821388375 0.0002543649684632364 0 -0.023162249808688223 0.00029132139213429345 0 -0.024425080341081734 3.8162148733380346e-05 0 -0.02291563821388375 0.0002543649684632364 0 -0.023162249808688223 0.00029132139213429345 0 -0.022970922181526684 0.00032834054684525521 0 -0.024598578238886705 -3.3030345618458275e-07 0 -0.024425080341081734 3.8162148733380346e-05 0 -0.022484162768609612 1.4211584288756235e-06 0 -0.023162249808688223 0.00029132139213429345 0 -0.024425080341081734 3.8162148733380346e-05 0 -0.022484162768609612 1.4211584288756235e-06 0 -0.024598578238886705 -3.3030345618458275e-07 0 -0.024425080341081734 3.8162148733380346e-05 0 -0.025440626861490588 0.0001345897666841833 0 -0.026713033126607576 1.1845455535133964e-06 0 -0.025440626861490588 0.0001345897666841833 0 -0.026458818702311513 -2.4716399964703916e-05 0 -0.024598578238886705 -3.3030345618458275e-07 0 -0.026713033126607576 1.1845455535133964e-06 0 -0.025440626861490588 0.0001345897666841833 0 -0.025440626861490588 0.0001345897666841833 0 -0.025514663187994745 4.9931070440489474e-05 0 -0.026458818702311513 -2.4716399964703916e-05 0 -0.025124763681266531 0.00014619530818608733 0 -0.025440626861490588 0.0001345897666841833 0 -0.025514663187994745 4.9931070440489474e-05 0 -0.025045795650833577 -0.000106628609683378 0 -0.025124763681266531 0.00014619530818608733 0 -0.025514663187994745 4.9931070440489474e-05 0 -0.025388676151285049 -0.00036588780912123428 0 -0.025514663187994745 4.9931070440489474e-05 0 -0.026458818702311513 -2.4716399964703916e-05 0 -0.025871111270203657 -0.00096572828590684617 0 -0.025388676151285049 -0.00036588780912123428 0 -0.026458818702311513 -2.4716399964703916e-05 0 -0.028822900154103825 -2.9049701044639921e-06 0 -0.026713033126607576 1.1845455535133964e-06 0 -0.026458818702311513 -2.4716399964703916e-05 0 -0.030080299712688382 -0.0021069827351438172 0 -0.03044995957621089 -0.0018135658236176947 0 -0.030176087479612129 -0.0016467172939129513 0 -0.030080299712688382 -0.0021069827351438172 0 -0.030176087479612129 -0.0016467172939129513 0 -0.029755119756135519 -0.0017382273917894934 0 -0.026170297310874238 -0.001718129216014279 0 -0.027004286782412602 -0.001388929618359407 0 -0.030080299712688382 -0.0021069827351438172 0 -0.029755119756135519 -0.0017382273917894934 0 -0.02964076001202889 -0.0021062546126111993 0 -0.022493240832507668 -0.0012829904516890667 0 -0.023220085905152555 -0.0012828932569936033 0 -0.022835392661721167 -0.00099172012321954587 0 -0.022493240832507668 -0.0012829904516890667 0 -0.022382706049651563 -0.00085026519783111163 0 -0.022835392661721167 -0.00099172012321954587 0 -0.022493240832507668 -0.0012829904516890667 0 -0.022033187692972359 -0.00096521542969054883 0 -0.022382706049651563 -0.00085026519783111163 0 -0.022493240832507668 -0.0012829904516890667 0 -0.021840877684578791 -0.0012394539320236691 0 -0.022033187692972359 -0.00096521542969054883 0 -0.030080299712688382 -0.0021069827351438172 0 -0.030510311339768548 -0.0021062402102578911 0 -0.03044995957621089 -0.0018135658236176947 0 -0.026170297310874238 -0.001718129216014279 0 -0.026193609039997439 -0.0016928615622836039 0 -0.021840877684578791 -0.0012394539320236691 0 -0.022033187692972359 -0.00096521542969054883 0 -0.02168725543684567 -0.0010053821024695936 0 -0.021438459601502761 -0.0011956230596798386 0 -0.021513102017834157 -0.0010065343623229367 0 -0.02168725543684567 -0.0010053821024695936 0 -0.021840877684578791 -0.0012394539320236691 0 -0.021438459601502761 -0.0011956230596798386 0 -0.02168725543684567 -0.0010053821024695936 0 -0.030510311339768548 -0.0021062402102578911 0 -0.030939639912741224 -0.0021066906364351642 0 -0.030748394319791608 -0.0018417652971149622 0 -0.026193609039997439 -0.0016928615622836039 0 -0.026253538827107712 -0.0014018071149650853 0 -0.02424956721243967 -0.0022508648804170374 0 -0.024038258620134905 -0.0012713550430303558 0 -0.023593127164821249 -0.0022059833582880935 0 -0.026253538827107712 -0.0014018071149650853 0 -0.021663370345925557 -0.0018431778466078022 0 -0.031087027138666758 -0.0018512115403655387 0 -0.030748394319791608 -0.0018417652971149622 0 -0.030845485129330691 -0.0015808857367744964 0 -0.031087027138666758 -0.0018512115403655387 0 -0.030939639912741224 -0.0021066906364351642 0 -0.030748394319791608 -0.0018417652971149622 0 -0.030510311339768548 -0.0021062402102578911 0 -0.030748394319791608 -0.0018417652971149622 0 -0.03044995957621089 -0.0018135658236176947 0 -0.030748394319791608 -0.0018417652971149622 0 -0.03044995957621089 -0.0018135658236176947 0 -0.030560793116003123 -0.0015679781678662112 0 -0.030560793116003123 -0.0015679781678662112 0 -0.030845485129330691 -0.0015808857367744964 0 -0.030685822218527826 -0.0013051668804692398 0 -0.031202382539681627 -0.0014080031486623872 0 -0.030845485129330691 -0.0015808857367744964 0 -0.030685822218527826 -0.0013051668804692398 0 -0.030748394319791608 -0.0018417652971149622 0 -0.030560793116003123 -0.0015679781678662112 0 -0.030845485129330691 -0.0015808857367744964 0 -0.031202382539681627 -0.0014080031486623872 0 -0.030860760269335888 -0.00097671442192655712 0 -0.030685822218527826 -0.0013051668804692398 0 -0.030560793116003123 -0.0015679781678662112 0 -0.030685822218527826 -0.0013051668804692398 0 -0.030239942317263343 -0.001299232006841371 0 -0.030417550415939455 -0.00099747061113219702 0 -0.030685822218527826 -0.0013051668804692398 0 -0.030239942317263343 -0.001299232006841371 0 -0.030560793116003123 -0.0015679781678662112 0 -0.030239942317263343 -0.001299232006841371 0 -0.030176087479612129 -0.0016467172939129513 0 -0.03044995957621089 -0.0018135658236176947 0 -0.030560793116003123 -0.0015679781678662112 0 -0.030176087479612129 -0.0016467172939129513 0 -0.030239942317263343 -0.001299232006841371 0 -0.030176087479612129 -0.0016467172939129513 0 -0.029873429041455943 -0.0013739072956242078 0 -0.030176087479612129 -0.0016467172939129513 0 -0.029873429041455943 -0.0013739072956242078 0 -0.029755119756135519 -0.0017382273917894934 0 -0.02999106810221935 -0.0010141531523443241 0 -0.030239942317263343 -0.001299232006841371 0 -0.029873429041455943 -0.0013739072956242078 0 -0.034203221363559459 -0.0014290838643431089 0 -0.03041738603950845 -0.0010178220135198463 0 -0.030989626935670832 -0.00036143362336523517 0 -0.031341038723263444 -0.00071155829052960888 0 -0.031028889740780517 -0.00082866243645246724 0 -0.030989626935670832 -0.00036143362336523517 0 -0.031453576523514375 -0.00034725449303648313 0 -0.031341038723263444 -0.00071155829052960888 0 -0.030989626935670832 -0.00036143362336523517 0 -0.031028889740780517 -0.00082866243645246724 0 -0.030685574327151126 -0.00083986742733042192 0 -0.031028889740780517 -0.00082866243645246724 0 -0.030685574327151126 -0.00083986742733042192 0 -0.030903966508853301 -0.0011531560436828479 0 -0.031341038723263444 -0.00071155829052960888 0 -0.031028889740780517 -0.00082866243645246724 0 -0.031224140319233675 -0.0010728195954065271 0 -0.031028889740780517 -0.00082866243645246724 0 -0.031224140319233675 -0.0010728195954065271 0 -0.030903966508853301 -0.0011531560436828479 0 -0.03041738603950845 -0.0010178220135198463 0 -0.030682058174322537 -0.0013766903865982641 0 -0.030534333228018271 -0.00037473037382968009 0 -0.030083467875691022 -0.00038509413561397171 0 -0.030253764221467888 -0.00073118034279712131 0 -0.030534333228018271 -0.00037473037382968009 0 -0.030685574327151126 -0.00083986742733042192 0 -0.030253764221467888 -0.00073118034279712131 0 -0.030534333228018271 -0.00037473037382968009 0 -0.030989626935670832 -0.00036143362336523517 0 -0.030685574327151126 -0.00083986742733042192 0 -0.030032538275132532 -0.0010031876115014272 0 -0.030253764221467888 -0.00073118034279712131 0 -0.030328252849899581 -0.0010679982845251922 0 -0.030685574327151126 -0.00083986742733042192 0 -0.030253764221467888 -0.00073118034279712131 0 -0.030328252849899581 -0.0010679982845251922 0 -0.030685574327151126 -0.00083986742733042192 0 -0.030328252849899581 -0.0010679982845251922 0 -0.030592634733619881 -0.001429795653026448 0 -0.030032538275132532 -0.0010031876115014272 0 -0.030065358294300286 -0.0014312232219269849 0 -0.030328252849899581 -0.0010679982845251922 0 -0.027243379096913246 -0.0012822712979807076 0 -0.02735707913644702 -0.0012600459711873332 0 -0.024679071100718292 -0.001012633805654413 0 -0.024002845614698221 -0.0011299589702357131 0 -0.024468477111045491 -0.00066188833840884393 0 -0.030065358294300286 -0.0014312232219269849 0 -0.030328252849899581 -0.0010679982845251922 0 -0.030592634733619881 -0.001429795653026448 0 -0.030685574327151126 -0.00083986742733042192 0 -0.030592634733619881 -0.001429795653026448 0 -0.030903966508853301 -0.0011531560436828479 0 -0.031224140319233675 -0.0010728195954065271 0 -0.030903966508853301 -0.0011531560436828479 0 -0.031108659703272291 -0.0014306713558550359 0 -0.030682058174322537 -0.0013766903865982641 0 -0.027004286782412602 -0.001388929618359407 0 -0.030592634733619881 -0.001429795653026448 0 -0.030903966508853301 -0.0011531560436828479 0 -0.031108659703272291 -0.0014306713558550359 0 -0.024002845614698221 -0.0011299589702357131 0 -0.023246287960907469 -0.0012014947495585168 0 -0.02358963852954216 -0.00087811789756107633 0 -0.02735707913644702 -0.0012600459711873332 0 -0.027004286782412602 -0.001388929618359407 0 -0.027004286782412602 -0.001388929618359407 0 -0.024461943502295937 -0.0013639705758484205 0 -0.023246287960907469 -0.0012014947495585168 0 -0.023281531823444553 -0.00093141589918014993 0 -0.02358963852954216 -0.00087811789756107633 0 -0.023220085905152555 -0.0012828932569936033 0 -0.023281531823444553 -0.00093141589918014993 0 -0.022835392661721167 -0.00099172012321954587 0 -0.022998658154558003 -0.00070613304864312215 0 -0.023281531823444553 -0.00093141589918014993 0 -0.022835392661721167 -0.00099172012321954587 0 -0.022998658154558003 -0.00070613304864312215 0 -0.023320744061945082 -0.00069951967671081879 0 -0.02315782137287831 -0.00045769546964691477 0 -0.023320744061945082 -0.00069951967671081879 0 -0.023547089115005589 -0.0005150534806159236 0 -0.02315782137287831 -0.00045769546964691477 0 -0.023320744061945082 -0.00069951967671081879 0 -0.023281531823444553 -0.00093141589918014993 0 -0.02358963852954216 -0.00087811789756107633 0 -0.022998658154558003 -0.00070613304864312215 0 -0.023320744061945082 -0.00069951967671081879 0 -0.023281531823444553 -0.00093141589918014993 0 -0.024002845614698221 -0.0011299589702357131 0 -0.02358963852954216 -0.00087811789756107633 0 -0.023939630891947606 -0.00061397358299017629 0 -0.02358963852954216 -0.00087811789756107633 0 -0.023547089115005589 -0.0005150534806159236 0 -0.023939630891947606 -0.00061397358299017629 0 -0.023320744061945082 -0.00069951967671081879 0 -0.02358963852954216 -0.00087811789756107633 0 -0.023547089115005589 -0.0005150534806159236 0 -0.023547089115005589 -0.0005150534806159236 0 -0.023754360275801956 -0.00018191546258873668 0 -0.023321541004800179 -8.5612251478216539e-05 0 -0.023547089115005589 -0.0005150534806159236 0 -0.023754360275801956 -0.00018191546258873668 0 -0.023939630891947606 -0.00061397358299017629 0 -0.023547089115005589 -0.0005150534806159236 0 -0.02315782137287831 -0.00045769546964691477 0 -0.023321541004800179 -8.5612251478216539e-05 0 -0.022940194888908284 -0.00018289130714810038 0 -0.02315782137287831 -0.00045769546964691477 0 -0.023321541004800179 -8.5612251478216539e-05 0 -0.022998658154558003 -0.00070613304864312215 0 -0.02315782137287831 -0.00045769546964691477 0 -0.022773055092338252 -0.00047316066157589192 0 -0.022940194888908284 -0.00018289130714810038 0 -0.02315782137287831 -0.00045769546964691477 0 -0.022773055092338252 -0.00047316066157589192 0 -0.024002845614698221 -0.0011299589702357131 0 -0.024468477111045491 -0.00066188833840884393 0 -0.023939630891947606 -0.00061397358299017629 0 -0.024468477111045491 -0.00066188833840884393 0 -0.023939630891947606 -0.00061397358299017629 0 -0.024221793956226218 -0.000294490951530982 0 -0.023754360275801956 -0.00018191546258873668 0 -0.023939630891947606 -0.00061397358299017629 0 -0.024221793956226218 -0.000294490951530982 0 -0.024640994063695239 -3.4922721863937497e-05 0 -0.024560351143713164 -0.00036428794944140666 0 -0.024221793956226218 -0.000294490951530982 0 -0.024468477111045491 -0.00066188833840884393 0 -0.024560351143713164 -0.00036428794944140666 0 -0.024221793956226218 -0.000294490951530982 0 -0.024640994063695239 -3.4922721863937497e-05 0 -0.024221793956226218 -0.000294490951530982 0 -0.023949517220244302 0.0002546988924010389 0 -0.022573883491036489 -0.0017973701965291315 0 -0.020701969312527692 -0.0011996299578942353 0 -0.021970897239162623 -0.00080205623848859529 0 -0.023484862284732556 -0.00070670030495400128 0 -0.02235082042842133 -0.00059729333449321713 0 -0.023484862284732556 -0.00070670030495400128 0 -0.02184201024704667 -0.00042802797093919779 0 -0.023754360275801956 -0.00018191546258873668 0 -0.024221793956226218 -0.000294490951530982 0 -0.023949517220244302 0.0002546988924010389 0 -0.020701969312527692 -0.0011996299578942353 0 -0.02009320479116215 -4.6248419885554313e-05 0 -0.021343250430997333 0.00022258979504976529 0 -0.020701969312527692 -0.0011996299578942353 0 -0.021970897239162623 -0.00080205623848859529 0 -0.021343250430997333 0.00022258979504976529 0 -0.021808886310397308 -0.00013824516742960691 0 -0.021343250430997333 0.00022258979504976529 0 -0.022247454928901483 0.0004144216924479237 0 -0.02184201024704667 -0.00042802797093919779 0 -0.021424549460814232 0.00016082449581471039 0 -0.02320582344617507 0.00029504898827247602 0 -0.023321541004800179 -8.5612251478216539e-05 0 -0.023487124444750925 0.00023602668501719015 0 -0.02320582344617507 0.00029504898827247602 0 -0.023046019810434117 0.00010802081732307216 0 -0.022853757061924915 0.00038621726157146453 0 -0.022940194888908284 -0.00018289130714810038 0 -0.023046019810434117 0.00010802081732307216 0 -0.023321541004800179 -8.5612251478216539e-05 0 -0.02320582344617507 0.00029504898827247602 0 -0.023046019810434117 0.00010802081732307216 0 -0.023321541004800179 -8.5612251478216539e-05 0 -0.023754360275801956 -0.00018191546258873668 0 -0.023321541004800179 -8.5612251478216539e-05 0 -0.023487124444750925 0.00023602668501719015 0 -0.023754360275801956 -0.00018191546258873668 0 -0.023949517220244302 0.0002546988924010389 0 -0.023487124444750925 0.00023602668501719015 0 -0.023949517220244302 0.0002546988924010389 0 -0.023487124444750925 0.00023602668501719015 0 -0.023157055637644249 0.00059962992313150577 0 -0.020701969312527692 -0.0011996299578942353 0 -0.018842427298273939 -0.00060812678065970361 0 -0.02009320479116215 -4.6248419885554313e-05 0 -0.02235082042842133 -0.00059729333449321713 0 -0.02106760389287651 0.00062761713507219683 0 -0.018842427298273939 -0.00060812678065970361 0 -0.019028439701742266 -0.0001595271601550771 0 -0.02009320479116215 -4.6248419885554313e-05 0 -0.02320582344617507 0.00029504898827247602 0 -0.023487124444750925 0.00023602668501719015 0 -0.023157055637644249 0.00059962992313150577 0 -0.02320582344617507 0.00029504898827247602 0 -0.023157055637644249 0.00059962992313150577 0 -0.022853757061924915 0.00038621726157146453 0 -0.023157055637644249 0.00059962992313150577 0 -0.022853757061924915 0.00038621726157146453 0 -0.022366368307575643 0.00094443725089250188 0 -0.022519649316372747 0.00035707519890756836 0 -0.022853757061924915 0.00038621726157146453 0 -0.022366368307575643 0.00094443725089250188 0 -0.02106760389287651 0.00062761713507219683 0 -0.021776636117602666 0.0011974316874035563 0 -0.022519649316372747 0.00035707519890756836 0 -0.022184227256786575 0.00045839415141175053 0 -0.022366368307575643 0.00094443725089250188 0 -0.021680073166048908 0.0006657653804950154 0 -0.021563699934442973 0.00093663318649931618 0 -0.022366368307575643 0.00094443725089250188 0 -0.022184227256786575 0.00045839415141175053 0 -0.022155609815867082 4.9011801585524955e-05 0 -0.021680073166048908 0.0006657653804950154 0 -0.022184227256786575 0.00045839415141175053 0 -0.021680073166048908 0.0006657653804950154 0 -0.022366368307575643 0.00094443725089250188 0 -0.022519649316372747 0.00035707519890756836 0 -0.022184227256786575 0.00045839415141175053 0 -0.022155609815867082 4.9011801585524955e-05 0 -0.022155609815867082 4.9011801585524955e-05 0 -0.022705091187550895 6.8585976549364412e-05 0 -0.022569251895438153 -0.00022119882851471702 0 -0.022519649316372747 0.00035707519890756836 0 -0.022155609815867082 4.9011801585524955e-05 0 -0.022705091187550895 6.8585976549364412e-05 0 -0.022519649316372747 0.00035707519890756836 0 -0.022853757061924915 0.00038621726157146453 0 -0.022705091187550895 6.8585976549364412e-05 0 -0.023046019810434117 0.00010802081732307216 0 -0.022853757061924915 0.00038621726157146453 0 -0.022705091187550895 6.8585976549364412e-05 0 -0.022940194888908284 -0.00018289130714810038 0 -0.023046019810434117 0.00010802081732307216 0 -0.022705091187550895 6.8585976549364412e-05 0 -0.022940194888908284 -0.00018289130714810038 0 -0.022705091187550895 6.8585976549364412e-05 0 -0.022569251895438153 -0.00022119882851471702 0 -0.022940194888908284 -0.00018289130714810038 0 -0.022773055092338252 -0.00047316066157589192 0 -0.022569251895438153 -0.00022119882851471702 0 -0.022773055092338252 -0.00047316066157589192 0 -0.022456514105146569 -0.00052963206808162176 0 -0.022569251895438153 -0.00022119882851471702 0 -0.022773055092338252 -0.00047316066157589192 0 -0.022456514105146569 -0.00052963206808162176 0 -0.022667445059943777 -0.00071598749653067309 0 -0.022155609815867082 4.9011801585524955e-05 0 -0.022569251895438153 -0.00022119882851471702 0 -0.022240322782489608 -0.00031022828367308135 0 -0.022456514105146569 -0.00052963206808162176 0 -0.022569251895438153 -0.00022119882851471702 0 -0.022240322782489608 -0.00031022828367308135 0 -0.022155609815867082 4.9011801585524955e-05 0 -0.022240322782489608 -0.00031022828367308135 0 -0.021891551866915011 -0.00031707043917494958 0 -0.022240322782489608 -0.00031022828367308135 0 -0.022118382172865988 -0.00060005440929448311 0 -0.021891551866915011 -0.00031707043917494958 0 -0.022456514105146569 -0.00052963206808162176 0 -0.022240322782489608 -0.00031022828367308135 0 -0.022118382172865988 -0.00060005440929448311 0 -0.022456514105146569 -0.00052963206808162176 0 -0.022118382172865988 -0.00060005440929448311 0 -0.022382706049651563 -0.00085026519783111163 0 -0.022118382172865988 -0.00060005440929448311 0 -0.022033187692972359 -0.00096521542969054883 0 -0.022382706049651563 -0.00085026519783111163 0 -0.022382706049651563 -0.00085026519783111163 0 -0.022835392661721167 -0.00099172012321954587 0 -0.022667445059943777 -0.00071598749653067309 0 -0.022998658154558003 -0.00070613304864312215 0 -0.022835392661721167 -0.00099172012321954587 0 -0.022667445059943777 -0.00071598749653067309 0 -0.022998658154558003 -0.00070613304864312215 0 -0.022773055092338252 -0.00047316066157589192 0 -0.022667445059943777 -0.00071598749653067309 0 -0.022456514105146569 -0.00052963206808162176 0 -0.022382706049651563 -0.00085026519783111163 0 -0.022667445059943777 -0.00071598749653067309 0 -0.020016651287421441 -0.0021676921983240015 0 -0.019977205065369999 -0.0020687212941960307 0 -0.020652367081658542 -0.0011982716038218711 0 -0.019675248688395208 -0.0018705103993933889 0 -0.019977205065369999 -0.0020687212941960307 0 -0.019964564641817353 -0.0011357244329126158 0 -0.021585759110294613 -0.00077960512425482176 0 -0.021320639989968648 -0.00098432533159040214 0 -0.021525023112380269 -0.00045389915928345477 0 -0.021663370345925557 -0.0018431778466078022 0 -0.021023811532545084 -0.00082318511271382117 0 -0.022260727878759434 -0.0017811956785558397 0 -0.021663370345925557 -0.0018431778466078022 0 -0.019643803945858879 -0.0021340487712487493 0 -0.020016651287421441 -0.0021676921983240015 0 -0.019977205065369999 -0.0020687212941960307 0 -0.019643803945858879 -0.0021340487712487493 0 -0.019675248688395208 -0.0018705103993933889 0 -0.019977205065369999 -0.0020687212941960307 0 -0.021585759110294613 -0.00077960512425482176 0 -0.021320639989968648 -0.00098432533159040214 0 -0.02168725543684567 -0.0010053821024695936 0 -0.021663370345925557 -0.0018431778466078022 0 -0.021559835499229549 -0.0012252325739027154 0 -0.021585759110294613 -0.00077960512425482176 0 -0.02168725543684567 -0.0010053821024695936 0 -0.021798544495992438 -0.00068253991961075031 0 -0.022033187692972359 -0.00096521542969054883 0 -0.02168725543684567 -0.0010053821024695936 0 -0.021798544495992438 -0.00068253991961075031 0 -0.022118382172865988 -0.00060005440929448311 0 -0.022033187692972359 -0.00096521542969054883 0 -0.021798544495992438 -0.00068253991961075031 0 -0.021585759110294613 -0.00077960512425482176 0 -0.021798544495992438 -0.00068253991961075031 0 -0.021525023112380269 -0.00045389915928345477 0 -0.021023811532545084 -0.00082318511271382117 0 -0.021418808431699372 -5.4172693797644921e-05 0 -0.021798544495992438 -0.00068253991961075031 0 -0.021891551866915011 -0.00031707043917494958 0 -0.021525023112380269 -0.00045389915928345477 0 -0.021891551866915011 -0.00031707043917494958 0 -0.021525023112380269 -0.00045389915928345477 0 -0.021649672725818209 7.8119139718565333e-05 0 -0.022118382172865988 -0.00060005440929448311 0 -0.021798544495992438 -0.00068253991961075031 0 -0.021891551866915011 -0.00031707043917494958 0 -0.020373370714572195 -0.00082864573012045696 0 -0.020652367081658542 -0.0011982716038218711 0 -0.021167342901004357 -0.00025421865322299399 0 -0.019998670317194888 -0.0019999018032250634 0 -0.020132049480433855 -0.0010490703573797257 0 -0.019675248688395208 -0.0018705103993933889 0 -0.019578218202116689 -0.0013745934037210773 0 -0.019964564641817353 -0.0011357244329126158 0 -0.019977205065369999 -0.0020687212941960307 0 -0.020373370714572195 -0.00082864573012045696 0 -0.020652367081658542 -0.0011982716038218711 0 -0.019578218202116689 -0.0013745934037210773 0 -0.01959194119271369 -0.0010587374834468808 0 -0.019964564641817353 -0.0011357244329126158 0 -0.020132049480433855 -0.0010490703573797257 0 -0.020574786411690721 0.00014440564254782347 0 -0.019608558196894457 -0.00068495307533545833 0 -0.019964564641817353 -0.0011357244329126158 0 -0.01998338989144486 -0.00034603906078138191 0 -0.020373370714572195 -0.00082864573012045696 0 -0.021167342901004357 -0.00025421865322299399 0 -0.020644169702993532 0.00037548776268924431 0 -0.01959194119271369 -0.0010587374834468808 0 -0.019608558196894457 -0.00068495307533545833 0 -0.019964564641817353 -0.0011357244329126158 0 -0.022155609815867082 4.9011801585524955e-05 0 -0.021649672725818209 7.8119139718565333e-05 0 -0.021680073166048908 0.0006657653804950154 0 -0.022155609815867082 4.9011801585524955e-05 0 -0.021891551866915011 -0.00031707043917494958 0 -0.021649672725818209 7.8119139718565333e-05 0 -0.021167342901004357 -0.00025421865322299399 0 -0.021059719028833752 0.00079237419960609444 0 -0.020644169702993532 0.00037548776268924431 0 -0.021418808431699372 -5.4172693797644921e-05 0 -0.021674252177546403 0.00060792545426140751 0 -0.021167342901004357 -0.00025421865322299399 0 -0.021059719028833752 0.00079237419960609444 0 -0.021680073166048908 0.0006657653804950154 0 -0.021059719028833752 0.00079237419960609444 0 -0.020644169702993532 0.00037548776268924431 0 -0.020883598547983218 0.0014162210155460825 0 -0.021059719028833752 0.00079237419960609444 0 -0.021680073166048908 0.0006657653804950154 0 -0.021563699934442973 0.00093663318649931618 0 -0.019608558196894457 -0.00068495307533545833 0 -0.019610377187209489 -0.00027051837624626713 0 -0.01998338989144486 -0.00034603906078138191 0 -0.019610377187209489 -0.00027051837624626713 0 -0.01998338989144486 -0.00034603906078138191 0 -0.019637860265355134 0.00010401413288717191 0 -0.01998338989144486 -0.00034603906078138191 0 -0.019637860265355134 0.00010401413288717191 0 -0.02003703589161111 0.00037436186366753655 0 -0.020574786411690721 0.00014440564254782347 0 -0.01783298583169626 0.00045287093500694016 0 -0.014678954021193766 0.00011515263552153381 0 -0.01783298583169626 0.00045287093500694016 0 -0.010244739041642428 0.00051545593832151744 0 -0.010121603991681254 0.00043476847940973569 0 -0.010211783459385526 0.0003954873181438564 0 -0.021059719028833752 0.00079237419960609444 0 -0.021563699934442973 0.00093663318649931618 0 -0.021101188791438668 0.001326765206737434 0 -0.021059719028833752 0.00079237419960609444 0 -0.020883598547983218 0.0014162210155460825 0 -0.021101188791438668 0.001326765206737434 0 -0.01783298583169626 0.00045287093500694016 0 -0.019387384227953844 0.0012529038195332211 0 -0.020883598547983218 0.0014162210155460825 0 -0.021010270948058744 0.0013655795584127388 0 -0.021101188791438668 0.001326765206737434 0 -0.021010270948058744 0.0013655795584127388 0 -0.021101188791438668 0.001326765206737434 0 -0.021033026175318291 0.0013314389822387904 0 -0.021101188791438668 0.001326765206737434 0 -0.021033026175318291 0.0013314389822387904 0 -0.020988058875921405 0.0013199987236081246 0 -0.021033026175318291 0.0013314389822387904 0 -0.020988058875921405 0.0013199987236081246 0 -0.020996230628214926 0.0013190214525762528 0 -0.01783298583169626 0.00045287093500694016 0 -0.015074104893954823 0.00073662622612748706 0 -0.021037261051250537 0.0013786728862797556 0 -0.020967039289307089 0.0012693160184793935 0 -0.020944916613731865 0.001186724083996583 0 -0.020988058875921405 0.0013199987236081246 0 -0.02095465217453258 0.0012889224222468983 0 -0.020996230628214926 0.0013190214525762528 0 -0.02095465217453258 0.0012889224222468983 0 -0.020996230628214926 0.0013190214525762528 0 -0.020967039289307089 0.0012693160184793935 0 -0.021010270948058744 0.0013655795584127388 0 -0.020996230628214926 0.0013190214525762528 0 -0.020967039289307089 0.0012693160184793935 0 -0.021037261051250537 0.0013786728862797556 0 -0.021010270948058744 0.0013655795584127388 0 -0.020967039289307089 0.0012693160184793935 0 -0.021010270948058744 0.0013655795584127388 0 -0.021033026175318291 0.0013314389822387904 0 -0.020996230628214926 0.0013190214525762528 0 -0.02095465217453258 0.0012889224222468983 0 -0.020967039289307089 0.0012693160184793935 0 -0.020908108152075323 0.0012545879962782211 0 -0.010121603991681254 0.00043476847940973569 0 -0.010131763528962143 0.00030538629260852383 0 -0.010034249360681301 0.00013103496746814881 0 -0.010211783459385526 0.0003954873181438564 0 -0.010157860035921611 0.00025742583441642439 0 -0.010232340459854673 0.00032259470844602162 0 -0.010211783459385526 0.0003954873181438564 0 -0.010131763528962143 0.00030538629260852383 0 -0.010157860035921611 0.00025742583441642439 0 -0.010121603991681254 0.00043476847940973569 0 -0.010211783459385526 0.0003954873181438564 0 -0.010131763528962143 0.00030538629260852383 0 -0.010157860035921611 0.00025742583441642439 0 -0.010232340459854673 0.00032259470844602162 0 -0.010195531002303389 0.00017891279930582941 0 -0.010157860035921611 0.00025742583441642439 0 -0.010124627759793076 0.00015048690590233665 0 -0.010195531002303389 0.00017891279930582941 0 -0.010131763528962143 0.00030538629260852383 0 -0.010157860035921611 0.00025742583441642439 0 -0.010034249360681301 0.00013103496746814881 0 -0.010124627759793076 0.00015048690590233665 0 -0.010105604754817055 3.2304064304884491e-05 0 -0.010195531002303389 0.00017891279930582941 0 -0.010105604754817055 3.2304064304884491e-05 0 -0.010195531002303389 0.00017891279930582941 0 -0.010194666803018441 8.6924751668431376e-06 0 -0.010124627759793076 0.00015048690590233665 0 -0.010034249360681301 0.00013103496746814881 0 -0.010105604754817055 3.2304064304884491e-05 0 -0.010157860035921611 0.00025742583441642439 0 -0.010124627759793076 0.00015048690590233665 0 -0.010034249360681301 0.00013103496746814881 0 -0.020967039289307089 0.0012693160184793935 0 -0.020907958376180522 0.001192376221668341 0 -0.020908108152075323 0.0012545879962782211 0 -0.020967039289307089 0.0012693160184793935 0 -0.020907958376180522 0.001192376221668341 0 -0.020944916613731865 0.001186724083996583 0 -0.020907958376180522 0.001192376221668341 0 -0.020870963455511045 0.0011801681382438117 0 -0.020848779870128512 0.0010789701098081065 0 -0.010034249360681301 0.00013103496746814881 0 -0.010105604754817055 3.2304064304884491e-05 0 -0.010024291332342096 -0.00015309339053597246 0 -0.020907958376180522 0.001192376221668341 0 -0.020944916613731865 0.001186724083996583 0 -0.020848779870128512 0.0010789701098081065 0 -0.015074104893954823 0.00073662622612748706 0 -0.016280251209661329 0.00040705112437175607 0 -0.010105048725529163 -9.5255880084822397e-05 0 -0.010105604754817055 3.2304064304884491e-05 0 -0.010024291332342096 -0.00015309339053597246 0 -0.010105048725529163 -9.5255880084822397e-05 0 -0.010105604754817055 3.2304064304884491e-05 0 -0.010194666803018441 8.6924751668431376e-06 0 -0.017318209590352986 0.002032626762749493 0 -0.016400702267014827 0.0016165364833560418 0 -0.01557004584236597 0.0023813188597343652 0 -0.016400702267014827 0.0016165364833560418 0 -0.016995324100854702 0.0011473056003236132 0 -0.015672140743842846 0.00098172357613486019 0 -0.017320841779129896 0.0020777618350385301 0 -0.016974465330466509 0.0022768513634940919 0 -0.017318209590352986 0.002032626762749493 0 -0.016400702267014827 0.0016165364833560418 0 -0.016995324100854702 0.0011473056003236132 0 -0.019713905288068979 0.0015382429970123154 0 -0.016280251209661329 0.00040705112437175607 0 -0.017728675005074572 0.0013202414925959063 0 -0.017337693269084953 0.0020387829667503198 0 -0.018479117039594397 0.00077119875433350393 0 -0.016995324100854702 0.0011473056003236132 0 -0.017728675005074572 0.0013202414925959063 0 -0.017419752561048538 0.0017081591457345621 0 -0.017728675005074572 0.0013202414925959063 0 -0.017419752561048538 0.0017081591457345621 0 -0.017337693269084953 0.0020387829667503198 0 -0.017318209590352986 0.002032626762749493 0 -0.017419752561048538 0.0017081591457345621 0 -0.017337693269084953 0.0020387829667503198 0 -0.017318209590352986 0.002032626762749493 0 -0.016995324100854702 0.0011473056003236132 0 -0.017419752561048538 0.0017081591457345621 0 -0.020907958376180522 0.001192376221668341 0 -0.020870963455511045 0.0011801681382438117 0 -0.020908108152075323 0.0012545879962782211 0 -0.017318209590352986 0.002032626762749493 0 -0.017337693269084953 0.0020387829667503198 0 -0.017825359310746688 0.0016721269942858025 0 -0.017337693269084953 0.0020387829667503198 0 -0.017825359310746688 0.0016721269942858025 0 -0.017826384133561732 0.00083723120125029163 0 -0.017318209590352986 0.002032626762749493 0 -0.017825359310746688 0.0016721269942858025 0 -0.018453483276592981 0.0021287317255157274 0 -0.017825359310746688 0.0016721269942858025 0 -0.017826384133561732 0.00083723120125029163 0 -0.018579748701979197 0.0013596918982362149 0 -0.019713905288068979 0.0015382429970123154 0 -0.019026307402685402 0.00110896850597161 0 -0.020870963455511045 0.0011801681382438117 0 -0.02080802440557598 0.0013061816211557124 0 -0.020908108152075323 0.0012545879962782211 0 -0.02080802440557598 0.0013061816211557124 0 -0.020908108152075323 0.0012545879962782211 0 -0.020909637052272331 0.0013045952223478734 0 -0.02095465217453258 0.0012889224222468983 0 -0.020908108152075323 0.0012545879962782211 0 -0.020909637052272331 0.0013045952223478734 0 -0.020988058875921405 0.0013199987236081246 0 -0.02095465217453258 0.0012889224222468983 0 -0.020909637052272331 0.0013045952223478734 0 -0.021563699934442973 0.00093663318649931618 0 -0.021101188791438668 0.001326765206737434 0 -0.022366368307575643 0.00094443725089250188 0 -0.02080802440557598 0.0013061816211557124 0 -0.020909637052272331 0.0013045952223478734 0 -0.020861973389178994 0.0014150625498767092 0 -0.021101188791438668 0.001326765206737434 0 -0.020988058875921405 0.0013199987236081246 0 -0.020861973389178994 0.0014150625498767092 0 -0.020988058875921405 0.0013199987236081246 0 -0.020909637052272331 0.0013045952223478734 0 -0.020861973389178994 0.0014150625498767092 0 -0.021067452984641664 0.0013263918527521312 0 -0.021776636117602666 0.0011974316874035563 0 -0.020723648274841786 0.0014466858756244036 0 -0.02080802440557598 0.0013061816211557124 0 -0.020861973389178994 0.0014150625498767092 0 -0.02106760389287651 0.00062761713507219683 0 -0.019026307402685402 0.00110896850597161 0 -0.018695368987079287 0.00049723736335854441 0 -0.019028439701742266 -0.0001595271601550771 0 -0.019172403362348194 0.00098021958598641786 0 -0.018842427298273939 -0.00060812678065970361 0 -0.017826384133561732 0.00083723120125029163 0 -0.018695368987079287 0.00049723736335854441 0 -0.018842427298273939 -0.00060812678065970361 0 -0.018695368987079287 0.00049723736335854441 0 -0.019028439701742266 -0.0001595271601550771 0 -0.018970298493821491 -0.0002039792091389665 0 -0.019729041317837287 0.0012191821099838246 0 -0.02009320479116215 -4.6248419885554313e-05 0 -0.019684068938618095 0.001081785828212269 0 -0.020644388312742672 0.00053423127095276969 0 -0.019028439701742266 -0.0001595271601550771 0 -0.02009320479116215 -4.6248419885554313e-05 0 -0.019684068938618095 0.001081785828212269 0 -0.019684068938618095 0.001081785828212269 0 -0.020852887334850422 0.0011417720736949287 0 -0.020128979211417909 0.0021206809602051374 0 -0.018695368987079287 0.00049723736335854441 0 -0.019172403362348194 0.00098021958598641786 0 -0.018579748701979197 0.0013596918982362149 0 -0.017826384133561732 0.00083723120125029163 0 -0.018695368987079287 0.00049723736335854441 0 -0.018579748701979197 0.0013596918982362149 0 -0.021343250430997333 0.00022258979504976529 0 -0.021768036271423909 0.0010021610175977552 0 -0.022247454928901483 0.0004144216924479237 0 -0.020644388312742672 0.00053423127095276969 0 -0.021343250430997333 0.00022258979504976529 0 -0.020852887334850422 0.0011417720736949287 0 -0.02009320479116215 -4.6248419885554313e-05 0 -0.020644388312742672 0.00053423127095276969 0 -0.021343250430997333 0.00022258979504976529 0 -0.019684068938618095 0.001081785828212269 0 -0.020644388312742672 0.00053423127095276969 0 -0.020852887334850422 0.0011417720736949287 0 -0.021343250430997333 0.00022258979504976529 0 -0.020852887334850422 0.0011417720736949287 0 -0.021768036271423909 0.0010021610175977552 0 -0.020852887334850422 0.0011417720736949287 0 -0.021768036271423909 0.0010021610175977552 0 -0.021512817549976065 0.0018197600483648331 0 -0.017307155943598055 0.00045901698482152188 0 -0.016864102614439446 0.0015450640548595848 0 -0.020852887334850422 0.0011417720736949287 0 -0.021512817549976065 0.0018197600483648331 0 -0.020128979211417909 0.0021206809602051374 0 -0.013269364606155232 -0.00069906469480652319 0 -0.01288378725091608 -0.00027270211051936665 0 -0.01326886931772223 -0.00025753723069974648 0 -0.013269364606155232 -0.00069906469480652319 0 -0.01288378725091608 -0.00027270211051936665 0 -0.012810681403438554 -0.00056941277671376648 0 -0.013269364606155232 -0.00069906469480652319 0 -0.01326886931772223 -0.00025753723069974648 0 -0.013686802829967766 -0.00041790411433336361 0 -0.017825359310746688 0.0016721269942858025 0 -0.018579748701979197 0.0013596918982362149 0 -0.018453483276592981 0.0021287317255157274 0 -0.018579748701979197 0.0013596918982362149 0 -0.018453483276592981 0.0021287317255157274 0 -0.019471955611435932 0.0020144697503937728 0 -0.019172403362348194 0.00098021958598641786 0 -0.018579748701979197 0.0013596918982362149 0 -0.019471955611435932 0.0020144697503937728 0 -0.016974465330466509 0.0022768513634940919 0 -0.016864102614439446 0.0015450640548595848 0 -0.019729041317837287 0.0012191821099838246 0 -0.016864102614439446 0.0015450640548595848 0 -0.01557004584236597 0.0023813188597343652 0 -0.01395772860104838 0.0025873558802191302 0 -0.014561370311523705 0.0015488739347125141 0 -0.013115602723663427 0.00024980072955245523 0 -0.016864102614439446 0.0015450640548595848 0 -0.013495491147419767 0.0013466360408307828 0 -0.01395772860104838 0.0025873558802191302 0 -0.014561370311523705 0.0015488739347125141 0 -0.01557004584236597 0.0023813188597343652 0 -0.014561370311523705 0.0015488739347125141 0 -0.015672140743842846 0.00098172357613486019 0 -0.016400702267014827 0.0016165364833560418 0 -0.01557004584236597 0.0023813188597343652 0 -0.015672140743842846 0.00098172357613486019 0 -0.015672140743842846 0.00098172357613486019 0 -0.015012513050441731 -0.00026298459824743473 0 -0.0168738072552433 -4.5516984209109525e-05 0 -0.015672140743842846 0.00098172357613486019 0 -0.014120364841726751 0.00044107581964106365 0 -0.015012513050441731 -0.00026298459824743473 0 -0.014561370311523705 0.0015488739347125141 0 -0.015672140743842846 0.00098172357613486019 0 -0.014120364841726751 0.00044107581964106365 0 -0.014120364841726751 0.00044107581964106365 0 -0.015012513050441731 -0.00026298459824743473 0 -0.013018787531384798 -0.0001832168061813276 0 -0.013495491147419767 0.0013466360408307828 0 -0.014120364841726751 0.00044107581964106365 0 -0.013040906548784603 8.40045578778682e-05 0 -0.013495491147419767 0.0013466360408307828 0 -0.014561370311523705 0.0015488739347125141 0 -0.014120364841726751 0.00044107581964106365 0 -0.012614610448865325 8.4618261558088714e-05 0 -0.012013156812909232 -0.00034068506812719396 0 -0.012140778900450505 0.00036935388689931701 0 -0.013486364362026205 -0.00027017869571973143 0 -0.013062623211799506 -0.00021554837786277973 0 -0.012614610448865325 8.4618261558088714e-05 0 -0.012013156812909232 -0.00034068506812719396 0 -0.013018787531384798 -0.0001832168061813276 0 -0.011583306475442675 1.6353636008853823e-05 0 -0.012013156812909232 -0.00034068506812719396 0 -0.012140778900450505 0.00036935388689931701 0 -0.011583306475442675 1.6353636008853823e-05 0 -0.012013156812909232 -0.00034068506812719396 0 -0.011134599795315524 -0.00031561309747630694 0 -0.01326886931772223 -0.00025753723069974648 0 -0.01322298516488607 2.7297846426461245e-05 0 -0.01310366465003319 -6.5869620436445942e-05 0 -0.01326886931772223 -0.00025753723069974648 0 -0.01322298516488607 2.7297846426461245e-05 0 -0.013549292443290731 -0.00012485107281881493 0 -0.01322298516488607 2.7297846426461245e-05 0 -0.013069733012417739 -3.2887536696274995e-06 0 -0.01310366465003319 -6.5869620436445942e-05 0 -0.01288378725091608 -0.00027270211051936665 0 -0.01326886931772223 -0.00025753723069974648 0 -0.01310366465003319 -6.5869620436445942e-05 0 -0.013115602723663427 0.00024980072955245523 0 -0.013086889978831786 0.00022402338625702927 0 -0.01288378725091608 -0.00027270211051936665 0 -0.01310366465003319 -6.5869620436445942e-05 0 -0.013040906548784603 8.40045578778682e-05 0 -0.013069733012417739 -3.2887536696274995e-06 0 -0.01310366465003319 -6.5869620436445942e-05 0 -0.013040906548784603 8.40045578778682e-05 0 -0.014120364841726751 0.00044107581964106365 0 -0.013040906548784603 8.40045578778682e-05 0 -0.013018787531384798 -0.0001832168061813276 0 -0.012614610448865325 8.4618261558088714e-05 0 -0.013018787531384798 -0.0001832168061813276 0 -0.012971565602600368 3.6882212571640083e-05 0 -0.012614610448865325 8.4618261558088714e-05 0 -0.012971565602600368 3.6882212571640083e-05 0 -0.013065335103924358 0.00019930749311965434 0 -0.012971565602600368 3.6882212571640083e-05 0 -0.013111610826673351 7.6259560195065008e-05 0 -0.013065335103924358 0.00019930749311965434 0 -0.013018787531384798 -0.0001832168061813276 0 -0.012971565602600368 3.6882212571640083e-05 0 -0.013111610826673351 7.6259560195065008e-05 0 -0.013069733012417739 -3.2887536696274995e-06 0 -0.013018787531384798 -0.0001832168061813276 0 -0.013111610826673351 7.6259560195065008e-05 0 -0.013069733012417739 -3.2887536696274995e-06 0 -0.013040906548784603 8.40045578778682e-05 0 -0.013018787531384798 -0.0001832168061813276 0 -0.01322298516488607 2.7297846426461245e-05 0 -0.013111610826673351 7.6259560195065008e-05 0 -0.013238739618644937 0.00029110621781509144 0 -0.013111610826673351 7.6259560195065008e-05 0 -0.013065335103924358 0.00019930749311965434 0 -0.013238739618644937 0.00029110621781509144 0 -0.01322298516488607 2.7297846426461245e-05 0 -0.013069733012417739 -3.2887536696274995e-06 0 -0.013111610826673351 7.6259560195065008e-05 0 -0.012533819402440825 0.00026073676935592984 0 -0.013190112403003381 0.00026594962037756071 0 -0.012228978592226936 0.0005565597936570667 0 -0.013238739618644937 0.00029110621781509144 0 -0.012928618882063101 0.00093428037023109459 0 -0.012228978592226936 0.0005565597936570667 0 -0.011984549321434855 0.00028576041224233036 0 -0.013238739618644937 0.00029110621781509144 0 -0.012228978592226936 0.0005565597936570667 0 -0.011984549321434855 0.00028576041224233036 0 -0.011775149998506441 0.0005895566241191744 0 -0.012228978592226936 0.0005565597936570667 0 -0.011775149998506441 0.0005895566241191744 0 -0.012012233089453032 0.00080397448755367023 0 -0.013187991811263462 0.0013627555473701188 0 -0.012928618882063101 0.00093428037023109459 0 -0.012321279398629956 0.0016819672578105784 0 -0.012228978592226936 0.0005565597936570667 0 -0.012928618882063101 0.00093428037023109459 0 -0.012321279398629956 0.0016819672578105784 0 -0.012211319964335427 0.00058301937482542661 0 -0.012178684518275367 0.0012185557253505546 0 -0.011583306475442675 1.6353636008853823e-05 0 -0.012140778900450505 0.00036935388689931701 0 -0.011124335069448325 0.00034062839214913895 0 -0.01180923120217062 0.00033400466543811856 0 -0.011176598636463194 0.00035606179414907221 0 -0.011499074234786485 0.00032533788188919999 0 -0.01134029154067044 0.0006617431202201959 0 -0.011124335069448325 0.00034062839214913895 0 -0.011984549321434855 0.00028576041224233036 0 -0.011499074234786485 0.00032533788188919999 0 -0.011775149998506441 0.0005895566241191744 0 -0.012614610448865325 8.4618261558088714e-05 0 -0.013065335103924358 0.00019930749311965434 0 -0.012140778900450505 0.00036935388689931701 0 -0.012533819402440825 0.00026073676935592984 0 -0.01180923120217062 0.00033400466543811856 0 -0.011775149998506441 0.0005895566241191744 0 -0.01134029154067044 0.0006617431202201959 0 -0.011630506400695786 0.00081908056842668736 0 -0.011499074234786485 0.00032533788188919999 0 -0.011775149998506441 0.0005895566241191744 0 -0.01134029154067044 0.0006617431202201959 0 -0.01134029154067044 0.0006617431202201959 0 -0.011124335069448325 0.00034062839214913895 0 -0.01096309219957229 0.00071922417702024576 0 -0.011124335069448325 0.00034062839214913895 0 -0.010606751198340158 0.00038630282434782686 0 -0.010662563010140578 4.1318124816436402e-05 0 -0.011124335069448325 0.00034062839214913895 0 -0.010606751198340158 0.00038630282434782686 0 -0.01096309219957229 0.00071922417702024576 0 -0.010606751198340158 0.00038630282434782686 0 -0.010516677774116724 0.0008101303407303794 0 -0.01096309219957229 0.00071922417702024576 0 -0.010070961031869843 0.00045200202619091409 0 -0.010606751198340158 0.00038630282434782686 0 -0.010516677774116724 0.0008101303407303794 0 -0.0043769449608770236 0.00012904606935208271 0 -0.0045293762004867391 4.9157250103782449e-05 0 -0.010070961031869843 0.00045200202619091409 0 -0.010138552642267141 0.00016115317023944451 0 -0.010381225358975331 0.00012266976920477789 0 -0.010070961031869843 0.00045200202619091409 0 -0.010138552642267141 0.00016115317023944451 0 -0.0099692750282879446 3.8461469601706754e-05 0 -0.010138552642267141 0.00016115317023944451 0 -0.010381225358975331 0.00012266976920477789 0 -0.010231642783437462 -5.6124961997490517e-05 0 -0.010606751198340158 0.00038630282434782686 0 -0.010381225358975331 0.00012266976920477789 0 -0.010662563010140578 4.1318124816436402e-05 0 -0.010070961031869843 0.00045200202619091409 0 -0.010606751198340158 0.00038630282434782686 0 -0.010381225358975331 0.00012266976920477789 0 -0.010397054645299574 -0.00011376853556331226 0 -0.010537284227544399 -0.00022114958081929562 0 -0.010662563010140578 4.1318124816436402e-05 0 -0.010381225358975331 0.00012266976920477789 0 -0.010397054645299574 -0.00011376853556331226 0 -0.010231642783437462 -5.6124961997490517e-05 0 -0.010381225358975331 0.00012266976920477789 0 -0.010397054645299574 -0.00011376853556331226 0 -0.010662563010140578 4.1318124816436402e-05 0 -0.010397054645299574 -0.00011376853556331226 0 -0.010370053997807377 -0.00028343111257048386 0 -0.010231642783437462 -5.6124961997490517e-05 0 -0.010397054645299574 -0.00011376853556331226 0 -0.010437981066688064 -0.00021032581449843655 0 -0.010537284227544399 -0.00022114958081929562 0 -0.010397054645299574 -0.00011376853556331226 0 -0.010370053997807377 -0.00028343111257048386 0 -0.010437981066688064 -0.00021032581449843655 0 -0.01144636891452473 0.0004986004215592468 0 -0.014055552485463713 0.00043425024952626603 0 -0.010370053997807377 -0.00028343111257048386 0 -0.010437981066688064 -0.00021032581449843655 0 -0.010532642047321326 -0.00027658177648775227 0 -0.014055552485463713 0.00043425024952626603 0 -0.01378398629317861 0.00018524604436258576 0 -0.010437981066688064 -0.00021032581449843655 0 -0.010532642047321326 -0.00027658177648775227 0 -0.010537284227544399 -0.00022114958081929562 0 -0.010138552642267141 0.00016115317023944451 0 -0.010104108260566673 -0.00010321817006169399 0 -0.0099692750282879446 3.8461469601706754e-05 0 -0.010138552642267141 0.00016115317023944451 0 -0.010231642783437462 -5.6124961997490517e-05 0 -0.010104108260566673 -0.00010321817006169399 0 -0.01144636891452473 0.0004986004215592468 0 -0.010640276273115421 0.00013017715095546469 0 -0.010231642783437462 -5.6124961997490517e-05 0 -0.010104108260566673 -0.00010321817006169399 0 -0.010143887451359176 -0.00019622260721613167 0 -0.010297548491939876 -0.00019172789406757907 0 -0.010231642783437462 -5.6124961997490517e-05 0 -0.010143887451359176 -0.00019622260721613167 0 -0.010104108260566673 -0.00010321817006169399 0 -0.010143887451359176 -0.00019622260721613167 0 -0.010071404604223618 -0.00025404204156139105 0 -0.010143887451359176 -0.00019622260721613167 0 -0.010110623357204172 -0.00018652840132661093 0 -0.010071404604223618 -0.00025404204156139105 0 -0.010096919858091547 -0.00016985039887853237 0 -0.010143887451359176 -0.00019622260721613167 0 -0.010110623357204172 -0.00018652840132661093 0 -0.010070527824128992 -0.00021194350819628768 0 -0.010096919858091547 -0.00016985039887853237 0 -0.010143887451359176 -0.00019622260721613167 0 -0.01144636891452473 0.0004986004215592468 0 -0.010147310516418571 0.000123729406765586 0 -0.010105048725529163 -9.5255880084822397e-05 0 -0.010096919858091547 -0.00016985039887853237 0 -0.010110623357204172 -0.00018652840132661093 0 -0.010105048725529163 -9.5255880084822397e-05 0 -0.010096919858091547 -0.00016985039887853237 0 -0.010024291332342096 -0.00015309339053597246 0 -0.010105048725529163 -9.5255880084822397e-05 0 -0.010110623357204172 -0.00018652840132661093 0 -0.010165222798649922 -0.00013548967014344297 0 -0.014055552485463713 0.00043425024952626603 0 -0.016280251209661329 0.00040705112437175607 0 -0.018385310855371772 0.00016237338497889783 0 -0.018151942891562415 0.00060993379532725469 0 -0.017703654159965689 0.00052705786483095494 0 -0.018385310855371772 0.00016237338497889783 0 -0.018151942891562415 0.00060993379532725469 0 -0.018479117039594397 0.00077119875433350393 0 -0.010070527824128992 -0.00021194350819628768 0 -0.010096919858091547 -0.00016985039887853237 0 -0.010024291332342096 -0.00015309339053597246 0 -0.01144636891452473 0.0004986004215592468 0 -0.016280251209661329 0.00040705112437175607 0 -0.013893881083405649 0.00054973437684547612 0 -0.014301002095917824 0.00056752164642618621 0 -0.014227335844218574 2.581313435377863e-05 0 -0.017728675005074572 0.0013202414925959063 0 -0.018479117039594397 0.00077119875433350393 0 -0.018013825490499468 0.00080654863022705092 0 -0.018151942891562415 0.00060993379532725469 0 -0.018479117039594397 0.00077119875433350393 0 -0.018013825490499468 0.00080654863022705092 0 -0.018385310855371772 0.00016237338497889783 0 -0.017703654159965689 0.00052705786483095494 0 -0.0168738072552433 -4.5516984209109525e-05 0 -0.016995324100854702 0.0011473056003236132 0 -0.017703654159965689 0.00052705786483095494 0 -0.0168738072552433 -4.5516984209109525e-05 0 -0.017728675005074572 0.0013202414925959063 0 -0.018013825490499468 0.00080654863022705092 0 -0.017703654159965689 0.00052705786483095494 0 -0.018151942891562415 0.00060993379532725469 0 -0.018013825490499468 0.00080654863022705092 0 -0.017703654159965689 0.00052705786483095494 0 -0.016995324100854702 0.0011473056003236132 0 -0.017728675005074572 0.0013202414925959063 0 -0.017703654159965689 0.00052705786483095494 0 -0.016995324100854702 0.0011473056003236132 0 -0.015672140743842846 0.00098172357613486019 0 -0.0168738072552433 -4.5516984209109525e-05 0 -0.013486364362026205 -0.00027017869571973143 0 -0.014084136858414606 -0.00023354411432943871 0 -0.011583306475442675 1.6353636008853823e-05 0 -0.011124335069448325 0.00034062839214913895 0 -0.011134599795315524 -0.00031561309747630694 0 -0.010537284227544399 -0.00022114958081929562 0 -0.011134599795315524 -0.00031561309747630694 0 -0.010662563010140578 4.1318124816436402e-05 0 -0.010531433521176413 -0.0002846379745958403 0 -0.010537284227544399 -0.00022114958081929562 0 -0.011134599795315524 -0.00031561309747630694 0 -0.011124335069448325 0.00034062839214913895 0 -0.011134599795315524 -0.00031561309747630694 0 -0.010662563010140578 4.1318124816436402e-05 0 -0.014055552485463713 0.00043425024952626603 0 -0.014084136858414606 -0.00023354411432943871 0 -0.017510826457940255 0.00014252187440746237 0 -0.01846539362566664 9.4601336465885178e-07 0 -0.016563286716764023 -7.0862287514773446e-08 0 -0.017510826457940255 0.00014252187440746237 0 -0.017158127323240537 0.00016530708790738711 0 -0.016563286716764023 -7.0862287514773446e-08 0 -0.017510826457940255 0.00014252187440746237 0 -0.017907710754790768 -9.1110012067164407e-05 0 -0.01846539362566664 9.4601336465885178e-07 0 -0.017204451412908089 6.8769107681557673e-05 0 -0.016640181726706848 -0.00022174672153754877 0 -0.016811846492643976 0.00019818051932924338 0 -0.017204451412908089 6.8769107681557673e-05 0 -0.017907710754790768 -9.1110012067164407e-05 0 -0.016640181726706848 -0.00022174672153754877 0 -0.017510826457940255 0.00014252187440746237 0 -0.017204451412908089 6.8769107681557673e-05 0 -0.017158127323240537 0.00016530708790738711 0 -0.017510826457940255 0.00014252187440746237 0 -0.017204451412908089 6.8769107681557673e-05 0 -0.017907710754790768 -9.1110012067164407e-05 0 -0.017907710754790768 -9.1110012067164407e-05 0 -0.017269548094767405 -0.0010605026679745507 0 -0.016640181726706848 -0.00022174672153754877 0 -0.017907710754790768 -9.1110012067164407e-05 0 -0.01846539362566664 9.4601336465885178e-07 0 -0.02036682151517135 -2.702244086178069e-06 0 -0.020374771908185013 -1.7523367182189118e-06 0 -0.022308455420455644 0.0002599917253962261 0 -0.022800384661039483 -0.00020116392793348902 0 -0.020370162783640275 -2.478289089478615e-07 0 -0.019965868855415448 -0.00055278852415330433 0 -0.017907710754790768 -9.1110012067164407e-05 0 -0.02036682151517135 -2.702244086178069e-06 0 -0.017269548094767405 -0.0010605026679745507 0 -0.020374771908185013 -1.7523367182189118e-06 0 -0.022308455420455644 0.0002599917253962261 0 -0.022484162768609612 1.4211584288756235e-06 0 -0.023162249808688223 0.00029132139213429345 0 -0.022308455420455644 0.0002599917253962261 0 -0.022484162768609612 1.4211584288756235e-06 0 -0.023162249808688223 0.00029132139213429345 0 -0.022308455420455644 0.0002599917253962261 0 -0.022970922181526684 0.00032834054684525521 0 -0.022308455420455644 0.0002599917253962261 0 -0.022800384661039483 -0.00020116392793348902 0 -0.022970922181526684 0.00032834054684525521 0 -0.019965868855415448 -0.00055278852415330433 0 -0.019512759359074091 -0.00042421408408878727 0 -0.022800384661039483 -0.00020116392793348902 0 -0.022970922181526684 0.00032834054684525521 0 -0.023153922762050028 0.00030509499383826174 0 -0.02291563821388375 0.0002543649684632364 0 -0.022970922181526684 0.00032834054684525521 0 -0.023130413582052808 0.00048409005567271498 0 -0.022970922181526684 0.00032834054684525521 0 -0.023130413582052808 0.00048409005567271498 0 -0.023153922762050028 0.00030509499383826174 0 -0.023130413582052808 0.00048409005567271498 0 -0.023153922762050028 0.00030509499383826174 0 -0.023224021550347952 0.00052811567753104657 0 -0.015916944410744188 -0.0011515484842759848 0 -0.016640181726706848 -0.00022174672153754877 0 -0.015437889038091918 -0.00027888955312334947 0 -0.017269548094767405 -0.0010605026679745507 0 -0.015916944410744188 -0.0011515484842759848 0 -0.016640181726706848 -0.00022174672153754877 0 -0.016640181726706848 -0.00022174672153754877 0 -0.015437889038091918 -0.00027888955312334947 0 -0.016118791340911369 0.00016968002851988764 0 -0.015437889038091918 -0.00027888955312334947 0 -0.014456792291401203 -0.00036943740855567716 0 -0.014815655666160521 -0.0011039597589065204 0 -0.014456792291401203 -0.00036943740855567716 0 -0.014815655666160521 -0.0011039597589065204 0 -0.01390789346331747 -0.00092583175992569519 0 -0.015916944410744188 -0.0011515484842759848 0 -0.015437889038091918 -0.00027888955312334947 0 -0.014815655666160521 -0.0011039597589065204 0 -0.019512759359074091 -0.00042421408408878727 0 -0.018985438455169784 -0.00013929627185161778 0 -0.023153922762050028 0.00030509499383826174 0 -0.023222879727611619 0.00080547003067193046 0 -0.023224021550347952 0.00052811567753104657 0 -0.023222879727611619 0.00080547003067193046 0 -0.023224021550347952 0.00052811567753104657 0 -0.023303204670243674 0.0006389376839851758 0 -0.023130413582052808 0.00048409005567271498 0 -0.023224021550347952 0.00052811567753104657 0 -0.023303204670243674 0.0006389376839851758 0 -0.023343210773404153 0.00026630956332858642 0 -0.024316313336337773 0.00049529919313497561 0 -0.023303204670243674 0.0006389376839851758 0 -0.023728647363072113 0.00046602568736188557 0 -0.023352947711686823 0.00062876342031862231 0 -0.023303204670243674 0.0006389376839851758 0 -0.023008971052191223 0.00088775555175808893 0 -0.02284549438971064 0.00054351486043248865 0 -0.023343210773404153 0.00026630956332858642 0 -0.023303204670243674 0.0006389376839851758 0 -0.02284549438971064 0.00054351486043248865 0 -0.023222879727611619 0.00080547003067193046 0 -0.023303204670243674 0.0006389376839851758 0 -0.023008971052191223 0.00088775555175808893 0 -0.023008971052191223 0.00088775555175808893 0 -0.02284549438971064 0.00054351486043248865 0 -0.022643554806462442 0.0013794537910368544 0 -0.02284549438971064 0.00054351486043248865 0 -0.022247454928901483 0.0004144216924479237 0 -0.022643554806462442 0.0013794537910368544 0 -0.022841558632811596 8.431214061641695e-05 0 -0.02284549438971064 0.00054351486043248865 0 -0.022247454928901483 0.0004144216924479237 0 -0.021768036271423909 0.0010021610175977552 0 -0.022247454928901483 0.0004144216924479237 0 -0.022643554806462442 0.0013794537910368544 0 -0.021768036271423909 0.0010021610175977552 0 -0.021512817549976065 0.0018197600483648331 0 -0.022643554806462442 0.0013794537910368544 0 -0.013269364606155232 -0.00069906469480652319 0 -0.01390789346331747 -0.00092583175992569519 0 -0.013686802829967766 -0.00041790411433336361 0 -0.017307155943598055 0.00045901698482152188 0 -0.018276702640742905 0.00023457974725571955 0 -0.023222879727611619 0.00080547003067193046 0 -0.023008971052191223 0.00088775555175808893 0 -0.022643554806462442 0.0013794537910368544 0 -0.018985438455169784 -0.00013929627185161778 0 -0.018276702640742905 0.00023457974725571955 0 -0.014456792291401203 -0.00036943740855567716 0 -0.01390789346331747 -0.00092583175992569519 0 -0.013686802829967766 -0.00041790411433336361 0 -0.014456792291401203 -0.00036943740855567716 0 -0.013686802829967766 -0.00041790411433336361 0 -0.013956340731043281 -0.00010391830334350407 0 -0.01326886931772223 -0.00025753723069974648 0 -0.013686802829967766 -0.00041790411433336361 0 -0.013549292443290731 -0.00012485107281881493 0 -0.01322298516488607 2.7297846426461245e-05 0 -0.013549292443290731 -0.00012485107281881493 0 -0.013648501136262897 0.00017044131715827365 0 -0.013549292443290731 -0.00012485107281881493 0 -0.013956340731043281 -0.00010391830334350407 0 -0.013648501136262897 0.00017044131715827365 0 -0.013686802829967766 -0.00041790411433336361 0 -0.013549292443290731 -0.00012485107281881493 0 -0.013956340731043281 -0.00010391830334350407 0 -0.013956340731043281 -0.00010391830334350407 0 -0.014229072783762729 0.00039854631032953632 0 -0.014377766698739277 2.6246692635764603e-05 0 -0.013648501136262897 0.00017044131715827365 0 -0.013598178652287948 0.00074313275675644947 0 -0.014229072783762729 0.00039854631032953632 0 -0.013956340731043281 -0.00010391830334350407 0 -0.013648501136262897 0.00017044131715827365 0 -0.014229072783762729 0.00039854631032953632 0 -0.01322298516488607 2.7297846426461245e-05 0 -0.013238739618644937 0.00029110621781509144 0 -0.013648501136262897 0.00017044131715827365 0 -0.013238739618644937 0.00029110621781509144 0 -0.013648501136262897 0.00017044131715827365 0 -0.013598178652287948 0.00074313275675644947 0 -0.013238739618644937 0.00029110621781509144 0 -0.012928618882063101 0.00093428037023109459 0 -0.013598178652287948 0.00074313275675644947 0 -0.013187991811263462 0.0013627555473701188 0 -0.012928618882063101 0.00093428037023109459 0 -0.013598178652287948 0.00074313275675644947 0 -0.013859585433634712 0.0014423868327401381 0 -0.013598178652287948 0.00074313275675644947 0 -0.014115172010009421 0.00089301655428880827 0 -0.013187991811263462 0.0013627555473701188 0 -0.013859585433634712 0.0014423868327401381 0 -0.013598178652287948 0.00074313275675644947 0 -0.013598178652287948 0.00074313275675644947 0 -0.014115172010009421 0.00089301655428880827 0 -0.014229072783762729 0.00039854631032953632 0 -0.014505615697982494 0.0007922076262635759 0 -0.014115172010009421 0.00089301655428880827 0 -0.014229072783762729 0.00039854631032953632 0 -0.014505615697982494 0.0007922076262635759 0 -0.014115172010009421 0.00089301655428880827 0 -0.014455556227356569 0.0011686849606690921 0 -0.014505615697982494 0.0007922076262635759 0 -0.014455556227356569 0.0011686849606690921 0 -0.014863862255109772 0.00093251384186939553 0 -0.013859585433634712 0.0014423868327401381 0 -0.014115172010009421 0.00089301655428880827 0 -0.014455556227356569 0.0011686849606690921 0 -0.013859585433634712 0.0014423868327401381 0 -0.014455556227356569 0.0011686849606690921 0 -0.014533522416561319 0.0015555031273040705 0 -0.01489054729020221 0.0012346567691216438 0 -0.014533522416561319 0.0015555031273040705 0 -0.014992623056645053 0.0015374002069135327 0 -0.01489054729020221 0.0012346567691216438 0 -0.015155443765712179 0.0012348501900389512 0 -0.014992623056645053 0.0015374002069135327 0 -0.014455556227356569 0.0011686849606690921 0 -0.01489054729020221 0.0012346567691216438 0 -0.014533522416561319 0.0015555031273040705 0 -0.014455556227356569 0.0011686849606690921 0 -0.01489054729020221 0.0012346567691216438 0 -0.014863862255109772 0.00093251384186939553 0 -0.01489054729020221 0.0012346567691216438 0 -0.014863862255109772 0.00093251384186939553 0 -0.01529132361149611 0.0010061028235893348 0 -0.014505615697982494 0.0007922076262635759 0 -0.014863862255109772 0.00093251384186939553 0 -0.014857997697595162 0.00056538057249819662 0 -0.014863862255109772 0.00093251384186939553 0 -0.014857997697595162 0.00056538057249819662 0 -0.015290426531261515 0.00073463520980579869 0 -0.014863862255109772 0.00093251384186939553 0 -0.015290426531261515 0.00073463520980579869 0 -0.01529132361149611 0.0010061028235893348 0 -0.014857997697595162 0.00056538057249819662 0 -0.015445498675429633 0.00036335340980750381 0 -0.015290426531261515 0.00073463520980579869 0 -0.014857997697595162 0.00056538057249819662 0 -0.014868941938764315 0.00016528097737296364 0 -0.015445498675429633 0.00036335340980750381 0 -0.014505615697982494 0.0007922076262635759 0 -0.014857997697595162 0.00056538057249819662 0 -0.014229072783762729 0.00039854631032953632 0 -0.014857997697595162 0.00056538057249819662 0 -0.014229072783762729 0.00039854631032953632 0 -0.014868941938764315 0.00016528097737296364 0 -0.014229072783762729 0.00039854631032953632 0 -0.014377766698739277 2.6246692635764603e-05 0 -0.014868941938764315 0.00016528097737296364 0 -0.014456792291401203 -0.00036943740855567716 0 -0.014377766698739277 2.6246692635764603e-05 0 -0.014868941938764315 0.00016528097737296364 0 -0.014456792291401203 -0.00036943740855567716 0 -0.013956340731043281 -0.00010391830334350407 0 -0.014377766698739277 2.6246692635764603e-05 0 -0.015437889038091918 -0.00027888955312334947 0 -0.014456792291401203 -0.00036943740855567716 0 -0.014868941938764315 0.00016528097737296364 0 -0.015437889038091918 -0.00027888955312334947 0 -0.014868941938764315 0.00016528097737296364 0 -0.015445498675429633 0.00036335340980750381 0 -0.015437889038091918 -0.00027888955312334947 0 -0.016118791340911369 0.00016968002851988764 0 -0.015445498675429633 0.00036335340980750381 0 -0.016118791340911369 0.00016968002851988764 0 -0.015973171701952327 0.00047809566774479018 0 -0.015445498675429633 0.00036335340980750381 0 -0.016640181726706848 -0.00022174672153754877 0 -0.016118791340911369 0.00016968002851988764 0 -0.016811846492643976 0.00019818051932924338 0 -0.016118791340911369 0.00016968002851988764 0 -0.016470344592572128 0.00049916973343560765 0 -0.016811846492643976 0.00019818051932924338 0 -0.016118791340911369 0.00016968002851988764 0 -0.016470344592572128 0.00049916973343560765 0 -0.015973171701952327 0.00047809566774479018 0 -0.015045192408172942 0.00019081330909284585 0 -0.015074285000132318 0.00021282864973218478 0 -0.014443650989694152 0.00019372978471382871 0 -0.016470344592572128 0.00049916973343560765 0 -0.016003042918942209 0.00073755005591662952 0 -0.015973171701952327 0.00047809566774479018 0 -0.016470344592572128 0.00049916973343560765 0 -0.016003042918942209 0.00073755005591662952 0 -0.01623601247153145 0.0010087283858681972 0 -0.016003042918942209 0.00073755005591662952 0 -0.015659695469092776 0.00063741128964208327 0 -0.015646610632699183 0.00081480960901006948 0 -0.016003042918942209 0.00073755005591662952 0 -0.015659695469092776 0.00063741128964208327 0 -0.015973171701952327 0.00047809566774479018 0 -0.015659695469092776 0.00063741128964208327 0 -0.015973171701952327 0.00047809566774479018 0 -0.015445498675429633 0.00036335340980750381 0 -0.015659695469092776 0.00063741128964208327 0 -0.015290426531261515 0.00073463520980579869 0 -0.015646610632699183 0.00081480960901006948 0 -0.015659695469092776 0.00063741128964208327 0 -0.015445498675429633 0.00036335340980750381 0 -0.015290426531261515 0.00073463520980579869 0 -0.015670348005615221 0.00097375877436715929 0 -0.015155443765712179 0.0012348501900389512 0 -0.01623601247153145 0.0010087283858681972 0 -0.015232327287933622 0.0011335233442909889 0 -0.015677004733509511 0.00058437647640399834 0 -0.015290426531261515 0.00073463520980579869 0 -0.015646610632699183 0.00081480960901006948 0 -0.01529132361149611 0.0010061028235893348 0 -0.016003042918942209 0.00073755005591662952 0 -0.015670348005615221 0.00097375877436715929 0 -0.015646610632699183 0.00081480960901006948 0 -0.015670348005615221 0.00097375877436715929 0 -0.015646610632699183 0.00081480960901006948 0 -0.01529132361149611 0.0010061028235893348 0 -0.015670348005615221 0.00097375877436715929 0 -0.01529132361149611 0.0010061028235893348 0 -0.015155443765712179 0.0012348501900389512 0 -0.015155443765712179 0.0012348501900389512 0 -0.015376010853578941 0.0011831694780648184 0 -0.015074285000132318 0.00021282864973218478 0 -0.01489054729020221 0.0012346567691216438 0 -0.01529132361149611 0.0010061028235893348 0 -0.015155443765712179 0.0012348501900389512 0 -0.015155443765712179 0.0012348501900389512 0 -0.015376010853578941 0.0011831694780648184 0 -0.014992623056645053 0.0015374002069135327 0 -0.015116558391483466 -0.00050757428452053853 0 -0.014742633247612654 -0.00040612236918884125 0 -0.014828971599318817 -0.0007265125490840404 0 -0.015116558391483466 -0.00050757428452053853 0 -0.01490069876951345 -0.00017883972508121705 0 -0.014742633247612654 -0.00040612236918884125 0 -0.015376010853578941 0.0011831694780648184 0 -0.015045192408172942 0.00019081330909284585 0 -0.015074285000132318 0.00021282864973218478 0 -0.015116558391483466 -0.00050757428452053853 0 -0.01490069876951345 -0.00017883972508121705 0 -0.015045192408172942 0.00019081330909284585 0 -0.015182318896536311 0.00040211714331262296 0 -0.015087210268727221 0.00026303522555237306 0 -0.01490069876951345 -0.00017883972508121705 0 -0.015045192408172942 0.00019081330909284585 0 -0.014673761186145521 2.3057114494858205e-05 0 -0.016003042918942209 0.00073755005591662952 0 -0.015670348005615221 0.00097375877436715929 0 -0.01623601247153145 0.0010087283858681972 0 -0.015045192408172942 0.00019081330909284585 0 -0.014673761186145521 2.3057114494858205e-05 0 -0.014443650989694152 0.00019372978471382871 0 -0.014376481453156252 9.7011595965008798e-05 0 -0.014673761186145521 2.3057114494858205e-05 0 -0.014443650989694152 0.00019372978471382871 0 -0.014376481453156252 9.7011595965008798e-05 0 -0.014673761186145521 2.3057114494858205e-05 0 -0.014505491142559735 -0.00025635615472257835 0 -0.014673761186145521 2.3057114494858205e-05 0 -0.014742633247612654 -0.00040612236918884125 0 -0.014505491142559735 -0.00025635615472257835 0 -0.01490069876951345 -0.00017883972508121705 0 -0.014673761186145521 2.3057114494858205e-05 0 -0.014742633247612654 -0.00040612236918884125 0 -0.014742633247612654 -0.00040612236918884125 0 -0.014253961793301458 -0.00070736572958475215 0 -0.014828971599318817 -0.0007265125490840404 0 -0.014742633247612654 -0.00040612236918884125 0 -0.014505491142559735 -0.00025635615472257835 0 -0.014253961793301458 -0.00070736572958475215 0 -0.010293647920929041 -0.00018239609828478594 0 -0.013275262820143336 -1.2807448211876196e-06 0 -0.010816597707114401 4.6248504876708716e-07 0 -0.014505491142559735 -0.00025635615472257835 0 -0.014253961793301458 -0.00070736572958475215 0 -0.013280068170828654 -5.1061253714969908e-07 0 -0.012199132827645105 -0.00022441121294881095 0 -0.013276831482112112 1.0064813642680765e-07 0 -0.014376481453156252 9.7011595965008798e-05 0 -0.013280068170828654 -5.1061253714969908e-07 0 -0.014322593177366788 0.00018975297004118722 0 -0.014376481453156252 9.7011595965008798e-05 0 -0.014505491142559735 -0.00025635615472257835 0 -0.013280068170828654 -5.1061253714969908e-07 0 -0.013280068170828654 -5.1061253714969908e-07 0 -0.014322593177366788 0.00018975297004118722 0 -0.014919166466756778 9.3780928219222592e-07 0 -0.014376481453156252 9.7011595965008798e-05 0 -0.014322593177366788 0.00018975297004118722 0 -0.014443650989694152 0.00019372978471382871 0 -0.014322593177366788 0.00018975297004118722 0 -0.014919166466756778 9.3780928219222592e-07 0 -0.014443650989694152 0.00019372978471382871 0 -0.016470344592572128 0.00049916973343560765 0 -0.017097701194451202 0.00033635176304723437 0 -0.016811846492643976 0.00019818051932924338 0 -0.016470344592572128 0.00049916973343560765 0 -0.01623601247153145 0.0010087283858681972 0 -0.017097701194451202 0.00033635176304723437 0 -0.015677004733509511 0.00058437647640399834 0 -0.015770210458515111 0.00032841736742324429 0 -0.017097701194451202 0.00033635176304723437 0 -0.016811846492643976 0.00019818051932924338 0 -0.017158127323240537 0.00016530708790738711 0 -0.017204451412908089 6.8769107681557673e-05 0 -0.016811846492643976 0.00019818051932924338 0 -0.017158127323240537 0.00016530708790738711 0 -0.017097701194451202 0.00033635176304723437 0 -0.017158127323240537 0.00016530708790738711 0 -0.016563286716764023 -7.0862287514773446e-08 0 -0.015770210458515111 0.00032841736742324429 0 -0.016559992853863444 2.4516258526560535e-07 0 -0.014919166466756778 9.3780928219222592e-07 0 -0.014443650989694152 0.00019372978471382871 0 -0.01655778130871681 -9.1681499469072585e-07 0 -0.0058985544583646798 1.9526237623849701e-07 0 -0.0059337598475878274 0.00022594620224237588 0 -0.0070453694758334804 -0.00017567544304281465 0 -0.0059337598475878274 0.00022594620224237588 0 -0.005638195266954988 -0.00046792643564400597 0 -0.0052396411857677664 6.8997421898078407e-05 0 -0.0059337598475878274 0.00022594620224237588 0 -0.005638195266954988 -0.00046792643564400597 0 -0.0070453694758334804 -0.00017567544304281465 0 -0.0059337598475878274 0.00022594620224237588 0 -0.0052396411857677664 6.8997421898078407e-05 0 -0.0053076020655803821 0.00041906548723397131 0 -0.0086055762985025857 -9.3284753312644208e-05 0 -0.0070453694758334804 -0.00017567544304281465 0 -0.008420396976181195 0.00016871933998984992 0 -0.0065360591661693208 -0.00044545913411869775 0 -0.007295880887163906 -0.00014213176069902462 0 -0.0058985544583646798 1.9526237623849701e-07 0 -0.0070453694758334804 -0.00017567544304281465 0 -0.0083554078390896749 1.624657735928793e-07 0 -0.0070453694758334804 -0.00017567544304281465 0 -0.0083554078390896749 1.624657735928793e-07 0 -0.008420396976181195 0.00016871933998984992 0 -0.0083554078390896749 1.624657735928793e-07 0 -0.0094010265791366118 0.00016017325759794368 0 -0.008420396976181195 0.00016871933998984992 0 -0.0083554078390896749 1.624657735928793e-07 0 -0.0094010265791366118 0.00016017325759794368 0 -0.010816597707114401 4.6248504876708716e-07 0 -0.010293647920929041 -0.00018239609828478594 0 -0.0094010265791366118 0.00016017325759794368 0 -0.010816597707114401 4.6248504876708716e-07 0 -0.014253961793301458 -0.00070736572958475215 0 -0.014698265452123946 -0.0010066200572663351 0 -0.014828971599318817 -0.0007265125490840404 0 -0.010293647920929041 -0.00018239609828478594 0 -0.0094010265791366118 0.00016017325759794368 0 -0.0088649503810894065 0.00022837987624195843 0 -0.012199132827645105 -0.00022441121294881095 0 -0.012028019167950274 -0.00065377294870303242 0 -0.0086055762985025857 -9.3284753312644208e-05 0 -0.008420396976181195 0.00016871933998984992 0 -0.0088649503810894065 0.00022837987624195843 0 -0.0094010265791366118 0.00016017325759794368 0 -0.008420396976181195 0.00016871933998984992 0 -0.0088649503810894065 0.00022837987624195843 0 -0.012028019167950274 -0.00065377294870303242 0 -0.010766085705275378 0.0005660748538458282 0 -0.014698265452123946 -0.0010066200572663351 0 -0.015157597563991038 -0.00089150668045058436 0 -0.014927511669739657 -0.0012836271873649784 0 -0.014698265452123946 -0.0010066200572663351 0 -0.014828971599318817 -0.0007265125490840404 0 -0.015157597563991038 -0.00089150668045058436 0 -0.015116558391483466 -0.00050757428452053853 0 -0.014828971599318817 -0.0007265125490840404 0 -0.015157597563991038 -0.00089150668045058436 0 -0.015376010853578941 0.0011831694780648184 0 -0.015278911893947575 0.0018206733245132211 0 -0.014992623056645053 0.0015374002069135327 0 -0.015182318896536311 0.00040211714331262296 0 -0.015315463200860274 0.00027208248989598656 0 -0.015278911893947575 0.0018206733245132211 0 -0.014803473658526989 0.001984701264612674 0 -0.014992623056645053 0.0015374002069135327 0 -0.015157597563991038 -0.00089150668045058436 0 -0.015245052117446454 -0.0011696127807750466 0 -0.014927511669739657 -0.0012836271873649784 0 -0.015278911893947575 0.0018206733245132211 0 -0.015032221999691847 0.0025003017042491958 0 -0.014803473658526989 0.001984701264612674 0 -0.015315463200860274 0.00027208248989598656 0 -0.014456509873936639 0.0016295697012063924 0 -0.013206837013197536 0.0028690646535573547 0 -0.013025823737720325 0.0029123101015195744 0 -0.013166811048166143 0.0027615584241278712 0 -0.010766085705275378 0.0005660748538458282 0 -0.0087829436905014421 0.001617047937054929 0 -0.013235577480761486 0.0029810786040935172 0 -0.013206837013197536 0.0028690646535573547 0 -0.013025823737720325 0.0029123101015195744 0 -0.014456509873936639 0.0016295697012063924 0 -0.010766085705275378 0.0005660748538458282 0 -0.005638195266954988 -0.00046792643564400597 0 -0.0050870074331836289 -0.0005125367323312067 0 -0.0052396411857677664 6.8997421898078407e-05 0 -0.0086055762985025857 -9.3284753312644208e-05 0 -0.0088649503810894065 0.00022837987624195843 0 -0.0088893444039953359 -2.9223401414092481e-05 0 -0.0065360591661693208 -0.00044545913411869775 0 -0.010766085705275378 0.0005660748538458282 0 -0.0052396411857677664 6.8997421898078407e-05 0 -0.0048033275815510031 0.0001120269939253751 0 -0.0050153252029416402 0.00040990901302109708 0 -0.0050870074331836289 -0.0005125367323312067 0 -0.0052396411857677664 6.8997421898078407e-05 0 -0.0048033275815510031 0.0001120269939253751 0 -0.013206837013197536 0.0028690646535573547 0 -0.013166811048166143 0.0027615584241278712 0 -0.013329878710952829 0.0028170642751056069 0 -0.013373292597201419 0.0029187476583612025 0 -0.013524075978890101 0.002561025256389367 0 -0.013166811048166143 0.0027615584241278712 0 -0.013329878710952829 0.0028170642751056069 0 -0.013338792642358275 0.0026188463587679708 0 -0.013673980174967734 0.0025681419275808996 0 -0.013523247152691747 0.0026010556565218314 0 -0.013464246556611598 0.0026592360404538084 0 -0.013523247152691747 0.0026010556565218314 0 -0.013482943263811328 0.0026737106666080146 0 -0.013464246556611598 0.0026592360404538084 0 -0.013523247152691747 0.0026010556565218314 0 -0.013626010423190166 0.0024664168101479261 0 -0.013515654973124472 0.0024322898294875384 0 -0.013673980174967734 0.0025681419275808996 0 -0.013523247152691747 0.0026010556565218314 0 -0.013626010423190166 0.0024664168101479261 0 -0.013626010423190166 0.0024664168101479261 0 -0.013671702843616251 0.0023101214596764402 0 -0.013515654973124472 0.0024322898294875384 0 -0.014456509873936639 0.0016295697012063924 0 -0.013373292597201419 0.0029187476583612025 0 -0.013805047898015252 0.0023795014924501518 0 -0.013673980174967734 0.0025681419275808996 0 -0.013626010423190166 0.0024664168101479261 0 -0.013235577480761486 0.0029810786040935172 0 -0.013206837013197536 0.0028690646535573547 0 -0.013329878710952829 0.0028170642751056069 0 -0.013805047898015252 0.0023795014924501518 0 -0.013626010423190166 0.0024664168101479261 0 -0.013671702843616251 0.0023101214596764402 0 -0.014803473658526989 0.001984701264612674 0 -0.014204979751924147 0.0018941550071726379 0 -0.014411726345368012 0.0023549276240082042 0 -0.014456509873936639 0.0016295697012063924 0 -0.014055653088324231 0.0023387830760511711 0 -0.015032221999691847 0.0025003017042491958 0 -0.014803473658526989 0.001984701264612674 0 -0.014411726345368012 0.0023549276240082042 0 -0.014803473658526989 0.001984701264612674 0 -0.014533522416561319 0.0015555031273040705 0 -0.014204979751924147 0.0018941550071726379 0 -0.014803473658526989 0.001984701264612674 0 -0.014533522416561319 0.0015555031273040705 0 -0.014992623056645053 0.0015374002069135327 0 -0.013859585433634712 0.0014423868327401381 0 -0.014204979751924147 0.0018941550071726379 0 -0.013595778731532499 0.0021238728444641464 0 -0.013859585433634712 0.0014423868327401381 0 -0.014533522416561319 0.0015555031273040705 0 -0.014204979751924147 0.0018941550071726379 0 -0.014204979751924147 0.0018941550071726379 0 -0.014411726345368012 0.0023549276240082042 0 -0.013595778731532499 0.0021238728444641464 0 -0.014055653088324231 0.0023387830760511711 0 -0.01361571788422632 0.0021506703037921589 0 -0.013671702843616251 0.0023101214596764402 0 -0.013595778731532499 0.0021238728444641464 0 -0.013515654973124472 0.0024322898294875384 0 -0.013595778731532499 0.0021238728444641464 0 -0.012666741447846847 0.0021455884986591105 0 -0.013515654973124472 0.0024322898294875384 0 -0.013595778731532499 0.0021238728444641464 0 -0.013131333509944004 0.0018237617209308158 0 -0.012666741447846847 0.0021455884986591105 0 -0.013859585433634712 0.0014423868327401381 0 -0.013595778731532499 0.0021238728444641464 0 -0.013131333509944004 0.0018237617209308158 0 -0.013187991811263462 0.0013627555473701188 0 -0.013859585433634712 0.0014423868327401381 0 -0.013131333509944004 0.0018237617209308158 0 -0.013187991811263462 0.0013627555473701188 0 -0.013131333509944004 0.0018237617209308158 0 -0.012321279398629956 0.0016819672578105784 0 -0.013131333509944004 0.0018237617209308158 0 -0.012666741447846847 0.0021455884986591105 0 -0.012321279398629956 0.0016819672578105784 0 -0.012666741447846847 0.0021455884986591105 0 -0.012188376952874528 0.0019406701344523122 0 -0.011751222511175597 0.0019577025762927019 0 -0.012625122509206192 0.0021516186138841051 0 -0.012447818270069954 0.0021986249899230157 0 -0.013523247152691747 0.0026010556565218314 0 -0.013515654973124472 0.0024322898294875384 0 -0.01326416994697769 0.0026255907752930981 0 -0.012666741447846847 0.0021455884986591105 0 -0.013515654973124472 0.0024322898294875384 0 -0.01326416994697769 0.0026255907752930981 0 -0.013523247152691747 0.0026010556565218314 0 -0.01326416994697769 0.0026255907752930981 0 -0.013482943263811328 0.0026737106666080146 0 -0.012447818270069954 0.0021986249899230157 0 -0.012595169629408912 0.0022456053695426238 0 -0.011751222511175597 0.0019577025762927019 0 -0.011605751062425368 0.0015316340060430838 0 -0.011125992086531459 0.001537771518163026 0 -0.011751222511175597 0.0019577025762927019 0 -0.011963697030869792 0.0016533310259395058 0 -0.011605751062425368 0.0015316340060430838 0 -0.012188376952874528 0.0019406701344523122 0 -0.011751222511175597 0.0019577025762927019 0 -0.011963697030869792 0.0016533310259395058 0 -0.011823316803999881 0.0014512195297529612 0 -0.011605751062425368 0.0015316340060430838 0 -0.011588378042125041 0.0012737777385896593 0 -0.011963697030869792 0.0016533310259395058 0 -0.011823316803999881 0.0014512195297529612 0 -0.012070949014546853 0.0015386560465577488 0 -0.011963697030869792 0.0016533310259395058 0 -0.011823316803999881 0.0014512195297529612 0 -0.011605751062425368 0.0015316340060430838 0 -0.011605751062425368 0.0015316340060430838 0 -0.011255651373599899 0.0012377708495790172 0 -0.011125992086531459 0.001537771518163026 0 -0.011255651373599899 0.0012377708495790172 0 -0.010970581720207795 0.0010996077946964617 0 -0.011125992086531459 0.001537771518163026 0 -0.011605751062425368 0.0015316340060430838 0 -0.011255651373599899 0.0012377708495790172 0 -0.011588378042125041 0.0012737777385896593 0 -0.011255651373599899 0.0012377708495790172 0 -0.011457241410955122 0.00094960602191927247 0 -0.011588378042125041 0.0012737777385896593 0 -0.011255651373599899 0.0012377708495790172 0 -0.011028287639444216 0.00092782774347218268 0 -0.010970581720207795 0.0010996077946964617 0 -0.011255651373599899 0.0012377708495790172 0 -0.011028287639444216 0.00092782774347218268 0 -0.011457241410955122 0.00094960602191927247 0 -0.011457241410955122 0.00094960602191927247 0 -0.011848243192232828 0.0011516288395826916 0 -0.011826093502398067 0.00051365062292049865 0 -0.011457241410955122 0.00094960602191927247 0 -0.011588378042125041 0.0012737777385896593 0 -0.011848243192232828 0.0011516288395826916 0 -0.011823316803999881 0.0014512195297529612 0 -0.011588378042125041 0.0012737777385896593 0 -0.011848243192232828 0.0011516288395826916 0 -0.011457241410955122 0.00094960602191927247 0 -0.011826093502398067 0.00051365062292049865 0 -0.011164204660665212 0.00056534216802351311 0 -0.011826093502398067 0.00051365062292049865 0 -0.011169955830160408 -0.00019286755345453534 0 -0.011164204660665212 0.00056534216802351311 0 -0.006315573132682945 0.0013060489956878885 0 0.0011262306075070804 0.00040748247533592359 0 0.001804036820427753 0.002505292833702519 0 0.0012813241931805283 0.001188560873832008 0 0.00044369787264355296 0.0019970686615369449 0 -0.011169955830160408 -0.00019286755345453534 0 -0.010663711835519837 0.00040017350103232617 0 -0.010363982317812522 -1.3320056434629096e-05 0 0.00089983324981391343 -0.0011009947911885846 0 -0.00017245208398621685 -0.0015082087103182305 0 4.9435920235100951e-06 -0.00092390964198004236 0 -0.011169955830160408 -0.00019286755345453534 0 -0.011164204660665212 0.00056534216802351311 0 -0.010663711835519837 0.00040017350103232617 0 0.0011262306075070804 0.00040748247533592359 0 -0.0067847932052779811 -0.0012478334342617219 0 -0.011164204660665212 0.00056534216802351311 0 -0.010830849429400342 0.00066880581236268511 0 -0.010663711835519837 0.00040017350103232617 0 -0.011028287639444216 0.00092782774347218268 0 -0.011457241410955122 0.00094960602191927247 0 -0.011164204660665212 0.00056534216802351311 0 -0.011028287639444216 0.00092782774347218268 0 -0.011164204660665212 0.00056534216802351311 0 -0.010830849429400342 0.00066880581236268511 0 -0.011028287639444216 0.00092782774347218268 0 -0.010830849429400342 0.00066880581236268511 0 -0.010430263777145904 0.00079470228536812962 0 -0.010830849429400342 0.00066880581236268511 0 -0.010430263777145904 0.00079470228536812962 0 -0.010663711835519837 0.00040017350103232617 0 -0.010343463475264195 0.0009843502046590995 0 -0.010606741702501787 0.00052723219121353381 0 -0.010970893144194326 0.00097411332908466466 0 -0.010343463475264195 0.0009843502046590995 0 -0.0099171539431815864 0.00055579089533730561 0 -0.010363982317812522 -1.3320056434629096e-05 0 -0.0090137289261256019 0.00036702607936451979 0 -0.010161981990808748 0.0011530044989784966 0 -0.0099171539431815864 0.00055579089533730561 0 -0.0093348258517166674 0.00089225921060989742 0 -0.010343463475264195 0.0009843502046590995 0 -0.0063218520503305412 0.00077221151764982282 0 -0.0095833640636955493 0.00098353552814100338 0 -0.0079916428995904978 0.0004680422246532977 0 -0.0089015277631991248 0.0019417112364502956 0 -0.010161981990808748 0.0011530044989784966 0 -0.0099171539431815864 0.00055579089533730561 0 -0.010663711835519837 0.00040017350103232617 0 -0.0099171539431815864 0.00055579089533730561 0 -0.010663711835519837 0.00040017350103232617 0 -0.010363982317812522 -1.3320056434629096e-05 0 -0.00017245208398621685 -0.0015082087103182305 0 -0.00063715628133885764 -0.0010283549151188086 0 -0.0012434123918068807 -0.0019063475767113374 0 -0.00017245208398621685 -0.0015082087103182305 0 -0.00063715628133885764 -0.0010283549151188086 0 4.9435920235100951e-06 -0.00092390964198004236 0 -0.0067847932052779811 -0.0012478334342617219 0 -0.0024114702466583073 -0.00060238374792441094 0 0.0045981710121845978 -0.0011099731809509521 0 0.0044568902850031086 -0.0010887385552455333 0 0.0043501344812698541 -0.0010641401333672802 0 0.004409080672221539 -0.0010583200618169463 0 0.0044568902850031086 -0.0010887385552455333 0 0.0043501344812698541 -0.0010641401333672802 0 0.004409080672221539 -0.0010583200618169463 0 0.0043501344812698541 -0.0010641401333672802 0 0.0043913516956856913 -0.0011350853320292312 0 0.0015924132426492867 -0.0014009144163890817 0 8.7805586070855289e-05 -0.0011056762423677243 0 -0.00063715628133885764 -0.0010283549151188086 0 -0.0013117317719682766 -0.0017913199725765501 0 -0.0012434123918068807 -0.0019063475767113374 0 8.7805586070855289e-05 -0.0011056762423677243 0 0.004028208971910867 -0.0013686432499793427 0 0.0043501344812698541 -0.0010641401333672802 0 0.0043913516956856913 -0.0011350853320292312 0 0.0038458677936244333 -0.00065824120441424167 0 8.7805586070855289e-05 -0.0011056762423677243 0 -0.0016140301536424352 -4.6177502305654633e-05 0 -0.0022848451701527692 -0.00053902109608127324 0 -0.0026367548917317065 -0.0012337188011819582 0 -0.0014977655349046107 9.5184826670360789e-05 0 -0.0022848451701527692 -0.00053902109608127324 0 -0.0014977655349046107 9.5184826670360789e-05 0 -0.0039551271702500312 0.00089707008187655136 0 8.7805586070855289e-05 -0.0011056762423677243 0 -0.0024114702466583073 -0.00060238374792441094 0 -0.0024334227866779131 -0.00060937758763827986 0 -0.0024114702466583073 -0.00060238374792441094 0 -0.0022848451701527692 -0.00053902109608127324 0 -0.0026367548917317065 -0.0012337188011819582 0 -0.002913768219279027 -0.00077664566585886182 0 -0.0022848451701527692 -0.00053902109608127324 0 -0.0029238412861852252 -0.00077832822432378818 0 -0.0039551271702500312 0.00089707008187655136 0 -0.0099171539431815864 0.00055579089533730561 0 -0.0090137289261256019 0.00036702607936451979 0 -0.0093348258517166674 0.00089225921060989742 0 -0.0024114702466583073 -0.00060238374792441094 0 -0.0063218520503305412 0.00077221151764982282 0 -0.0063218520503305412 0.00077221151764982282 0 -0.010060743072231995 0.0014483642370740812 0 -0.0048204740305070153 0.00054359182798294301 0 -0.0048486656903114784 0.00052663329458132655 0 -0.0048423921906074387 0.00048919691971575625 0 -0.0016140301536424352 -4.6177502305654633e-05 0 -0.0063218520503305412 0.00077221151764982282 0 -0.0048595424836390313 0.00056812531269348834 0 -0.0048204740305070153 0.00054359182798294301 0 -0.0048486656903114784 0.00052663329458132655 0 -0.0048423921906074387 0.00048919691971575625 0 -0.0048067382899899778 0.00049863049191407709 0 -0.0047909881124070996 0.00039918452364128156 0 -0.010060743072231995 0.0014483642370740812 0 -0.0089906796733391948 0.0015251947260084252 0 -0.0048204740305070153 0.00054359182798294301 0 -0.0048423921906074387 0.00048919691971575625 0 -0.0048067382899899778 0.00049863049191407709 0 -0.010671864266263176 0.0009993030939228994 0 -0.010970581720207795 0.0010996077946964617 0 -0.011125992086531459 0.001537771518163026 0 -0.010343463475264195 0.0009843502046590995 0 -0.010060743072231995 0.0014483642370740812 0 -0.010060743072231995 0.0014483642370740812 0 -0.012595169629408912 0.0022456053695426238 0 -0.010800927073793215 0.00083980435757955135 0 -0.010671864266263176 0.0009993030939228994 0 -0.010970581720207795 0.0010996077946964617 0 -0.011028287639444216 0.00092782774347218268 0 -0.010800927073793215 0.00083980435757955135 0 -0.010970581720207795 0.0010996077946964617 0 -0.013436910819417466 0.002520527394371838 0 -0.013482943263811328 0.0026737106666080146 0 -0.013464246556611598 0.0026592360404538084 0 -0.013436910819417466 0.002520527394371838 0 -0.013338792642358275 0.0026188463587679708 0 -0.013464246556611598 0.0026592360404538084 0 -0.013329878710952829 0.0028170642751056069 0 -0.013338792642358275 0.0026188463587679708 0 -0.013464246556611598 0.0026592360404538084 0 -0.0087829436905014421 0.001617047937054929 0 -0.0089906796733391948 0.0015251947260084252 0 -0.0048033275815510031 0.0001120269939253751 0 -0.0047909881124070996 0.00039918452364128156 0 -0.0048839314112033554 0.0004698797549765319 0 -0.0048033275815510031 0.0001120269939253751 0 -0.0048839314112033554 0.0004698797549765319 0 -0.0050153252029416402 0.00040990901302109708 0 -0.0052396411857677664 6.8997421898078407e-05 0 -0.0050153252029416402 0.00040990901302109708 0 -0.0053076020655803821 0.00041906548723397131 0 -0.0050153252029416402 0.00040990901302109708 0 -0.0049674523185247827 0.00053871920941950594 0 -0.0053076020655803821 0.00041906548723397131 0 -0.0050153252029416402 0.00040990901302109708 0 -0.0049021307188925629 0.00053906903885951759 0 -0.0049674523185247827 0.00053871920941950594 0 -0.0048839314112033554 0.0004698797549765319 0 -0.0050153252029416402 0.00040990901302109708 0 -0.0049021307188925629 0.00053906903885951759 0 -0.0049021307188925629 0.00053906903885951759 0 -0.0045968914126078451 0.00057963153911996931 0 -0.0049674523185247827 0.00053871920941950594 0 -0.0049021307188925629 0.00053906903885951759 0 -0.0047957800619117912 0.00045524513412598501 0 -0.0045968914126078451 0.00057963153911996931 0 -0.0049021307188925629 0.00053906903885951759 0 -0.0049366183540768055 0.00049245087891801439 0 -0.0047957800619117912 0.00045524513412598501 0 -0.0048423921906074387 0.00048919691971575625 0 -0.0047909881124070996 0.00039918452364128156 0 -0.0048839314112033554 0.0004698797549765319 0 -0.0048839314112033554 0.0004698797549765319 0 -0.0049021307188925629 0.00053906903885951759 0 -0.0049366183540768055 0.00049245087891801439 0 -0.0048486656903114784 0.00052663329458132655 0 -0.0048423921906074387 0.00048919691971575625 0 -0.0049366183540768055 0.00049245087891801439 0 -0.0048423921906074387 0.00048919691971575625 0 -0.0048839314112033554 0.0004698797549765319 0 -0.0049366183540768055 0.00049245087891801439 0 -0.0048595424836390313 0.00056812531269348834 0 -0.0048486656903114784 0.00052663329458132655 0 -0.0049366183540768055 0.00049245087891801439 0 -0.0016140301536424352 -4.6177502305654633e-05 0 -0.0049008708057184502 -0.00016057591007354952 0 0.0038850344062320249 -0.001288507605502154 0 0.0037135265013470272 -0.00099553279332353808 0 0.0032125437514746781 -0.0011025909205495416 0 -0.00506907521179625 0.00031055507793943026 0 -0.0049366183540768055 0.00049245087891801439 0 -0.0048774723864830069 0.00011409556725982052 0 -0.0016140301536424352 -4.6177502305654633e-05 0 -0.00060395732918755137 -0.00061354081089402736 0 0.0040433306692578405 -0.0011122818791755161 0 0.0038850344062320249 -0.001288507605502154 0 0.0037135265013470272 -0.00099553279332353808 0 0.003689997622376733 -0.00032240243751596043 0 0.0043501344812698541 -0.0010641401333672802 0 0.0038458677936244333 -0.00065824120441424167 0 0.004188795885526812 -0.0007868894383704654 0 0.0043314780413512008 -0.0010454810600739643 0 0.0040433306692578405 -0.0011122818791755161 0 0.0037135265013470272 -0.00099553279332353808 0 0.0038458677936244333 -0.00065824120441424167 0 0.0037135265013470272 -0.00099553279332353808 0 0.0035698528508825516 -0.00080208797076389423 0 0.0032125437514746781 -0.0011025909205495416 0 0.0035698528508825516 -0.00080208797076389423 0 0.0038458677936244333 -0.00065824120441424167 0 0.0033384627904010657 -0.0005945746292055317 0 0.0037135265013470272 -0.00099553279332353808 0 0.0035698528508825516 -0.00080208797076389423 0 0.0038458677936244333 -0.00065824120441424167 0 0.0029460968252711913 -0.00066296318505739533 0 0.0032125437514746781 -0.0011025909205495416 0 0.002372977414141525 -0.0011027730147553443 0 -0.0048774723864830069 0.00011409556725982052 0 -0.0045033582801968803 0.00032419135091849412 0 -0.0037864801337333664 -0.00054656888897757947 0 -0.00060395732918755137 -0.00061354081089402736 0 -0.00073367984684823986 -0.00063959426090897493 0 0.0035698528508825516 -0.00080208797076389423 0 0.0033384627904010657 -0.0005945746292055317 0 0.0032125437514746781 -0.0011025909205495416 0 0.0029460968252711913 -0.00066296318505739533 0 0.0033384627904010657 -0.0005945746292055317 0 0.0032125437514746781 -0.0011025909205495416 0 -0.0049366183540768055 0.00049245087891801439 0 -0.0048774723864830069 0.00011409556725982052 0 -0.0047957800619117912 0.00045524513412598501 0 -0.0048774723864830069 0.00011409556725982052 0 -0.0045033582801968803 0.00032419135091849412 0 -0.0047957800619117912 0.00045524513412598501 0 -0.0045033582801968803 0.00032419135091849412 0 -0.0047957800619117912 0.00045524513412598501 0 -0.0045968914126078451 0.00057963153911996931 0 -0.0045033582801968803 0.00032419135091849412 0 -0.0039864711532247221 0.00030875153241656593 0 -0.0045968914126078451 0.00057963153911996931 0 -0.0042365742435808099 0.00054756744265988802 0 -0.0039864711532247221 0.00030875153241656593 0 -0.0045968914126078451 0.00057963153911996931 0 -0.0042365742435808099 0.00054756744265988802 0 -0.0039864711532247221 0.00030875153241656593 0 -0.003875470672683025 0.0004428523380599027 0 -0.0039864711532247221 0.00030875153241656593 0 -0.0026408078491455839 0.00010871999545243736 0 -0.003875470672683025 0.0004428523380599027 0 -0.0045033582801968803 0.00032419135091849412 0 -0.0039864711532247221 0.00030875153241656593 0 -0.0037864801337333664 -0.00054656888897757947 0 -0.0039864711532247221 0.00030875153241656593 0 -0.0037864801337333664 -0.00054656888897757947 0 -0.0026408078491455839 0.00010871999545243736 0 0.0017527936943366545 -0.00023308384717316374 0 0.0026020392994848627 -0.00040529334935138884 0 0.002372977414141525 -0.0011027730147553443 0 0.0026020392994848627 -0.00040529334935138884 0 0.0029460968252711913 -0.00066296318505739533 0 0.002372977414141525 -0.0011027730147553443 0 0.0017527936943366545 -0.00023308384717316374 0 0.002372977414141525 -0.0011027730147553443 0 -0.00013245892664318274 -2.3915913651191039e-06 0 -0.0037864801337333664 -0.00054656888897757947 0 -0.00013772630789842455 -2.5868549808932038e-06 0 -0.0026408078491455839 0.00010871999545243736 0 -0.00073367984684823986 -0.00063959426090897493 0 -0.00030190795030127855 -0.00021079015327522165 0 -0.00013772630789842455 -2.5868549808932038e-06 0 -0.0026408078491455839 0.00010871999545243736 0 -0.0010928850877121364 9.8321781044376393e-07 0 -0.0026408078491455839 0.00010871999545243736 0 -0.003875470672683025 0.0004428523380599027 0 -0.0050276688165544628 0.00067716590111383858 0 -0.0010928850877121364 9.8321781044376393e-07 0 -0.0025702172285513316 9.4301666874495381e-05 0 -0.0034935279782703928 4.377972482605568e-07 0 -0.0026408078491455839 0.00010871999545243736 0 -0.0025702172285513316 9.4301666874495381e-05 0 -0.0032249694900940633 3.5302636415119045e-05 0 -0.0026408078491455839 0.00010871999545243736 0 -0.0010928850877121364 9.8321781044376393e-07 0 -0.0025702172285513316 9.4301666874495381e-05 0 -0.0029308280006228034 3.7455525710745925e-05 0 -0.0041039471414726584 0.00036382970607564319 0 -0.0025702172285513316 9.4301666874495381e-05 0 -0.0034935279782703928 4.377972482605568e-07 0 -0.0032249694900940633 3.5302636415119045e-05 0 -0.0050276688165544628 0.00067716590111383858 0 -0.0050177296847009447 0.00054003668795178617 0 -0.0054382860787584465 0.00032044372548470075 0 -0.0050276688165544628 0.00067716590111383858 0 -0.0050177296847009447 0.00054003668795178617 0 -0.0046930043571033206 0.000597573077070771 0 -0.0042365742435808099 0.00054756744265988802 0 -0.003875470672683025 0.0004428523380599027 0 -0.0050276688165544628 0.00067716590111383858 0 -0.0042365742435808099 0.00054756744265988802 0 -0.0050276688165544628 0.00067716590111383858 0 -0.0046930043571033206 0.000597573077070771 0 -0.0042365742435808099 0.00054756744265988802 0 -0.0046930043571033206 0.000597573077070771 0 -0.0045968914126078451 0.00057963153911996931 0 -0.0046930043571033206 0.000597573077070771 0 -0.0045968914126078451 0.00057963153911996931 0 -0.0049749222668217484 0.0005429458928877418 0 -0.0045968914126078451 0.00057963153911996931 0 -0.0049674523185247827 0.00053871920941950594 0 -0.0049749222668217484 0.0005429458928877418 0 -0.0050177296847009447 0.00054003668795178617 0 -0.0046930043571033206 0.000597573077070771 0 -0.0049749222668217484 0.0005429458928877418 0 -0.0049749222668217484 0.0005429458928877418 0 -0.0053076020655803821 0.00041906548723397131 0 -0.0054382860787584465 0.00032044372548470075 0 -0.0049674523185247827 0.00053871920941950594 0 -0.0049749222668217484 0.0005429458928877418 0 -0.0053076020655803821 0.00041906548723397131 0 -0.0059337598475878274 0.00022594620224237588 0 -0.0053076020655803821 0.00041906548723397131 0 -0.0054382860787584465 0.00032044372548470075 0 -0.0058950729855055143 4.3785150235818177e-07 0 -0.0041039471414726584 0.00036382970607564319 0 -0.0058985544583646798 1.9526237623849701e-07 0 -0.0059337598475878274 0.00022594620224237588 0 -0.0054382860787584465 0.00032044372548470075 0 -0.0058985544583646798 1.9526237623849701e-07 0 -0.0050276688165544628 0.00067716590111383858 0 -0.0054382860787584465 0.00032044372548470075 0 -0.0058951389714505158 -4.5948017894533434e-07 0 -0.0034935279782703928 4.377972482605568e-07 0 -0.0032249694900940633 3.5302636415119045e-05 0 -0.0050177296847009447 0.00054003668795178617 0 -0.0049749222668217484 0.0005429458928877418 0 -0.0054382860787584465 0.00032044372548470075 0 0.0011489752486403676 -0.0007254327777566021 0 0.0013206995028391668 -0.00080149182377527921 0 0.001076616594147217 -0.00086136896527054941 0 0.0011489752486403676 -0.0007254327777566021 0 0.001076616594147217 -0.00086136896527054941 0 0.00063589315325952313 -0.00073856402465588111 0 -0.010882043068485297 0.0010568000558809029 0 -0.011229704928418687 0.00095101730977193853 0 -0.011190641687356513 0.0013015188849023682 0 -0.004918593369150041 0.00011965774301195232 0 -0.0052394417735428132 0.00025778024031842948 0 0.0011489752486403676 -0.0007254327777566021 0 0.00063589315325952313 -0.00073856402465588111 0 0.00080581438970206561 -0.00043197730521987195 0 0.0011489752486403676 -0.0007254327777566021 0 0.0013360471286610965 -0.00072797788388037101 0 0.0012159552063413335 -0.00057318784095647651 0 0.0011489752486403676 -0.0007254327777566021 0 0.0013360471286610965 -0.00072797788388037101 0 0.0014033097503240476 -0.00079205818252438363 0 0.0013360471286610965 -0.00072797788388037101 0 0.0014793779215485964 -0.00083513442571273347 0 0.0014290327707436829 -0.00073786284614548467 0 0.0013360471286610965 -0.00072797788388037101 0 0.0014793779215485964 -0.00083513442571273347 0 0.0014033097503240476 -0.00079205818252438363 0 0.0014793779215485964 -0.00083513442571273347 0 0.0014676469899469764 -0.00079536991775401458 0 0.0014033097503240476 -0.00079205818252438363 0 0.0014793779215485964 -0.00083513442571273347 0 0.0015470313720958731 -0.00091318320522436889 0 0.001577183134956281 -0.0009140639653495734 0 0.0014793779215485964 -0.00083513442571273347 0 0.0014676469899469764 -0.00079536991775401458 0 0.001577183134956281 -0.0009140639653495734 0 0.0014676469899469764 -0.00079536991775401458 0 0.0014033097503240476 -0.00079205818252438363 0 0.0014227299252639858 -0.00076436786202100867 0 0.0014676469899469764 -0.00079536991775401458 0 0.0014227299252639858 -0.00076436786202100867 0 0.0014012536679338682 -0.0007624789044654611 0 0.0011489752486403676 -0.0007254327777566021 0 0.0014033097503240476 -0.00079205818252438363 0 0.0013206995028391668 -0.00080149182377527921 0 0.0014033097503240476 -0.00079205818252438363 0 0.0013206995028391668 -0.00080149182377527921 0 0.0014227299252639858 -0.00076436786202100867 0 0.0014227299252639858 -0.00076436786202100867 0 0.0014468276848785488 -0.00071728682571523255 0 0.0013946877506909102 -0.00059055554170419548 0 0.0013206995028391668 -0.00080149182377527921 0 0.0014227299252639858 -0.00076436786202100867 0 0.0014468276848785488 -0.00071728682571523255 0 0.0015111493883760896 -0.00024653520667270714 0 0.0014468276848785488 -0.00071728682571523255 0 0.0013946877506909102 -0.00059055554170419548 0 -0.010516677774116724 0.0008101303407303794 0 -0.010882043068485297 0.0010568000558809029 0 -0.01096309219957229 0.00071922417702024576 0 0.0013206995028391668 -0.00080149182377527921 0 0.0014468276848785488 -0.00071728682571523255 0 0.001076616594147217 -0.00086136896527054941 0 -0.0045293762004867391 4.9157250103782449e-05 0 -0.004918593369150041 0.00011965774301195232 0 -0.010882043068485297 0.0010568000558809029 0 -0.01096309219957229 0.00071922417702024576 0 -0.011229704928418687 0.00095101730977193853 0 -0.01134029154067044 0.0006617431202201959 0 -0.01096309219957229 0.00071922417702024576 0 -0.011229704928418687 0.00095101730977193853 0 -0.01134029154067044 0.0006617431202201959 0 -0.011630506400695786 0.00081908056842668736 0 -0.011229704928418687 0.00095101730977193853 0 -0.011521098656961127 0.0010575248005940154 0 -0.011824109740019252 0.00097035972692837368 0 -0.011722902793601015 0.0013196350053775426 0 -0.011630506400695786 0.00081908056842668736 0 -0.011521098656961127 0.0010575248005940154 0 -0.011824109740019252 0.00097035972692837368 0 -0.011630506400695786 0.00081908056842668736 0 -0.011521098656961127 0.0010575248005940154 0 -0.011229704928418687 0.00095101730977193853 0 -0.011630506400695786 0.00081908056842668736 0 -0.012012233089453032 0.00080397448755367023 0 -0.011824109740019252 0.00097035972692837368 0 -0.011775149998506441 0.0005895566241191744 0 -0.011630506400695786 0.00081908056842668736 0 -0.012012233089453032 0.00080397448755367023 0 -0.012012233089453032 0.00080397448755367023 0 -0.011824109740019252 0.00097035972692837368 0 -0.012003759882469073 0.0011163840803528021 0 -0.012178684518275367 0.0012185557253505546 0 -0.012184617023564773 0.0016215602615857034 0 -0.012666741447846847 0.0021455884986591105 0 -0.012321279398629956 0.0016819672578105784 0 -0.01239186974561223 0.0021289739843201529 0 -0.012184617023564773 0.0016215602615857034 0 -0.012123013871714258 0.0016105912383006277 0 -0.012666741447846847 0.0021455884986591105 0 -0.012188376952874528 0.0019406701344523122 0 -0.01239186974561223 0.0021289739843201529 0 -0.012188376952874528 0.0019406701344523122 0 -0.01239186974561223 0.0021289739843201529 0 -0.012102816211338734 0.0015859829833042994 0 -0.012003759882469073 0.0011163840803528021 0 -0.011722902793601015 0.0013196350053775426 0 -0.012102816211338734 0.0015859829833042994 0 -0.011824109740019252 0.00097035972692837368 0 -0.012003759882469073 0.0011163840803528021 0 -0.011722902793601015 0.0013196350053775426 0 -0.011722902793601015 0.0013196350053775426 0 -0.012102816211338734 0.0015859829833042994 0 -0.011903320946725538 0.0015964215906997168 0 -0.011722902793601015 0.0013196350053775426 0 -0.011593437779995474 0.001603748618048515 0 -0.011903320946725538 0.0015964215906997168 0 -0.012188376952874528 0.0019406701344523122 0 -0.011963697030869792 0.0016533310259395058 0 -0.012102816211338734 0.0015859829833042994 0 -0.011521098656961127 0.0010575248005940154 0 -0.011229704928418687 0.00095101730977193853 0 -0.011190641687356513 0.0013015188849023682 0 -0.011521098656961127 0.0010575248005940154 0 -0.011722902793601015 0.0013196350053775426 0 -0.011190641687356513 0.0013015188849023682 0 -0.011722902793601015 0.0013196350053775426 0 -0.011190641687356513 0.0013015188849023682 0 -0.011593437779995474 0.001603748618048515 0 -0.0052394417735428132 0.00025778024031842948 0 -0.0058813965154756688 0.00067773766857275107 0 0.00063589315325952313 -0.00073856402465588111 0 0.00046706995468546092 -0.00032651353516125977 0 0.00020928534582454115 -0.00047928474910013052 0 0.00063589315325952313 -0.00073856402465588111 0 0.00046706995468546092 -0.00032651353516125977 0 0.00080581438970206561 -0.00043197730521987195 0 0.00046706995468546092 -0.00032651353516125977 0 0.00020928534582454115 -0.00047928474910013052 0 0.00015265441625714679 -0.00020690439234707513 0 0.00015265441625714679 -0.00020690439234707513 0 -0.00016238796120187764 -5.2487035806478585e-05 0 0.00045591712838940503 -3.9809695666345287e-05 0 0.00019598734444891425 0.0005841473947209865 0 0.0017814437424774981 -0.0002107937066053826 0 0.00046706995468546092 -0.00032651353516125977 0 0.00015265441625714679 -0.00020690439234707513 0 0.00045591712838940503 -3.9809695666345287e-05 0 0.00046706995468546092 -0.00032651353516125977 0 0.00045591712838940503 -3.9809695666345287e-05 0 0.00080581438970206561 -0.00043197730521987195 0 -0.012070949014546853 0.0015386560465577488 0 -0.011903320946725538 0.0015964215906997168 0 -0.011932746788823936 0.0017923100682741594 0 -0.011823316803999881 0.0014512195297529612 0 -0.011848243192232828 0.0011516288395826916 0 -0.012070949014546853 0.0015386560465577488 0 -0.011963697030869792 0.0016533310259395058 0 -0.012102816211338734 0.0015859829833042994 0 -0.012070949014546853 0.0015386560465577488 0 -0.012102816211338734 0.0015859829833042994 0 -0.012070949014546853 0.0015386560465577488 0 -0.011903320946725538 0.0015964215906997168 0 -0.011593437779995474 0.001603748618048515 0 -0.011903320946725538 0.0015964215906997168 0 -0.011932746788823936 0.0017923100682741594 0 -0.0058813965154756688 0.00067773766857275107 0 -0.0051408959474141449 0.00042040162545997178 0 0.00015265441625714679 -0.00020690439234707513 0 -0.00016238796120187764 -5.2487035806478585e-05 0 -0.00021101105979829209 -0.0001305072551871499 0 0.00020928534582454115 -0.00047928474910013052 0 0.00015265441625714679 -0.00020690439234707513 0 -0.00021101105979829209 -0.0001305072551871499 0 0.0021545514361322069 0.00069414133602316568 0 0.002216948564117921 0.00056582012282611774 0 0.0020962428586255803 0.00054382711071440377 0 0.00019598734444891425 0.0005841473947209865 0 0.00061114170866316271 0.00061765047973574264 0 0.0021995953717916772 0.0005574002846050561 0 0.002102793236633121 0.00038815294625360369 0 0.0020962428586255803 0.00054382711071440377 0 0.00019598734444891425 0.0005841473947209865 0 -0.0051408959474141449 0.00042040162545997178 0 -0.011848243192232828 0.0011516288395826916 0 -0.011826093502398067 0.00051365062292049865 0 -0.012320872967602524 0.0010609761437949331 0 -0.011848243192232828 0.0011516288395826916 0 -0.012070949014546853 0.0015386560465577488 0 -0.012320872967602524 0.0010609761437949331 0 0.0012813241931805283 0.001188560873832008 0 0.002102793236633121 0.00038815294625360369 0 0.0020962428586255803 0.00054382711071440377 0 -0.012360754111572756 0.00069005858115323406 0 -0.0051408959474141449 0.00042040162545997178 0 -0.006315573132682945 0.0013060489956878885 0 -0.0051408959474141449 0.00042040162545997178 0 0.0012813241931805283 0.001188560873832008 0 0.0021545514361322069 0.00069414133602316568 0 0.0019507912869896403 0.001308590284646595 0 0.0012813241931805283 0.001188560873832008 0 0.0021545514361322069 0.00069414133602316568 0 0.0020962428586255803 0.00054382711071440377 0 0.0029314825903609416 -0.00017923781107330016 0 0.0028731461163653844 -0.00028886405103593552 0 0.0027581318767011132 -0.00028989053004387165 0 0.0019507912869896403 0.001308590284646595 0 0.002555930926067226 0.001006327330128054 0 0.0024272399355665538 0.0017550319206253479 0 0.0021545514361322069 0.00069414133602316568 0 0.0019507912869896403 0.001308590284646595 0 0.002555930926067226 0.001006327330128054 0 0.0021545514361322069 0.00069414133602316568 0 0.002216948564117921 0.00056582012282611774 0 0.0024501881246668604 0.00096905377284891507 0 0.00019598734444891425 0.0005841473947209865 0 0.002569532673020093 0.00057900200038904742 0 0.0023696967809864618 0.00068327481363832218 0 0.002569532673020093 0.00057900200038904742 0 0.002569532673020093 0.00057900200038904742 0 0.0031313958092689374 0.0011609094940016336 0 0.0028731461163653844 -0.00028886405103593552 0 0.0027581318767011132 -0.00028989053004387165 0 0.0027567614255089999 -0.00043410011559635387 0 0.002569532673020093 0.00057900200038904742 0 0.0029396020882014725 -9.7997868156418831e-06 0 0.0029890395256951998 0.00023494687111331693 0 0.003158530136791148 0.0005060533059593295 0 0.0032050466510328375 0.00042364190700205944 0 0.0027979593521302751 0.0022398844828266738 0 0.001804036820427753 0.002505292833702519 0 0.0024272399355665538 0.0017550319206253479 0 0.002555930926067226 0.001006327330128054 0 0.0024272399355665538 0.0017550319206253479 0 0.0030339361765188105 0.0017134379632070848 0 0.0027979593521302751 0.0022398844828266738 0 0.0024272399355665538 0.0017550319206253479 0 0.0030339361765188105 0.0017134379632070848 0 0.001804036820427753 0.002505292833702519 0 0.0012813241931805283 0.001188560873832008 0 0.0019507912869896403 0.001308590284646595 0 0.001804036820427753 0.002505292833702519 0 0.0019507912869896403 0.001308590284646595 0 0.0024272399355665538 0.0017550319206253479 0 0.0017814437424774981 -0.0002107937066053826 0 0.0014558320697886167 -0.00017741179857890942 0 0.0023897974969612594 -0.00039363337285555774 0 0.0025917397840283115 -0.00020033727195131181 0 0.0020527375818422777 -0.00022021039145486706 0 0.0023897974969612594 -0.00039363337285555774 0 0.0026218966149144088 -0.00036602123946829996 0 0.0025769098602983348 -0.00053337863792208347 0 0.0023897974969612594 -0.00039363337285555774 0 0.0025917397840283115 -0.00020033727195131181 0 0.0026218966149144088 -0.00036602123946829996 0 0.0029314825903609416 -0.00017923781107330016 0 0.0025917397840283115 -0.00020033727195131181 0 0.0027581318767011132 -0.00028989053004387165 0 0.0025917397840283115 -0.00020033727195131181 0 0.0027581318767011132 -0.00028989053004387165 0 0.0026218966149144088 -0.00036602123946829996 0 0.0027581318767011132 -0.00028989053004387165 0 0.0026218966149144088 -0.00036602123946829996 0 0.0027567614255089999 -0.00043410011559635387 0 0.0026218966149144088 -0.00036602123946829996 0 0.0027567614255089999 -0.00043410011559635387 0 0.0025769098602983348 -0.00053337863792208347 0 0.0029396020882014725 -9.7997868156418831e-06 0 0.0031767859211280559 -7.1287045430771989e-05 0 0.0027567614255089999 -0.00043410011559635387 0 0.0026180986908737229 -0.00059964239155614173 0 0.0025769098602983348 -0.00053337863792208347 0 0.003158530136791148 0.0005060533059593295 0 0.0032050466510328375 0.00042364190700205944 0 0.0034178336847614384 0.00061292277609416084 0 0.0034975261381775136 0.0024272940146473497 0 0.0027979593521302751 0.0022398844828266738 0 0.0030339361765188105 0.0017134379632070848 0 0.0041562885888405433 0.00090677611336543009 0 0.0031313958092689374 0.0011609094940016336 0 0.0033256680594257572 0.00077785638391849677 0 0.003158530136791148 0.0005060533059593295 0 0.0034178336847614384 0.00061292277609416084 0 0.0024377198433755314 -0.0008866612990069485 0 0.0026423117963190104 -0.00063528614031197123 0 0.0024738258761469512 -0.00063306965998139429 0 0.0026423117963190104 -0.00063528614031197123 0 0.0025769098602983348 -0.00053337863792208347 0 0.0024738258761469512 -0.00063306965998139429 0 0.0024377198433755314 -0.0008866612990069485 0 0.0024738258761469512 -0.00063306965998139429 0 0.0022815055452271751 -0.00058266485751616766 0 0.0031767859211280559 -7.1287045430771989e-05 0 0.0030334040623748388 -0.00026930461474538529 0 0.0025769098602983348 -0.00053337863792208347 0 0.0024268736015333318 -0.00052749754969625827 0 0.0024738258761469512 -0.00063306965998139429 0 0.0024268736015333318 -0.00052749754969625827 0 0.0024738258761469512 -0.00063306965998139429 0 0.0022815055452271751 -0.00058266485751616766 0 0.0023897974969612594 -0.00039363337285555774 0 0.0025769098602983348 -0.00053337863792208347 0 0.0024268736015333318 -0.00052749754969625827 0 0.0023897974969612594 -0.00039363337285555774 0 0.0024268736015333318 -0.00052749754969625827 0 0.0022815055452271751 -0.00058266485751616766 0 0.0021687184132433237 -0.00084927239387089216 0 0.0022815055452271751 -0.00058266485751616766 0 0.0019424049346606046 -0.00062292417644404521 0 0.0020796778625817251 -0.00044516358689827547 0 0.0022815055452271751 -0.00058266485751616766 0 0.0019424049346606046 -0.00062292417644404521 0 0.0023897974969612594 -0.00039363337285555774 0 0.0020796778625817251 -0.00044516358689827547 0 0.0022815055452271751 -0.00058266485751616766 0 0.0020796778625817251 -0.00044516358689827547 0 0.0019424049346606046 -0.00062292417644404521 0 0.0015499731970986036 -0.0004334941387282809 0 0.0013139699986801875 -0.00031336864220537071 0 0.0028821827892413321 -0.0025549608473508312 0 0.0018578137125991974 -0.00091663894981773293 0 0.0019424049346606046 -0.00062292417644404521 0 0.0016564833633495168 -0.00054954455624464161 0 0.0010010920670883762 -0.00012582541777456818 0 0.0011904530553183234 -0.00037259699573383945 0 0.0015160157696602545 -0.00035706967795153438 0 0.0020796778625817251 -0.00044516358689827547 0 0.0020527375818422777 -0.00022021039145486706 0 0.0015499731970986036 -0.0004334941387282809 0 0.0014558320697886167 -0.00017741179857890942 0 0.0015321448178026789 -0.0003296999871696625 0 0.0023897974969612594 -0.00039363337285555774 0 0.0020796778625817251 -0.00044516358689827547 0 0.0020527375818422777 -0.00022021039145486706 0 0.00045591712838940503 -3.9809695666345287e-05 0 0.0010010920670883762 -0.00012582541777456818 0 0.00080581438970206561 -0.00043197730521987195 0 0.0010010920670883762 -0.00012582541777456818 0 0.0011904530553183234 -0.00037259699573383945 0 0.00080581438970206561 -0.00043197730521987195 0 0.0011904530553183234 -0.00037259699573383945 0 0.0012159552063413335 -0.00057318784095647651 0 0.00080581438970206561 -0.00043197730521987195 0 0.0011489752486403676 -0.0007254327777566021 0 0.0012159552063413335 -0.00057318784095647651 0 0.00080581438970206561 -0.00043197730521987195 0 0.0018832499800332464 -0.0014830364240393877 0 0.0017428373762817175 -0.001271884760038072 0 0.0015470313720958731 -0.00091318320522436889 0 0.0015025731478148739 -0.00034899061543882586 0 0.0016903394221186273 -0.0012294441989917403 0 0.0015470313720958731 -0.00091318320522436889 0 0.0014290327707436829 -0.00073786284614548467 0 0.0015025731478148739 -0.00034899061543882586 0 0.0014793779215485964 -0.00083513442571273347 0 0.0015470313720958731 -0.00091318320522436889 0 0.0014290327707436829 -0.00073786284614548467 0 0.0013360471286610965 -0.00072797788388037101 0 0.0012159552063413335 -0.00057318784095647651 0 0.0014290327707436829 -0.00073786284614548467 0 0.0012159552063413335 -0.00057318784095647651 0 0.0014290327707436829 -0.00073786284614548467 0 0.0013581659590399869 -0.00044665710050989445 0 0.0011904530553183234 -0.00037259699573383945 0 0.0013581659590399869 -0.00044665710050989445 0 0.0015160157696602545 -0.00035706967795153438 0 0.0013581659590399869 -0.00044665710050989445 0 0.0015025731478148739 -0.00034899061543882586 0 0.0015160157696602545 -0.00035706967795153438 0 0.0011904530553183234 -0.00037259699573383945 0 0.0012159552063413335 -0.00057318784095647651 0 0.0013581659590399869 -0.00044665710050989445 0 0.0014290327707436829 -0.00073786284614548467 0 0.0013581659590399869 -0.00044665710050989445 0 0.0015025731478148739 -0.00034899061543882586 0 0.0025129645102953233 -0.0028571046968563882 0 0.0031113796477210015 -0.0038309174698580107 0 0.0019388080083196362 -0.0034594179062887825 0 0.0028821827892413321 -0.0025549608473508312 0 0.0031425030143000746 -0.0043933773243949193 0 0.0020527375818422777 -0.00022021039145486706 0 0.0015160157696602545 -0.00035706967795153438 0 0.0015499731970986036 -0.0004334941387282809 0 0.0015025731478148739 -0.00034899061543882586 0 0.0015160157696602545 -0.00035706967795153438 0 0.0015499731970986036 -0.0004334941387282809 0 0.0018832499800332464 -0.0014830364240393877 0 0.0028821827892413321 -0.0025549608473508312 0 0.0031639107793300656 -0.0033147568032975364 0 0.0028821827892413321 -0.0025549608473508312 0 0.0044551620087867963 -0.0053871473734447657 0 0.0045038418189764281 -0.0049632317871628568 0 0.0041749480348017582 -0.0051142201211286176 0 0.0045038418189764281 -0.0049632317871628568 0 0.0041749480348017582 -0.0051142201211286176 0 0.0038103266303689113 -0.0047592922721650995 0 0.0044551620087867963 -0.0053871473734447657 0 0.0039305544415837428 -0.0053503692785879433 0 0.0041749480348017582 -0.0051142201211286176 0 0.0039305544415837428 -0.0053503692785879433 0 0.0041749480348017582 -0.0051142201211286176 0 0.0038103266303689113 -0.0047592922721650995 0 0.0039305544415837428 -0.0053503692785879433 0 0.0033423642605020783 -0.005541753332098805 0 0.0033772307400038041 -0.0050653924315453907 0 0.0039305544415837428 -0.0053503692785879433 0 0.0033772307400038041 -0.0050653924315453907 0 0.0038103266303689113 -0.0047592922721650995 0 0.0033423642605020783 -0.005541753332098805 0 0.0033772307400038041 -0.0050653924315453907 0 0.0028207700446633019 -0.0053046201158637278 0 0.0031425030143000746 -0.0043933773243949193 0 0.0020093646527311474 -0.0036980476339235923 0 0.0033772307400038041 -0.0050653924315453907 0 0.0028207700446633019 -0.0053046201158637278 0 0.003063235315675913 -0.0044054904881474189 0 0.0033772307400038041 -0.0050653924315453907 0 0.0038103266303689113 -0.0047592922721650995 0 0.003063235315675913 -0.0044054904881474189 0 0.0022629022815898302 -0.0057617037838432776 0 0.0028207700446633019 -0.0053046201158637278 0 0.0020383274054547847 -0.0050809683104824591 0 0.0022629022815898302 -0.0057617037838432776 0 0.0020383274054547847 -0.0050809683104824591 0 0.0017352601502286316 -0.0056413721517628431 0 0.0028207700446633019 -0.0053046201158637278 0 0.003063235315675913 -0.0044054904881474189 0 0.0020383274054547847 -0.0050809683104824591 0 0.0020383274054547847 -0.0050809683104824591 0 0.0012693553811596663 -0.0036844460450902879 0 0.0012214513842166539 -0.0050112423167528366 0 0.003063235315675913 -0.0044054904881474189 0 0.0020383274054547847 -0.0050809683104824591 0 0.0012693553811596663 -0.0036844460450902879 0 0.0020093646527311474 -0.0036980476339235923 0 0.0013142298878426456 -0.0036615245283809616 0 0.0011531053766650249 -0.0030419257453541109 0 0.0012693553811596663 -0.0036844460450902879 0 0.0012213745109264157 -0.0028898336580354743 0 0.0012693553811596663 -0.0036844460450902879 0 0.0011271518730833583 -0.0027528798200336683 0 0.0012213745109264157 -0.0028898336580354743 0 0.0012693553811596663 -0.0036844460450902879 0 0.0011271518730833583 -0.0027528798200336683 0 0.00066782931811341169 -0.0027289307439099415 0 0.0025129645102953233 -0.0028571046968563882 0 0.0014328557218995382 -0.0025843465424386391 0 0.0016903394221186273 -0.0012294441989917403 0 0.0025129645102953233 -0.0028571046968563882 0 0.0019388080083196362 -0.0034594179062887825 0 0.0014328557218995382 -0.0025843465424386391 0 0.0011531053766650249 -0.0030419257453541109 0 0.0014328557218995382 -0.0025843465424386391 0 0.0012213745109264157 -0.0028898336580354743 0 0.0019388080083196362 -0.0034594179062887825 0 0.0011531053766650249 -0.0030419257453541109 0 0.0014328557218995382 -0.0025843465424386391 0 0.0014328557218995382 -0.0025843465424386391 0 0.0013490778724325439 -0.0025900643138260025 0 0.0015813644741491126 -0.0023699000881213217 0 0.0014328557218995382 -0.0025843465424386391 0 0.0012213745109264157 -0.0028898336580354743 0 0.0013490778724325439 -0.0025900643138260025 0 0.0011271518730833583 -0.0027528798200336683 0 0.0012213745109264157 -0.0028898336580354743 0 0.0013490778724325439 -0.0025900643138260025 0 0.0011271518730833583 -0.0027528798200336683 0 0.0013490778724325439 -0.0025900643138260025 0 0.0012187154580634327 -0.0023894838532103712 0 0.0014328557218995382 -0.0025843465424386391 0 0.0016903394221186273 -0.0012294441989917403 0 0.0014141536395794808 -0.00076736179747940384 0 0.001435536361643398 -0.0024959025354782966 0 0.0014962543481256113 -0.0015951538473415155 0 0.0015470313720958731 -0.00091318320522436889 0 0.0016903394221186273 -0.0012294441989917403 0 0.001577183134956281 -0.0009140639653495734 0 0.0016903394221186273 -0.0012294441989917403 0 0.001577183134956281 -0.0009140639653495734 0 0.0014141536395794808 -0.00076736179747940384 0 0.0014676469899469764 -0.00079536991775401458 0 0.001577183134956281 -0.0009140639653495734 0 0.0014141536395794808 -0.00076736179747940384 0 0.0014676469899469764 -0.00079536991775401458 0 0.0014141536395794808 -0.00076736179747940384 0 0.0014012536679338682 -0.0007624789044654611 0 0.0014962543481256113 -0.0015951538473415155 0 0.0014848691141316837 -0.0011126676652261169 0 0.0015813644741491126 -0.0023699000881213217 0 0.001083169830357375 -0.0018874018466679631 0 0.0015949551035955827 -0.0014792695854866417 0 0.0015813644741491126 -0.0023699000881213217 0 0.001083169830357375 -0.0018874018466679631 0 0.0012187154580634327 -0.0023894838532103712 0 0.0013490778724325439 -0.0025900643138260025 0 0.0015813644741491126 -0.0023699000881213217 0 0.0012187154580634327 -0.0023894838532103712 0 0.0011271518730833583 -0.0027528798200336683 0 0.0012187154580634327 -0.0023894838532103712 0 0.00093613938594268298 -0.0022833127017951997 0 0.0011271518730833583 -0.0027528798200336683 0 0.00066782931811341169 -0.0027289307439099415 0 0.00093613938594268298 -0.0022833127017951997 0 0.001083169830357375 -0.0018874018466679631 0 0.0012187154580634327 -0.0023894838532103712 0 0.00093613938594268298 -0.0022833127017951997 0 0.00066782931811341169 -0.0027289307439099415 0 0.00093613938594268298 -0.0022833127017951997 0 0.00049303857710616148 -0.0019144615251392727 0 0.00066782931811341169 -0.0027289307439099415 0 0.00049303857710616148 -0.0019144615251392727 0 -0.00020343400746487776 -0.0019513500625587428 0 0.00049303857710616148 -0.0019144615251392727 0 -8.4097685021520371e-06 -0.0010698836220754202 0 -0.00020343400746487776 -0.0019513500625587428 0 0.001083169830357375 -0.0018874018466679631 0 0.00093613938594268298 -0.0022833127017951997 0 0.00049303857710616148 -0.0019144615251392727 0 0.001083169830357375 -0.0018874018466679631 0 0.00049303857710616148 -0.0019144615251392727 0 0.00066368749354066563 -0.0010854856772133609 0 0.00049303857710616148 -0.0019144615251392727 0 0.00066368749354066563 -0.0010854856772133609 0 -8.4097685021520371e-06 -0.0010698836220754202 0 0.00066368749354066563 -0.0010854856772133609 0 -8.4097685021520371e-06 -0.0010698836220754202 0 -0.00018106821162552531 -0.0003452928738152751 0 0.00066368749354066563 -0.0010854856772133609 0 -0.00018106821162552531 -0.0003452928738152751 0 0.00064450972176840181 -0.00018195881181801382 0 0.00066368749354066563 -0.0010854856772133609 0 0.0010059746456638587 -0.00070141466109724024 0 0.00064450972176840181 -0.00018195881181801382 0 0.0010059746456638587 -0.00070141466109724024 0 0.0013946877506909102 -0.00059055554170419548 0 0.0015949551035955827 -0.0014792695854866417 0 0.0010059746456638587 -0.00070141466109724024 0 0.0013946877506909102 -0.00059055554170419548 0 0.0011528387040200966 -9.6407283508326896e-05 0 0.001421487071690505 -0.00064236689908210088 0 0.0014848691141316837 -0.0011126676652261169 0 0.0014227299252639858 -0.00076436786202100867 0 0.0013946877506909102 -0.00059055554170419548 0 0.0014012536679338682 -0.0007624789044654611 0 0.00066368749354066563 -0.0010854856772133609 0 0.0010059746456638587 -0.00070141466109724024 0 0.0015949551035955827 -0.0014792695854866417 0 0.001083169830357375 -0.0018874018466679631 0 0.00066368749354066563 -0.0010854856772133609 0 0.0015949551035955827 -0.0014792695854866417 0 -0.0046260663466525676 -0.00087426140174279602 0 -0.0062025984784895294 -0.00015606971605325806 0 -0.0055685709487041804 -3.4347754000864445e-05 0 -0.0034434496682241851 -0.00098825962400654111 0 -0.0038443317984188513 -6.4476794035272142e-05 0 -0.0022855020576118728 -0.00089145525971878541 0 -0.0011602467164724976 -0.00017651322336288328 0 -0.0021346654591079231 -3.8744261759522532e-05 0 -0.0022855020576118728 -0.00089145525971878541 0 -0.00081581098199645327 -0.0010467321473991479 0 -0.0013020378627871968 -0.00178536014594764 0 -0.0022855020576118728 -0.00089145525971878541 0 -0.00081581098199645327 -0.0010467321473991479 0 -0.0011602467164724976 -0.00017651322336288328 0 -8.4097685021520371e-06 -0.0010698836220754202 0 -0.00018106821162552531 -0.0003452928738152751 0 -0.00081581098199645327 -0.0010467321473991479 0 -0.00018106821162552531 -0.0003452928738152751 0 -0.00081581098199645327 -0.0010467321473991479 0 -0.0011602467164724976 -0.00017651322336288328 0 -8.4097685021520371e-06 -0.0010698836220754202 0 -0.00081581098199645327 -0.0010467321473991479 0 -0.00020343400746487776 -0.0019513500625587428 0 -0.00081581098199645327 -0.0010467321473991479 0 -0.0013020378627871968 -0.00178536014594764 0 -0.00020343400746487776 -0.0019513500625587428 0 0.00066782931811341169 -0.0027289307439099415 0 -0.00020343400746487776 -0.0019513500625587428 0 -0.00060274535133013406 -0.0030765758000768128 0 -0.0013020378627871968 -0.00178536014594764 0 -0.00020343400746487776 -0.0019513500625587428 0 -0.00060274535133013406 -0.0030765758000768128 0 -0.0013020378627871968 -0.00178536014594764 0 -0.0029856944321371027 -0.0021699625614069553 0 -0.00060274535133013406 -0.0030765758000768128 0 -0.0022855020576118728 -0.00089145525971878541 0 -0.0013020378627871968 -0.00178536014594764 0 -0.0029856944321371027 -0.0021699625614069553 0 -0.0034434496682241851 -0.00098825962400654111 0 -0.0030846955653070734 -0.0022107058653114157 0 -0.0046260663466525676 -0.00087426140174279602 0 -0.0029856944321371027 -0.0021699625614069553 0 -0.0051807680134178073 -0.0014296777626203146 0 -0.0029856944321371027 -0.0021699625614069553 0 -0.0051807680134178073 -0.0014296777626203146 0 -0.0043118660977356634 -0.002601749246536222 0 -0.0029856944321371027 -0.0021699625614069553 0 -0.0024063461941104991 -0.0032301579851955055 0 -0.0043118660977356634 -0.002601749246536222 0 -0.0024063461941104991 -0.0032301579851955055 0 -0.0036834326722247047 -0.003769846427276324 0 -0.0043118660977356634 -0.002601749246536222 0 -0.0024063461941104991 -0.0032301579851955055 0 -0.0015641479958769188 -0.0042253706933923435 0 -0.0036834326722247047 -0.003769846427276324 0 -0.0024063461941104991 -0.0032301579851955055 0 -0.0015641479958769188 -0.0042253706933923435 0 -0.00060274535133013406 -0.0030765758000768128 0 -0.0029856944321371027 -0.0021699625614069553 0 -0.0024063461941104991 -0.0032301579851955055 0 -0.00060274535133013406 -0.0030765758000768128 0 -0.0015641479958769188 -0.0042253706933923435 0 -0.00060274535133013406 -0.0030765758000768128 0 -3.2708523551064155e-05 -0.0044854424918789925 0 -0.0015641479958769188 -0.0042253706933923435 0 -0.0029545989952876866 -0.0046890174102536299 0 -0.001820360944196285 -0.0049529494650926995 0 -0.0015641479958769188 -0.0042253706933923435 0 -0.0029545989952876866 -0.0046890174102536299 0 -0.0036834326722247047 -0.003769846427276324 0 0.0012693553811596663 -0.0036844460450902879 0 0.00066782931811341169 -0.0027289307439099415 0 -0.00060274535133013406 -0.0030765758000768128 0 0.0012693553811596663 -0.0036844460450902879 0 -0.00060274535133013406 -0.0030765758000768128 0 -3.2708523551064155e-05 -0.0044854424918789925 0 0.0012693553811596663 -0.0036844460450902879 0 -3.2708523551064155e-05 -0.0044854424918789925 0 0.0012214513842166539 -0.0050112423167528366 0 -3.2708523551064155e-05 -0.0044854424918789925 0 0.0012214513842166539 -0.0050112423167528366 0 0.0011042512497318271 -0.0058842137878173436 0 -3.2708523551064155e-05 -0.0044854424918789925 0 0.0011042512497318271 -0.0058842137878173436 0 -0.00065171083675374085 -0.0052221381264995108 0 0.0019258559193061021 -0.0061207698552004433 0 0.0011042512497318271 -0.0058842137878173436 0 0.0017352601502286316 -0.0056413721517628431 0 0.001526816701583372 -0.0063236204761950646 0 0.0011042512497318271 -0.0058842137878173436 0 0.001095712655992084 -0.0067502775410909393 0 0.001526816701583372 -0.0063236204761950646 0 0.0019258559193061021 -0.0061207698552004433 0 0.0011042512497318271 -0.0058842137878173436 0 0.0020383274054547847 -0.0050809683104824591 0 0.0012214513842166539 -0.0050112423167528366 0 0.0017352601502286316 -0.0056413721517628431 0 0.0012214513842166539 -0.0050112423167528366 0 0.0011042512497318271 -0.0058842137878173436 0 0.0017352601502286316 -0.0056413721517628431 0 -0.0022256921373723501 -0.005708154712377937 0 -0.001820360944196285 -0.0049529494650926995 0 -0.00065171083675374085 -0.0052221381264995108 0 -0.0029545989952876866 -0.0046890174102536299 0 -0.0022256921373723501 -0.005708154712377937 0 -0.001820360944196285 -0.0049529494650926995 0 -0.0029545989952876866 -0.0046890174102536299 0 -0.0022256921373723501 -0.005708154712377937 0 -0.0036662258026853786 -0.0052573604741569776 0 -0.0015641479958769188 -0.0042253706933923435 0 -3.2708523551064155e-05 -0.0044854424918789925 0 -0.00065171083675374085 -0.0052221381264995108 0 -0.0022256921373723501 -0.005708154712377937 0 -0.00065171083675374085 -0.0052221381264995108 0 -0.00021997692837431141 -0.0060751353912384667 0 -0.0015641479958769188 -0.0042253706933923435 0 -0.001820360944196285 -0.0049529494650926995 0 -0.00065171083675374085 -0.0052221381264995108 0 0.0011042512497318271 -0.0058842137878173436 0 -0.00021997692837431141 -0.0060751353912384667 0 0.001095712655992084 -0.0067502775410909393 0 0.0011042512497318271 -0.0058842137878173436 0 -0.00065171083675374085 -0.0052221381264995108 0 -0.00021997692837431141 -0.0060751353912384667 0 -0.00021997692837431141 -0.0060751353912384667 0 0.001095712655992084 -0.0067502775410909393 0 -0.0014060896016870397 -0.0067168805438401367 0 -0.0022256921373723501 -0.005708154712377937 0 -0.00021997692837431141 -0.0060751353912384667 0 -0.0014060896016870397 -0.0067168805438401367 0 -0.0022256921373723501 -0.005708154712377937 0 -0.0014060896016870397 -0.0067168805438401367 0 -0.0028496793067008183 -0.0069806433619949079 0 -0.0024958148827122087 -0.0084383201507121416 0 -0.0014060896016870397 -0.0067168805438401367 0 -0.0028496793067008183 -0.0069806433619949079 0 -0.0038936380731980857 -0.0076196073014036672 0 -0.0028496793067008183 -0.0069806433619949079 0 -0.0040221480852609733 -0.0062259501363254111 0 -0.0022256921373723501 -0.005708154712377937 0 -0.0028496793067008183 -0.0069806433619949079 0 -0.0040221480852609733 -0.0062259501363254111 0 -0.0038936380731980857 -0.0076196073014036672 0 -0.0040221480852609733 -0.0062259501363254111 0 -0.0051071821068540656 -0.0073344257156793607 0 -0.0022256921373723501 -0.005708154712377937 0 -0.0040221480852609733 -0.0062259501363254111 0 -0.0036662258026853786 -0.0052573604741569776 0 -0.0040221480852609733 -0.0062259501363254111 0 -0.0036662258026853786 -0.0052573604741569776 0 -0.0046905484772499827 -0.0050494300149110678 0 -0.0036662258026853786 -0.0052573604741569776 0 -0.0046905484772499827 -0.0050494300149110678 0 -0.0041743609399862497 -0.0045103303771468978 0 -0.0029545989952876866 -0.0046890174102536299 0 -0.0036662258026853786 -0.0052573604741569776 0 -0.0041743609399862497 -0.0045103303771468978 0 -0.0059767625868109549 -0.0049745970983430506 0 -0.0058304415963753992 -0.0055300643779533868 0 -0.0064418683077528092 -0.0061973729140975924 0 -0.005210930549975356 -0.0049390406272736441 0 -0.0054233938488604553 -0.0057692037657776528 0 -0.0056339060851288703 -0.0045767348064136206 0 -0.0032853588018792648 -0.0064941400954213026 0 -0.0057746473795848279 -0.004414368035155684 0 -0.0059767625868109549 -0.0049745970983430506 0 -0.0058304415963753992 -0.0055300643779533868 0 -0.0059854195688281821 -0.0046927936366318347 0 -0.0045796865774129312 -0.00569811546672224 0 -0.0032853588018792648 -0.0064941400954213026 0 -0.0046905484772499827 -0.0050494300149110678 0 -0.005210930549975356 -0.0049390406272736441 0 -0.0054233938488604553 -0.0057692037657776528 0 -0.0040221480852609733 -0.0062259501363254111 0 -0.0046905484772499827 -0.0050494300149110678 0 -0.005319287123688011 -0.0056689804155594268 0 -0.0040221480852609733 -0.0062259501363254111 0 -0.005319287123688011 -0.0056689804155594268 0 -0.0051071821068540656 -0.0073344257156793607 0 0.0010479343894907623 -0.0087381352766790037 0 0.00096796037820552747 -0.0078983697607555251 0 0.001668807314733475 -0.0081815149012244952 0 -0.0032853588018792648 -0.0064941400954213026 0 -0.0021668670741525858 -0.0075956745249526492 0 -0.0032853588018792648 -0.0064941400954213026 0 -0.0040303864188539033 -0.0061744701710587753 0 -0.0079433859750247405 -0.0023817115855683363 0 -0.0082874785214522087 -0.0028033851012578973 0 -0.007870951541300077 -0.0028079236603452671 0 -0.0082874785214522087 -0.0028033851012578973 0 -0.007870951541300077 -0.0028079236603452671 0 -0.0080757990903011084 -0.0030332920836429549 0 -0.007870951541300077 -0.0028079236603452671 0 -0.0080757990903011084 -0.0030332920836429549 0 -0.0079140499024134853 -0.0030548346484366015 0 -0.0080757990903011084 -0.0030332920836429549 0 -0.008100926874369755 -0.0031578684168193411 0 -0.0081742447733696624 -0.0032513035297971667 0 -0.0080757990903011084 -0.0030332920836429549 0 -0.008100926874369755 -0.0031578684168193411 0 -0.0079140499024134853 -0.0030548346484366015 0 -0.0082874785214522087 -0.0028033851012578973 0 -0.0080757990903011084 -0.0030332920836429549 0 -0.0081742447733696624 -0.0032513035297971667 0 -0.0059767625868109549 -0.0049745970983430506 0 -0.0065939523216946017 -0.0063659273405965991 0 -0.0063665006854193408 -0.0048709834912874592 0 -0.0065939523216946017 -0.0063659273405965991 0 -0.0063665006854193408 -0.0048709834912874592 0 -0.0067851572102973507 -0.0047540251562396248 0 -0.006620305043668155 -0.0052820939136878613 0 -0.0040303864188539033 -0.0061744701710587753 0 -0.0040303864188539033 -0.0061744701710587753 0 -0.007906546334713993 -0.0036009421548012623 0 -0.0063665006854193408 -0.0048709834912874592 0 -0.0067851572102973507 -0.0047540251562396248 0 -0.0064699208608947779 -0.0042121524258314095 0 -0.0067851572102973507 -0.0047540251562396248 0 -0.0064699208608947779 -0.0042121524258314095 0 -0.0071428800136883602 -0.0030946921246019607 0 -0.0063665006854193408 -0.0048709834912874592 0 -0.0064699208608947779 -0.0042121524258314095 0 -0.0059854195688281821 -0.0046927936366318347 0 -0.0064699208608947779 -0.0042121524258314095 0 -0.0061110159660371626 -0.0036627733795725668 0 -0.0059854195688281821 -0.0046927936366318347 0 -0.008100926874369755 -0.0031578684168193411 0 -0.0081530125766693558 -0.0032235171028701481 0 -0.0079140499024134853 -0.0030548346484366015 0 -0.0081742447733696624 -0.0032513035297971667 0 -0.0081530125766693558 -0.0032235171028701481 0 -0.0082232940422163735 -0.0032567771180857588 0 -0.008100926874369755 -0.0031578684168193411 0 -0.0081742447733696624 -0.0032513035297971667 0 -0.0081530125766693558 -0.0032235171028701481 0 -0.0082232940422163735 -0.0032567771180857588 0 -0.0085237526177453331 -0.0032073898460568693 0 -0.0084245178537690271 -0.0025198357117185298 0 -0.0082232940422163735 -0.0032567771180857588 0 -0.0079424006112729061 -0.0030630512789277795 0 -0.0084245178537690271 -0.0025198357117185298 0 -0.0082232940422163735 -0.0032567771180857588 0 -0.0082213802205931864 -0.0032462421562491103 0 -0.0085237526177453331 -0.0032073898460568693 0 -0.0081530125766693558 -0.0032235171028701481 0 -0.0082232940422163735 -0.0032567771180857588 0 -0.0082213802205931864 -0.0032462421562491103 0 -0.007906546334713993 -0.0036009421548012623 0 -0.0075156828623915307 -0.0031152710113892461 0 -0.0081742447733696624 -0.0032513035297971667 0 -0.0082232940422163735 -0.0032567771180857588 0 -0.0079424006112729061 -0.0030630512789277795 0 -0.0064699208608947779 -0.0042121524258314095 0 -0.0071428800136883602 -0.0030946921246019607 0 -0.0061110159660371626 -0.0036627733795725668 0 -0.0071428800136883602 -0.0030946921246019607 0 -0.0061110159660371626 -0.0036627733795725668 0 -0.0064720113451198352 -0.00246708035952194 0 -0.0061110159660371626 -0.0036627733795725668 0 -0.005180154519481589 -0.0031263785501170959 0 -0.0064720113451198352 -0.00246708035952194 0 -0.0061110159660371626 -0.0036627733795725668 0 -0.005180154519481589 -0.0031263785501170959 0 -0.0048587536238036714 -0.0039423811558059636 0 -0.005180154519481589 -0.0031263785501170959 0 -0.0036834326722247047 -0.003769846427276324 0 -0.0043118660977356634 -0.002601749246536222 0 -0.005180154519481589 -0.0031263785501170959 0 -0.0036834326722247047 -0.003769846427276324 0 -0.0048587536238036714 -0.0039423811558059636 0 -0.0036834326722247047 -0.003769846427276324 0 -0.0041743609399862497 -0.0045103303771468978 0 -0.0048587536238036714 -0.0039423811558059636 0 -0.0029545989952876866 -0.0046890174102536299 0 -0.0036834326722247047 -0.003769846427276324 0 -0.0041743609399862497 -0.0045103303771468978 0 -0.0046905484772499827 -0.0050494300149110678 0 -0.005210930549975356 -0.0049390406272736441 0 -0.0051352309306129619 -0.0044381362168678176 0 -0.0046905484772499827 -0.0050494300149110678 0 -0.0041743609399862497 -0.0045103303771468978 0 -0.0051352309306129619 -0.0044381362168678176 0 -0.005210930549975356 -0.0049390406272736441 0 -0.0051352309306129619 -0.0044381362168678176 0 -0.0056339060851288703 -0.0045767348064136206 0 -0.0059767625868109549 -0.0049745970983430506 0 -0.0063665006854193408 -0.0048709834912874592 0 -0.0059854195688281821 -0.0046927936366318347 0 -0.0060209195781221678 -0.003813089570455069 0 -0.0057746473795848279 -0.004414368035155684 0 -0.0061110159660371626 -0.0036627733795725668 0 -0.0051352309306129619 -0.0044381362168678176 0 -0.0056339060851288703 -0.0045767348064136206 0 -0.0041743609399862497 -0.0045103303771468978 0 -0.0051352309306129619 -0.0044381362168678176 0 -0.0048587536238036714 -0.0039423811558059636 0 -0.0061110159660371626 -0.0036627733795725668 0 -0.0051352309306129619 -0.0044381362168678176 0 -0.0048587536238036714 -0.0039423811558059636 0 -0.00014906414696644766 0.00026906370371161475 0 -0.0014730012367090619 0.0016330483279689784 0 -0.001600360053462364 -0.00016531826997788054 0 -0.00014906414696644766 0.00026906370371161475 0 -0.001600360053462364 -0.00016531826997788054 0 -0.00037451241872041833 -0.0015772819324192417 0 0.00018159575502121677 0.0024953450457382027 0 0.00044575141306570369 0.0012543486982404368 0 0.00013299040974568615 0.0021736464601253293 0 -0.00014906414696644766 0.00026906370371161475 0 -0.00058102927707448775 0.0016638038478224554 0 -0.00014906414696644766 0.00026906370371161475 0 -0.00058102927707448775 0.0016638038478224554 0 -0.0014730012367090619 0.0016330483279689784 0 -0.00057469872411985794 0.002548041166056694 0 -0.00058102927707448775 0.0016638038478224554 0 -0.0014730012367090619 0.0016330483279689784 0 -0.0076918006751553252 -0.00067178835387703172 0 -0.0063832498659040313 -0.0011551859453172979 0 -0.0076747857783724029 -0.0019231940004689489 0 -0.0050234356408073401 -0.00014148969037458382 0 -0.0064012164681676838 -0.0020514921193063381 0 -0.0056989967786565537 -9.8951119492749397e-06 0 -0.0058161814417454433 -0.0012563950131532617 0 -0.0059949960914969938 -0.0013025973537188953 0 -0.0050234356408073401 -0.00014148969037458382 0 -0.0033743649120167528 -0.00063953160364277166 0 -0.0063832498659040313 -0.0011551859453172979 0 -0.0069542008882139033 -0.0027467492852788758 0 -0.0076747857783724029 -0.0019231940004689489 0 -0.0069542008882139033 -0.0027467492852788758 0 -0.0076747857783724029 -0.0019231940004689489 0 -0.0076183780189114725 -0.0029495534360883804 0 -0.0075609757493201417 -0.0021121692555622382 0 -0.0076212102001671543 -0.0029633333969759823 0 -0.007797871043468743 -0.0029476663947114413 0 -0.0076570999452808992 -0.0028385356958259911 0 -0.0076183780189114725 -0.0029495534360883804 0 -0.007797871043468743 -0.0029476663947114413 0 -0.0076570999452808992 -0.0028385356958259911 0 -0.0078103153509618464 -0.0028063347079259194 0 -0.0028587060262749262 -0.0030663229165504833 0 -0.0075609757493201417 -0.0021121692555622382 0 -0.0076282304187717791 -0.002629304517958763 0 -0.0076570999452808992 -0.0028385356958259911 0 -0.0078103153509618464 -0.0028063347079259194 0 -0.0069207992005156293 -0.0025666671064047651 0 -0.0074471953149967528 -0.0024628596449906212 0 -0.0074046631212983226 -0.0028918561024461327 0 -0.0028587060262749262 -0.0030663229165504833 0 -0.0078827362437661804 -0.0031821440706740959 0 -0.0074471953149967528 -0.0024628596449906212 0 -0.007870951541300077 -0.0028079236603452671 0 -0.0074046631212983226 -0.0028918561024461327 0 -0.007870951541300077 -0.0028079236603452671 0 -0.0074046631212983226 -0.0028918561024461327 0 -0.0079140499024134853 -0.0030548346484366015 0 -0.0078827362437661804 -0.0031821440706740959 0 -0.0077460232439575082 -0.0029123054014220961 0 -0.007797871043468743 -0.0029476663947114413 0 -0.0078103153509618464 -0.0028063347079259194 0 -0.0079140499024134853 -0.0030548346484366015 0 -0.007797871043468743 -0.0029476663947114413 0 -0.0079140499024134853 -0.0030548346484366015 0 -0.00797230681286633 -0.0031359700863397696 0 -0.0081530125766693558 -0.0032235171028701481 0 -0.00797230681286633 -0.0031359700863397696 0 -0.0082213802205931864 -0.0032462421562491103 0 -0.0081530125766693558 -0.0032235171028701481 0 -0.0079140499024134853 -0.0030548346484366015 0 -0.00797230681286633 -0.0031359700863397696 0 -0.0082213802205931864 -0.0032462421562491103 0 -0.0085237526177453331 -0.0032073898460568693 0 -0.0079133062402517579 -0.0034617951465540139 0 -0.0085237526177453331 -0.0032073898460568693 0 -0.0098596524104280683 -0.0036026565563488338 0 -0.0092994452556751216 -0.002777383691938284 0 -0.0084970213575669036 -0.0032777950068564234 0 -0.0089583315532539322 -0.0035250956266336983 0 -0.00797230681286633 -0.0031359700863397696 0 -0.0082213802205931864 -0.0032462421562491103 0 -0.0079133062402517579 -0.0034617951465540139 0 -0.0089583315532539322 -0.0035250956266336983 0 -0.0087038955027824248 -0.0031251303899112385 0 -0.0098596524104280683 -0.0036026565563488338 0 -0.010983214385356745 -0.0038688693803240761 0 -0.010902479842479546 -0.003367269545920819 0 -0.0079133062402517579 -0.0034617951465540139 0 -0.0077390846874655439 -0.0032666985109797079 0 -0.0073795049649334815 -0.0035153721217652911 0 -0.0098596524104280683 -0.0036026565563488338 0 -0.010902479842479546 -0.003367269545920819 0 -0.010217335439090083 -0.0026222465415491935 0 -0.00797230681286633 -0.0031359700863397696 0 -0.0079133062402517579 -0.0034617951465540139 0 -0.0077390846874655439 -0.0032666985109797079 0 -0.0077390846874655439 -0.0032666985109797079 0 -0.0076183780189114725 -0.0029495534360883804 0 -0.0073795049649334815 -0.0035153721217652911 0 -0.007797871043468743 -0.0029476663947114413 0 -0.00797230681286633 -0.0031359700863397696 0 -0.0076183780189114725 -0.0029495534360883804 0 -0.00797230681286633 -0.0031359700863397696 0 -0.0077390846874655439 -0.0032666985109797079 0 -0.0076183780189114725 -0.0029495534360883804 0 -0.0033743649120167528 -0.00063953160364277166 0 -0.0071390247039825354 -0.0015071325258616769 0 -0.001600360053462364 -0.00016531826997788054 0 -0.0017345261656339813 -0.0019307357163925115 0 -0.00037451241872041833 -0.0015772819324192417 0 -0.0058161814417454433 -0.0012563950131532617 0 -0.0059949960914969938 -0.0013025973537188953 0 -0.0059145927980116921 -0.0025171175292496928 0 -0.0059949960914969938 -0.0013025973537188953 0 -0.0062731504738623295 -0.0026107566808198329 0 -0.0059145927980116921 -0.0025171175292496928 0 -0.0069542008882139033 -0.0027467492852788758 0 -0.0076183780189114725 -0.0029495534360883804 0 -0.0073795049649334815 -0.0035153721217652911 0 -0.0064012164681676838 -0.0020514921193063381 0 -0.0087038955027824248 -0.0031251303899112385 0 -0.010970633643462025 -0.0038417590523386379 0 -0.010902479842479546 -0.003367269545920819 0 -0.011351192858597156 -0.0039456325988889802 0 -0.010902479842479546 -0.003367269545920819 0 -0.011351192858597156 -0.0039456325988889802 0 -0.010918601604505326 -0.0027014609168455805 0 -0.0071390247039825354 -0.0015071325258616769 0 -0.011961637625094989 -9.9982426260483568e-05 0 -0.0087038955027824248 -0.0031251303899112385 0 -0.0071390247039825354 -0.0015071325258616769 0 -0.0087038955027824248 -0.0031251303899112385 0 -0.0096838339749597963 -0.0036708160708478518 0 -0.011392146900042121 0.0026808655817594442 0 -0.010755039798480951 0.0028405681664739938 0 -0.010853294812556282 0.0021188492712756134 0 -0.0055030860881149189 0.0016287622203553002 0 -0.011257118795255898 0.0025177572677332512 0 -0.01028777693715416 0.0024383837183229906 0 -0.010717988056195693 0.0028691418218130551 0 -0.010853294812556282 0.0021188492712756134 0 0.00010142757316102278 0.0026471843167550544 0 0.00016647535290498165 0.0026189104618171881 0 6.1323427145163894e-05 0.0026482301920600039 0 0.00044575141306570369 0.0012543486982404368 0 -0.0055030860881149189 0.0016287622203553002 0 -0.0071390247039825354 -0.0015071325258616769 0 -0.0055030860881149189 0.0016287622203553002 0 -0.010482677700377089 0.0018005701927226684 0 -0.010767441702099844 0.0011652704291470362 0 -0.010853294812556282 0.0021188492712756134 0 -0.010767441702099844 0.0011652704291470362 0 -0.010853294812556282 0.0021188492712756134 0 -0.011519458596973235 0.0015652650617213636 0 -0.011351192858597156 -0.0039456325988889802 0 -0.011364576201213618 -0.0021504047637029441 0 -0.010918601604505326 -0.0027014609168455805 0 -0.011364576201213618 -0.0021504047637029441 0 -0.010918601604505326 -0.0027014609168455805 0 -0.010367589656070488 -0.0014626628406969229 0 -0.011392146900042121 0.0026808655817594442 0 -0.010853294812556282 0.0021188492712756134 0 -0.011519458596973235 0.0015652650617213636 0 -0.011364576201213618 -0.0021504047637029441 0 -0.010367589656070488 -0.0014626628406969229 0 -0.011263161520578121 -7.683998855521299e-05 0 -0.011961637625094989 -9.9982426260483568e-05 0 -0.01116175469654938 -0.0001446484777421919 0 -0.010767441702099844 0.0011652704291470362 0 -0.011519458596973235 0.0015652650617213636 0 -0.011263161520578121 -7.683998855521299e-05 0 -0.010918601604505326 -0.0027014609168455805 0 -0.010367589656070488 -0.0014626628406969229 0 -0.010217335439090083 -0.0026222465415491935 0 -0.010367589656070488 -0.0014626628406969229 0 -0.010217335439090083 -0.0026222465415491935 0 -0.0095576278337613108 -0.0020008038861312658 0 -0.010902479842479546 -0.003367269545920819 0 -0.010918601604505326 -0.0027014609168455805 0 -0.010217335439090083 -0.0026222465415491935 0 -0.0098596524104280683 -0.0036026565563488338 0 -0.010217335439090083 -0.0026222465415491935 0 -0.0092994452556751216 -0.002777383691938284 0 -0.0092994452556751216 -0.002777383691938284 0 -0.0095576278337613108 -0.0020008038861312658 0 -0.0084245178537690271 -0.0025198357117185298 0 -0.0085237526177453331 -0.0032073898460568693 0 -0.0092994452556751216 -0.002777383691938284 0 -0.0084245178537690271 -0.0025198357117185298 0 -0.010217335439090083 -0.0026222465415491935 0 -0.0092994452556751216 -0.002777383691938284 0 -0.0095576278337613108 -0.0020008038861312658 0 -0.010367589656070488 -0.0014626628406969229 0 -0.0095576278337613108 -0.0020008038861312658 0 -0.0092876171803509041 -0.0011177473617650776 0 -0.0095576278337613108 -0.0020008038861312658 0 -0.0092876171803509041 -0.0011177473617650776 0 -0.0084245178537690271 -0.0025198357117185298 0 -0.0092876171803509041 -0.0011177473617650776 0 -0.010476026546713714 -0.00035233708976130937 0 -0.0099667645518358647 -0.00010952853102161168 0 -0.010476026546713714 -0.00035233708976130937 0 -0.011263161520578121 -7.683998855521299e-05 0 -0.011228803901731647 -4.7723766385364875e-05 0 -0.010476026546713714 -0.00035233708976130937 0 -0.011228803901731647 -4.7723766385364875e-05 0 -0.0099667645518358647 -0.00010952853102161168 0 -0.010367589656070488 -0.0014626628406969229 0 -0.0092876171803509041 -0.0011177473617650776 0 -0.010476026546713714 -0.00035233708976130937 0 -0.010367589656070488 -0.0014626628406969229 0 -0.010476026546713714 -0.00035233708976130937 0 -0.011263161520578121 -7.683998855521299e-05 0 -0.010824762905690658 0.00027029002613299682 0 -0.011263161520578121 -7.683998855521299e-05 0 -0.011228803901731647 -4.7723766385364875e-05 0 -0.010824762905690658 0.00027029002613299682 0 -0.010767441702099844 0.0011652704291470362 0 -0.011263161520578121 -7.683998855521299e-05 0 -0.006628799500417914 -0.0014559477313042806 0 -0.0051807680134178073 -0.0014296777626203146 0 -0.0056910897672309184 -0.0020833785568652873 0 -0.006628799500417914 -0.0014559477313042806 0 -0.0056910897672309184 -0.0020833785568652873 0 -0.0064720113451198352 -0.00246708035952194 0 -0.0051807680134178073 -0.0014296777626203146 0 -0.0043118660977356634 -0.002601749246536222 0 -0.0056910897672309184 -0.0020833785568652873 0 -0.005180154519481589 -0.0031263785501170959 0 -0.0043118660977356634 -0.002601749246536222 0 -0.0056910897672309184 -0.0020833785568652873 0 -0.005180154519481589 -0.0031263785501170959 0 -0.0056910897672309184 -0.0020833785568652873 0 -0.0064720113451198352 -0.00246708035952194 0 -0.0075156828623915307 -0.0031152710113892461 0 -0.0078263506743143484 -0.0017184697546216191 0 -0.0071428800136883602 -0.0030946921246019607 0 -0.0064720113451198352 -0.00246708035952194 0 -0.0078546752945536508 -0.0017202093694592094 0 -0.0079424006112729061 -0.0030630512789277795 0 -0.0084245178537690271 -0.0025198357117185298 0 -0.0078546752945536508 -0.0017202093694592094 0 -0.0092876171803509041 -0.0011177473617650776 0 -0.0084245178537690271 -0.0025198357117185298 0 -0.0078546752945536508 -0.0017202093694592094 0 -0.006628799500417914 -0.0014559477313042806 0 -0.0064720113451198352 -0.00246708035952194 0 -0.0078546752945536508 -0.0017202093694592094 0 -0.006628799500417914 -0.0014559477313042806 0 -0.0078546752945536508 -0.0017202093694592094 0 -0.0081470683754093758 -0.00059936209909011912 0 -0.0092876171803509041 -0.0011177473617650776 0 -0.0078546752945536508 -0.0017202093694592094 0 -0.0081470683754093758 -0.00059936209909011912 0 -0.0092876171803509041 -0.0011177473617650776 0 -0.0081470683754093758 -0.00059936209909011912 0 -0.0099667645518358647 -0.00010952853102161168 0 -0.0081470683754093758 -0.00059936209909011912 0 -0.0064159526825161373 -0.00068973939537690697 0 -0.0076439632389203932 7.4281328080224747e-05 0 -0.0064159526825161373 -0.00068973939537690697 0 -0.0062025984784895294 -0.00015606971605325806 0 -0.0076439632389203932 7.4281328080224747e-05 0 -0.006628799500417914 -0.0014559477313042806 0 -0.0081470683754093758 -0.00059936209909011912 0 -0.0064159526825161373 -0.00068973939537690697 0 -0.006628799500417914 -0.0014559477313042806 0 -0.0051807680134178073 -0.0014296777626203146 0 -0.0064159526825161373 -0.00068973939537690697 0 -0.0046260663466525676 -0.00087426140174279602 0 -0.0051807680134178073 -0.0014296777626203146 0 -0.0064159526825161373 -0.00068973939537690697 0 -0.0046260663466525676 -0.00087426140174279602 0 -0.0064159526825161373 -0.00068973939537690697 0 -0.0062025984784895294 -0.00015606971605325806 0 -0.0062025984784895294 -0.00015606971605325806 0 -0.006813311904866959 0.00042749735067809408 0 -0.0076439632389203932 7.4281328080224747e-05 0 -0.006813311904866959 0.00042749735067809408 0 -0.0076439632389203932 7.4281328080224747e-05 0 -0.0084234182347268875 0.00083802822311748845 0 -0.0081470683754093758 -0.00059936209909011912 0 -0.0076439632389203932 7.4281328080224747e-05 0 -0.0091235811513936359 0.00024725643291759804 0 -0.0081470683754093758 -0.00059936209909011912 0 -0.0091235811513936359 0.00024725643291759804 0 -0.0099667645518358647 -0.00010952853102161168 0 -0.0091235811513936359 0.00024725643291759804 0 -0.0084234182347268875 0.00083802822311748845 0 -0.0097758347469305302 0.00084857183525116739 0 -0.0076439632389203932 7.4281328080224747e-05 0 -0.0091235811513936359 0.00024725643291759804 0 -0.0084234182347268875 0.00083802822311748845 0 -0.0084234182347268875 0.00083802822311748845 0 -0.0097758347469305302 0.00084857183525116739 0 -0.0097052270602485842 0.0013860459934871582 0 -0.0097758347469305302 0.00084857183525116739 0 -0.0097052270602485842 0.0013860459934871582 0 -0.010365928636585897 0.0017578645822023742 0 -0.0098565485406402892 0.0013598558699404854 0 -0.011412611555546534 0.0013257041329507071 0 -0.0084234182347268875 0.00083802822311748845 0 -0.0097052270602485842 0.0013860459934871582 0 -0.0083522618400015403 0.0016085421947720589 0 -0.007586742985800656 0.0018378113030142389 0 -0.0073154087389452997 0.0011890101068704466 0 -0.006855363261543854 0.0017392948593936118 0 -0.0083522618400015403 0.0016085421947720589 0 -0.007586742985800656 0.0018378113030142389 0 -0.0073154087389452997 0.0011890101068704466 0 -0.006813311904866959 0.00042749735067809408 0 -0.0084234182347268875 0.00083802822311748845 0 -0.0073154087389452997 0.0011890101068704466 0 -0.0084234182347268875 0.00083802822311748845 0 -0.0083522618400015403 0.0016085421947720589 0 -0.0073154087389452997 0.0011890101068704466 0 -0.014619871127064152 -0.0008153877519257222 0 -0.011886203327627876 -7.095227320645798e-05 0 -0.013995682225040624 0.00050052135237636699 0 -0.012732114212168523 -0.00043368323996438536 0 -0.011893981769636967 -6.4164859994924453e-05 0 -0.010824762905690658 0.00027029002613299682 0 -0.010975775025134023 -0.0001580530868786869 0 -0.011228803901731647 -4.7723766385364875e-05 0 -0.010975775025134023 -0.0001580530868786869 0 -0.011228803901731647 -4.7723766385364875e-05 0 -0.011886203327627876 -7.095227320645798e-05 0 -0.011228803901731647 -4.7723766385364875e-05 0 -0.011886203327627876 -7.095227320645798e-05 0 -0.010571147474612354 0.00020106488636653308 0 -0.011886203327627876 -7.095227320645798e-05 0 -0.010571147474612354 0.00020106488636653308 0 -0.01078389438963211 0.0007861900219377025 0 -0.011228803901731647 -4.7723766385364875e-05 0 -0.010571147474612354 0.00020106488636653308 0 -0.0099667645518358647 -0.00010952853102161168 0 -0.0091235811513936359 0.00024725643291759804 0 -0.010571147474612354 0.00020106488636653308 0 -0.0099667645518358647 -0.00010952853102161168 0 -0.0091235811513936359 0.00024725643291759804 0 -0.0097758347469305302 0.00084857183525116739 0 -0.010571147474612354 0.00020106488636653308 0 -0.011886203327627876 -7.095227320645798e-05 0 -0.01078389438963211 0.0007861900219377025 0 -0.012237833782688666 0.0019640047728148357 0 -0.0097758347469305302 0.00084857183525116739 0 -0.010365928636585897 0.0017578645822023742 0 -0.01078389438963211 0.0007861900219377025 0 -0.0097758347469305302 0.00084857183525116739 0 -0.010571147474612354 0.00020106488636653308 0 -0.01078389438963211 0.0007861900219377025 0 -0.010365928636585897 0.0017578645822023742 0 -0.01078389438963211 0.0007861900219377025 0 -0.012237833782688666 0.0019640047728148357 0 -0.011412611555546534 0.0013257041329507071 0 -0.013378950386357173 0.0013938013580891125 0 -0.011886203327627876 -7.095227320645798e-05 0 -0.012237833782688666 0.0019640047728148357 0 -0.013995682225040624 0.00050052135237636699 0 -0.012237833782688666 0.0019640047728148357 0 -0.015241369056284926 0.0012643241491241553 0 -0.013995682225040624 0.00050052135237636699 0 -0.013378950386357173 0.0013938013580891125 0 -0.015064690780380991 0.0013068010487673188 0 -0.016752479698612356 0.0022073851898854026 0 -0.015449921797835225 0.0016552316022716933 0 -0.015339644811287512 0.0027840312852045438 0 -0.014525244698232584 0.00089401781929861082 0 -0.015241369056284926 0.0012643241491241553 0 -0.015449921797835225 0.0016552316022716933 0 -0.014525244698232584 0.00089401781929861082 0 -0.015449921797835225 0.0016552316022716933 0 -0.014131240223031206 0.0021241676825405264 0 -0.014131240223031206 0.0021241676825405264 0 -0.013662156522315233 0.0035983364668514648 0 -0.015339644811287512 0.0027840312852045438 0 -0.015449921797835225 0.0016552316022716933 0 -0.014131240223031206 0.0021241676825405264 0 -0.015339644811287512 0.0027840312852045438 0 -0.014131240223031206 0.0021241676825405264 0 -0.012409908957839567 0.0026116948128347322 0 -0.013662156522315233 0.0035983364668514648 0 -0.012428759970788031 0.00083941058386030967 0 -0.014525244698232584 0.00089401781929861082 0 -0.014131240223031206 0.0021241676825405264 0 -0.012428759970788031 0.00083941058386030967 0 -0.014131240223031206 0.0021241676825405264 0 -0.012409908957839567 0.0026116948128347322 0 -0.012428759970788031 0.00083941058386030967 0 -0.012409908957839567 0.0026116948128347322 0 -0.010491224340196684 0.002504746820306188 0 -0.012409908957839567 0.0026116948128347322 0 -0.013662156522315233 0.0035983364668514648 0 -0.01142851237897694 0.0038127353255089373 0 -0.012779607355901586 0.0047349077310470276 0 -0.013662156522315233 0.0035983364668514648 0 -0.01142851237897694 0.0038127353255089373 0 -0.012807821787406864 0.0059544502667823185 0 -0.012779607355901586 0.0047349077310470276 0 -0.01165062724168716 0.0052757417380100251 0 -0.012807821787406864 0.0059544502667823185 0 -0.014217348189363732 0.0053466472230054062 0 -0.012779607355901586 0.0047349077310470276 0 -0.014217348189363732 0.0053466472230054062 0 -0.013662156522315233 0.0035983364668514648 0 -0.015375947113156516 0.0043727844904962541 0 -0.014217348189363732 0.0053466472230054062 0 -0.012779607355901586 0.0047349077310470276 0 -0.013662156522315233 0.0035983364668514648 0 -0.013662156522315233 0.0035983364668514648 0 -0.015339644811287512 0.0027840312852045438 0 -0.015375947113156516 0.0043727844904962541 0 -0.014217348189363732 0.0053466472230054062 0 -0.015871293429841903 0.0056915547279723601 0 -0.015375947113156516 0.0043727844904962541 0 -0.015871293429841903 0.0056915547279723601 0 -0.01685591493782073 0.005293314725461999 0 -0.015375947113156516 0.0043727844904962541 0 -0.01685591493782073 0.005293314725461999 0 -0.015375947113156516 0.0043727844904962541 0 -0.016587732289077273 0.0037718971178352929 0 -0.017776836249730876 0.0047249852743284195 0 -0.01685591493782073 0.005293314725461999 0 -0.016587732289077273 0.0037718971178352929 0 -0.016752479698612356 0.0022073851898854026 0 -0.015339644811287512 0.0027840312852045438 0 -0.016587732289077273 0.0037718971178352929 0 -0.015339644811287512 0.0027840312852045438 0 -0.015375947113156516 0.0043727844904962541 0 -0.016587732289077273 0.0037718971178352929 0 -0.0082645079556348238 0.0033587212279043944 0 -0.0079577630331578893 0.002436245338266022 0 -0.009044059830622982 0.002428772925150612 0 -0.0082645079556348238 0.0033587212279043944 0 -0.009044059830622982 0.002428772925150612 0 -0.0095692803066141259 0.0035145388059811583 0 -0.0082645079556348238 0.0033587212279043944 0 -0.0074311489258273855 0.0029758663568969306 0 -0.0079577630331578893 0.002436245338266022 0 -0.0082645079556348238 0.0033587212279043944 0 -0.0074311489258273855 0.0029758663568969306 0 -0.0071279186347566453 0.0038308073686279735 0 -0.0074311489258273855 0.0029758663568969306 0 -0.0079577630331578893 0.002436245338266022 0 -0.0070325635105127089 0.002432495888384525 0 -0.007586742985800656 0.0018378113030142389 0 -0.0079577630331578893 0.002436245338266022 0 -0.0070325635105127089 0.002432495888384525 0 -0.0083522618400015403 0.0016085421947720589 0 -0.007586742985800656 0.0018378113030142389 0 -0.0079577630331578893 0.002436245338266022 0 -0.007586742985800656 0.0018378113030142389 0 -0.0070325635105127089 0.002432495888384525 0 -0.006855363261543854 0.0017392948593936118 0 -0.0083522618400015403 0.0016085421947720589 0 -0.0079577630331578893 0.002436245338266022 0 -0.009044059830622982 0.002428772925150612 0 -0.0097052270602485842 0.0013860459934871582 0 -0.009044059830622982 0.002428772925150612 0 -0.010491224340196684 0.002504746820306188 0 -0.0097052270602485842 0.0013860459934871582 0 -0.0083522618400015403 0.0016085421947720589 0 -0.009044059830622982 0.002428772925150612 0 -0.0097052270602485842 0.0013860459934871582 0 -0.012428759970788031 0.00083941058386030967 0 -0.010491224340196684 0.002504746820306188 0 -0.012409908957839567 0.0026116948128347322 0 -0.010491224340196684 0.002504746820306188 0 -0.01142851237897694 0.0038127353255089373 0 -0.010491224340196684 0.002504746820306188 0 -0.0095692803066141259 0.0035145388059811583 0 -0.01142851237897694 0.0038127353255089373 0 -0.009044059830622982 0.002428772925150612 0 -0.010491224340196684 0.002504746820306188 0 -0.0095692803066141259 0.0035145388059811583 0 -0.0095692803066141259 0.0035145388059811583 0 -0.01142851237897694 0.0038127353255089373 0 -0.010299886416036961 0.0048645581433747719 0 -0.012779607355901586 0.0047349077310470276 0 -0.01142851237897694 0.0038127353255089373 0 -0.01165062724168716 0.0052757417380100251 0 -0.01142851237897694 0.0038127353255089373 0 -0.01165062724168716 0.0052757417380100251 0 -0.010299886416036961 0.0048645581433747719 0 -0.0097146339366651485 0.0058755682230512843 0 -0.010299886416036961 0.0048645581433747719 0 -0.0085656406483760224 0.0046764900893587723 0 -0.0095692803066141259 0.0035145388059811583 0 -0.010299886416036961 0.0048645581433747719 0 -0.0085656406483760224 0.0046764900893587723 0 -0.0082645079556348238 0.0033587212279043944 0 -0.0095692803066141259 0.0035145388059811583 0 -0.0085656406483760224 0.0046764900893587723 0 -0.0082645079556348238 0.0033587212279043944 0 -0.0085656406483760224 0.0046764900893587723 0 -0.0071279186347566453 0.0038308073686279735 0 -0.0085656406483760224 0.0046764900893587723 0 -0.0072283631464800891 0.0050127818952093086 0 -0.0071279186347566453 0.0038308073686279735 0 -0.0085456230896888124 0.0064234641608497201 0 -0.0085656406483760224 0.0046764900893587723 0 -0.0072283631464800891 0.0050127818952093086 0 -0.0065598132099075725 0.0062481861528459835 0 -0.0072283631464800891 0.0050127818952093086 0 -0.0058178739664103973 0.0048131168792989593 0 -0.0072283631464800891 0.0050127818952093086 0 -0.0058178739664103973 0.0048131168792989593 0 -0.0071279186347566453 0.0038308073686279735 0 -0.012541688259664034 0.00095277622609776856 0 -0.0080332307038393138 0.0027007956974981892 0 -0.0126754116813949 0.0016126199644005683 0 -0.012641564934659424 0.0011200184959283157 0 -0.012396444116861869 0.0013565659485759286 0 -0.0023289952913342271 0.0025642615238613627 0 -0.0022390962751319787 0.0020944848736591535 0 -0.0020461913992681916 0.0022064366675188405 0 -0.0080332307038393138 0.0027007956974981892 0 -0.0035962519092189956 0.0028681066716378829 0 -0.0080332307038393138 0.0027007956974981892 0 -0.0069279039244368379 0.0011340675162112429 0 -0.0058178739664103973 0.0048131168792989593 0 -0.0071279186347566453 0.0038308073686279735 0 -0.005997216857384793 0.0031075587180009957 0 -0.0067848301268547562 0.003110131512388893 0 -0.005997216857384793 0.0031075587180009957 0 -0.0070325635105127089 0.002432495888384525 0 -0.0071279186347566453 0.0038308073686279735 0 -0.0067848301268547562 0.003110131512388893 0 -0.005997216857384793 0.0031075587180009957 0 -0.0074311489258273855 0.0029758663568969306 0 -0.0071279186347566453 0.0038308073686279735 0 -0.0067848301268547562 0.003110131512388893 0 -0.0074311489258273855 0.0029758663568969306 0 -0.0067848301268547562 0.003110131512388893 0 -0.0070325635105127089 0.002432495888384525 0 -0.0022390962751319787 0.0020944848736591535 0 -0.0020675005931996625 0.0020360311168145882 0 -0.0020461913992681916 0.0022064366675188405 0 -0.0022390962751319787 0.0020944848736591535 0 -0.0020325925340587323 0.0019175273099098936 0 -0.0020675005931996625 0.0020360311168145882 0 -0.005997216857384793 0.0031075587180009957 0 -0.0065252490068072426 0.0022457842096064492 0 -0.0061600447602754467 0.0017698011948078804 0 -0.0022390962751319787 0.0020944848736591535 0 -0.0020728623158622942 0.0018552487068265332 0 -0.0020325925340587323 0.0019175273099098936 0 -0.0022390962751319787 0.0020944848736591535 0 -0.0020728623158622942 0.0018552487068265332 0 -0.002158521998212151 0.0017604090553109642 0 -0.0035962519092189956 0.0028681066716378829 0 -0.0042193326719632569 0.0017032732430742735 0 -0.0020728623158622942 0.0018552487068265332 0 -0.0019624559427286366 0.0017920919043960006 0 -0.0019454035768181591 0.0016648759791023184 0 -0.005997216857384793 0.0031075587180009957 0 -0.0065252490068072426 0.0022457842096064492 0 -0.0070325635105127089 0.002432495888384525 0 -0.0065252490068072426 0.0022457842096064492 0 -0.006855363261543854 0.0017392948593936118 0 -0.0061600447602754467 0.0017698011948078804 0 -0.0065252490068072426 0.0022457842096064492 0 -0.0070325635105127089 0.002432495888384525 0 -0.006855363261543854 0.0017392948593936118 0 -0.0069689141702941482 0.00088624277134312422 0 -0.0040701795384441401 0.0014950864139460969 0 -0.011495301222155118 -0.00011821476873745537 0 -0.011015770215578105 -0.00025575196362434934 0 -0.011029557714570431 -0.00060861224679860609 0 -0.011495301222155118 -0.00011821476873745537 0 -0.011015770215578105 -0.00025575196362434934 0 -0.01099506881469633 -3.8524908627332706e-06 0 -0.0018840820502680268 0.00188833331285321 0 -0.0019624559427286366 0.0017920919043960006 0 -0.0019160003549967732 0.0017288024460705906 0 -0.0020728623158622942 0.0018552487068265332 0 -0.0019624559427286366 0.0017920919043960006 0 -0.0020325925340587323 0.0019175273099098936 0 -0.0018840820502680268 0.00188833331285321 0 -0.0020325925340587323 0.0019175273099098936 0 -0.0020675005931996625 0.0020360311168145882 0 -0.0018840820502680268 0.00188833331285321 0 -0.0019624559427286366 0.0017920919043960006 0 -0.0020325925340587323 0.0019175273099098936 0 -0.0018840820502680268 0.00188833331285321 0 -0.0020675005931996625 0.0020360311168145882 0 -0.0020461913992681916 0.0022064366675188405 0 -0.0069689141702941482 0.00088624277134312422 0 -0.0069279039244368379 0.0011340675162112429 0 -0.011418872931539066 0.00020235060391736036 0 -0.011582443210173616 0.00048532176360122547 0 -0.012077630869549333 0.00041511435385619815 0 -0.011495301222155118 -0.00011821476873745537 0 -0.011418872931539066 0.00020235060391736036 0 -0.012077630869549333 0.00041511435385619815 0 -0.011495301222155118 -0.00011821476873745537 0 -0.011418872931539066 0.00020235060391736036 0 -0.01099506881469633 -3.8524908627332706e-06 0 -0.011418872931539066 0.00020235060391736036 0 -0.011116834259322483 0.00033566720157112275 0 -0.01099506881469633 -3.8524908627332706e-06 0 -0.011418872931539066 0.00020235060391736036 0 -0.011582443210173616 0.00048532176360122547 0 -0.011116834259322483 0.00033566720157112275 0 -0.011582443210173616 0.00048532176360122547 0 -0.011103778299839533 0.0006675128983459124 0 -0.011116834259322483 0.00033566720157112275 0 -0.011582443210173616 0.00048532176360122547 0 -0.012077630869549333 0.00041511435385619815 0 -0.012078102247688226 0.0010371596922615699 0 -0.012641564934659424 0.0011200184959283157 0 -0.012077630869549333 0.00041511435385619815 0 -0.012078102247688226 0.0010371596922615699 0 -0.012189835424628037 0.0016329599786575389 0 -0.012396444116861869 0.0013565659485759286 0 -0.012078102247688226 0.0010371596922615699 0 -0.012189835424628037 0.0016329599786575389 0 -0.012078102247688226 0.0010371596922615699 0 -0.011755850525063401 0.0014292339717160865 0 -0.012641564934659424 0.0011200184959283157 0 -0.012396444116861869 0.0013565659485759286 0 -0.012078102247688226 0.0010371596922615699 0 -0.011582443210173616 0.00048532176360122547 0 -0.012078102247688226 0.0010371596922615699 0 -0.011755850525063401 0.0014292339717160865 0 -0.011582443210173616 0.00048532176360122547 0 -0.011351556762633891 0.001031299673099495 0 -0.011103778299839533 0.0006675128983459124 0 -0.011598141872580743 0.0005044500566750565 0 -0.011564996402923433 0.0012011888618723985 0 -0.010924106506739225 0.00097142405050110073 0 -0.010777326335008604 0.00064101135571515626 0 -0.011103778299839533 0.0006675128983459124 0 -0.011351556762633891 0.001031299673099495 0 -0.010924106506739225 0.00097142405050110073 0 -0.011103778299839533 0.0006675128983459124 0 -0.010924106506739225 0.00097142405050110073 0 -0.010777326335008604 0.00064101135571515626 0 -0.010505090212708517 0.0009590470518797856 0 -0.010777326335008604 0.00064101135571515626 0 -0.01055632536634268 0.0004651638538937098 0 -0.010505090212708517 0.0009590470518797856 0 -0.010777326335008604 0.00064101135571515626 0 -0.01055632536634268 0.0004651638538937098 0 -0.010692927082317359 0.00036591851759490554 0 -0.01055632536634268 0.0004651638538937098 0 -0.010692927082317359 0.00036591851759490554 0 -0.010536078952977064 0.00023835005114535934 0 -0.010692927082317359 0.00036591851759490554 0 -0.010894699532635324 0.00046746284245147905 0 -0.010819928816307273 0.00021833022329239573 0 -0.010777326335008604 0.00064101135571515626 0 -0.010692927082317359 0.00036591851759490554 0 -0.010894699532635324 0.00046746284245147905 0 -0.010894699532635324 0.00046746284245147905 0 -0.011103778299839533 0.0006675128983459124 0 -0.011116834259322483 0.00033566720157112275 0 -0.010777326335008604 0.00064101135571515626 0 -0.010894699532635324 0.00046746284245147905 0 -0.011103778299839533 0.0006675128983459124 0 -0.014274313635434533 0.00056299388243620117 0 -0.010338064746879266 0.00057196429545114933 0 -0.010395548093537411 0.00060757897162550889 0 -0.010244739041642428 0.00051545593832151744 0 -0.01034749461483765 0.00043479318020692192 0 -0.010244739041642428 0.00051545593832151744 0 -0.010211783459385526 0.0003954873181438564 0 -0.01034749461483765 0.00043479318020692192 0 -0.010454300103050602 0.00089669439597126551 0 -0.010444184369776899 0.00044678373598684441 0 -0.010287164779962063 0.0010361886948807046 0 -0.010258178225825089 0.00065292669242762562 0 -0.010666289551684704 0.00087107178194601495 0 -0.010258178225825089 0.00065292669242762562 0 -0.010666289551684704 0.00087107178194601495 0 -0.010396652772698861 0.00039011231470890582 0 -0.01055632536634268 0.0004651638538937098 0 -0.010505090212708517 0.0009590470518797856 0 -0.010396652772698861 0.00039011231470890582 0 -0.01055632536634268 0.0004651638538937098 0 -0.010396652772698861 0.00039011231470890582 0 -0.010437913379783361 0.00028139617528928862 0 -0.01055632536634268 0.0004651638538937098 0 -0.010437913379783361 0.00028139617528928862 0 -0.010536078952977064 0.00023835005114535934 0 -0.010396652772698861 0.00039011231470890582 0 -0.010271364460346006 0.00030969706675902176 0 -0.010359742462023315 0.000176730177912362 0 -0.01034749461483765 0.00043479318020692192 0 -0.010271364460346006 0.00030969706675902176 0 -0.010232340459854673 0.00032259470844602162 0 -0.010338064746879266 0.00057196429545114933 0 -0.010281356690923409 0.00033661008473423324 0 -0.010258178225825089 0.00065292669242762562 0 -0.010396652772698861 0.00039011231470890582 0 -0.010271364460346006 0.00030969706675902176 0 -0.010271364460346006 0.00030969706675902176 0 -0.010232340459854673 0.00032259470844602162 0 -0.010195531002303389 0.00017891279930582941 0 -0.010211783459385526 0.0003954873181438564 0 -0.01034749461483765 0.00043479318020692192 0 -0.010232340459854673 0.00032259470844602162 0 -0.010195531002303389 0.00017891279930582941 0 -0.010264199798085865 0.00014294159830214426 0 -0.010194666803018441 8.6924751668431376e-06 0 -0.010271364460346006 0.00030969706675902176 0 -0.010195531002303389 0.00017891279930582941 0 -0.010264199798085865 0.00014294159830214426 0 -0.010271364460346006 0.00030969706675902176 0 -0.010264199798085865 0.00014294159830214426 0 -0.010359742462023315 0.000176730177912362 0 -0.010264199798085865 0.00014294159830214426 0 -0.010312941746856544 4.4590277554186487e-05 0 -0.010194666803018441 8.6924751668431376e-06 0 -0.010264199798085865 0.00014294159830214426 0 -0.010359742462023315 0.000176730177912362 0 -0.010312941746856544 4.4590277554186487e-05 0 -0.010359742462023315 0.000176730177912362 0 -0.010446500631380001 2.2297284943990061e-05 0 -0.010312941746856544 4.4590277554186487e-05 0 -0.010396652772698861 0.00039011231470890582 0 -0.010359742462023315 0.000176730177912362 0 -0.010437913379783361 0.00028139617528928862 0 -0.010359742462023315 0.000176730177912362 0 -0.010437913379783361 0.00028139617528928862 0 -0.010536078952977064 0.00023835005114535934 0 -0.010359742462023315 0.000176730177912362 0 -0.010446500631380001 2.2297284943990061e-05 0 -0.010536078952977064 0.00023835005114535934 0 -0.010446500631380001 2.2297284943990061e-05 0 -0.010312245852065869 -9.4093851128795029e-05 0 -0.010462911733014352 -0.00017756524075292611 0 -0.010446500631380001 2.2297284943990061e-05 0 -0.010312245852065869 -9.4093851128795029e-05 0 -0.010312941746856544 4.4590277554186487e-05 0 -0.010312245852065869 -9.4093851128795029e-05 0 -0.010312941746856544 4.4590277554186487e-05 0 -0.010194666803018441 8.6924751668431376e-06 0 -0.010312245852065869 -9.4093851128795029e-05 0 -0.010194666803018441 8.6924751668431376e-06 0 -0.010165222798649922 -0.00013548967014344297 0 -0.010105048725529163 -9.5255880084822397e-05 0 -0.010194666803018441 8.6924751668431376e-06 0 -0.010165222798649922 -0.00013548967014344297 0 -0.010819928816307273 0.00021833022329239573 0 -0.01062328214114662 -3.2654249976483438e-05 0 -0.01099506881469633 -3.8524908627332706e-06 0 -0.011116834259322483 0.00033566720157112275 0 -0.010819928816307273 0.00021833022329239573 0 -0.01099506881469633 -3.8524908627332706e-06 0 -0.010894699532635324 0.00046746284245147905 0 -0.011116834259322483 0.00033566720157112275 0 -0.010819928816307273 0.00021833022329239573 0 -0.010692927082317359 0.00036591851759490554 0 -0.010819928816307273 0.00021833022329239573 0 -0.010630386119273751 0.0001454851930560644 0 -0.010692927082317359 0.00036591851759490554 0 -0.010536078952977064 0.00023835005114535934 0 -0.010630386119273751 0.0001454851930560644 0 -0.010446500631380001 2.2297284943990061e-05 0 -0.010536078952977064 0.00023835005114535934 0 -0.010630386119273751 0.0001454851930560644 0 -0.010446500631380001 2.2297284943990061e-05 0 -0.010630386119273751 0.0001454851930560644 0 -0.01062328214114662 -3.2654249976483438e-05 0 -0.010819928816307273 0.00021833022329239573 0 -0.010630386119273751 0.0001454851930560644 0 -0.01062328214114662 -3.2654249976483438e-05 0 -0.010446500631380001 2.2297284943990061e-05 0 -0.01062328214114662 -3.2654249976483438e-05 0 -0.010462911733014352 -0.00017756524075292611 0 -0.01062328214114662 -3.2654249976483438e-05 0 -0.010462911733014352 -0.00017756524075292611 0 -0.010546090153322602 -0.00029885999311674933 0 -0.01062328214114662 -3.2654249976483438e-05 0 -0.01099506881469633 -3.8524908627332706e-06 0 -0.010546090153322602 -0.00029885999311674933 0 -0.011015770215578105 -0.00025575196362434934 0 -0.01099506881469633 -3.8524908627332706e-06 0 -0.010546090153322602 -0.00029885999311674933 0 0.00016978991051734424 0.001469608882564252 0 -0.000229520210319389 0.0011929560656126742 0 -0.00085696260831557626 0.001558480006239962 0 -0.011015770215578105 -0.00025575196362434934 0 -0.010546090153322602 -0.00029885999311674933 0 -0.011029557714570431 -0.00060861224679860609 0 -0.010546090153322602 -0.00029885999311674933 0 -0.010007689387563806 -0.000675370323713904 0 -0.011029557714570431 -0.00060861224679860609 0 -0.0069943878418878714 -0.00036345434802418334 0 -0.0040701795384441401 0.0014950864139460969 0 -0.000229520210319389 0.0011929560656126742 0 -0.00085696260831557626 0.001558480006239962 0 -0.00074083821389900079 0.001427173867380443 0 -0.010462911733014352 -0.00017756524075292611 0 -0.010546090153322602 -0.00029885999311674933 0 -0.010483505966994563 -0.000285964761031306 0 -0.010741117088387873 0.00032129658090992124 0 -0.0069943878418878714 -0.00036345434802418334 0 0.00034774508048870961 0.00072045104508595471 0 -0.000229520210319389 0.0011929560656126742 0 -0.00011911514550411661 0.00045205294677112302 0 0.00016978991051734424 0.001469608882564252 0 0.00034774508048870961 0.00072045104508595471 0 -0.000229520210319389 0.0011929560656126742 0 -0.000229520210319389 0.0011929560656126742 0 -0.00011911514550411661 0.00045205294677112302 0 -0.00066114233369002915 0.00092478681913210267 0 -0.000229520210319389 0.0011929560656126742 0 -0.00074083821389900079 0.001427173867380443 0 -0.00066114233369002915 0.00092478681913210267 0 -0.010071404604223618 -0.00025404204156139105 0 -0.010165222798649922 -0.00013548967014344297 0 -0.010334458406416881 -0.00027524726560672959 0 -0.0098939937609640906 -0.00028658157926761662 0 -0.010418847127931081 -0.00028025761589394637 0 -0.010312245852065869 -9.4093851128795029e-05 0 -0.010165222798649922 -0.00013548967014344297 0 -0.010334458406416881 -0.00027524726560672959 0 -0.010071404604223618 -0.00025404204156139105 0 -0.0095413052498191375 -0.00037135555067336354 0 -0.0098239502344138058 -0.00010766120696164694 0 -0.010110623357204172 -0.00018652840132661093 0 -0.010071404604223618 -0.00025404204156139105 0 -0.010165222798649922 -0.00013548967014344297 0 -0.010462911733014352 -0.00017756524075292611 0 -0.010483505966994563 -0.000285964761031306 0 -0.010334458406416881 -0.00027524726560672959 0 -0.010312245852065869 -9.4093851128795029e-05 0 -0.010462911733014352 -0.00017756524075292611 0 -0.010334458406416881 -0.00027524726560672959 0 -0.0069943878418878714 -0.00036345434802418334 0 -0.010418847127931081 -0.00028025761589394637 0 0.00016978991051734424 0.001469608882564252 0 0.00034774508048870961 0.00072045104508595471 0 0.0010523839886893191 0.00061781005285319577 0 -0.0095413052498191375 -0.00037135555067336354 0 -0.0096554146536202961 0.00010748254367490432 0 -0.0098239502344138058 -0.00010766120696164694 0 -0.0090299477120865442 -0.00039871263135036127 0 -0.0095413052498191375 -0.00037135555067336354 0 -0.0096554146536202961 0.00010748254367490432 0 -0.0069943878418878714 -0.00036345434802418334 0 -0.0038746500512348995 0.00040253426746435358 0 -0.0096554146536202961 0.00010748254367490432 0 -0.0098239502344138058 -0.00010766120696164694 0 -0.0099692750282879446 3.8461469601706754e-05 0 -0.010071404604223618 -0.00025404204156139105 0 -0.0098239502344138058 -0.00010766120696164694 0 -0.0099692750282879446 3.8461469601706754e-05 0 -0.010104108260566673 -0.00010321817006169399 0 -0.010071404604223618 -0.00025404204156139105 0 -0.0099692750282879446 3.8461469601706754e-05 0 -0.0043769449608770236 0.00012904606935208271 0 -0.0038746500512348995 0.00040253426746435358 0 -0.010070961031869843 0.00045200202619091409 0 -0.0096554146536202961 0.00010748254367490432 0 -0.0099692750282879446 3.8461469601706754e-05 0 0.0015111493883760896 -0.00024653520667270714 0 0.0010523839886893191 0.00061781005285319577 0 0.0011528387040200966 -9.6407283508326896e-05 0 0.00034774508048870961 0.00072045104508595471 0 0.0010523839886893191 0.00061781005285319577 0 0.00064450972176840181 -0.00018195881181801382 0 0.0010523839886893191 0.00061781005285319577 0 0.0011528387040200966 -9.6407283508326896e-05 0 0.00064450972176840181 -0.00018195881181801382 0 0.0010059746456638587 -0.00070141466109724024 0 0.0011528387040200966 -9.6407283508326896e-05 0 0.00064450972176840181 -0.00018195881181801382 0 0.0015111493883760896 -0.00024653520667270714 0 0.0013946877506909102 -0.00059055554170419548 0 0.0011528387040200966 -9.6407283508326896e-05 0 -0.00011911514550411661 0.00045205294677112302 0 -0.00058922489341340419 0.00022001921799742278 0 -0.00066114233369002915 0.00092478681913210267 0 0.00034774508048870961 0.00072045104508595471 0 -0.00011911514550411661 0.00045205294677112302 0 0.00064450972176840181 -0.00018195881181801382 0 -0.00018106821162552531 -0.0003452928738152751 0 -0.00011911514550411661 0.00045205294677112302 0 0.00064450972176840181 -0.00018195881181801382 0 -0.00018106821162552531 -0.0003452928738152751 0 -0.00011911514550411661 0.00045205294677112302 0 -0.00058922489341340419 0.00022001921799742278 0 -0.00058922489341340419 0.00022001921799742278 0 -0.0011251695226391475 0.0006433333466515439 0 -0.0011602467164724976 -0.00017651322336288328 0 -0.00018106821162552531 -0.0003452928738152751 0 -0.00058922489341340419 0.00022001921799742278 0 -0.0011602467164724976 -0.00017651322336288328 0 -0.00058922489341340419 0.00022001921799742278 0 -0.0011251695226391475 0.0006433333466515439 0 -0.00066114233369002915 0.00092478681913210267 0 -0.0011251695226391475 0.0006433333466515439 0 -0.0016761585637552359 0.00038217422298086917 0 -0.0015859391010851229 0.0011032338398713076 0 -0.0011251695226391475 0.0006433333466515439 0 -0.0011602467164724976 -0.00017651322336288328 0 -0.0016761585637552359 0.00038217422298086917 0 -0.0011602467164724976 -0.00017651322336288328 0 -0.0021346654591079231 -3.8744261759522532e-05 0 -0.0016761585637552359 0.00038217422298086917 0 -0.0062025984784895294 -0.00015606971605325806 0 -0.006813311904866959 0.00042749735067809408 0 -0.0055685709487041804 -3.4347754000864445e-05 0 -0.006813311904866959 0.00042749735067809408 0 -0.0055685709487041804 -3.4347754000864445e-05 0 -0.006024933689518972 0.00078712544922647152 0 -0.0016761585637552359 0.00038217422298086917 0 -0.00212545449507234 0.00087720200453966606 0 -0.0015859391010851229 0.0011032338398713076 0 -0.0021346654591079231 -3.8744261759522532e-05 0 -0.0016761585637552359 0.00038217422298086917 0 -0.00212545449507234 0.00087720200453966606 0 -0.0038443317984188513 -6.4476794035272142e-05 0 -0.0040580857417537438 0.00083450650497125768 0 -0.00212545449507234 0.00087720200453966606 0 -0.0019454035768181591 0.0016648759791023184 0 -0.0015859391010851229 0.0011032338398713076 0 -0.0040580857417537438 0.00083450650497125768 0 -0.0042193326719632569 0.0017032732430742735 0 -0.0073154087389452997 0.0011890101068704466 0 -0.006024933689518972 0.00078712544922647152 0 -0.006855363261543854 0.0017392948593936118 0 -0.006813311904866959 0.00042749735067809408 0 -0.0073154087389452997 0.0011890101068704466 0 -0.006024933689518972 0.00078712544922647152 0 -0.006024933689518972 0.00078712544922647152 0 -0.006855363261543854 0.0017392948593936118 0 -0.0061600447602754467 0.0017698011948078804 0 -0.00212545449507234 0.00087720200453966606 0 -0.002158521998212151 0.0017604090553109642 0 -0.0019454035768181591 0.0016648759791023184 0 -0.0020728623158622942 0.0018552487068265332 0 -0.002158521998212151 0.0017604090553109642 0 -0.0019454035768181591 0.0016648759791023184 0 -0.0020387609357265884 0.0016830654244328724 0 -0.0011687206081010932 0.0016253786012555254 0 -0.0019624559427286366 0.0017920919043960006 0 -0.0019454035768181591 0.0016648759791023184 0 -0.0019160003549967732 0.0017288024460705906 0 -0.0019454035768181591 0.0016648759791023184 0 -0.0014540316289778548 0.0013741435060455134 0 -0.0012748666481341641 0.0016209813753481845 0 -0.0019454035768181591 0.0016648759791023184 0 -0.0014540316289778548 0.0013741435060455134 0 -0.0015859391010851229 0.0011032338398713076 0 -0.0014540316289778548 0.0013741435060455134 0 -0.0012748666481341641 0.0016209813753481845 0 -0.0010551945039767021 0.00113069815892184 0 -0.0011687206081010932 0.0016253786012555254 0 -0.0040701795384441401 0.0014950864139460969 0 -0.0012748666481341641 0.0016209813753481845 0 -0.00078401340661268435 0.0015331474845431048 0 -0.00091448272145959149 0.0013420042380284144 0 -0.0018840820502680268 0.00188833331285321 0 -0.0019160003549967732 0.0017288024460705906 0 -0.0018273990718193033 0.0017230408441113734 0 -0.0040701795384441401 0.0014950864139460969 0 -0.0032894108236817799 0.0010322665062596507 0 -0.00078401340661268435 0.0015331474845431048 0 -0.00091448272145959149 0.0013420042380284144 0 -0.00074083821389900079 0.001427173867380443 0 -0.0012748666481341641 0.0016209813753481845 0 -0.00091448272145959149 0.0013420042380284144 0 -0.0010551945039767021 0.00113069815892184 0 -0.00091448272145959149 0.0013420042380284144 0 -0.0010551945039767021 0.00113069815892184 0 -0.00066114233369002915 0.00092478681913210267 0 -0.00091448272145959149 0.0013420042380284144 0 -0.00074083821389900079 0.001427173867380443 0 -0.00066114233369002915 0.00092478681913210267 0 -0.0011251695226391475 0.0006433333466515439 0 -0.0010551945039767021 0.00113069815892184 0 -0.00066114233369002915 0.00092478681913210267 0 -0.0011251695226391475 0.0006433333466515439 0 -0.0010551945039767021 0.00113069815892184 0 -0.0015859391010851229 0.0011032338398713076 0 -0.0014540316289778548 0.0013741435060455134 0 -0.0010551945039767021 0.00113069815892184 0 -0.0015859391010851229 0.0011032338398713076 0 
</DataArray>
</PointData>
<CellData Scalars="region_id,cross_section_updated," Vectors="" Tensors="stress,">
<DataArray type="Float64" Name="region_id" format="ascii">
5 5 5 5 5 5 6 5 5 6 5 5 5 6 5 5 6 5 6 5 5 6 5 5 5 5 6 5 5 6 5 5 5 6 5 6 5 5 5 5 5 5 6 5 5 5 5 5 6 5 5 5 5 5 5 6 5 5 5 6 5 5 5 5 5 5 5 5 5 6 5 5 5 5 5 5 5 5 5 6 5 5 5 5 5 5 6 5 5 5 5 5 6 5 5 5 5 5 5 5 6 5 5 5 5 5 5 5 5 5 5 6 5 5 5 5 5 5 6 5 5 5 5 5 6 5 6 5 5 5 5 5 5 5 6 5 5 6 5 5 5 5 6 5 5 5 5 6 6 5 5 5 5 5 5 5 6 5 5 6 5 5 6 5 5 6 6 5 5 5 5 5 5 5 5 6 5 5 5 6 5 5 5 6 6 5 5 5 5 5 5 6 5 5 5 5 5 5 5 6 5 5 5 5 6 5 5 5 5 6 5 5 5 5 5 5 5 5 5 5 5 5 5 6 5 5 5 5 5 6 5 5 5 5 5 5 5 5 5 5 5 5 5 5 5 5 5 5 5 5 5 5 5 5 5 5 5 5 5 6 5 5 5 5 6 5 5 5 5 5 5 6 5 5 5 6 5 5 5 5 6 6 5 5 5 5 5 5 5 5 5 6 5 5 5 5 5 5 5 6 5 5 5 5 5 6 5 5 5 5 5 5 5 5 5 5 5 5 5 5 5 5 6 6 5 5 5 5 5 6 5 5 5 5 5 6 5 5 5 5 5 5 6 5 5 5 5 5 6 5 6 5 5 6 5 5 6 5 6 5 5 5 6 5 5 5 6 5 5 5 5 5 5 6 6 5 5 5 5 5 5 6 6 5 5 5 5 5 5 6 5 6 5 5 5 6 5 5 5 5 5 5 5 5 5 5 5 5 5 5 6 5 5 5 5 5 6 6 5 5 5 5 5 5 5 6 5 5 5 5 5 5 5 5 5 5 6 5 5 5 5 5 5 5 6 5 5 5 5 5 5 5 5 5 5 5 5 5 5 5 5 5 5 5 5 5 5 5 5 5 5 5 5 5 5 5 5 5 5 5 5 5 5 5 5 5 5 5 5 5 5 5 6 5 6 5 5 5 5 5 5 6 5 5 5 5 5 5 5 5 5 5 6 5 5 5 6 6 5 5 6 5 5 5 6 5 5 5 6 5 5 5 5 5 5 6 5 5 5 5 5 5 5 5 5 5 5 5 5 6 5 5 5 6 5 5 6 5 5 5 5 6 5 6 5 5 5 6 5 5 5 6 5 5 5 5 5 5 5 5 5 5 5 5 6 5 5 5 5 6 5 6 5 5 5 5 5 5 5 5 5 5 5 5 6 5 5 5 5 5 5 5 6 5 5 6 5 5 6 5 5 5 5 5 5 5 5 5 5 5 5 5 5 5 5 5 5 5 5 6 5 5 5 5 6 5 5 5 5 6 5 5 5 5 6 5 5 5 5 5 5 5 5 5 5 5 5 5 5 5 5 5 5 5 5 5 6 5 5 6 6 5 5 5 5 5 5 5 5 5 5 5 5 5 5 5 5 5 5 5 5 5 5 5 5 5 6 5 5 5 6 5 6 5 5 6 5 5 6 5 5 6 5 6 5 5 5 5 6 5 6 5 5 5 5 5 6 5 5 5 5 5 5 5 5 5 5 5 5 5 5 5 5 5 5 5 5 5 5 5 5 5 5 5 5 6 5 5 5 5 5 5 5 5 5 6 5 6 5 5 5 5 5 6 5 5 5 6 5 5 5 5 5 5 5 5 5 5 5 5 5 5 5 5 5 5 5 5 5 5 6 5 5 5 5 5 5 5 5 5 5 6 5 5 5 6 5 5 5 6 5 5 5 5 5 5 6 5 5 5 5 6 5 5 5 5 5 6 5 5 5 5 5 5 5 6 5 5 5 5 5 6 5 5 5 6 5 5 5 5 6 5 6 6 5 5 5 5 5 5 6 5 6 5 6 6 6 6 5 5 5 6 5 5 5 6 5 5 5 5 6 6 5 5 5 6 6 5 5 5 5 6 5 5 5 5 5 6 5 5 5 5 5 5 5 6 5 5 5 5 5 5 5 5 5 6 5 5 5 5 6 5 5 5 5 5 5 5 6 5 5 6 6 5 5 6 5 5 5 5 5 5 5 5 5 5 6 6 6 5 5 6 6 5 6 5 5 5 5 5 6 6 5 5 5 6 5 5 6 6 5 5 5 6 5 6 6 5 5 5 5 5 6 6 5 5 5 5 5 6 5 5 5 6 5 5 5 5 5 6 5 5 5 5 5 5 5 5 5 5 5 5 5 5 6 5 5 6 5 5 5 5 5 5 5 5 6 6 5 5 5 5 6 5 5 5 6 5 5 6 6 5 6 5 5 5 6 6 5 6 6 5 5 6 5 5 5 6 5 5 5 5 5 6 5 6 5 5 6 5 5 5 5 5 5 5 5 5 5 5 5 5 5 6 5 5 5 5 5 5 5 5 5 5 6 5 5 5 6 5 5 5 5 5 6 5 5 5 5 5 5 5 5 5 5 5 5 5 5 5 5 5 5 5 5 5 5 5 5 5 6 5 5 5 5 5 5 6 5 6 5 6 6 5 5 6 5 5 6 5 5 6 5 5 5 5 5 5 5 6 5 5 5 5 5 6 5 5 5 5 5 6 5 5 5 5 5 5 5 5 5 5 5 5 5 5 5 5 5 5 5 5 5 5 5 5 6 5 5 5 5 5 5 6 5 5 5 5 5 5 5 5 5 5 5 5 5 5 5 5 5 5 5 6 5 5 5 5 5 5 5 5 6 6 5 6 5 5 5 5 5 5 5 5 5 5 5 5 5 5 5 5 5 5 5 5 5 5 5 5 5 6 5 6 5 5 6 5 5 5 5 5 5 5 5 5 5 5 5 5 5 5 5 5 5 5 5 6 5 5 6 5 5 5 5 5 5 6 5 5 6 5 5 5 5 5 5 5 5 5 5 5 5 5 5 6 5 5 5 5 5 5 5 5 6 5 5 5 5 5 6 5 5 6 5 5 5 5 5 5 5 5 5 5 5 5 5 5 5 5 5 5 5 5 5 5 6 5 5 5 5 5 5 6 5 6 5 5 5 5 5 5 5 5 5 5 5 5 6 5 5 5 5 6 5 6 5 5 5 5 6 5 6 6 5 6 5 6 5 6 5 6 6 5 5 5 6 6 6 6 5 6 6 5 5 5 5 6 5 6 6 5 6 6 5 5 5 6 5 5 5 5 6 5 5 6 5 5 6 5 5 5 5 5 6 5 6 5 5 5 5 6 5 5 6 5 5 5 5 5 6 5 5 6 5 6 5 5 5 5 5 5 6 5 5 6 5 6 5 5 6 5 5 5 6 5 5 6 5 5 6 6 5 5 5 6 5 5 6 5 6 5 5 5 5 5 6 5 5 6 5 5 5 5 6 6 5 5 5 5 5 5 5 5 6 6 5 5 5 6 5 6 5 5 6 5 5 5 6 5 5 5 5 5 5 5 5 5 5 5 5 5 5 5 5 5 5 5 5 5 5 5 5 5 5 5 5 5 5 5 5 5 6 5 5 5 5 5 5 5 6 5 5 5 5 5 5 5 5 5 5 5 5 5 6 5 5 5 6 5 5 6 6 5 5 5 5 5 5 6 6 5 5 5 5 5 5 5 5 5 5 5 5 5 5 5 5 5 5 5 5 6 5 5 5 5 5 5 5 5 5 6 5 5 6 5 5 5 5 5 5 5 5 5 5 5 5 5 5 5 5 5 5 5 5 5 5 5 5 6 5 5 6 5 5 5 5 5 5 5 5 5 5 5 5 5 5 5 6 5 5 5 5 5 5 5 5 5 5 6 5 5 5 5 5 5 5 5 5 5 5 5 5 5 5 5 5 5 5 6 5 5 5 5 5 5 6 5 5 5 5 5 5 5 5 5 5 5 5 5 5 5 5 5 6 5 5 5 5 5 6 5 5 5 6 5 5 5 5 5 5 5 5 5 5 5 5 5 6 5 5 5 5 5 5 6 5 5 5 5 5 6 5 6 5 6 5 6 5 5 5 5 5 5 5 5 5 5 5 5 5 5 5 5 5 5 5 5 6 5 5 5 5 6 5 5 5 5 5 5 5 5 5 5 5 5 5 5 5 5 5 5 6 5 5 5 6 5 6 5 5 5 5 5 6 5 5 5 5 5 5 5 5 5 5 6 5 5 5 5 5 5 6 5 5 5 5 5 5 5 5 5 5 6 5 6 5 6 5 5 5 5 5 6 5 5 5 5 5 6 5 5 5 5 5 5 5 6 5 5 5 5 5 5 5 6 5 5 5 5 6 5 6 5 5 5 5 5 5 5 5 5 5 6 5 5 5 5 5 6 5 5 5 5 5 5 5 6 5 5 5 5 6 5 5 6 5 5 5 6 5 5 5 5 5 5 5 6 5 5 5 5 5 5 5 5 5 5 6 5 5 5 5 6 5 5 5 5 5 5 5 5 5 5 5 5 5 5 5 5 5 5 5 5 5 5 5 5 5 5 5 5 5 5 6 5 5 5 6 5 5 5 5 5 5 5 5 5 5 5 5 5 5 5 6 5 5 5 5 5 6 5 5 5 5 5 5 5 5 5 5 6 5 5 5 5 5 5 5 6 5 5 5 5 5 5 5 5 6 5 5 5 6 5 5 5 5 5 5 5 5 5 5 5 5 6 6 5 5 5 5 6 5 5 5 5 5 6 5 5 5 5 6 5 5 5 5 5 5 5 5 5 5 5 5 5 5 5 5 5 5 6 5 5 5 5 6 5 6 5 5 5 5 5 5 5 5 5 5 5 5 5 5 5 6 5 5 5 5 6 5 5 5 5 5 5 5 5 5 6 5 5 5 5 5 5 5 5 5 5 5 5 5 5 5 5 5 5 5 5 5 5 5 5 5 5 5 5 5 5 5 5 5 5 5 5 5 5 5 6 5 5 5 5 5 5 6 5 5 5 5 5 5 5 5 5 5 5 5 5 5 5 6 5 5 5 5 5 5 5 5 5 5 5 5 5 5 6 5 5 5 5 5 5 5 6 5 5 5 6 5 5 5 6 5 5 5 5 6 5 5 5 5 6 5 5 5 5 5 5 5 5 5 5 5 5 5 5 6 5 5 5 6 5 5 5 6 5 5 5 6 5 6 5 5 5 5 5 5 5 5 5 5 5 5 5 5 5 5 5 5 5 5 5 5 5 5 5 5 5 5 5 5 6 5 5 5 6 5 5 5 5 6 5 5 5 5 6 5 5 5 5 5 5 6 5 5 5 5 5 5 5 5 5 5 5 5 5 6 5 5 5 6 5 5 5 5 5 6 5 5 6 5 5 6 5 5 6 5 5 6 5 5 5 6 5 5 6 6 5 5 6 6 5 5 6 5 5 5 5 5 5 5 6 5 5 5 5 5 5 6 5 5 5 5 6 5 6 5 5 5 6 5 5 5 5 5 5 5 5 6 5 5 5 5 6 5 6 5 5 5 6 5 5 5 5 5 5 5 6 5 5 5 5 5 5 5 5 5 5 5 5 5 5 5 5 5 5 5 5 5 5 5 5 5 5 5 5 5 5 5 5 5 5 5 5 5 5 5 6 5 5 5 5 6 5 5 5 5 5 5 5 6 5 5 5 5 6 5 5 6 5 6 5 5 5 5 6 5 5 5 5 6 5 5 5 5 5 5 5 5 5 5 5 5 5 5 5 5 5 5 5 5 5 5 5 5 5 5 5 5 5 6 5 5 5 5 5 5 5 5 5 5 5 5 5 5 5 5 6 5 5 5 5 5 5 5 5 5 5 5 5 5 6 5 5 5 5 5 5 5 5 5 5 5 5 5 5 5 5 5 5 5 5 5 6 5 5 5 5 5 5 5 5 5 5 5 5 5 5 5 6 5 6 5 6 5 5 5 5 6 5 5 5 5 5 5 6 5 5 5 5 5 5 5 5 5 6 6 5 5 5 5 6 5 5 5 5 5 5 5 5 5 5 5 5 5 6 6 5 5 5 6 5 5 5 6 5 5 5 5 5 5 5 5 5 5 6 5 5 5 5 5 5 6 5 5 5 5 6 5 5 5 5 5 5 5 5 6 5 5 5 5 5 5 5 5 5 5 6 5 5 5 5 5 5 5 6 5 6 5 5 5 5 5 5 5 5 5 5 5 5 5 5 5 5 5 5 5 5 5 5 5 6 5 5 5 5 5 6 5 5 5 5 5 5 5 5 5 6 5 5 6 5 6 5 5 5 6 6 5 5 6 5 5 5 6 5 5 5 5 5 5 5 5 5 5 5 5 5 5 5 5 5 5 5 5 5 5 5 6 5 5 5 5 6 5 5 5 5 5 5 5 5 5 5 5 5 5 5 5 5 5 5 5 5 5 5 5 5 6 5 5 5 6 5 5 5 5 5 5 5 5 5 6 5 5 5 5 6 5 6 5 5 5 5 5 6 5 5 5 6 5 5 5 5 5 5 5 5 6 5 5 5 5 5 5 5 5 5 5 5 5 5 6 5 5 5 5 6 5 5 5 6 5 5 5 5 6 5 5 5 5 5 5 5 5 5 5 5 5 5 5 5 5 6 6 5 5 5 5 5 5 5 5 5 5 5 5 5 5 5 5 5 5 6 5 5 5 5 5 5 5 5 6 5 5 5 6 5 5 5 5 5 5 5 5 5 6 5 5 5 5 6 5 5 5 5 5 5 5 5 5 5 5 6 5 5 5 5 5 5 5 6 5 5 5 6 5 5 5 5 5 5 5 6 5 5 5 5 5 5 5 5 5 5 5 5 5 5 5 5 5 5 5 5 5 5 6 5 5 5 6 5 5 5 5 5 5 5 5 5 5 5 5 5 5 5 5 5 5 5 5 6 5 5 5 5 5 5 6 5 5 5 5 6 5 6 6 6 5 5 5 5 5 6 5 5 5 5 5 5 5 5 5 5 5 5 5 5 5 5 5 5 5 5 5 5 5 5 5 6 5 5 5 5 5 5 5 5 6 5 6 5 5 5 5 5 5 6 5 5 5 5 5 5 5 5 5 5 5 5 5 5 5 5 5 5 5 5 5 5 5 5 5 5 5 5 5 5 5 5 5 5 5 5 5 6 5 5 5 6 6 5 5 5 5 5 5 6 5 6 5 5 5 5 5 6 5 5 5 5 5 6 5 5 5 5 5 5 5 5 6 5 5 5 5 5 5 5 5 5 5 5 5 5 5 5 5 5 5 5 5 5 5 5 5 5 5 6 5 5 5 5 6 5 5 5 5 6 5 5 5 5 5 5 6 5 5 6 5 5 6 5 5 6 5 5 5 5 5 5 5 5 5 5 5 5 5 5 5 5 5 5 5 5 5 5 5 5 5 5 5 5 5 5 5 5 5 5 5 5 5 5 5 5 5 5 5 5 5 5 5 5 5 5 5 5 5 5 5 5 5 5 5 5 5 5 5 5 5 5 5 5 5 5 5 5 5 5 5 5 5 6 5 5 5 5 5 5 5 5 5 5 5 5 5 5 5 5 5 5 6 5 5 5 6 5 5 5 6 5 5 6 5 5 6 5 5 5 5 5 5 5 5 5 5 5 5 5 5 5 5 5 5 5 5 5 5 5 5 5 5 5 6 5 6 5 5 5 5 6 5 5 5 5 5 5 5 5 5 5 5 5 5 5 5 6 5 5 5 5 5 5 5 5 5 5 5 5 5 6 5 5 5 5 5 5 5 5 6 5 5 5 5 5 6 5 5 6 5 6 5 5 6 5 5 5 5 5 5 5 5 5 5 5 5 6 5 5 5 5 5 5 6 5 5 5 5 5 6 5 5 5 6 5 5 5 5 5 5 5 5 5 5 5 5 5 5 5 5 5 5 5 5 5 5 5 6 5 5 5 5 5 5 5 5 5 5 5 5 6 5 5 6 5 5 5 5 5 5 5 5 5 5 5 5 5 5 6 5 5 5 5 5 6 5 5 5 5 5 5 5 5 5 5 5 5 6 5 5 5 5 5 5 6 5 5 5 5 6 5 5 5 5 5 5 5 5 5 6 5 5 5 5 5 5 5 5 5 5 5 5 5 5 5 5 6 5 5 5 5 6 5 5 6 5 6 5 5 5 5 5 5 5 5 5 6 5 5 5 6 6 5 5 5 5 5 5 5 5 5 5 5 6 5 5 5 5 5 5 6 5 5 6 5 5 5 5 5 5 5 5 5 5 6 5 5 5 5 5 5 6 5 5 5 5 5 5 5 5 5 6 5 5 6 6 5 5 5 5 5 5 5 5 5 5 5 5 6 5 6 5 5 6 5 5 5 5 5 5 6 5 5 5 5 5 5 5 5 5 6 5 6 6 5 5 6 5 6 5 5 5 5 5 6 5 5 5 5 5 6 5 6 5 5 6 5 5 6 5 5 5 5 5 5 5 5 5 5 5 5 5 5 5 5 5 5 5 5 5 5 5 5 5 5 5 5 5 6 6 5 5 5 5 5 5 5 6 5 5 5 6 6 5 6 5 5 5 5 5 5 6 5 5 5 5 6 5 5 5 5 5 5 5 5 5 5 5 5 6 6 5 5 5 5 5 5 6 5 5 5 5 6 5 6 6 5 5 6 5 5 5 5 6 5 6 6 5 5 5 5 5 6 5 5 5 5 5 6 5 5 5 5 6 5 5 6 5 6 5 5 5 6 6 5 5 5 6 5 6 5 5 6 5 5 5 5 5 5 6 5 5 5 5 5 5 5 5 5 5 5 5 5 5 6 5 5 5 5 5 5 6 5 5 5 5 5 5 5 6 5 6 5 5 6 5 6 5 5 5 6 5 5 5 5 6 5 5 6 5 5 5 5 5 5 5 5 5 5 6 5 6 5 5 5 5 5 6 5 5 6 5 5 5 5 5 5 5 5 5 5 5 5 5 5 6 5 5 5 5 5 5 5 5 5 6 5 5 5 5 5 5 5 5 5 5 6 5 5 5 5 5 6 5 5 5 5 5 6 6 5 5 5 5 6 5 5 5 5 5 5 5 6 5 5 6 5 5 5 6 5 5 5 5 5 5 5 5 5 5 5 5 5 5 5 5 5 5 5 5 5 5 5 5 5 5 5 5 5 5 5 5 5 5 5 5 5 5 5 5 5 5 5 5 5 5 5 5 6 5 5 5 5 5 6 5 5 5 5 5 5 5 6 5 5 5 6 5 6 5 5 5 5 5 6 5 5 5 5 5 5 6 5 5 5 5 5 5 5 5 5 5 6 5 5 5 5 5 5 6 5 5 5 5 5 5 5 5 5 6 5 5 5 5 5 5 5 6 5 5 5 5 5 5 5 5 5 5 5 5 5 5 5 5 5 5 5 6 6 6 5 5 5 6 5 6 5 5 5 5 5 5 5 5 5 5 5 5 5 5 5 5 5 5 5 5 5 5 5 5 5 5 5 5 5 5 5 5 5 5 5 5 5 5 5 6 5 5 5 5 6 6 5 5 6 6 5 5 5 5 5 5 5 6 5 5 5 6 5 5 5 5 5 5 5 5 6 6 6 6 5 5 6 5 5 6 5 6 5 5 6 6 5 5 6 6 5 5 5 5 6 5 5 5 5 5 5 5 5 5 5 5 5 6 5 6 5 6 5 6 5 6 5 5 5 5 5 5 6 5 6 5 6 6 5 5 5 5 5 5 5 5 5 5 5 5 5 5 5 5 5 5 5 5 5 5 5 5 5 5 5 5 5 5 5 5 5 5 5 6 5 5 5 5 5 5 5 5 5 5 6 5 5 5 5 5 6 5 5 5 5 5 5 6 5 5 5 5 5 5 5 5 5 6 5 6 5 5 5 5 5 6 5 5 6 5 5 6 5 5 5 6 5 5 5 5 5 5 5 5 5 6 5 5 5 5 6 5 5 5 5 5 5 5 5 5 5 5 5 5 5 5 5 5 5 5 5 5 5 5 5 5 5 5 5 5 5 5 5 5 6 5 5 5 5 5 5 5 5 5 5 5 5 5 5 5 6 5 5 5 5 5 5 5 5 5 5 5 6 5 5 5 5 5 5 6 5 5 5 5 5 5 5 5 5 6 5 5 5 6 5 5 5 5 5 5 5 5 5 5 5 5 5 5 5 5 5 5 5 5 5 5 5 5 6 5 5 5 5 5 5 5 5 5 6 5 5 5 6 5 5 5 5 5 6 5 5 5 5 6 5 5 5 5 5 5 5 5 5 5 5 6 5 6 5 5 6 5 5 5 5 5 5 5 5 5 6 5 5 5 5 5 5 5 5 5 5 5 5 6 5 5 5 5 5 5 5 5 5 5 6 6 5 5 5 5 6 5 5 5 6 5 6 5 5 5 5 5 5 6 5 6 5 5 6 5 5 6 5 5 5 5 5 5 5 5 6 5 5 6 6 5 5 5 5 5 5 5 5 6 5 5 6 5 6 5 5 6 6 5 5 6 6 6 6 5 6 5 5 5 5 6 5 5 5 5 5 6 6 6 5 5 6 6 5 5 5 6 5 5 5 5 5 6 6 5 5 5 5 5 5 5 5 5 5 5 5 5 5 5 5 6 5 5 5 6 5 6 5 5 5 5 5 5 5 6 5 5 5 5 6 5 5 5 6 5 6 5 5 5 5 5 5 5 5 5 5 5 5 5 5 5 5 5 5 5 5 5 5 5 5 6 5 5 5 5 6 5 5 5 5 5 5 5 5 5 5 5 5 5 6 5 5 5 5 5 5 5 5 5 5 5 5 5 5 5 5 5 5 5 6 5 5 5 5 5 5 6 6 5 5 5 5 5 5 5 5 5 5 5 5 5 5 5 5 5 5 6 5 5 6 5 5 6 5 5 5 5 5 5 5 5 5 5 5 5 5 5 5 5 6 5 6 5 5 5 5 5 5 5 6 5 5 5 5 5 5 5 6 5 5 5 5 5 5 6 5 5 5 6 5 5 6 5 5 5 5 5 5 5 5 5 5 5 5 5 5 5 5 5 5 5 5 5 5 5 5 5 5 5 5 5 5 5 5 5 5 5 5 5 5 5 5 5 5 5 5 5 5 6 5 5 5 5 5 5 5 5 6 5 5 5 5 5 5 5 5 5 6 6 5 5 5 5 5 5 6 5 5 5 6 6 5 6 6 5 6 5 6 5 6 5 5 5 5 5 5 5 5 5 6 5 5 6 5 5 5 6 6 5 5 5 5 5 5 5 5 5 5 5 5 6 5 6 5 5 5 5 5 6 6 5 5 5 5 5 5 5 5 5 5 5 5 5 5 5 5 5 5 5 6 5 5 5 6 5 5 5 5 5 5 5 5 5 5 6 5 6 5 5 5 5 5 5 5 5 5 5 5 5 5 5 5 5 6 5 5 5 5 5 5 5 5 5 5 5 5 5 5 5 5 5 5 5 5 5 5 5 5 5 6 6 5 5 5 5 5 5 5 5 6 5 5 6 5 5 5 5 5 6 6 5 5 5 5 5 5 5 5 5 5 5 5 5 5 5 5 5 5 5 5 5 5 5 5 5 5 5 6 5 5 5 5 6 5 5 5 5 5 5 6 5 5 5 5 6 5 5 5 5 5 5 5 5 5 5 5 5 6 5 5 5 5 5 5 5 5 5 6 5 5 5 5 5 5 5 5 5 5 5 5 5 5 5 5 6 5 5 5 5 5 5 6 5 5 5 5 5 5 5 5 5 6 5 5 5 5 5 5 5 5 5 5 5 6 5 5 5 5 5 6 6 6 5 5 5 5 5 5 5 5 5 5 5 5 5 5 5 5 5 5 5 5 5 5 5 5 5 5 5 5 5 5 5 5 5 5 5 5 5 5 5 5 5 5 5 5 5 5 5 5 5 5 5 5 5 5 5 5 5 5 5 6 5 5 5 5 5 5 5 5 5 5 5 5 5 5 5 5 5 5 5 5 5 5 5 5 5 5 5 5 5 6 5 5 5 6 5 5 6 6 5 5 6 5 5 6 5 5 6 5 5 5 6 5 5 5 5 5 5 5 5 5 5 5 5 5 5 5 6 5 5 5 5 6 5 6 5 5 5 5 6 5 5 5 5 5 5 5 5 5 6 5 5 5 5 5 5 5 5 5 5 5 5 5 5 5 5 5 5 5 5 5 6 5 6 5 5 6 5 5 5 5 6 5 5 6 5 6 5 5 5 5 5 5 5 5 5 5 6 5 5 5 5 5 5 5 5 6 6 5 5 6 5 5 6 5 5 5 5 6 6 5 5 5 5 5 5 5 6 5 5 5 5 6 6 6 5 5 5 5 5 5 6 5 5 6 6 5 5 5 6 6 5 5 5 5 5 6 5 6 5 5 5 5 5 5 5 5 5 5 5 6 5 5 5 6 5 5 5 5 5 5 5 6 5 6 5 6 5 5 5 5 6 5 5 5 5 5 6 5 5 5 5 5 5 5 5 5 5 5 6 5 5 5 5 5 5 5 5 6 5 5 5 5 5 5 5 5 5 6 5 5 5 5 5 6 6 5 5 5 5 5 5 5 6 5 5 5 6 5 5 5 5 5 5 5 5 6 5 5 5 6 5 5 5 6 5 6 5 6 6 5 5 6 5 6 5 5 6 6 5 5 6 5 5 5 5 5 5 5 6 5 5 5 6 5 5 6 5 5 5 6 5 6 5 5 5 5 6 5 6 5 5 5 5 5 6 5 5 5 5 6 5 6 5 5 6 5 6 5 5 5 5 6 5 5 6 5 6 5 5 6 5 6 5 6 5 5 5 5 5 6 5 5 5 5 5 6 5 5 5 5 5 5 6 5 5 5 5 5 5 5 5 5 5 5 5 5 5 5 5 5 5 5 5 5 5 5 5 5 6 5 5 5 5 6 6 5 5 5 5 5 5 5 5 5 5 5 5 5 5 5 5 5 5 5 5 5 5 5 5 5 5 6 5 5 5 5 5 5 5 5 5 5 5 5 5 5 5 5 5 5 5 5 6 5 5 5 5 5 5 5 5 5 5 5 5 5 5 6 5 5 5 5 5 5 5 5 5 5 5 6 5 5 6 5 5 6 6 5 5 6 5 5 5 5 5 5 5 5 5 5 6 5 5 5 5 5 5 5 5 5 5 5 5 5 5 5 5 5 5 5 5 5 5 5 5 5 5 6 5 5 5 6 5 5 5 5 5 5 5 6 5 5 5 5 5 5 5 5 5 5 5 5 6 5 5 5 5 5 5 5 5 6 6 5 5 5 5 5 5 5 5 5 5 6 5 5 5 5 5 5 5 5 5 6 5 5 5 5 5 5 5 5 5 5 5 5 5 5 5 5 5 5 5 5 5 6 5 5 5 6 5 5 5 5 5 5 5 5 5 5 5 5 5 5 5 5 5 5 5 5 6 5 5 5 5 5 5 5 5 5 5 5 5 5 5 5 6 6 5 6 5 5 5 5 5 5 5 5 5 5 5 5 5 5 5 5 5 5 5 5 5 5 6 5 5 5 5 5 5 5 5 5 5 5 5 5 5 5 5 5 5 6 5 5 5 5 5 5 5 5 5 6 5 5 5 5 5 5 5 5 5 5 5 5 5 5 5 5 5 5 5 5 6 5 5 5 5 6 5 5 5 5 6 5 5 5 5 5 5 5 5 5 5 5 6 5 5 5 5 5 5 6 5 6 5 5 5 5 5 5 5 5 5 5 5 5 5 5 5 5 5 6 5 5 6 5 5 5 5 5 5 5 5 5 5 5 5 5 5 5 5 5 5 5 5 5 5 5 5 5 5 5 5 5 5 5 5 5 5 5 5 5 5 5 5 5 5 5 5 5 5 5 5 6 5 5 5 5 5 5 5 5 5 5 5 5 5 5 5 5 5 5 5 5 5 5 5 5 5 5 5 5 5 5 5 5 5 5 5 5 5 5 5 5 5 5 5 5 5 5 5 5 5 5 6 5 5 5 5 5 6 5 5 5 6 5 5 5 5 5 6 5 5 5 6 5 5 5 5 5 5 5 5 5 5 5 5 6 5 5 5 5 5 5 6 5 5 5 5 5 5 5 5 5 5 5 5 5 5 5 5 5 5 5 5 5 5 5 5 5 5 5 5 5 5 5 5 5 5 5 5 5 5 5 5 5 5 5 5 5 5 5 5 5 5 5 5 5 5 5 5 5 5 5 5 6 6 5 5 5 5 5 6 6 5 5 5 5 5 5 5 5 5 5 5 5 6 5 6 5 5 5 5 6 5 5 5 5 5 5 6 5 5 5 5 5 5 6 5 5 6 5 5 6 5 5 5 6 6 5 5 6 6 5 5 5 5 6 5 5 5 5 5 5 5 6 5 5 5 5 5 5 5 6 5 5 5 6 5 5 5 5 5 5 6 5 6 6 5 5 6 5 5 5 5 6 5 5 5 5 5 5 5 5 5 5 5 5 5 5 5 5 5 5 6 5 5 5 6 6 5 5 5 5 5 5 5 5 5 5 6 5 6 5 5 5 5 5 5 6 5 6 5 6 5 5 5 5 5 5 5 5 5 5 5 5 5 5 5 5 5 5 5 5 5 5 6 5 5 5 5 5 5 5 5 5 5 5 6 5 5 6 5 5 5 5 5 6 5 5 5 5 6 5 5 5 5 5 5 6 5 5 5 5 5 5 5 5 5 5 5 5 5 5 5 5 5 5 5 5 5 5 5 5 5 5 5 5 5 5 5 5 6 5 6 5 5 5 5 5 5 5 5 5 5 5 5 5 5 5 5 5 5 5 5 6 5 5 5 6 5 5 5 5 5 5 5 5 5 5 5 5 5 5 5 5 6 5 6 5 5 5 5 5 5 5 5 5 5 5 5 5 6 5 5 5 5 5 5 6 5 5 5 5 5 5 5 5 5 6 5 6 5 6 5 5 5 6 5 5 5 5 5 6 5 5 6 5 5 5 5 6 5 5 5 5 6 5 5 5 6 6 5 5 5 5 5 5 6 5 5 5 5 5 5 5 5 5 5 5 5 6 5 5 5 5 5 5 5 5 6 5 5 6 5 5 5 5 5 5 5 5 5 5 6 5 6 5 5 6 6 5 5 5 6 5 5 5 5 6 5 5 6 5 5 5 5 5 5 5 5 6 5 5 5 5 5 5 5 5 5 5 5 6 5 5 5 5 5 6 5 5 5 5 5 5 5 5 5 5 6 5 5 5 5 5 5 5 5 6 5 5 5 5 5 5 5 5 6 5 5 6 5 6 5 6 5 5 5 5 6 5 5 6 6 5 5 5 6 5 5 5 5 5 5 6 5 5 6 5 5 5 5 5 5 5 5 5 6 5 5 5 5 6 5 5 5 5 6 5 5 5 6 6 5 5 6 6 5 6 5 6 5 5 5 5 6 5 5 6 6 6 5 5 5 5 5 6 5 5 6 5 5 5 5 5 6 6 5 5 5 6 5 5 5 5 5 5 5 5 6 5 5 5 5 5 5 5 5 5 5 6 5 5 5 5 6 5 5 5 5 5 5 5 6 5 5 5 5 5 5 5 5 5 5 5 5 5 5 5 5 5 5 5 5 5 5 6 5 5 5 5 5 6 6 5 5 5 5 6 5 5 6 5 6 6 5 5 5 6 5 5 6 5 5 5 5 5 5 5 5 5 5 5 5 5 5 5 5 5 5 5 5 5 5 5 5 5 5 5 5 5 5 5 5 5 5 5 5 5 5 5 5 5 5 5 5 5 5 5 5 5 5 6 5 5 5 5 5 5 6 5 5 5 5 5 5 5 5 5 6 5 6 5 5 5 5 5 5 5 5 5 5 5 5 5 5 5 5 5 6 5 5 5 5 5 5 5 5 5 5 5 5 5 6 5 5 5 5 5 5 5 6 5 5 5 5 5 6 5 5 5 5 5 5 5 5 5 6 5 6 5 5 5 5 6 5 6 5 5 5 6 5 5 5 5 6 5 5 5 5 5 5 5 5 5 5 5 5 5 5 5 5 5 5 5 5 6 6 5 5 5 5 5 5 5 5 5 5 5 5 5 5 5 5 5 5 5 5 5 5 5 5 5 6 5 5 6 5 5 5 5 5 5 5 6 5 5 5 5 5 5 5 5 5 5 5 6 5 6 5 5 5 5 5 5 5 5 5 5 5 5 5 5 5 5 5 5 5 5 5 5 5 5 5 5 6 5 6 5 5 5 5 5 5 5 5 5 5 5 5 6 6 5 5 6 5 5 5 5 5 5 5 5 5 5 5 5 5 5 5 5 5 6 5 5 5 5 5 5 6 5 5 5 5 5 5 6 6 5 5 5 5 5 5 5 5 5 5 5 5 5 5 5 5 5 5 5 5 5 5 5 5 5 5 5 5 5 5 5 5 5 5 5 5 5 5 5 5 5 5 5 5 6 5 5 5 5 5 5 5 5 5 5 5 5 5 5 5 6 5 5 6 5 5 5 6 5 5 5 5 5 5 5 5 5 6 5 6 5 5 6 6 5 5 5 6 5 5 5 5 5 5 6 5 5 5 5 5 5 5 6 6 5 5 5 5 6 6 5 6 6 5 5 5 5 5 6 6 5 5 5 5 5 5 5 5 5 5 5 5 5 5 5 5 5 6 5 5 6 5 5 5 5 5 5 5 6 5 5 5 6 5 5 5 5 5 5 6 5 5 5 5 5 5 5 5 6 5 5 5 5 5 5 5 6 5 5 5 5 5 5 5 6 6 5 6 5 5 6 6 5 5 6 5 6 5 5 5 5 5 5 5 5 5 5 5 5 5 5 5 5 5 5 5 5 5 6 5 6 5 5 5 5 5 5 5 5 5 5 5 5 5 6 5 5 5 5 5 6 5 5 5 5 5 5 5 5 5 5 6 5 6 5 5 5 5 5 5 5 5 5 5 5 6 6 5 5 6 5 5 5 5 5 5 5 5 5 5 5 5 5 6 6 5 5 5 5 5 6 5 5 5 5 5 6 5 5 6 6 5 5 6 5 5 5 5 5 5 5 5 5 5 5 5 5 5 5 5 5 5 5 5 5 5 6 5 5 6 5 5 5 5 5 5 5 5 5 5 5 5 5 5 5 5 5 5 5 5 5 5 6 6 5 5 6 5 5 5 6 5 5 5 6 5 5 5 5 5 5 5 5 5 5 5 5 5 5 5 5 6 5 6 5 5 5 5 5 5 5 5 5 5 5 5 5 5 5 5 6 5 5 5 5 5 6 5 5 5 5 5 5 5 5 5 5 5 5 5 5 5 5 5 5 5 5 5 5 5 5 5 5 5 6 5 5 5 5 5 5 5 6 5 5 5 5 5 5 5 6 5 5 6 5 5 5 5 5 5 5 6 5 6 5 5 6 5 5 6 5 5 5 5 5 6 5 5 5 5 5 5 5 5 5 5 5 5 5 5 6 5 6 5 5 6 5 5 6 5 5 5 5 5 5 5 5 5 5 5 5 5 5 5 6 6 5 6 5 5 6 5 5 5 5 5 5 6 6 5 5 6 5 6 5 5 5 6 5 5 6 5 5 5 6 5 5 5 5 5 5 5 5 5 5 5 6 5 6 5 6 5 5 6 5 5 5 5 5 5 5 5 5 5 5 5 6 6 5 5 6 5 5 6 6 6 5 5 5 6 5 5 5 5 5 5 6 5 6 6 5 6 5 5 5 5 6 5 5 5 6 5 5 5 5 5 5 5 5 5 5 6 5 6 5 5 5 5 5 5 6 5 6 5 5 6 5 5 5 5 6 5 5 6 5 5 6 5 6 5 5 5 5 6 5 5 5 5 6 6 6 5 5 5 5 6 5 6 5 6 5 5 5 5 5 5 5 5 5 6 6 5 5 5 5 6 6 5 5 5 5 5 5 6 5 5 6 6 5 5 5 5 5 5 5 5 5 6 5 5 5 6 5 5 5 5 6 5 5 5 5 5 5 5 5 5 5 5 5 5 5 5 5 5 5 5 5 5 5 5 5 5 5 5 5 5 5 5 5 5 5 5 5 5 5 5 5 5 5 5 5 6 5 5 5 5 5 5 5 5 5 5 6 6 5 5 6 5 5 6 6 5 6 5 5 5 5 6 6 5 5 6 5 6 5 5 5 5 5 6 5 5 6 5 5 5 6 5 5 6 6 5 5 5 6 5 5 5 6 5 5 5 5 6 5 5 5 5 5 5 5 5 6 5 5 5 5 5 5 5 5 5 5 6 5 5 5 5 5 5 5 5 5 5 5 5 5 5 5 5 5 5 5 5 5 5 5 5 6 5 5 5 5 5 5 5 6 5 5 6 5 5 5 6 5 6 5 5 5 5 5 5 5 5 6 5 5 6 6 5 5 5 5 5 6 5 6 5 6 5 5 5 5 5 5 5 5 5 5 5 5 5 5 5 5 5 5 5 5 5 5 5 5 5 5 6 5 5 5 5 5 5 6 6 5 5 6 5 6 5 6 5 5 5 5 6 5 5 5 5 5 5 6 6 6 5 5 5 6 5 5 5 5 5 5 5 5 5 5 6 5 5 6 5 5 6 5 5 6 5 5 5 6 5 5 6 5 5 5 5 5 5 5 5 5 5 5 5 6 5 6 5 5 5 5 5 5 6 5 5 5 6 6 5 5 5 5 5 6 5 5 5 5 6 6 5 5 5 5 6 6 5 6 6 5 6 5 5 6 5 5 6 6 5 5 5 5 5 5 5 5 5 5 5 5 5 5 5 6 6 5 5 5 5 5 5 5 5 5 5 5 6 5 5 5 5 5 5 5 6 5 5 5 5 6 5 5 5 6 5 6 6 5 5 5 5 5 5 6 5 5 5 5 5 5 5 5 5 5 6 5 5 5 5 5 5 5 5 5 5 5 5 6 5 5 5 5 5 5 5 5 5 5 5 5 5 6 5 5 5 5 5 5 5 5 5 5 5 5 6 5 5 5 5 5 6 5 5 5 5 5 5 5 5 5 5 5 5 6 5 5 5 5 5 5 5 5 5 5 5 5 5 5 5 5 5 5 5 5 6 5 5 6 5 6 6 5 5 5 5 5 5 6 5 5 6 5 5 5 5 5 5 6 5 5 5 5 5 5 5 5 5 6 6 5 5 5 5 5 5 5 6 5 5 5 6 6 5 5 5 5 6 5 6 5 5 5 5 5 5 6 5 6 5 5 5 5 5 6 5 6 5 5 5 5 5 5 5 6 5 5 6 5 6 5 5 5 5 6 6 5 5 5 5 5 5 6 5 5 6 5 5 5 5 5 5 5 6 5 5 5 5 5 5 5 5 6 5 5 6 5 5 5 5 5 5 5 5 6 5 6 5 6 5 5 5 5 6 5 6 5 5 6 5 5 6 5 5 6 6 5 6 5 6 5 5 5 5 5 5 5 5 5 5 5 5 5 5 5 5 5 5 5 5 5 5 5 5 5 5 5 6 5 5 5 5 6 5 5 5 6 5 5 6 5 5 5 6 5 6 5 5 5 6 5 5 6 5 5 5 6 5 5 5 5 5 5 5 5 6 5 5 5 6 5 5 5 5 6 5 5 5 5 6 5 6 5 5 5 5 5 5 5 6 5 5 5 6 5 5 6 5 5 5 5 5 5 5 5 5 5 5 5 5 5 5 5 5 5 6 5 5 6 5 5 5 6 5 5 5 5 5 5 5 5 5 5 6 5 6 5 5 5 5 5 5 5 5 5 5 5 5 5 5 5 5 5 6 5 5 5 5 5 5 6 5 5 5 5 6 5 6 5 5 5 5 5 5 5 5 5 5 5 5 5 5 5 6 5 5 5 5 5 5 6 5 5 5 5 5 5 5 6 5 5 5 5 6 5 5 6 6 5 5 5 5 5 5 5 5 5 5 5 5 5 5 5 5 5 5 5 5 5 5 5 6 6 5 5 5 5 6 5 5 5 5 5 5 5 5 6 5 5 5 5 5 6 5 5 5 5 5 5 5 5 5 5 5 5 5 5 5 5 5 5 5 5 5 5 5 5 5 5 5 5 6 6 5 5 5 6 5 5 5 5 6 5 5 5 5 6 5 5 5 6 5 5 5 5 5 5 6 5 5 5 5 5 5 6 6 5 5 5 6 5 5 5 5 6 5 5 5 5 5 5 5 5 5 5 5 5 5 5 5 5 5 5 5 5 5 5 5 6 5 5 5 5 6 5 6 5 5 5 5 5 5 5 5 5 5 6 5 5 5 5 5 5 5 5 6 5 6 5 5 5 6 5 5 5 5 5 5 5 5 5 5 5 6 5 5 5 5 5 5 5 6 6 5 6 5 5 5 5 5 5 5 5 5 5 6 5 5 5 5 5 5 5 6 5 5 5 5 5 5 5 5 5 5 5 5 6 5 5 5 5 5 5 6 5 6 5 5 5 6 5 5 5 5 5 5 5 6 5 5 5 5 5 5 5 5 5 5 5 6 5 6 5 5 5 6 5 5 5 5 5 5 6 5 5 5 6 5 5 5 6 5 5 5 5 5 5 5 5 5 6 5 5 5 5 6 5 5 5 5 5 5 5 5 5 5 6 5 5 5 5 5 6 5 5 5 5 5 5 5 5 5 5 6 5 5 5 5 6 5 5 5 5 5 5 5 5 5 6 5 6 5 5 5 5 5 5 5 5 5 5 5 5 5 5 5 5 5 5 5 5 5 5 5 5 5 5 5 5 5 5 5 5 5 5 5 5 5 5 5 5 5 5 5 5 5 5 5 5 5 5 5 5 6 5 5 5 5 5 5 5 5 5 5 5 6 5 5 5 5 5 5 5 5 5 5 5 6 5 5 5 5 5 5 5 6 5 5 5 6 5 5 5 5 5 5 6 5 5 5 5 5 5 5 6 5 5 6 5 5 5 5 6 5 5 5 6 5 6 5 6 5 5 6 5 5 5 6 5 5 5 5 5 5 6 5 5 5 5 6 5 5 5 5 5 5 6 5 5 5 5 5 5 5 5 6 5 5 5 6 5 5 5 5 5 5 5 5 5 5 5 5 5 5 5 5 5 6 5 5 5 5 6 5 5 5 5 5 6 6 5 5 6 5 5 5 5 5 6 5 5 5 6 5 6 5 6 5 5 6 6 5 5 5 6 6 5 6 5 5 6 5 5 6 6 5 5 5 5 5 6 5 5 5 5 5 5 5 5 5 5 5 5 5 5 6 5 5 6 5 5 6 5 5 5 5 5 5 6 5 5 5 5 5 5 5 5 5 5 5 5 5 5 5 6 5 5 5 5 5 6 5 5 5 5 5 5 5 5 5 5 5 5 6 5 5 5 5 5 5 5 6 5 5 5 5 5 5 5 5 5 5 5 5 5 5 5 5 5 6 5 5 5 5 5 5 5 5 5 6 5 6 5 5 5 5 5 5 5 5 5 5 6 5 5 5 5 6 5 5 5 5 5 5 5 6 5 5 5 6 5 6 5 5 5 6 6 5 5 5 5 5 5 6 6 6 5 6 5 5 5 5 5 5 6 5 5 5 5 5 5 5 6 5 5 5 6 5 5 5 5 6 5 5 5 5 5 5 5 5 6 5 5 5 6 5 5 5 5 5 6 5 5 5 5 5 5 5 5 5 5 6 5 5 6 6 5 5 5 5 5 5 5 6 5 5 5 5 5 5 5 6 5 5 5 5 5 5 5 5 5 5 5 5 6 5 5 5 5 6 5 5 5 5 5 5 5 5 5 5 5 5 5 5 5 5 5 6 5 5 5 5 6 5 5 5 5 5 5 5 5 5 5 5 6 5 5 5 5 5 5 5 5 5 5 5 5 5 5 5 5 5 5 5 5 5 5 5 5 5 5 5 5 5 5 5 5 5 5 5 5 5 5 5 5 5 6 5 6 5 5 5 5 6 6 5 5 5 5 5 5 5 5 6 6 5 5 5 5 5 5 5 5 5 5 5 6 5 5 5 5 5 5 5 5 5 5 5 5 5 6 5 5 5 5 5 6 5 5 5 5 6 5 6 5 5 6 5 5 6 5 5 6 5 5 6 5 5 5 5 5 5 6 5 6 5 5 5 5 5 5 5 6 5 5 5 5 6 5 5 6 6 6 5 6 5 5 6 6 5 5 5 5 5 5 6 5 5 5 5 5 5 5 5 5 5 5 5 5 5 5 5 5 5 5 5 5 5 6 5 5 5 5 5 5 5 5 5 5 5 5 5 5 5 5 5 5 5 5 5 6 5 5 5 5 5 5 6 5 5 5 5 5 5 5 5 5 5 5 6 5 5 6 5 5 5 5 5 5 5 5 5 5 5 5 5 5 5 5 5 5 5 5 5 5 5 5 5 5 5 5 5 5 5 5 5 5 5 5 5 5 5 5 5 5 5 5 5 5 5 5 6 5 5 6 6 5 5 5 5 5 5 5 5 5 5 6 5 5 5 5 6 5 5 5 5 5 5 5 6 5 5 5 5 5 5 5 5 5 5 5 5 5 6 5 5 5 5 5 5 5 5 5 5 6 5 5 6 5 5 5 5 5 5 5 6 5 5 5 5 5 5 5 5 5 5 5 5 5 5 5 5 5 5 5 5 5 5 5 5 5 5 5 5 5 5 5 5 6 5 5 6 5 5 5 5 5 6 5 5 5 5 5 6 5 5 5 6 5 5 5 6 5 5 5 5 5 5 5 5 5 5 5 5 5 5 5 5 5 5 5 5 6 5 6 5 5 5 5 5 6 5 5 5 5 6 5 5 6 5 5 5 5 5 5 5 
</DataArray>
<DataArray type="Float64" Name="stress" NumberOfComponents="9" format="ascii">
-783.27702025923645 150.17730236737361 0 150.17730236737361 -1.0260242084436118 0 0 0 0 -4479.2569545900769 948.10337504896199 0 948.10337504896199 153.64090250038373 0 0 0 0 -660.1802793177194 127.12263737122572 0 127.12263737122572 -62.308559944978924 0 0 0 0 -96.006408567278413 32.756788719114297 0 32.756788719114297 -86.3890082144394 0 0 0 0 -252.41697557930456 621.33359536127591 0 621.33359536127591 -779.09403590360193 0 0 0 0 232.71327643567929 90.842831969105646 0 90.842831969105646 -561.34859992026691 0 0 0 0 -10.224962029883727 5.1098391419655798 0 5.1098391419655798 -5.7872342926401634 0 0 0 0 -2420.9313754472532 24.551520497182619 0 24.551520497182619 -22.597575624576258 0 0 0 0 -4496.2845331735007 -1595.5855837225854 0 -1595.5855837225854 -0.51721082208935565 0 0 0 0 -25.073957212092978 13.330821310201856 0 13.330821310201856 -14.516957261626086 0 0 0 0 -60.435793098586146 17.123111555118612 0 17.123111555118612 168.38714477514935 0 0 0 0 -441.77037663981901 55.915172124859055 0 55.915172124859055 169.93143808671948 0 0 0 0 -216.25156400512788 67.367986216012014 0 67.367986216012014 5.3583862794293964 0 0 0 0 -18.612025872984077 4.7650348043278541 0 4.7650348043278541 2.9901495758837786 0 0 0 0 -96.440829377541377 -17.668079361259743 0 -17.668079361259743 -10.890652323053018 0 0 0 0 -176.43112271785503 30.427045369094685 0 30.427045369094685 -18.996911166788323 0 0 0 0 -63.013371052180077 30.698165189468227 0 30.698165189468227 -1.575949766740532 0 0 0 0 -2361.60225685552 26.374685720958475 0 26.374685720958475 -22.632304373927507 0 0 0 0 -32.483769881650574 -12.881742348361655 0 -12.881742348361655 -15.888890452692587 0 0 0 0 20.056788242458424 -130.80459216441363 0 -130.80459216441363 -148.81161500628423 0 0 0 0 -175.83927329495782 19.67652552522668 0 19.67652552522668 2.4733996700488206 0 0 0 0 -38.557282239465891 -39.76140587047874 0 -39.76140587047874 1.9257400371066229 0 0 0 0 -215.94439382524524 45.548027985540486 0 45.548027985540486 74.07262083939986 0 0 0 0 -171.62462218632572 -69.217637649003905 0 -69.217637649003905 174.06168723908968 0 0 0 0 -260.9718113743329 343.71319884553861 0 343.71319884553861 -442.7544635577492 0 0 0 0 -312.67458698555129 26.609456860515905 0 26.609456860515905 104.7328724817836 0 0 0 0 -70.476687344717789 6.6647251250415991 0 6.6647251250415991 2.4607636202041046 0 0 0 0 -131.95222464152903 -71.710505100081264 0 -71.710505100081264 265.25590747226897 0 0 0 0 -251.54451589810196 -166.60845556230981 0 -166.60845556230981 -64.13593092429889 0 0 0 0 -35.549383141935749 -39.107697735220029 0 -39.107697735220029 8.6163486832627427 0 0 0 0 -69.053648718836484 -141.02125292697477 0 -141.02125292697477 -103.18441757226742 0 0 0 0 5.4800987771450309 -146.70511935040099 0 -146.70511935040099 -64.635437421318102 0 0 0 0 -57.843599085346796 74.376635548245773 0 74.376635548245773 -194.0467390699238 0 0 0 0 1.6453872148017581 -6.2812691098313245 0 -6.2812691098313245 -0.70788989608181241 0 0 0 0 0.45122406256996328 68.176859475548696 0 68.176859475548696 62.294299922950316 0 0 0 0 -11.520485440729857 1.6970388476869118 0 1.6970388476869118 0.68636432902481159 0 0 0 0 -10.532589175112662 100.39050855970889 0 100.39050855970889 -0.26617886822978831 0 0 0 0 153.60378812053386 -116.25326387742159 0 -116.25326387742159 -242.83436527116012 0 0 0 0 -85.934708988395869 119.9768299389637 0 119.9768299389637 221.12240767334944 0 0 0 0 -282.99129641469335 -176.25852061596117 0 -176.25852061596117 559.37873653741599 0 0 0 0 238.88855523074744 671.51072175499917 0 671.51072175499917 -1061.2662931529642 0 0 0 0 -17.303215100269881 -126.30403128262378 0 -126.30403128262378 -57.517008957057897 0 0 0 0 -50.836536117391461 11.207777367754343 0 11.207777367754343 -1.7898681312709082 0 0 0 0 -914.47088437734055 314.95778632612195 0 314.95778632612195 0.12325630565288914 0 0 0 0 -1711.5711533943831 547.30517358247073 0 547.30517358247073 215.9333464308593 0 0 0 0 -1037.1512176593242 68.598140902230412 0 68.598140902230412 0.31348718719564539 0 0 0 0 -1508.9999195523596 -190.51123788435336 0 -190.51123788435336 357.43112301165058 0 0 0 0 -1206.0799413232889 1187.205850751162 0 1187.205850751162 -739.06146949236609 0 0 0 0 -20.327841194500706 5.5278792298713171 0 5.5278792298713171 -1.3396832741271454 0 0 0 0 -1565.1046309441736 -547.23510788752662 0 -547.23510788752662 98.638145160102738 0 0 0 0 -1527.8952539778838 2194.2491036144738 0 2194.2491036144738 556.03681278882095 0 0 0 0 -2523.9111737746862 4.3388447340646508 0 4.3388447340646508 365.25841878198406 0 0 0 0 -2286.35798545533 -513.3130586296154 0 -513.3130586296154 -133.99557363496447 0 0 0 0 -573.4967392898252 1015.0772762277152 0 1015.0772762277152 -848.9203051629263 0 0 0 0 -2420.0024481731525 737.82218893112895 0 737.82218893112895 214.76375457197423 0 0 0 0 -4.9018131188359462 -2.1557494955105199 0 -2.1557494955105199 0.12158914148786248 0 0 0 0 93.880549789879296 56.023398449493712 0 56.023398449493712 1.44468010289944 0 0 0 0 79.649072742118733 -163.76872439138606 0 -163.76872439138606 3.5846729584474559 0 0 0 0 87.034977342234924 -369.87440302877394 0 -369.87440302877394 9.5811675334485926 0 0 0 0 -4.3373546633530395 3.0306984569025701 0 3.0306984569025701 -1.1975802890362628 0 0 0 0 -2989.7398498510156 -754.55828766268064 0 -754.55828766268064 -91.828657889356691 0 0 0 0 -321.63069207489025 2295.7090300370187 0 2295.7090300370187 300.71218304231161 0 0 0 0 604.8067373316153 -180.71498889433497 0 -180.71498889433497 -747.43973958246897 0 0 0 0 -2056.4326969607646 172.19079924955145 0 172.19079924955145 -31.175434405504348 0 0 0 0 -1173.7662835296942 -166.832511903051 0 -166.832511903051 -105.54019860927656 0 0 0 0 -732.33885479692253 315.91690916337029 0 315.91690916337029 -155.72210980375098 0 0 0 0 -909.76498803246068 -263.76255175921233 0 -263.76255175921233 -389.32228179043614 0 0 0 0 -1331.1970502741024 -615.36707624613314 0 -615.36707624613314 -565.1030087559493 0 0 0 0 -66.660942751906987 50.051432390981404 0 50.051432390981404 455.94837422219825 0 0 0 0 -13.434969137005538 8.0600973796710491 0 8.0600973796710491 4.7865000807272775 0 0 0 0 -1075.8282401759934 -594.42074322777171 0 -594.42074322777171 -237.61204535757679 0 0 0 0 -81.476094644589466 73.170128604181173 0 73.170128604181173 698.02202686593819 0 0 0 0 167.59871778320667 -777.38964210560857 0 -777.38964210560857 873.38570764633459 0 0 0 0 -8.4191958511364646 -312.9757687410206 0 -312.9757687410206 462.48571742023341 0 0 0 0 -151.4465531170099 243.85577682753757 0 243.85577682753757 -355.63827547490268 0 0 0 0 -567.04348676576046 453.32379227111915 0 453.32379227111915 -623.60832075221424 0 0 0 0 -565.77163909527007 394.54570190632239 0 394.54570190632239 -68.617595267402976 0 0 0 0 -2498.6657355046191 1159.3413758448751 0 1159.3413758448751 -484.21402383811983 0 0 0 0 -551.57375214555941 71.843246781726521 0 71.843246781726521 88.550649052107474 0 0 0 0 -0.61565039919006015 -0.330654944558745 0 -0.330654944558745 -0.096989423268517783 0 0 0 0 -1223.3034510793077 84.470777767456184 0 84.470777767456184 105.45234175661699 0 0 0 0 510.94551580860571 459.16912070444414 0 459.16912070444414 -516.49416073287921 0 0 0 0 -688.62702257545607 214.37708190378635 0 214.37708190378635 -82.418884412785701 0 0 0 0 -675.48930220934562 324.29541387256813 0 324.29541387256813 196.098901419296 0 0 0 0 -597.64647973503452 274.87137720695227 0 274.87137720695227 220.65486829417523 0 0 0 0 -433.05252535204636 247.32430777591753 0 247.32430777591753 77.277868752305949 0 0 0 0 -1.4150173919847129 3.2716241335103859 0 3.2716241335103859 1.3550067513696114 0 0 0 0 -907.29948331415653 95.953151957851787 0 95.953151957851787 84.834665182923345 0 0 0 0 -820.91716414809343 66.662799122088472 0 66.662799122088472 -57.251644809504796 0 0 0 0 -404.30495683162007 -509.42917070268959 0 -509.42917070268959 -428.23673956426637 0 0 0 0 -441.59110265015624 205.57120178048172 0 205.57120178048172 -38.890511867302052 0 0 0 0 -692.02679699872715 213.59347852337851 0 213.59347852337851 287.26338101417059 0 0 0 0 -0.26607609330496018 0.20414075394415931 0 0.20414075394415931 5.7108862145760995 0 0 0 0 -645.45888322337123 178.06454804260716 0 178.06454804260716 300.3530699888488 0 0 0 0 -496.63774458609987 86.751062704011929 0 86.751062704011929 122.81749442023374 0 0 0 0 -575.13091956141579 79.880203229167364 0 79.880203229167364 369.0996127744279 0 0 0 0 215.98521497235924 -72.743649488636947 0 -72.743649488636947 -206.19063336595082 0 0 0 0 -187.39130401805414 -98.088676768597338 0 -98.088676768597338 -142.2108123559774 0 0 0 0 -178.42442529603431 46.654873649340971 0 46.654873649340971 124.10758029013596 0 0 0 0 -563.0442122076347 158.21693399680771 0 158.21693399680771 49.898136905760111 0 0 0 0 1.1298781652399406 2.8251125319811763 0 2.8251125319811763 18.911172880290252 0 0 0 0 -195.26966117083612 135.58496519872114 0 135.58496519872114 -116.05972751652916 0 0 0 0 -106.01423211365181 21.500247617858804 0 21.500247617858804 47.458944636178785 0 0 0 0 146.33770836849362 62.622768968648074 0 62.622768968648074 -72.502198941381721 0 0 0 0 -639.86949992537848 27.168462579898915 0 27.168462579898915 -15.450998415028153 0 0 0 0 -775.90046001499286 47.418053268995209 0 47.418053268995209 -49.51100242291318 0 0 0 0 -737.25320049698348 -40.808959603498806 0 -40.808959603498806 -62.281659322005908 0 0 0 0 -576.72031829404295 64.111548006152589 0 64.111548006152589 -48.091706634042112 0 0 0 0 -983.37892029060458 172.74111084435935 0 172.74111084435935 106.83530037523269 0 0 0 0 -583.24142995259899 115.18489685667555 0 115.18489685667555 -240.63793843226995 0 0 0 0 -581.54050643512164 140.72888848016555 0 140.72888848016555 142.91728970572512 0 0 0 0 -1.7334344786949902 3.206707928290399 0 3.206707928290399 2.7527286846693499 0 0 0 0 -619.37671069948146 88.540473997999953 0 88.540473997999953 126.20589141970049 0 0 0 0 -633.06641270048567 30.536060068096049 0 30.536060068096049 198.70496286175694 0 0 0 0 -695.20640238239321 210.61443678205012 0 210.61443678205012 242.41483255326784 0 0 0 0 -435.79752766276943 299.07394720024604 0 299.07394720024604 230.24430196795788 0 0 0 0 -637.35902217996772 86.443403484177907 0 86.443403484177907 10.214531502482714 0 0 0 0 -674.08034340714948 99.565705229771083 0 99.565705229771083 112.67932677613135 0 0 0 0 1.0730968133930787 4.1142424869202046 0 4.1142424869202046 -6.1582311255158686 0 0 0 0 -678.85295681428397 -8.0068005234334123 0 -8.0068005234334123 -164.90364992805553 0 0 0 0 -764.57839300163323 33.024074052213109 0 33.024074052213109 -193.83832884299591 0 0 0 0 -713.01072284003021 196.98426226606534 0 196.98426226606534 -92.275146915111691 0 0 0 0 -1638.5864258547663 525.87885416266909 0 525.87885416266909 -160.58899045630824 0 0 0 0 -909.27646124357125 -24.291705444913532 0 -24.291705444913532 -121.85539212650474 0 0 0 0 4.7254720794965124 -4.7172538532318811 0 -4.7172538532318811 -33.434675314528292 0 0 0 0 54.639767258704524 2.1231000240802729 0 2.1231000240802729 -67.380368792039917 0 0 0 0 6.4370513263863813 -8.3363103295568806 0 -8.3363103295568806 -38.563906934324208 0 0 0 0 -73.14526308035056 381.51468431204717 0 381.51468431204717 -310.45975646748047 0 0 0 0 -125.03588458825834 14.83403099775397 0 14.83403099775397 -85.194414972903928 0 0 0 0 154.85824420083372 -62.199709065267598 0 -62.199709065267598 -156.0566627659507 0 0 0 0 -72.365197462451761 78.039380846995186 0 78.039380846995186 -38.681892059555167 0 0 0 0 -330.35434761315992 316.45286443092266 0 316.45286443092266 -212.78262663229202 0 0 0 0 -4493.9481287034332 932.12889597173512 0 932.12889597173512 825.02245389343398 0 0 0 0 -1809.2943070471083 1448.4344528132351 0 1448.4344528132351 -1190.0316708961245 0 0 0 0 -4.7973340939096687 -3.5255574691498737 0 -3.5255574691498737 -1.493976145595401 0 0 0 0 -1297.1718447772801 -804.76395304955633 0 -804.76395304955633 -226.01173482698363 0 0 0 0 -2330.7765278037987 515.26131378954597 0 515.26131378954597 823.22380955525659 0 0 0 0 -4.0288133709958203 -6.3764381918907702 0 -6.3764381918907702 -2.3395729770689364 0 0 0 0 -146.86688094126293 86.880930986765279 0 86.880930986765279 -20.53122853386563 0 0 0 0 -56.014650019948022 6.5895444047642382 0 6.5895444047642382 -32.962057503821811 0 0 0 0 -2811.8436419129284 -1178.7884284311647 0 -1178.7884284311647 -30.951857685904486 0 0 0 0 -4492.775414008298 -359.05698317266513 0 -359.05698317266513 831.54072750232501 0 0 0 0 -9.5414136458777818 -5.3293742906584782 0 -5.3293742906584782 -6.756294112148824 0 0 0 0 40.246203417365905 -130.58863833536179 0 -130.58863833536179 -617.78012684929729 0 0 0 0 -4496.8613602906516 1555.5531193055181 0 1555.5531193055181 -34.515723538048526 0 0 0 0 -88.334562407071644 48.947799362006187 0 48.947799362006187 -3.9449305067060152 0 0 0 0 -275.19419672010554 -44.8783230136886 0 -44.8783230136886 -14.038920018412227 0 0 0 0 -16.441426194143844 1.0960659168299003 0 1.0960659168299003 4.3706444574406191 0 0 0 0 -20.199237000207546 10.306181391495073 0 10.306181391495073 -22.767442006360287 0 0 0 0 -90.159266269387444 166.619695398359 0 166.619695398359 -76.539206945066553 0 0 0 0 -505.20311011535523 19.998758770519999 0 19.998758770519999 -6.1153391753559845 0 0 0 0 -512.94202773282996 -105.24009109664291 0 -105.24009109664291 121.88191172475854 0 0 0 0 -117.93507286008389 -84.695044084543497 0 -84.695044084543497 -137.9063815571144 0 0 0 0 -612.45318050495189 85.598607381007923 0 85.598607381007923 51.965256222658354 0 0 0 0 -778.06930968738743 140.9184993371764 0 140.9184993371764 3.5460343247411856 0 0 0 0 -623.99611839536374 139.25110659526877 0 139.25110659526877 -124.2977882767409 0 0 0 0 -7.9285115016955103 17.410505200123623 0 17.410505200123623 -30.022882735902215 0 0 0 0 -9.1901688273210311 50.0261901161143 0 50.0261901161143 -42.820202974702582 0 0 0 0 -376.22957594189211 43.836772474644647 0 43.836772474644647 -1.852469278570652 0 0 0 0 -5.2196531172633058 -2.9485893680531206 0 -2.9485893680531206 1.2751258772721568 0 0 0 0 -228.72112608821772 12.322001522502518 0 12.322001522502518 -25.09764950076908 0 0 0 0 -8.6106522646150552 -2.0858623681480708 0 -2.0858623681480708 -0.87868065647904814 0 0 0 0 -1.4640702082858326 0.26627582883318723 0 0.26627582883318723 -0.31556984508007724 0 0 0 0 -186.86001584872429 -3.8978525978798757 0 -3.8978525978798757 -2.6611378617487276 0 0 0 0 -10.322598684782861 -1.8012877827990117 0 -1.8012877827990117 -0.46866561255768602 0 0 0 0 -0.18807969829214244 0.049532406021938868 0 0.049532406021938868 -0.2443850193226027 0 0 0 0 -2.6384749455806968 1.2583447573620674 0 1.2583447573620674 -0.16095912412695515 0 0 0 0 -10.533296187211818 -2.8902429862916588 0 -2.8902429862916588 -3.0277320248268893 0 0 0 0 -11.423694509205234 0.40354771204339296 0 0.40354771204339296 -1.1023545024745942 0 0 0 0 -8.8688645790389273 -0.89312740730465467 0 -0.89312740730465467 -0.61760434324485591 0 0 0 0 -8.5193687210266944 -0.23752544893341895 0 -0.23752544893341895 0.001041980353714976 0 0 0 0 -8.0057321043568663 -0.7929444015422753 0 -0.7929444015422753 -0.27355020890632298 0 0 0 0 -7.9394505863965605 -0.61231567196251424 0 -0.61231567196251424 0.21381217979872177 0 0 0 0 -5.2445014219265431 -0.38370588817599288 0 -0.38370588817599288 -0.00069058888812862469 0 0 0 0 -13.709435238386504 -3.8333387310756848 0 -3.8333387310756848 -0.25733765883583715 0 0 0 0 -1.109467690749284 1.0959368277340502 0 1.0959368277340502 0.48526781964508031 0 0 0 0 -7.6105519412121794 -0.26737228346653591 0 -0.26737228346653591 -0.22792605543456207 0 0 0 0 -7.6404519434727263 -0.38008856321513379 0 -0.38008856321513379 -0.59662008951769208 0 0 0 0 -230.70908343367046 -48.06978317602578 0 -48.06978317602578 -17.496066692383224 0 0 0 0 -0.38202181552649961 -0.63975974215335896 0 -0.63975974215335896 -0.52472087952007496 0 0 0 0 -287.84964113788737 -52.23510875484692 0 -52.23510875484692 3.967383214934447 0 0 0 0 -294.23929902477539 -109.31883501760311 0 -109.31883501760311 98.847106509303956 0 0 0 0 -283.91578903828849 -39.788786675651814 0 -39.788786675651814 30.294026313677946 0 0 0 0 -1.0984051058948694 -0.23223786335401542 0 -0.23223786335401542 -0.017060844872353167 0 0 0 0 -1.126211699834812 -0.25869970879750781 0 -0.25869970879750781 -0.05837847839680442 0 0 0 0 -290.72238160815323 -144.28543807670343 0 -144.28543807670343 -21.645356154547784 0 0 0 0 -6.3165126100066118 -1.1245767079645497 0 -1.1245767079645497 -0.010130977400044429 0 0 0 0 79.851431653340114 -130.69646260269113 0 -130.69646260269113 0.20598156223983913 0 0 0 0 -284.31308712457576 -43.47208113178074 0 -43.47208113178074 73.240346247283568 0 0 0 0 -223.5215678545901 21.702079607257303 0 21.702079607257303 9.0308445307553775 0 0 0 0 -343.23111994472856 16.073230191020528 0 16.073230191020528 16.79250768087844 0 0 0 0 -0.79256242861501391 -0.62771743373971844 0 -0.62771743373971844 2.2537523410515905 0 0 0 0 -134.61979391903151 -11.297087019730752 0 -11.297087019730752 -7.4421081937126079 0 0 0 0 -252.93745024142845 -39.292760452141998 0 -39.292760452141998 20.39640936652826 0 0 0 0 -215.0495926203148 -17.737312646788098 0 -17.737312646788098 4.6610376839203127 0 0 0 0 -205.69599296120577 -32.929649237632219 0 -32.929649237632219 28.293486402307224 0 0 0 0 -178.58411114502815 7.4605844781892472 0 7.4605844781892472 26.194750062905769 0 0 0 0 -113.0812954348221 -18.9247312136863 0 -18.9247312136863 13.276600635870807 0 0 0 0 -35.892078313474485 -8.4322837964593162 0 -8.4322837964593162 15.707871988745183 0 0 0 0 -11.667559918402304 1.3703933808063482 0 1.3703933808063482 14.21894708730807 0 0 0 0 -42.453940662642708 9.7134861709452309 0 9.7134861709452309 -4.6493165788566131 0 0 0 0 -98.755744133610278 11.341612902216809 0 11.341612902216809 20.946188498507468 0 0 0 0 10.343346736714011 -85.227463660710328 0 -85.227463660710328 110.46956568840983 0 0 0 0 9.6926718466565944 -50.042628058653918 0 -50.042628058653918 56.464280350903209 0 0 0 0 -12.48872311050269 -2.8323886623854833 0 -2.8323886623854833 2.1742484581945565 0 0 0 0 -51.808412238227902 -67.774393831867201 0 -67.774393831867201 40.53490315388899 0 0 0 0 -52.66506491182372 -107.66433741591095 0 -107.66433741591095 138.68780473049355 0 0 0 0 6.8017906226305058 -141.57275207911869 0 -141.57275207911869 186.8423960580019 0 0 0 0 -65.156995868514059 -84.772231403654359 0 -84.772231403654359 145.58148198988329 0 0 0 0 -0.16973131181123335 0.27571327835838133 0 0.27571327835838133 5.7592408353249249 0 0 0 0 -141.85838662835886 15.85443850488643 0 15.85443850488643 16.066177341236251 0 0 0 0 246.51183279889665 -262.44981759657031 0 -262.44981759657031 150.59432776193489 0 0 0 0 37.219568515538413 -64.731549012323569 0 -64.731549012323569 122.84010881821905 0 0 0 0 11.645571714558173 -241.69394596729535 0 -241.69394596729535 218.03086119840668 0 0 0 0 203.6024918032781 -162.25801939229035 0 -162.25801939229035 157.26219873906075 0 0 0 0 474.56941645134066 -435.43087629194406 0 -435.43087629194406 100.39351485873635 0 0 0 0 158.07208667550003 -297.96112669643105 0 -297.96112669643105 -0.24258834517276998 0 0 0 0 125.2053445031197 -252.43780755820995 0 -252.43780755820995 183.54490727202605 0 0 0 0 -289.7959858278482 -300.27287108819974 0 -300.27287108819974 180.88725254431426 0 0 0 0 -393.59619235117498 116.66746276388096 0 116.66746276388096 73.270537092020845 0 0 0 0 -118.63306011277018 -111.13409282856696 0 -111.13409282856696 234.30070490771129 0 0 0 0 -92.890179964997515 -81.222517660336223 0 -81.222517660336223 188.78800465313361 0 0 0 0 -73.874497017430258 -91.253324231718011 0 -91.253324231718011 169.65308354167161 0 0 0 0 -2.520696780296646 -1.1481938548053279 0 -1.1481938548053279 -0.54238342976984755 0 0 0 0 -15.147378040273907 61.059341594316713 0 61.059341594316713 -0.48440557958799735 0 0 0 0 -172.31453775119735 192.83122133119963 0 192.83122133119963 -71.014174066990591 0 0 0 0 -81.355286726087797 428.80036578314548 0 428.80036578314548 -467.37548491289601 0 0 0 0 205.20664310001303 54.005571365474196 0 54.005571365474196 -373.89383595030546 0 0 0 0 -74.474615909042768 -59.439662349927062 0 -59.439662349927062 153.03761381161348 0 0 0 0 -5.6923369100479704 -3.7103138685105819 0 -3.7103138685105819 -1.8746453437126767 0 0 0 0 69.438821051240666 -157.4385730972009 0 -157.4385730972009 -44.501875533684554 0 0 0 0 69.346040284784976 -155.41139430385806 0 -155.41139430385806 143.09725278485439 0 0 0 0 22.525194345900672 -95.701918700380588 0 -95.701918700380588 163.369431477116 0 0 0 0 -81.078274716710439 -97.602713475262135 0 -97.602713475262135 216.99910023911889 0 0 0 0 -41.267989374726312 -207.83594763514748 0 -207.83594763514748 125.96256255226126 0 0 0 0 -79.385743887745775 -92.585008901593937 0 -92.585008901593937 197.16719965178936 0 0 0 0 -66.260462008074683 -108.85377581321777 0 -108.85377581321777 170.12405563508582 0 0 0 0 -77.27814698027214 -65.172408816290044 0 -65.172408816290044 160.57093114025474 0 0 0 0 -53.71037778543905 -76.159260934927261 0 -76.159260934927261 108.39265194290783 0 0 0 0 -72.602269132301444 -44.57988790207628 0 -44.57988790207628 111.52019979269335 0 0 0 0 -52.967266146530164 40.576548641987756 0 40.576548641987756 126.37890194847296 0 0 0 0 -71.258266922086477 -58.715189554229255 0 -58.715189554229255 202.36823965359508 0 0 0 0 -72.475958672061097 -73.406250923879043 0 -73.406250923879043 174.98839189080081 0 0 0 0 -65.48846095038607 -132.93377564279388 0 -132.93377564279388 405.74904941512523 0 0 0 0 -69.860044677931 -52.812086926645861 0 -52.812086926645861 1.9240512649910784 0 0 0 0 -29.309340643638279 -10.765958521323682 0 -10.765958521323682 -0.92814446541888174 0 0 0 0 -43.368389541545184 16.382303523316864 0 16.382303523316864 97.547905967352563 0 0 0 0 -51.005341216921806 -5.7072892186488389 0 -5.7072892186488389 35.936401205557104 0 0 0 0 -46.001043227282935 -29.905128700003843 0 -29.905128700003843 15.967091559971777 0 0 0 0 -52.954240565595683 -35.339205964982739 0 -35.339205964982739 31.841779810774824 0 0 0 0 -60.453456967166858 -35.154272174934704 0 -35.154272174934704 61.171458526705464 0 0 0 0 -57.965743420179933 -48.332195033226981 0 -48.332195033226981 95.110805862783309 0 0 0 0 -54.599897560026875 -1.0170507672618214 0 -1.0170507672618214 33.142395663408024 0 0 0 0 -51.523408897897752 -20.817333266269713 0 -20.817333266269713 -8.482207270577419 0 0 0 0 -49.468272071716456 -9.2917099820435176 0 -9.2917099820435176 -37.963310442143666 0 0 0 0 -55.952402993134456 -29.565881823268683 0 -29.565881823268683 -13.692745430081686 0 0 0 0 -49.286068414940019 -21.257205541973228 0 -21.257205541973228 -28.742060593556744 0 0 0 0 -687.88653479582172 -491.27377089832407 0 -491.27377089832407 -178.89288751528693 0 0 0 0 -58.442592391307699 -12.091640942101094 0 -12.091640942101094 -7.9184140110828594 0 0 0 0 -16.504039183652111 9.8787824397089992 0 9.8787824397089992 7.667409033569335 0 0 0 0 -382.02565908388351 -94.114672790059558 0 -94.114672790059558 -25.892245254148293 0 0 0 0 -680.88078925279842 -295.58549103273344 0 -295.58549103273344 -61.389883757794451 0 0 0 0 -507.55749015195761 -3.511373775575521 0 -3.511373775575521 14.772804934093983 0 0 0 0 -580.27467378342408 -426.07251088948715 0 -426.07251088948715 -201.83193743964875 0 0 0 0 -22.097780259443454 13.804444999225353 0 13.804444999225353 4.8670405359803617 0 0 0 0 -251.30077522149077 -150.57361659885464 0 -150.57361659885464 -207.32074902547993 0 0 0 0 -122.52721940624178 79.410176876684091 0 79.410176876684091 -45.775709670260426 0 0 0 0 -425.63652270770399 -304.88430257411164 0 -304.88430257411164 -317.6152926693776 0 0 0 0 -312.4164944209042 -173.31790246492847 0 -173.31790246492847 -111.77248494524429 0 0 0 0 -96.00437106640311 47.040137574488654 0 47.040137574488654 6.8030156589666149 0 0 0 0 397.10424902454542 -400.33267478604512 0 -400.33267478604512 -125.47066127054495 0 0 0 0 -4.5054915040206538 -9.8265479237562374 0 -9.8265479237562374 -18.519771090718237 0 0 0 0 -215.17537549126428 -401.99329773720365 0 -401.99329773720365 -162.41380557636717 0 0 0 0 -385.73424166897894 -92.244998222324284 0 -92.244998222324284 -196.83826432566275 0 0 0 0 -658.65149366622791 -478.91630399213955 0 -478.91630399213955 -126.26439745227503 0 0 0 0 -11.686185238535955 -3.1127114839962644 0 -3.1127114839962644 0.93525975378435433 0 0 0 0 618.89114368287846 -137.94056426086945 0 -137.94056426086945 8.6540491713676602 0 0 0 0 736.96240185674105 -68.635270279860833 0 -68.635270279860833 6.9605313064022596 0 0 0 0 -61.598705942669767 -14.296719522152216 0 -14.296719522152216 -30.558053817959376 0 0 0 0 -61.961294790762622 -5.919346146406582 0 -5.919346146406582 -32.849616385553418 0 0 0 0 -21.341948723830399 -24.158192931463276 0 -24.158192931463276 -11.117424135134296 0 0 0 0 -0.70255036567201046 -2.5471512596849379 0 -2.5471512596849379 -6.3158387245634415 0 0 0 0 -929.01081633745343 -56.480491121234081 0 -56.480491121234081 225.71795977366128 0 0 0 0 -772.15503255200747 107.69965631098421 0 107.69965631098421 -45.783923378134205 0 0 0 0 -413.44007160849287 56.238811335513674 0 56.238811335513674 -105.91654959868993 0 0 0 0 -444.26799869164097 3.715689246763759 0 3.715689246763759 19.716607373367879 0 0 0 0 -401.40155976737151 -20.273936479250551 0 -20.273936479250551 -56.906435847864486 0 0 0 0 -413.65715209802147 -9.8010680607294489 0 -9.8010680607294489 7.3466785897971931 0 0 0 0 -169.38276659807889 -68.810346221764121 0 -68.810346221764121 -59.691365259339364 0 0 0 0 -472.39307691552676 -96.55047115942034 0 -96.55047115942034 -48.187553102082347 0 0 0 0 -184.39717646082863 -101.13444270824266 0 -101.13444270824266 -84.302532876336045 0 0 0 0 0.49284575492225713 0.81200989000400625 0 0.81200989000400625 -1.19362150153753 0 0 0 0 -420.78613605880673 -134.1265484559508 0 -134.1265484559508 -113.31595138777629 0 0 0 0 -110.06138008090784 -145.54644832925169 0 -145.54644832925169 -139.31260271795782 0 0 0 0 49.65340531655238 -25.554090145415557 0 -25.554090145415557 39.895288597154831 0 0 0 0 -876.25729548334493 -396.79760346415605 0 -396.79760346415605 -69.857149062594544 0 0 0 0 731.3872929652789 -34.557945389947236 0 -34.557945389947236 258.14552324107353 0 0 0 0 -67.133352372446097 -20.517343566561294 0 -20.517343566561294 2.8595460487231321 0 0 0 0 174.9193215760024 299.18721677062695 0 299.18721677062695 -56.098117247179303 0 0 0 0 -29.422941695602418 -33.48821491605338 0 -33.48821491605338 -18.614141288068723 0 0 0 0 -242.13550458579266 -750.62020623014723 0 -750.62020623014723 -253.6273614081756 0 0 0 0 -64.03453883023758 -3.8096951124730936 0 -3.8096951124730936 21.355101883635143 0 0 0 0 -42.692062772635836 -52.459330405949913 0 -52.459330405949913 -44.074476475594565 0 0 0 0 -53.625229794735787 -37.39513865198569 0 -37.39513865198569 64.566873307959668 0 0 0 0 -8.249137165636057 46.323094917367769 0 46.323094917367769 24.102470027713707 0 0 0 0 -40.016395730142307 12.219228818449665 0 12.219228818449665 34.538469630223865 0 0 0 0 -48.749086890864419 18.678894194714132 0 18.678894194714132 46.954128087873755 0 0 0 0 -92.994230219163001 -13.808607374196697 0 -13.808607374196697 25.398026585884622 0 0 0 0 -43.46396786213154 6.3699747889375544 0 6.3699747889375544 6.3478518504643375 0 0 0 0 -12.690023569834011 -5.3880872011764716 0 -5.3880872011764716 9.8585143332692269 0 0 0 0 -136.14692255292903 8.2998510356497945 0 8.2998510356497945 22.774893324118693 0 0 0 0 -110.12696742321714 4.1226301923902042 0 4.1226301923902042 18.936334140301511 0 0 0 0 -162.97115145887074 -37.495603856287971 0 -37.495603856287971 31.61955797133669 0 0 0 0 -201.08418901264668 1.9180926483267626 0 1.9180926483267626 22.344672127246767 0 0 0 0 -227.48707112466218 -12.235168051484948 0 -12.235168051484948 28.76011807044199 0 0 0 0 -268.40587593920645 39.361313325704373 0 39.361313325704373 8.5730331421053165 0 0 0 0 -196.21944970423647 -63.351342259973734 0 -63.351342259973734 29.218449009558299 0 0 0 0 -393.61892175624962 30.443865754241074 0 30.443865754241074 78.879186043152231 0 0 0 0 -346.78627752614557 -45.766221068242658 0 -45.766221068242658 68.109371479426386 0 0 0 0 -13.730794895556755 49.414706207437462 0 49.414706207437462 14.566532731051666 0 0 0 0 -107.22648763697362 -25.453096132862925 0 -25.453096132862925 50.309946025868669 0 0 0 0 -135.44108342254185 -93.119554190685989 0 -93.119554190685989 24.532395673334577 0 0 0 0 -46.052239152052238 5.2533471630071062 0 5.2533471630071062 27.138472752169665 0 0 0 0 11.137250599772699 -11.118928279830527 0 -11.118928279830527 -27.520232587347529 0 0 0 0 64.282004046370275 -63.58548724211505 0 -63.58548724211505 -150.85120653213562 0 0 0 0 77.181516809960158 6.6719470157438536 0 6.6719470157438536 -99.192467968670826 0 0 0 0 -7.9600851291033905 -68.332572142553545 0 -68.332572142553545 -53.475582284801931 0 0 0 0 -14.227490600635065 -51.965843602246423 0 -51.965843602246423 -79.142583162655683 0 0 0 0 -68.458255156438099 -82.435975860448707 0 -82.435975860448707 -78.864275320238448 0 0 0 0 -95.747214972797622 -23.793011366385571 0 -23.793011366385571 26.232090629566436 0 0 0 0 -120.24941440730618 -93.613113936859008 0 -93.613113936859008 -38.830846582714003 0 0 0 0 -227.98663094997755 73.56163160468725 0 73.56163160468725 124.22922506234283 0 0 0 0 -82.405882417646353 -85.750404652360317 0 -85.750404652360317 40.84189597492491 0 0 0 0 -212.56497381505324 -101.06572403499138 0 -101.06572403499138 55.594280125508817 0 0 0 0 -123.7225087700208 -123.90132932153489 0 -123.90132932153489 16.307654273692151 0 0 0 0 -112.98570991181037 -22.593203498266668 0 -22.593203498266668 22.992663232385055 0 0 0 0 -199.62989188712527 -105.03845228527098 0 -105.03845228527098 282.27523324117283 0 0 0 0 4.6610939696547575 -524.10769555344268 0 -524.10769555344268 -195.59615470747394 0 0 0 0 -296.19527640754677 25.038924088220881 0 25.038924088220881 -84.277091992840042 0 0 0 0 -300.50631382866413 32.740830082086234 0 32.740830082086234 -4.26912917649679 0 0 0 0 -86.004350506729679 37.303675686844599 0 37.303675686844599 131.34627927969314 0 0 0 0 -354.30169645583373 -79.97507456079336 0 -79.97507456079336 93.573759293331989 0 0 0 0 -1.16572919120091 -0.7949069495670642 0 -0.7949069495670642 -1.0050084202699827 0 0 0 0 -354.4271767526443 108.48657690315831 0 108.48657690315831 17.954723823535346 0 0 0 0 101.53650155209471 -94.880249729256207 0 -94.880249729256207 81.938359387753678 0 0 0 0 -51.083645244099898 -180.26673044527843 0 -180.26673044527843 82.288508192956215 0 0 0 0 -22.166914423083654 -140.57910123872762 0 -140.57910123872762 3.5130358915769477 0 0 0 0 -8.1016240688622929 -1.5378594928743894 0 -1.5378594928743894 -2.1635567351441978 0 0 0 0 -1.31513721052211 0.037530364914402981 0 0.037530364914402981 0.094900226255028364 0 0 0 0 -251.96809469458094 55.965311185478505 0 55.965311185478505 -48.159859239617276 0 0 0 0 -3.6530914232357645 -2.6789664717593951 0 -2.6789664717593951 -1.316351940641276 0 0 0 0 -397.29237427815679 26.464060233863506 0 26.464060233863506 22.589717695370041 0 0 0 0 11.817285581564647 43.818361642499355 0 43.818361642499355 101.06704253676048 0 0 0 0 -2.4009294509813515 -0.22035007696035791 0 -0.22035007696035791 1.7219708138566823 0 0 0 0 287.93324624327943 247.44001829200351 0 247.44001829200351 51.811170179531473 0 0 0 0 -1207.3439967579034 318.50058096445264 0 318.50058096445264 319.88662321350057 0 0 0 0 -10.010829860231212 -1.5019634258231918 0 -1.5019634258231918 -0.93097158783020717 0 0 0 0 -481.82670450519072 18.135116416044184 0 18.135116416044184 602.02281314330685 0 0 0 0 -51.422893183912265 -11.870927723854436 0 -11.870927723854436 -1.7094862424197652 0 0 0 0 -110.53293665433011 262.01969211901996 0 262.01969211901996 238.7574613226152 0 0 0 0 3.9049377827177523 -65.866982527808432 0 -65.866982527808432 -29.354960817437927 0 0 0 0 -42.18368244094745 -66.912767272504425 0 -66.912767272504425 44.036848811349046 0 0 0 0 13.521915417786261 -13.294092411901431 0 -13.294092411901431 -2.318176773056372 0 0 0 0 -528.22059770311171 93.162067540416047 0 93.162067540416047 -72.036580977899575 0 0 0 0 -2644.4418261720875 -119.25399576931682 0 -119.25399576931682 -12.756406357802916 0 0 0 0 -680.58768131386023 -1107.9041397602778 0 -1107.9041397602778 -361.09394039454946 0 0 0 0 0.47391588549891139 -6.0051987029068332 0 -6.0051987029068332 -3.4663242767009468 0 0 0 0 -1288.1511473161081 -236.51169408838359 0 -236.51169408838359 182.11023830283375 0 0 0 0 -1885.0595630197495 37.836379455216957 0 37.836379455216957 60.055677952856058 0 0 0 0 -834.27492493513273 -235.95969333967696 0 -235.95969333967696 128.19202553886498 0 0 0 0 -1050.4827488069568 -49.630426135618109 0 -49.630426135618109 190.64275527009886 0 0 0 0 -741.88555445901875 88.49701713503373 0 88.49701713503373 -63.501729865181915 0 0 0 0 46.643873505323427 -85.780312689487801 0 -85.780312689487801 -513.08838495405507 0 0 0 0 -7.3903437609133107 -10.51843177826186 0 -10.51843177826186 -3.5221647614297922 0 0 0 0 14.845063751981229 -18.343539006168328 0 -18.343539006168328 -1.3246462438387212 0 0 0 0 -15.266317755151249 -51.188726972662153 0 -51.188726972662153 -27.990994155321459 0 0 0 0 0.67924556710931938 129.75816764098818 0 129.75816764098818 -115.71610443831651 0 0 0 0 2.4667848883327679 -45.98392130765933 0 -45.98392130765933 -87.986759494669968 0 0 0 0 -2.4005212793417741 -98.849511368750427 0 -98.849511368750427 17.054520050339306 0 0 0 0 -70.349504375379183 -136.09453301325993 0 -136.09453301325993 -65.212746016114352 0 0 0 0 -18.809213377855485 -82.833650534815206 0 -82.833650534815206 7.4415021818167588 0 0 0 0 -26.27383710174081 -18.683109618115719 0 -18.683109618115719 -4.7903458608792775 0 0 0 0 19.816666221814955 -18.34123904663042 0 -18.34123904663042 -9.7741017486821775 0 0 0 0 -11.767826523053373 -52.836143313023967 0 -52.836143313023967 -25.741413938369078 0 0 0 0 26.680795149557525 -78.793130836040291 0 -78.793130836040291 -11.613879991409704 0 0 0 0 -7.4999185417254921 -21.726190355496783 0 -21.726190355496783 55.582104623430496 0 0 0 0 -70.365096789493691 -115.04606877286642 0 -115.04606877286642 171.96203139773934 0 0 0 0 39.918410889898951 3.858815534655605 0 3.858815534655605 -221.36669571089078 0 0 0 0 -17.688503415032756 -70.222103522339239 0 -70.222103522339239 -27.423780961553348 0 0 0 0 -19.775970172805955 -6.6828616449202123 0 -6.6828616449202123 -2.5609939936834785 0 0 0 0 -3.409001174964942 -36.80869184927451 0 -36.80869184927451 -3.6785813707028865 0 0 0 0 -64.838367962313043 -14.862931938691426 0 -14.862931938691426 -2.4421225348135671 0 0 0 0 -22.374797371827299 -183.08110986460861 0 -183.08110986460861 214.78898046135782 0 0 0 0 -152.73362718656426 -96.572501309657127 0 -96.572501309657127 617.3575197239802 0 0 0 0 -241.83386161588714 -275.06847565076441 0 -275.06847565076441 475.66253982676972 0 0 0 0 -69.881821687426338 -16.622137880338965 0 -16.622137880338965 -2.6283227515090886 0 0 0 0 -432.08130615125992 -406.75222938615934 0 -406.75222938615934 -124.62878240677128 0 0 0 0 96.162246307641908 -118.69874369080935 0 -118.69874369080935 -112.68452737801817 0 0 0 0 -45.729415665235138 -46.22055289023956 0 -46.22055289023956 -89.307372581711206 0 0 0 0 -177.23191681687604 18.268947742533783 0 18.268947742533783 229.19808324348287 0 0 0 0 -130.94525990685361 149.07912768978258 0 149.07912768978258 12.073707536550501 0 0 0 0 5.7716288121300749 -79.507954134352076 0 -79.507954134352076 29.644294074245408 0 0 0 0 -223.48264485457912 -3.5924762295562687 0 -3.5924762295562687 -1.7998557257142238 0 0 0 0 -178.99863471485151 37.524788919554794 0 37.524788919554794 -12.030590102680435 0 0 0 0 -78.072722635115497 -98.699469526463872 0 -98.699469526463872 -23.372790736289971 0 0 0 0 -544.34557577002852 -73.861092119646855 0 -73.861092119646855 -37.48446117849744 0 0 0 0 -413.31785111757927 85.045602106002661 0 85.045602106002661 56.069271014759579 0 0 0 0 -406.95185501303058 61.794599651602766 0 61.794599651602766 58.505100008267618 0 0 0 0 -356.74984432567726 11.528746972886438 0 11.528746972886438 72.777314701844261 0 0 0 0 -364.17626814506366 55.111434975573502 0 55.111434975573502 7.6002719381558563 0 0 0 0 1.0079811998037371 -3.3682644564938968 0 -3.3682644564938968 -6.1603102239871248 0 0 0 0 -537.50855576214963 204.98114601170528 0 204.98114601170528 476.5704162595066 0 0 0 0 -387.46146848028002 186.8888827427445 0 186.8888827427445 59.967305138090524 0 0 0 0 -506.67884894085 154.29501966539829 0 154.29501966539829 192.13375861776331 0 0 0 0 -10.456833889249538 -31.582719634454634 0 -31.582719634454634 -618.93836227698375 0 0 0 0 -581.51520899867319 80.104865454030914 0 80.104865454030914 143.73560526540314 0 0 0 0 -6.5172498121303306 -3.066401729475082 0 -3.066401729475082 -1.6256356258338762 0 0 0 0 -3.468648009654018 -2.5981967610938739 0 -2.5981967610938739 -6.255254143244521 0 0 0 0 -356.2808160875029 -478.48353794166769 0 -478.48353794166769 -858.18583189151104 0 0 0 0 -4.8150498909162707 -53.328498304781078 0 -53.328498304781078 -372.83158920528695 0 0 0 0 -47.301544986301451 -17.196371025502231 0 -17.196371025502231 -0.79092681237307261 0 0 0 0 -44.688227863080101 -13.166835390022243 0 -13.166835390022243 4.6382398185323837 0 0 0 0 -38.994493204547325 -21.232768013511304 0 -21.232768013511304 -21.872529080226741 0 0 0 0 -147.24227429577149 -74.461196721483475 0 -74.461196721483475 314.81829737230055 0 0 0 0 413.96454909760723 -75.64862477037812 0 -75.64862477037812 -2.6600013167590078 0 0 0 0 -24.181282088227931 -13.423648247022282 0 -13.423648247022282 -7.6898989636965664 0 0 0 0 -97.922091314365389 -118.61372606070086 0 -118.61372606070086 178.56118679125439 0 0 0 0 -22.351072441480937 -12.676618932565361 0 -12.676618932565361 -17.492864335208651 0 0 0 0 -28.088154513301561 -7.265399725946736 0 -7.265399725946736 -4.0753838134705802 0 0 0 0 0.013911138463299721 3.5153246574500372 0 3.5153246574500372 -13.674279908900644 0 0 0 0 -31.007261578924954 -28.971966495521883 0 -28.971966495521883 -20.817706298766552 0 0 0 0 -45.128946013050154 3.983064733989977 0 3.983064733989977 -34.601678246073789 0 0 0 0 -627.74896417811033 310.78399390995878 0 310.78399390995878 213.32537846653577 0 0 0 0 116.49528597524477 422.32593886662471 0 422.32593886662471 218.70138078907257 0 0 0 0 -182.77492512477329 -4.2581342578732801 0 -4.2581342578732801 51.194716265656098 0 0 0 0 -304.92253972316394 224.26608561964849 0 224.26608561964849 180.21259950190051 0 0 0 0 0.17881000750993792 0.22284092060345984 0 0.22284092060345984 -3.6201662019478533 0 0 0 0 72.878051700652577 -173.51129490508811 0 -173.51129490508811 87.965125091139271 0 0 0 0 176.56769024257665 16.977916065850422 0 16.977916065850422 -0.62325587077611999 0 0 0 0 42.101182054087985 -15.17258259835944 0 -15.17258259835944 -26.331529241293993 0 0 0 0 16.86972255436558 13.287864704708227 0 13.287864704708227 0.57852911855297862 0 0 0 0 -101.29874318935617 -112.48260509968623 0 -112.48260509968623 73.517916151155077 0 0 0 0 -45.057601177875767 -48.041628572142145 0 -48.041628572142145 368.8106066590226 0 0 0 0 7.6077739197789924 -155.28380793219549 0 -155.28380793219549 179.76666512982774 0 0 0 0 -65.260315460223865 -15.970442966623599 0 -15.970442966623599 -3.1308466346041257 0 0 0 0 -619.44988436769927 -138.52804641413968 0 -138.52804641413968 237.86665117394568 0 0 0 0 -117.13659993678448 -180.6321096398151 0 -180.6321096398151 506.13235865037586 0 0 0 0 -5.3370064333503251 -215.25901673346334 0 -215.25901673346334 354.86320560977401 0 0 0 0 -73.040039174404228 -103.27274908196705 0 -103.27274908196705 314.9659322207317 0 0 0 0 -31.491227289596281 -92.619841962877217 0 -92.619841962877217 59.630362948715629 0 0 0 0 -41.268066018106765 -179.54570990804496 0 -179.54570990804496 176.37190067710981 0 0 0 0 -31.907319084421033 -145.12301108949396 0 -145.12301108949396 17.638308698691617 0 0 0 0 -100.46262425305031 -141.79937608395812 0 -141.79937608395812 202.30286168555335 0 0 0 0 -43.51550007800688 -164.46377035789828 0 -164.46377035789828 204.82399760450426 0 0 0 0 -48.932032877601159 -138.95650094007215 0 -138.95650094007215 -115.59180153135821 0 0 0 0 -140.96330896177096 -178.04163220637747 0 -178.04163220637747 11.276709585716162 0 0 0 0 -239.8065663887246 -155.84293355815225 0 -155.84293355815225 -117.07152918366694 0 0 0 0 -106.94313379150844 -231.53051477410645 0 -231.53051477410645 -254.91961410953627 0 0 0 0 -121.47327611140645 -97.282111753733716 0 -97.282111753733716 -247.47017139917625 0 0 0 0 -129.61140720572439 -142.24054930522107 0 -142.24054930522107 40.173294103731678 0 0 0 0 -122.71569931133126 -39.981543461890396 0 -39.981543461890396 34.616978310425111 0 0 0 0 -37.687230135139544 -72.597090097883665 0 -72.597090097883665 -119.7453543581214 0 0 0 0 -166.25996723910794 -68.882343552098064 0 -68.882343552098064 -112.71990526835316 0 0 0 0 -90.236150938242645 -27.467539376162676 0 -27.467539376162676 -272.66123819766835 0 0 0 0 -117.93313373846513 -12.18672327584467 0 -12.18672327584467 -262.91268046241203 0 0 0 0 -116.56694524723571 -65.3502424126591 0 -65.3502424126591 -256.83693319252689 0 0 0 0 -114.1748169884595 -7.6196938184589271 0 -7.6196938184589271 -163.49221302854494 0 0 0 0 -118.44886045929888 28.084758713839392 0 28.084758713839392 -83.885131842715055 0 0 0 0 -79.433266026695492 -90.353008905096431 0 -90.353008905096431 -106.68418200302494 0 0 0 0 -137.06814913413473 -17.497302844979004 0 -17.497302844979004 216.45977052151102 0 0 0 0 -0.19807155623857398 -121.59592112109658 0 -121.59592112109658 55.596476920768055 0 0 0 0 -88.333454182808055 -86.756733118123748 0 -86.756733118123748 264.72017376469012 0 0 0 0 -121.79563949795556 -134.35537497247606 0 -134.35537497247606 588.7907422667804 0 0 0 0 46.20204677102447 -105.94328644546817 0 -105.94328644546817 266.07031971225297 0 0 0 0 27.649237547069788 -186.41143562253365 0 -186.41143562253365 219.46932887078401 0 0 0 0 19.496843916007492 -137.60261201207049 0 -137.60261201207049 147.69190757543947 0 0 0 0 -307.03499237369397 2.9643821345143806 0 2.9643821345143806 231.58235909195719 0 0 0 0 -119.82104094542592 -110.12685371972566 0 -110.12685371972566 28.700750399644676 0 0 0 0 -129.25064044790633 80.885879502732678 0 80.885879502732678 -10.112115390077633 0 0 0 0 -204.23615615451126 -47.878350363193022 0 -47.878350363193022 -144.32440507024876 0 0 0 0 -181.58880025694816 12.381503731950033 0 12.381503731950033 -201.13148363439359 0 0 0 0 -342.41603391148965 -30.886690547991748 0 -30.886690547991748 -210.50776777488227 0 0 0 0 -519.10408743460721 47.588441885883185 0 47.588441885883185 -120.55012880188883 0 0 0 0 -371.50249823411286 -70.445325569395209 0 -70.445325569395209 -230.00236747427698 0 0 0 0 -205.70886007459922 4.714851408622053 0 4.714851408622053 -85.918427323929791 0 0 0 0 -386.43886969138839 62.150249078157685 0 62.150249078157685 -79.619790994196592 0 0 0 0 -605.49719963293319 153.49713805224474 0 153.49713805224474 -71.247042602353758 0 0 0 0 -575.52547079362557 49.118718482518489 0 49.118718482518489 -77.487626055744329 0 0 0 0 -612.74060534786258 -17.347543846876874 0 -17.347543846876874 -106.52751673265084 0 0 0 0 -421.56590382219292 21.215964786995755 0 21.215964786995755 -124.97713905924502 0 0 0 0 -964.34777202215992 -73.63193655742748 0 -73.63193655742748 -121.07144892140423 0 0 0 0 -635.40816943415848 68.776522713453232 0 68.776522713453232 -48.371271435953531 0 0 0 0 -1.7867748340347767 0.69458345599412041 0 0.69458345599412041 -3.4613813148653918 0 0 0 0 -777.86136603411433 114.6226700166867 0 114.6226700166867 -20.081168083206649 0 0 0 0 -1.6409002809435478 0.40694555124557041 0 0.40694555124557041 -1.1573117246617031 0 0 0 0 -1062.4474267997066 166.09767290967875 0 166.09767290967875 171.63142216308916 0 0 0 0 -209.81421138809674 33.678399399465889 0 33.678399399465889 -31.963067825614417 0 0 0 0 -503.49085634077346 138.30355032901571 0 138.30355032901571 21.768093406340995 0 0 0 0 -518.47281808267871 59.835849481113655 0 59.835849481113655 223.59310571672722 0 0 0 0 -502.27496775994587 260.2743733261583 0 260.2743733261583 9.8820768131208752 0 0 0 0 -95.309254587562464 146.67531576059275 0 146.67531576059275 -136.17868457399891 0 0 0 0 1.0835831121624437 4.787780548308632 0 4.787780548308632 -17.613347060339215 0 0 0 0 -290.28476021082315 -76.205050001498421 0 -76.205050001498421 26.309876437611891 0 0 0 0 301.29869336827687 411.0198388798608 0 411.0198388798608 -456.69825517707795 0 0 0 0 -685.17094632386579 -120.58101270667248 0 -120.58101270667248 211.91306689073826 0 0 0 0 -2356.4948857716809 471.8885845264158 0 471.8885845264158 43.571368785032973 0 0 0 0 -909.08639286045218 163.66510771466073 0 163.66510771466073 104.62136171926977 0 0 0 0 -1009.5199444455357 -10.444660532552007 0 -10.444660532552007 321.06948361111154 0 0 0 0 -169.09654655969643 98.124562945086382 0 98.124562945086382 24.943143269773163 0 0 0 0 -1149.5895655311906 -799.82069806295181 0 -799.82069806295181 -310.59310107600157 0 0 0 0 -598.72838287011837 426.1482967958982 0 426.1482967958982 -228.68249365397492 0 0 0 0 -770.9023602817615 -2001.6519303101445 0 -2001.6519303101445 -2556.4201541657139 0 0 0 0 -9.3167228125568613 -6.4164443169446628 0 -6.4164443169446628 -12.58465888588761 0 0 0 0 556.20926176177454 -426.11942999309304 0 -426.11942999309304 -2260.4908788880989 0 0 0 0 -2647.6691570370458 -11.463619852416665 0 -11.463619852416665 -39.172873344494882 0 0 0 0 -4496.5960672671281 1573.4836434965168 0 1573.4836434965168 -22.076661706241453 0 0 0 0 -36.50121798850293 -15.339056051375678 0 -15.339056051375678 -28.413608368395213 0 0 0 0 -56.002160786933445 47.604928417398455 0 47.604928417398455 -21.607616634955029 0 0 0 0 -93.065673277176757 126.47573584304416 0 126.47573584304416 21.429800927424367 0 0 0 0 -109.93170189477678 27.562462787252116 0 27.562462787252116 48.568728930104953 0 0 0 0 -7.8226798513418885 -1.033442617953682 0 -1.033442617953682 -36.740205398021146 0 0 0 0 -99.510548877733527 -127.49892660121259 0 -127.49892660121259 -202.16075026229737 0 0 0 0 -2590.6364274408988 -19.271064762097261 0 -19.271064762097261 -38.462292292769092 0 0 0 0 -43.749262740544509 -72.372026657599577 0 -72.372026657599577 283.7938304391937 0 0 0 0 -20.17356832552673 6.7601617176964055 0 6.7601617176964055 -15.450133133991951 0 0 0 0 -4497.0167117567416 -1544.7426551538767 0 -1544.7426551538767 -25.746560287503176 0 0 0 0 201.72935827535548 -432.77136410895298 0 -432.77136410895298 -392.24532410313986 0 0 0 0 69.451016822800739 104.96215918209828 0 104.96215918209828 -613.56037379737177 0 0 0 0 -9.8672990567735326 4.6943538552646658 0 4.6943538552646658 -3.6922431638641919 0 0 0 0 -209.18852092319867 561.15074298600484 0 561.15074298600484 -949.79158598325012 0 0 0 0 -41.586200465506408 -150.72126245661502 0 -150.72126245661502 43.320763577802154 0 0 0 0 -36.305257088912185 4.7114345510806288 0 4.7114345510806288 -8.8001903183562717 0 0 0 0 196.76652515953174 -243.77158857218546 0 -243.77158857218546 -408.70120030892576 0 0 0 0 -315.00807153698406 -652.59591059748891 0 -652.59591059748891 -1052.5033866551094 0 0 0 0 -158.1457451578799 602.97972724445617 0 602.97972724445617 465.97092703568342 0 0 0 0 -0.79569097619092588 1.2715486770933353 0 1.2715486770933353 -8.0221258321871218 0 0 0 0 -104.83598767431977 -64.050668244890403 0 -64.050668244890403 -400.26375494585227 0 0 0 0 -729.82549771642516 -53.291635897242031 0 -53.291635897242031 174.28919383353059 0 0 0 0 79.456763968541054 -418.30241891902642 0 -418.30241891902642 -247.52810966745164 0 0 0 0 -696.42849403655964 206.63297178981043 0 206.63297178981043 -1591.7933840778278 0 0 0 0 -1829.4211895411718 -689.63432762017146 0 -689.63432762017146 -312.84734996071165 0 0 0 0 -693.3032229274977 288.87259152767547 0 288.87259152767547 206.35023797375106 0 0 0 0 -555.95926017774036 -764.44554669084573 0 -764.44554669084573 -213.25576721172729 0 0 0 0 -824.42139312904328 -30.344631999596913 0 -30.344631999596913 17.230824325473804 0 0 0 0 -575.21057397316326 -85.646655354617906 0 -85.646655354617906 29.168534293079574 0 0 0 0 -393.43630714275059 -316.36322697712058 0 -316.36322697712058 -254.66381076121434 0 0 0 0 -493.85968897633575 -14.729841405629941 0 -14.729841405629941 66.027074658326455 0 0 0 0 -598.34232537966454 -57.33707508819316 0 -57.33707508819316 115.11699736364062 0 0 0 0 78.600705532020584 500.06680577697756 0 500.06680577697756 -310.75487970788527 0 0 0 0 -1.3362116922572573 -0.35343566056022269 0 -0.35343566056022269 1.3022858519008977 0 0 0 0 -1777.8221692788065 240.98736188656312 0 240.98736188656312 187.72422711066974 0 0 0 0 -598.96852463459436 29.640646399986053 0 29.640646399986053 181.66645706094641 0 0 0 0 -67.625550804099475 959.0046161593018 0 959.0046161593018 -781.91910280887532 0 0 0 0 -47.40088444403284 -4.9222608058945996 0 -4.9222608058945996 10.660597876117393 0 0 0 0 -59.12436504921061 107.70436228307699 0 107.70436228307699 222.2517732850356 0 0 0 0 -942.56180422520265 509.85042172706744 0 509.85042172706744 -867.33498786800556 0 0 0 0 -17.660641392777961 -2.05845197674557 0 -2.05845197674557 -1.1653968248055229 0 0 0 0 -646.00153485185001 -599.13976927307158 0 -599.13976927307158 -270.85236285943029 0 0 0 0 -1760.8035397413769 1400.5863995749351 0 1400.5863995749351 -260.05927182519463 0 0 0 0 -52.693588569265557 24.931258926096689 0 24.931258926096689 131.68952617166087 0 0 0 0 -30.836428566355607 70.063654323606443 0 70.063654323606443 53.037655002554686 0 0 0 0 -11.52022290214326 2.3069099478146882 0 2.3069099478146882 36.939129966651308 0 0 0 0 45.332562063806108 15.700551670604909 0 15.700551670604909 -240.35087864238085 0 0 0 0 -34.387680876565582 -12.021471013951132 0 -12.021471013951132 4.4987624708331868 0 0 0 0 -15.600607101237983 1.1296128407157084 0 1.1296128407157084 10.409096658455837 0 0 0 0 10.244747340606409 0.042221345814141387 0 0.042221345814141387 -17.628174663181198 0 0 0 0 15.624181579434662 47.168108114728057 0 47.168108114728057 9.8909281458472833 0 0 0 0 -7.8733203348987857 13.479525049426741 0 13.479525049426741 28.35594288699631 0 0 0 0 -47.359909723498276 18.901200945565506 0 18.901200945565506 2.5508125953701892 0 0 0 0 5.4891229609729635 44.981494266689083 0 44.981494266689083 -7.715382687318197 0 0 0 0 -78.324388111839653 4.6275740067185325 0 4.6275740067185325 61.826989470447643 0 0 0 0 -3.8956573995831718 13.10568626782441 0 13.10568626782441 18.636191427762917 0 0 0 0 102.7441834215133 88.785711295906367 0 88.785711295906367 -154.60957464951207 0 0 0 0 -1495.634827650123 -196.52252650522405 0 -196.52252650522405 275.60536760760078 0 0 0 0 -690.07862219991512 -402.47810693414249 0 -402.47810693414249 57.195340180455787 0 0 0 0 -1859.0774154968749 -566.10185098451484 0 -566.10185098451484 58.704692995022924 0 0 0 0 -157.65676393437025 40.269395050536332 0 40.269395050536332 92.678870577776252 0 0 0 0 120.81978088780306 -1.8175215726914757 0 -1.8175215726914757 -142.84513800749846 0 0 0 0 -709.18725571286632 -298.07521329047086 0 -298.07521329047086 -69.453236107663542 0 0 0 0 -649.87688232085202 -140.93590826142463 0 -140.93590826142463 74.755344985855913 0 0 0 0 -753.13482411061705 -46.805649380657997 0 -46.805649380657997 183.08214053493975 0 0 0 0 -985.35897301704972 -109.81226377447092 0 -109.81226377447092 277.41107370657926 0 0 0 0 -1332.3066982754171 -93.712841993170514 0 -93.712841993170514 182.57346482960929 0 0 0 0 -664.99671371385921 254.56735041063985 0 254.56735041063985 -98.207154751422422 0 0 0 0 -8.5812859057988362 -2.0172027711009122 0 -2.0172027711009122 0.63904547532223077 0 0 0 0 -740.97701564505405 -414.90585306518597 0 -414.90585306518597 -9.6141295319848723 0 0 0 0 -254.66802509051922 -311.4805798713387 0 -311.4805798713387 -413.19662297620653 0 0 0 0 -29.140182645889581 -170.89475321242935 0 -170.89475321242935 198.87310804738263 0 0 0 0 -8.8537522569313296 68.996548182671631 0 68.996548182671631 120.19676642215927 0 0 0 0 -52.06983320043372 -12.548121014392049 0 -12.548121014392049 -1.0073127835223961 0 0 0 0 176.92643041198608 -131.60006113086092 0 -131.60006113086092 84.573224748598477 0 0 0 0 -7.9203661340456151 1.0777619944690855 0 1.0777619944690855 1.943931978847246 0 0 0 0 31.548783412144985 -261.32846110745595 0 -261.32846110745595 -27.573167384680346 0 0 0 0 -102.82867374288617 -177.27655351157136 0 -177.27655351157136 179.16484335970361 0 0 0 0 -21.656801661418285 -247.63239345397142 0 -247.63239345397142 -161.1996107283303 0 0 0 0 -169.58731236432504 -262.49007151523165 0 -262.49007151523165 -26.203370199297979 0 0 0 0 -117.55225208299839 -216.16135088451909 0 -216.16135088451909 -170.45452892958201 0 0 0 0 -205.23221480756388 -286.4199149015613 0 -286.4199149015613 -312.58011230265402 0 0 0 0 -101.39802880119532 -334.53524637692499 0 -334.53524637692499 -290.58350785029324 0 0 0 0 -201.04640372266294 -261.28756211898872 0 -261.28756211898872 -159.62212895580393 0 0 0 0 -905.59335560635373 -76.820485014634187 0 -76.820485014634187 -176.22874538752876 0 0 0 0 -113.75001658777842 -388.64269827973396 0 -388.64269827973396 -232.24529700447783 0 0 0 0 -538.3012127490947 -292.2370398069188 0 -292.2370398069188 -202.21752282337911 0 0 0 0 -558.94529919435445 -312.15720749417187 0 -312.15720749417187 -110.39468573169529 0 0 0 0 -55.426378716048532 57.131043360737266 0 57.131043360737266 -33.661558446598917 0 0 0 0 -239.67336378684195 307.11711581353234 0 307.11711581353234 -40.13666775642605 0 0 0 0 -1218.9821969440964 -78.141063687915903 0 -78.141063687915903 115.33617943201017 0 0 0 0 -839.75823870280874 79.835474508245227 0 79.835474508245227 -205.66858717177234 0 0 0 0 -1612.4504302215064 -206.60052635890997 0 -206.60052635890997 -25.26440243290665 0 0 0 0 -677.1056701875641 -153.70258794718174 0 -153.70258794718174 -107.04595829757773 0 0 0 0 -597.68133441048121 190.59879421856613 0 190.59879421856613 -357.29367463758535 0 0 0 0 -535.46939256737096 116.91502336212866 0 116.91502336212866 -283.31065921826678 0 0 0 0 -64.708108269257735 61.559410159624065 0 61.559410159624065 -40.344010854204612 0 0 0 0 -1054.5236993219951 -136.18952101482972 0 -136.18952101482972 -131.78827121127881 0 0 0 0 -718.92151181121517 -441.61606997610915 0 -441.61606997610915 -225.52658545708474 0 0 0 0 -19.558434503126087 10.343905154035923 0 10.343905154035923 -17.174203722175207 0 0 0 0 -1154.6798262170341 -347.32861346828025 0 -347.32861346828025 -137.72929011819519 0 0 0 0 -206.22273915600817 -15.209678687456318 0 -15.209678687456318 -608.33289267378643 0 0 0 0 -49.598558994415754 56.301513534709443 0 56.301513534709443 -30.147190297114708 0 0 0 0 -319.6820864411311 123.38948575732172 0 123.38948575732172 -56.792547282057058 0 0 0 0 -663.49924328408088 -227.41020390911581 0 -227.41020390911581 -413.7976612727623 0 0 0 0 -4491.8935237210098 -2439.6202717664496 0 -2439.6202717664496 -401.56945321800538 0 0 0 0 -2313.5610740884404 -1064.0595323958721 0 -1064.0595323958721 213.88866822466068 0 0 0 0 -425.85301443577919 -954.23613305204822 0 -954.23613305204822 -947.06885423933579 0 0 0 0 -2064.3274220941821 -1233.3870664126705 0 -1233.3870664126705 -429.54873649110999 0 0 0 0 -2241.817484068044 -232.44684434578926 0 -232.44684434578926 138.16794033731537 0 0 0 0 -1618.2848617097916 -638.29601638937152 0 -638.29601638937152 -135.54367214903209 0 0 0 0 -1004.8518117720305 -472.31282134531273 0 -472.31282134531273 -161.86002178905071 0 0 0 0 -2797.0506319933775 -1082.1206929291097 0 -1082.1206929291097 214.29731666620793 0 0 0 0 -2795.484851647263 -39.92394443291164 0 -39.92394443291164 872.67749076970813 0 0 0 0 -4499.9613549934238 -518.52978294562763 0 -518.52978294562763 828.80805803318185 0 0 0 0 -2800.2708746469434 37.280716825480567 0 37.280716825480567 276.46029459492797 0 0 0 0 -1618.4033773877745 -202.30851051469966 0 -202.30851051469966 75.768655119847494 0 0 0 0 -1357.834884457523 320.09787687831897 0 320.09787687831897 22.845268913468885 0 0 0 0 -4500.6304869338128 519.54375125719571 0 519.54375125719571 929.76911901929111 0 0 0 0 -2480.3825578429169 1094.737451242167 0 1094.737451242167 639.78317056381388 0 0 0 0 -2429.8650692040351 619.59811082128192 0 619.59811082128192 66.816899151521966 0 0 0 0 -141.935972351901 294.76616556560339 0 294.76616556560339 -370.08345515242286 0 0 0 0 -4490.41687456605 1537.0831782176617 0 1537.0831782176617 544.88957871198704 0 0 0 0 -12.222088301848373 5.6079845634352754 0 5.6079845634352754 0.56861852627419673 0 0 0 0 -2058.1609507909379 2230.5511339522914 0 2230.5511339522914 -1009.5579548938308 0 0 0 0 -704.421842740594 15.938477073444616 0 15.938477073444616 2.6567055139394142 0 0 0 0 -706.62220338092629 16.591292544874214 0 16.591292544874214 173.70685291895597 0 0 0 0 -804.10796418842074 -331.26795689412398 0 -331.26795689412398 840.94417171101156 0 0 0 0 -11.768351529857767 3.9392792525957265 0 3.9392792525957265 0.81787543227185289 0 0 0 0 -673.6235700619709 -194.29182837670064 0 -194.29182837670064 455.50985087967001 0 0 0 0 -219.27818451665371 933.82121302126711 0 933.82121302126711 -992.62022270798832 0 0 0 0 308.41875438691204 353.97587115112628 0 353.97587115112628 -377.06416484962415 0 0 0 0 -514.76097036665305 -281.76922081984787 0 -281.76922081984787 712.47740067233156 0 0 0 0 -71.517445059001801 4.5899528602565001 0 4.5899528602565001 0.090362097405788974 0 0 0 0 -2396.3598694804969 258.65462324100571 0 258.65462324100571 634.6283498565964 0 0 0 0 -4470.2501188158276 1604.3380212588499 0 1604.3380212588499 -231.69097053013147 0 0 0 0 278.07782934630086 157.60901731593026 0 157.60901731593026 -1346.9263895363079 0 0 0 0 -1124.159157624239 -2019.3985408809801 0 -2019.3985408809801 -1337.4798814410378 0 0 0 0 -28.273011025640898 0.52406425374482879 0 0.52406425374482879 -3.0385481129354437 0 0 0 0 -1606.848403902819 1322.2193453662071 0 1322.2193453662071 -2058.8950755466085 0 0 0 0 -4487.2514570366939 -1210.527744634124 0 -1210.527744634124 376.53233761009574 0 0 0 0 -2344.1501343771852 -917.98765889554534 0 -917.98765889554534 416.11864165323641 0 0 0 0 -4505.8285282833494 -139.56134074710388 0 -139.56134074710388 700.72519099280396 0 0 0 0 -1718.5412965508549 -103.32190214911213 0 -103.32190214911213 -138.87623962282203 0 0 0 0 -710.11962308959983 212.06029956740852 0 212.06029956740852 -146.46596394624083 0 0 0 0 -7.9678061385639012 237.60302519023224 0 237.60302519023224 -187.06495043578846 0 0 0 0 -328.44393769199087 -56.328646369631976 0 -56.328646369631976 -144.29459657337293 0 0 0 0 -795.5305270862591 -543.91129709346592 0 -543.91129709346592 -388.31480553125613 0 0 0 0 -419.17947144199934 114.7938293957796 0 114.7938293957796 -461.40272442176297 0 0 0 0 -1006.2098082679913 180.49589769680577 0 180.49589769680577 -405.16866896728868 0 0 0 0 -451.60902244981116 -205.35443543606459 0 -205.35443543606459 -408.08732465796834 0 0 0 0 -334.35856026593137 -12.110043028392028 0 -12.110043028392028 -344.84635509002993 0 0 0 0 -477.16581023395884 -124.32056009221108 0 -124.32056009221108 -190.5142458795309 0 0 0 0 -1061.4577857208606 -40.120035698586463 0 -40.120035698586463 -99.465401893860189 0 0 0 0 -403.27354572206968 -76.384159347672664 0 -76.384159347672664 -498.53984399206502 0 0 0 0 -4484.7589161215983 1168.8952954335425 0 1168.8952954335425 284.64476021684089 0 0 0 0 -2121.4938720068058 440.63814938299191 0 440.63814938299191 456.12361852916223 0 0 0 0 -1581.4614740600045 -256.113380756786 0 -256.113380756786 -149.28097322657274 0 0 0 0 -240.22903657321876 -102.72618872153743 0 -102.72618872153743 59.670701850183264 0 0 0 0 -0.83082536450626776 -67.627648664552979 0 -67.627648664552979 56.41080949880984 0 0 0 0 -12.845922605119966 20.929532864447253 0 20.929532864447253 -8.9961559292342042 0 0 0 0 3.5053397212400341 19.00652299939226 0 19.00652299939226 -3.5659622317975845 0 0 0 0 3.1999797732569277 23.131544108737728 0 23.131544108737728 -1.4420601422496588 0 0 0 0 8.4306868948287246 10.761606503949771 0 10.761606503949771 -3.1039641255485515 0 0 0 0 -11.102340234660261 10.178887037453372 0 10.178887037453372 -5.4484968325813092 0 0 0 0 7.5350463946597301 24.384632907929245 0 24.384632907929245 -3.2253899388551872 0 0 0 0 4.8773491268657381 97.315950276726426 0 97.315950276726426 -39.141730722115426 0 0 0 0 9.2192185369422077 19.659302626704971 0 19.659302626704971 -6.4575076045707647 0 0 0 0 -40.143911962455604 4.8851607752721975 0 4.8851607752721975 50.497779772600552 0 0 0 0 -67.51264671615354 52.105474343001902 0 52.105474343001902 -21.722194092094924 0 0 0 0 50.79323601312808 -64.349664065872275 0 -64.349664065872275 -73.886965511322842 0 0 0 0 -348.32104659525794 -108.97207131974449 0 -108.97207131974449 -29.471683483215543 0 0 0 0 -262.38673234730959 -194.92620031972046 0 -194.92620031972046 -137.46185459951897 0 0 0 0 -244.56704476670348 -199.91689101675718 0 -199.91689101675718 -207.99812484328595 0 0 0 0 -245.44942306727353 -181.07860286715052 0 -181.07860286715052 -234.20693355686694 0 0 0 0 -226.70461627298937 -184.88967775792707 0 -184.88967775792707 -376.26013672291413 0 0 0 0 -227.08060676707828 -46.534135203592854 0 -46.534135203592854 -375.86228931451456 0 0 0 0 -250.35899169371987 -50.14170471245609 0 -50.14170471245609 -209.7681827032628 0 0 0 0 -253.53703167208732 95.004557481535983 0 95.004557481535983 -21.610793926896775 0 0 0 0 -225.26793076523609 7.1872835841393226 0 7.1872835841393226 -152.31200944590529 0 0 0 0 -254.27963142324404 132.36298416664854 0 132.36298416664854 -266.15821515088572 0 0 0 0 -101.9678567707233 89.652410147307663 0 89.652410147307663 -373.94362312381395 0 0 0 0 -148.96506746232626 159.6880237451935 0 159.6880237451935 -265.53334128279744 0 0 0 0 -68.453442869584251 161.45597267356214 0 161.45597267356214 -55.439767381068435 0 0 0 0 -216.37743738670542 41.506778964878251 0 41.506778964878251 -86.755076125046145 0 0 0 0 -280.00884668184881 236.4870948424176 0 236.4870948424176 -113.45489189545265 0 0 0 0 -137.71123130268825 104.83925439820177 0 104.83925439820177 -2.7350263659283769 0 0 0 0 -459.49079829713446 290.58202108222849 0 290.58202108222849 146.91406522503678 0 0 0 0 -122.21330831236992 188.30034712094283 0 188.30034712094283 -187.74487552529956 0 0 0 0 -100.65423976728198 258.86174416024767 0 258.86174416024767 -264.65686380427553 0 0 0 0 1.3373449743353234 1.6743802251684627 0 1.6743802251684627 -2.0366205996239373 0 0 0 0 -57.323721042899706 201.22142234025819 0 201.22142234025819 -190.06723129989422 0 0 0 0 -70.239262351157322 116.9313249994126 0 116.9313249994126 -82.453759972104763 0 0 0 0 3.1904530329993577 57.654412222145936 0 57.654412222145936 -200.6419482759693 0 0 0 0 -50.256150496519368 55.600074933949045 0 55.600074933949045 -15.258579989652029 0 0 0 0 85.143389566161204 -88.664088076787493 0 -88.664088076787493 -89.800815328535464 0 0 0 0 8.4605310425961164 2.4061321323275493 0 2.4061321323275493 -5.2822380347571123 0 0 0 0 288.48908667943033 132.28476926526236 0 132.28476926526236 -110.25663067703312 0 0 0 0 4.6848035952862119 115.22962708656735 0 115.22962708656735 85.342219518796355 0 0 0 0 8.2339906897562685 43.13971633353615 0 43.13971633353615 -11.447447334492949 0 0 0 0 -71.759965565077437 70.06042002218237 0 70.06042002218237 6.8631025578624758 0 0 0 0 342.06112523039337 -66.986933840093712 0 -66.986933840093712 -278.01614244844927 0 0 0 0 -48.419588576248657 10.697540660868135 0 10.697540660868135 -1.5188851406662136 0 0 0 0 -26.999594950735627 87.77016819520037 0 87.77016819520037 -89.902279329388648 0 0 0 0 -47.740232755248144 292.81472341020083 0 292.81472341020083 90.70364006745335 0 0 0 0 -78.38276763066375 50.880042998560256 0 50.880042998560256 -10.409320626153791 0 0 0 0 -43.946884454206156 -20.912538261471354 0 -20.912538261471354 -230.51135742863153 0 0 0 0 -56.851668665292991 36.296294488569117 0 36.296294488569117 -9.1399887192669702 0 0 0 0 -96.466651001523132 -114.88419798789255 0 -114.88419798789255 -361.19868860531915 0 0 0 0 -167.43301094160415 245.47480245986048 0 245.47480245986048 169.47277603162343 0 0 0 0 -32.886561954008357 -225.44059589400246 0 -225.44059589400246 -308.2424437847302 0 0 0 0 -221.1058866646672 83.883252941124127 0 83.883252941124127 572.09043051273898 0 0 0 0 -92.135054562469207 2.6039287454506281 0 2.6039287454506281 1.1468678857346515 0 0 0 0 -221.62501468462142 97.559413974905553 0 97.559413974905553 352.57527807688984 0 0 0 0 -100.31039835508463 17.941830108348682 0 17.941830108348682 -0.69346603693516395 0 0 0 0 -181.17555023466775 237.19908280176557 0 237.19908280176557 157.75134307359721 0 0 0 0 16.446405170376238 -87.916099309372939 0 -87.916099309372939 48.737586803310229 0 0 0 0 65.349952727417985 304.70939265902268 0 304.70939265902268 -311.4852425873172 0 0 0 0 -288.76196421409259 -287.04093316226499 0 -287.04093316226499 -259.4627198687358 0 0 0 0 -205.18246112158522 -288.07881207454693 0 -288.07881207454693 -265.10678797456603 0 0 0 0 -46.917710835755656 49.055233084666639 0 49.055233084666639 -24.829249225360631 0 0 0 0 -63.425976453094336 -128.1300106162862 0 -128.1300106162862 -370.58119551152868 0 0 0 0 -214.0928613285505 -227.32575504877695 0 -227.32575504877695 -270.92091663539088 0 0 0 0 -136.56132709354279 -333.54044762260492 0 -333.54044762260492 -512.18537297495641 0 0 0 0 -113.11846305454674 -264.52664433315567 0 -264.52664433315567 -309.74865230903833 0 0 0 0 -347.28193993783498 -246.04293829309518 0 -246.04293829309518 -254.27910828273826 0 0 0 0 -273.96114310551638 -201.73150005636035 0 -201.73150005636035 -328.48269406809959 0 0 0 0 -284.46049516623316 -551.67803940213366 0 -551.67803940213366 -1048.5041520998202 0 0 0 0 -874.47601492729154 -199.0021146368299 0 -199.0021146368299 -322.90815756389202 0 0 0 0 -514.83739519190567 162.58162760428513 0 162.58162760428513 -511.13200767413764 0 0 0 0 -196.59165534081694 -16.8840866728533 0 -16.8840866728533 -439.74512249887812 0 0 0 0 -159.57439768314362 22.943708640209479 0 22.943708640209479 -432.39113620073658 0 0 0 0 -358.61512774930816 -68.062788595425673 0 -68.062788595425673 -247.28585801350528 0 0 0 0 -103.20735135693394 -60.419070422477489 0 -60.419070422477489 -298.21917919664702 0 0 0 0 -159.95809657752397 19.77797679253581 0 19.77797679253581 -383.18354359054229 0 0 0 0 -113.13981531694299 -22.057861395381224 0 -22.057861395381224 -299.57285113042781 0 0 0 0 -109.81047603403567 -46.292433314178197 0 -46.292433314178197 -379.57247311233004 0 0 0 0 -171.27335684061109 -38.388571111932833 0 -38.388571111932833 -272.82361553262854 0 0 0 0 -112.02150969961076 -68.358636088934873 0 -68.358636088934873 -387.96690171858381 0 0 0 0 -53.397808192312368 -65.503677266257455 0 -65.503677266257455 -441.44151776237959 0 0 0 0 -51.838947093376191 -71.631228889877093 0 -71.631228889877093 -417.97535326916295 0 0 0 0 -25.647035046014935 -80.838305620655774 0 -80.838305620655774 -442.03300761855542 0 0 0 0 -15.345183620345779 -120.36756015727133 0 -120.36756015727133 -425.97284414863952 0 0 0 0 -96.668046900536865 -100.13364468206782 0 -100.13364468206782 -430.46899755374398 0 0 0 0 -38.279786652259645 -44.452142106003521 0 -44.452142106003521 -444.69322599941506 0 0 0 0 -126.1989131432565 42.191402209384705 0 42.191402209384705 -525.23754836796979 0 0 0 0 13.709890732439817 -111.5550549947402 0 -111.5550549947402 -524.55217248909867 0 0 0 0 -29.992960344821768 -152.17041892195084 0 -152.17041892195084 -309.39792589096942 0 0 0 0 533.99963278253563 385.16393312012815 0 385.16393312012815 -1366.7582517379296 0 0 0 0 -19.633681204000368 5.3127991401440724 0 5.3127991401440724 -1.769645509805243 0 0 0 0 -315.77846456693806 506.23671105304038 0 506.23671105304038 -146.30755469942505 0 0 0 0 -68.667288394717616 -35.402295936279188 0 -35.402295936279188 -251.45535604708493 0 0 0 0 -88.379486953854212 -144.72782224353068 0 -144.72782224353068 -391.5911685803967 0 0 0 0 47.903799340085243 -55.535836622651914 0 -55.535836622651914 -385.04816118893046 0 0 0 0 -1891.3136548604816 -248.13969265642118 0 -248.13969265642118 -168.69230187890844 0 0 0 0 618.40340471878881 -762.8981719052922 0 -762.8981719052922 -925.523281157989 0 0 0 0 -1194.022114262174 -534.38504678052732 0 -534.38504678052732 -479.1150042608715 0 0 0 0 -777.71490650990745 444.51304407348016 0 444.51304407348016 -147.86722193934384 0 0 0 0 107.57322018117702 -556.24763036475292 0 -556.24763036475292 -211.85762256132534 0 0 0 0 -8.7923950427999387 -3.6136987301766084 0 -3.6136987301766084 -1.2125320939079041 0 0 0 0 -116.54368085475289 -1071.2254482429837 0 -1071.2254482429837 -1309.404148545435 0 0 0 0 -17.932947634621428 -4.3663965387327099 0 -4.3663965387327099 -0.41975911542052896 0 0 0 0 -363.72126136576117 480.33260813876268 0 480.33260813876268 135.87436748813343 0 0 0 0 71.430269402808335 221.55622314568132 0 221.55622314568132 -573.12186681085473 0 0 0 0 -114.39369836116384 0.93349622340019778 0 0.93349622340019778 -85.098821250294804 0 0 0 0 -117.26721376423666 81.673332380480133 0 81.673332380480133 10.694809554845961 0 0 0 0 98.369981321011437 234.56139542176379 0 234.56139542176379 -731.44769036542493 0 0 0 0 -11.484762840100984 0.71938590596519703 0 0.71938590596519703 -0.058681843330802508 0 0 0 0 -647.75294927674258 -757.5574486772166 0 -757.5574486772166 -163.63071554870658 0 0 0 0 -139.22960894387506 40.31306774106497 0 40.31306774106497 -625.62800118803443 0 0 0 0 -730.28340444562491 -644.66082689296718 0 -644.66082689296718 -292.63103768222601 0 0 0 0 -1.2342377134708649 0.99237501722916477 0 0.99237501722916477 -2.3733920524596854 0 0 0 0 -902.48785831844725 -121.37271889059724 0 -121.37271889059724 -136.02557319305561 0 0 0 0 -753.4006511316602 58.65708163017149 0 58.65708163017149 -72.704313780344819 0 0 0 0 -708.99818520994449 13.604097539160648 0 13.604097539160648 -47.552445778288529 0 0 0 0 -471.37339040361985 -90.805564365614373 0 -90.805564365614373 -286.2472810180534 0 0 0 0 -714.17033518341395 -88.007192331530007 0 -88.007192331530007 -131.37413154212845 0 0 0 0 -625.2272274835268 -150.59127645715489 0 -150.59127645715489 -452.53430060666687 0 0 0 0 -592.83148940619139 -73.931144582520574 0 -73.931144582520574 -272.52436740254552 0 0 0 0 -461.87897100421833 -189.13050319449485 0 -189.13050319449485 -363.41057122942766 0 0 0 0 -396.80157309999049 -125.2877369263565 0 -125.2877369263565 -333.91335715813329 0 0 0 0 -316.0294424945896 -46.769892468560101 0 -46.769892468560101 -252.79281696934686 0 0 0 0 -479.71754818605405 -99.517532045710141 0 -99.517532045710141 -267.91409996890798 0 0 0 0 -287.85637948515068 -8.509399083533026 0 -8.509399083533026 -235.38637304833446 0 0 0 0 -198.62147848027962 -81.795999827492778 0 -81.795999827492778 -332.54225528208917 0 0 0 0 -209.43341689826048 -68.287929191675175 0 -68.287929191675175 -338.57333095253944 0 0 0 0 -252.68473111567437 -108.4891191998322 0 -108.4891191998322 -334.25746945215542 0 0 0 0 -144.60274329186359 -116.65746143563774 0 -116.65746143563774 -396.92646320967469 0 0 0 0 -165.85688332239806 -166.73249903139094 0 -166.73249903139094 -384.58608243023173 0 0 0 0 -93.209869968952262 -111.77343383344237 0 -111.77343383344237 -404.26914479501829 0 0 0 0 -147.27658563855221 -116.92031385804421 0 -116.92031385804421 -391.03303072177368 0 0 0 0 -405.00107378099347 -152.38148928064948 0 -152.38148928064948 -334.20717067626993 0 0 0 0 -90.743989158167096 -253.26371930499386 0 -253.26371930499386 -375.22711565028658 0 0 0 0 -423.7920064603677 -198.28745969387728 0 -198.28745969387728 -323.9484583500107 0 0 0 0 -9.2331651955635721 2.9965784247989617 0 2.9965784247989617 -1.8598749668312688 0 0 0 0 84.512065321119735 -39.420370419023129 0 -39.420370419023129 -891.2025363965613 0 0 0 0 424.26482073728675 29.940893454307286 0 29.940893454307286 -882.77232261282097 0 0 0 0 -385.31862191271648 -101.56321121779501 0 -101.56321121779501 -430.56982653449813 0 0 0 0 -661.43405387704115 -50.932631249033875 0 -50.932631249033875 -301.03114958248534 0 0 0 0 -612.4321527833381 -73.07981713996287 0 -73.07981713996287 -418.92724620101762 0 0 0 0 -550.72898428322878 30.847985074661665 0 30.847985074661665 -714.99530072641483 0 0 0 0 -974.15063708220987 -356.13091807961518 0 -356.13091807961518 -380.73535227030425 0 0 0 0 -793.46377219462738 -334.26577883442178 0 -334.26577883442178 -379.74085289502909 0 0 0 0 -419.42643706103263 -446.4048873191141 0 -446.4048873191141 611.65777172416711 0 0 0 0 -398.7569087766642 -783.97146033855961 0 -783.97146033855961 -147.78098605323521 0 0 0 0 -87.920875944010618 -33.039370247770378 0 -33.039370247770378 -11.09290197134716 0 0 0 0 106.55480028306192 -277.07873461445138 0 -277.07873461445138 -876.00277791329052 0 0 0 0 126.99481103903236 -55.671753827061366 0 -55.671753827061366 -215.75061676960286 0 0 0 0 141.30813249638595 -179.18658015314486 0 -179.18658015314486 139.40863465704206 0 0 0 0 -76.281224854679863 -28.399104134595927 0 -28.399104134595927 -9.3115309993505555 0 0 0 0 -641.10642752418062 -207.22365145498611 0 -207.22365145498611 723.00533857712253 0 0 0 0 3.5873964805359719 316.79115077222878 0 316.79115077222878 -441.10070032693329 0 0 0 0 -214.41442581675074 263.97622112500812 0 263.97622112500812 383.97610461925342 0 0 0 0 -51.799776896937459 -18.348624287663611 0 -18.348624287663611 -5.7450873648228278 0 0 0 0 -133.8470146374093 -148.15430387316087 0 -148.15430387316087 94.652859827943757 0 0 0 0 -15.259206206876115 -14.963064489654698 0 -14.963064489654698 -17.098489602698464 0 0 0 0 2.3487989973509684 -73.653718690576397 0 -73.653718690576397 -29.964749545825839 0 0 0 0 -8.7041427281801589 -32.375139255761269 0 -32.375139255761269 29.132240105560413 0 0 0 0 155.68654263922144 -84.609746447564589 0 -84.609746447564589 38.82231997151348 0 0 0 0 141.81830432687275 -19.593902051248506 0 -19.593902051248506 -62.367879598242553 0 0 0 0 -15.603314389169796 -24.173009923574092 0 -24.173009923574092 -35.651585379202096 0 0 0 0 105.95105319124923 -144.15798331082419 0 -144.15798331082419 -404.81016541429926 0 0 0 0 40.348333736073982 26.313185153032009 0 26.313185153032009 -56.244638881975334 0 0 0 0 23.370415183753721 11.122306817419258 0 11.122306817419258 157.05879287345215 0 0 0 0 -1313.6205077282357 -192.60286474246186 0 -192.60286474246186 210.65334178474495 0 0 0 0 -30.108692199938616 -1.4834255235369795 0 -1.4834255235369795 -5.4500813833339734 0 0 0 0 -121.17464108359127 -397.15467589205309 0 -397.15467589205309 121.16525585358045 0 0 0 0 -98.284997322894924 41.280469732261281 0 41.280469732261281 112.17826950181279 0 0 0 0 -39.819918920416967 94.82838378946235 0 94.82838378946235 -20.524834944177201 0 0 0 0 -126.54783789015346 -168.51044259802035 0 -168.51044259802035 416.65520749686584 0 0 0 0 -305.74484965481679 -40.258418417203757 0 -40.258418417203757 245.16705602973889 0 0 0 0 -17.715625662273538 -9.4522810186650261 0 -9.4522810186650261 -3.0449958908869004 0 0 0 0 -295.13346892844129 307.57024061958919 0 307.57024061958919 -113.48672476567367 0 0 0 0 -207.35505905354512 -35.235305295096623 0 -35.235305295096623 -183.95387207031854 0 0 0 0 -529.1712901674 302.23381646550024 0 302.23381646550024 137.96875001757871 0 0 0 0 29.052987439987191 39.89391373928072 0 39.89391373928072 -221.73660791980819 0 0 0 0 -348.64885912385944 -148.2957203578826 0 -148.2957203578826 645.64047216727067 0 0 0 0 -41.316893679831992 168.70209717267062 0 168.70209717267062 91.707109514040667 0 0 0 0 -507.74882235075347 490.61254630513986 0 490.61254630513986 -127.95802470573653 0 0 0 0 -18.337271298832121 -6.5151463707170194 0 -6.5151463707170194 -2.7342028028716161 0 0 0 0 -114.06022099995607 -400.02056449436782 0 -400.02056449436782 -528.63365769377742 0 0 0 0 -18.045652953136596 -189.33959701723529 0 -189.33959701723529 -69.648262666950359 0 0 0 0 -754.82729786189157 -374.80549955151037 0 -374.80549955151037 237.42873675061492 0 0 0 0 80.572581105989229 1301.8499923121346 0 1301.8499923121346 -78.143300684198039 0 0 0 0 407.63514020834555 -695.84264819565487 0 -695.84264819565487 -863.46485310137905 0 0 0 0 -21.621771373107109 22.475804185368375 0 22.475804185368375 -14.344702792214456 0 0 0 0 926.86250051289971 163.30214727503881 0 163.30214727503881 -154.08456699691715 0 0 0 0 5.2189697250723839 45.262515921449449 0 45.262515921449449 -24.298847906751689 0 0 0 0 -16.446380698565918 33.184840740411801 0 33.184840740411801 4.0303169810963482 0 0 0 0 -24.002636115678911 24.272223397534404 0 24.272223397534404 -7.6634237235862379 0 0 0 0 -17.244324556668289 3.1059734800419392 0 3.1059734800419392 29.94934571154954 0 0 0 0 -3.0315772544636275 34.821972374157667 0 34.821972374157667 8.2425460219767501 0 0 0 0 -5.3193078556378168 22.964954319133312 0 22.964954319133312 6.6400297290529124 0 0 0 0 19.49729843719615 16.975339647441729 0 16.975339647441729 -35.384426875297549 0 0 0 0 -20.083080331156197 14.315778915753 0 14.315778915753 -1.2399310438616507 0 0 0 0 -5.1469438095209625 22.376658911045297 0 22.376658911045297 7.2687735392755712 0 0 0 0 -13.148100371097186 11.578950236915041 0 11.578950236915041 -7.5670639487567497 0 0 0 0 -12.702677656911391 13.881335373506573 0 13.881335373506573 -6.8135324519747682 0 0 0 0 -60.475631529632665 2.343451281990383 0 2.343451281990383 -25.7949525909562 0 0 0 0 -40.578927597867732 9.6703967667474444 0 9.6703967667474444 -51.047420625842278 0 0 0 0 -24.879089066613233 -6.8768857008708437 0 -6.8768857008708437 -40.660569510484493 0 0 0 0 101.09900912898593 192.05202905064198 0 192.05202905064198 95.726857366154945 0 0 0 0 7.3542742588033434 26.350722473674182 0 26.350722473674182 10.749862552329148 0 0 0 0 -75.571498094395793 -24.888241342801166 0 -24.888241342801166 5.0682668669649615 0 0 0 0 -6.2282871384492609 3.5747015733011693 0 3.5747015733011693 -1.5164599164439885 0 0 0 0 -57.070869220990971 -26.97307315494875 0 -26.97307315494875 -11.055615198195937 0 0 0 0 -21.030286821142596 11.720751820425548 0 11.720751820425548 2.1494538239200383 0 0 0 0 6.8850651333341375 26.744545288831659 0 26.744545288831659 21.736194626018914 0 0 0 0 5.112435373366722 3.3107873390661595 0 3.3107873390661595 1.2859054285192908 0 0 0 0 1.5481176764970996 16.649982480074186 0 16.649982480074186 -3.2579674736566249 0 0 0 0 -28.127513316864906 19.032347591546287 0 19.032347591546287 6.2143454600145036 0 0 0 0 -27.606113149423834 18.251436064719584 0 18.251436064719584 4.7452277980800091 0 0 0 0 -91.072464559831133 112.48531437482245 0 112.48531437482245 396.23537383500604 0 0 0 0 -15.186996301359613 38.64574459678488 0 38.64574459678488 -3.7346636911083806 0 0 0 0 -11.262830896997912 20.728381214749334 0 20.728381214749334 14.492433655675995 0 0 0 0 -13.414352176901417 2.2273790124013124 0 2.2273790124013124 1.6322590520609617 0 0 0 0 -234.71869644649996 -106.74434336130184 0 -106.74434336130184 129.41822791925279 0 0 0 0 -202.23264381927584 -357.34106329047614 0 -357.34106329047614 -239.30771038742319 0 0 0 0 -86.104597610603378 -214.30964753349406 0 -214.30964753349406 -74.823875227476037 0 0 0 0 -4.1358304384852715 -4.7519281787677681 0 -4.7519281787677681 -0.91863328396279786 0 0 0 0 -42.031984748704417 53.789678945719402 0 53.789678945719402 -39.200027605665241 0 0 0 0 -184.83940816037648 216.8110138282093 0 216.8110138282093 -221.66435421332312 0 0 0 0 -48.630156054518011 48.277600467791444 0 48.277600467791444 -8.1097502385188278 0 0 0 0 -100.46964840812871 52.72620543785456 0 52.72620543785456 -49.376381351557939 0 0 0 0 -30.819199883444938 17.55431614619097 0 17.55431614619097 10.636861921122335 0 0 0 0 -1.0322177588212327 1.1240713234216742 0 1.1240713234216742 -0.70534234047564315 0 0 0 0 -0.79682374002732104 144.79448547455854 0 144.79448547455854 84.917092873450201 0 0 0 0 -103.63159517245367 -187.74275967450149 0 -187.74275967450149 57.400519276676334 0 0 0 0 96.315828228711325 13.254528916558343 0 13.254528916558343 21.997113043958507 0 0 0 0 -1.1550883442929347 0.10561557474774474 0 0.10561557474774474 0.99627176496237624 0 0 0 0 -22.440706820081317 16.518997865094008 0 16.518997865094008 15.25013065494687 0 0 0 0 -197.04855977123225 -84.042769204441356 0 -84.042769204441356 170.00175192255369 0 0 0 0 -162.45077036730072 100.59237566707202 0 100.59237566707202 38.882569263869982 0 0 0 0 -189.91250635866891 117.354049263972 0 117.354049263972 -178.96054167971215 0 0 0 0 197.73397852823837 -167.55169810725351 0 -167.55169810725351 2.8665402825643014 0 0 0 0 -20.199484529759744 11.067319337600232 0 11.067319337600232 3.9849307252080708 0 0 0 0 -53.761670644380501 -18.122200720979208 0 -18.122200720979208 -4.0877125069458771 0 0 0 0 -21.887010069738608 230.29743801329096 0 230.29743801329096 46.490811085805035 0 0 0 0 -41.718870058539324 319.80333529992868 0 319.80333529992868 -172.56711692160161 0 0 0 0 -37.423324244475225 -12.41630037961454 0 -12.41630037961454 9.3304335552392104 0 0 0 0 -21.887787209278031 9.3822450589257187 0 9.3822450589257187 -4.1132296994398985 0 0 0 0 -5.7066595784421281 6.1947555113677737 0 6.1947555113677737 -3.1123529999435364 0 0 0 0 5.4775019861784813 5.4322456565328316 0 5.4322456565328316 -11.00145301623661 0 0 0 0 -48.924386745726224 -13.282695259387083 0 -13.282695259387083 -6.6513488751447767 0 0 0 0 -41.503004218782735 0.081324865694909931 0 0.081324865694909931 -23.175653110530675 0 0 0 0 287.97252207039855 16.168598390984698 0 16.168598390984698 172.44130828424386 0 0 0 0 353.60899308019725 174.34287047958787 0 174.34287047958787 -954.60889417783255 0 0 0 0 -298.68888246274582 -745.34292386655579 0 -745.34292386655579 63.776465206454304 0 0 0 0 -761.14144324584049 -226.7151398554488 0 -226.7151398554488 248.88653607011156 0 0 0 0 -17.659909574399137 -31.22600871966462 0 -31.22600871966462 -49.455682531397279 0 0 0 0 189.37465923885611 -311.23422711106122 0 -311.23422711106122 5.5240399284105024 0 0 0 0 527.55642473278203 -383.30374456558093 0 -383.30374456558093 -70.094161656210417 0 0 0 0 84.334650544547912 -50.251951945231667 0 -50.251951945231667 7.2768972378801209 0 0 0 0 -16.22051740274037 64.875458226057845 0 64.875458226057845 -68.175186069032407 0 0 0 0 -395.89871212179423 117.06538155895987 0 117.06538155895987 -95.168003934491708 0 0 0 0 -495.97326558215718 46.061159247880113 0 46.061159247880113 82.845105331476134 0 0 0 0 -155.82228290165222 -360.56791188528325 0 -360.56791188528325 -338.22541418723142 0 0 0 0 -103.47713086621661 -27.947014211261376 0 -27.947014211261376 224.45968207760643 0 0 0 0 -106.92796270759573 -83.018527524075537 0 -83.018527524075537 119.11769449420842 0 0 0 0 -12.407655905099858 -11.088826071423867 0 -11.088826071423867 -5.7858539707459871 0 0 0 0 -82.407064649258245 -42.87413559071922 0 -42.87413559071922 -62.485919254547298 0 0 0 0 69.847539932859945 91.872531355931642 0 91.872531355931642 -71.787020882807383 0 0 0 0 271.64888947043073 -35.48181702824013 0 -35.48181702824013 -103.56168223588247 0 0 0 0 -45.341356902022198 -236.67046023296629 0 -236.67046023296629 84.20678859328109 0 0 0 0 -21.445826002048776 -30.775367226435371 0 -30.775367226435371 -53.715846430958209 0 0 0 0 113.24132761095279 239.33939330512339 0 239.33939330512339 -301.76682179695854 0 0 0 0 -256.07711736341298 235.33327108952381 0 235.33327108952381 -35.572299497144741 0 0 0 0 -129.61163340546045 165.94792357088136 0 165.94792357088136 -8.5846766676199877 0 0 0 0 -151.96858874698682 266.79508999145924 0 266.79508999145924 -171.84267485697274 0 0 0 0 -616.10964717454044 210.50910654954168 0 210.50910654954168 -81.972673905669581 0 0 0 0 -452.12257395860797 -160.87656332887127 0 -160.87656332887127 253.97964819248409 0 0 0 0 -105.11011341501944 -197.79407172169158 0 -197.79407172169158 -14.827480461795858 0 0 0 0 -89.370172030766156 -31.094884959436165 0 -31.094884959436165 -9.138010388856868 0 0 0 0 -149.54979717574679 -204.42941907059867 0 -204.42941907059867 -10.42699458986317 0 0 0 0 -517.2678448642564 131.39521514872467 0 131.39521514872467 142.08323482026935 0 0 0 0 -6.575865408755476 17.686682192998688 0 17.686682192998688 8.6253184481813499 0 0 0 0 -5.8383281177129049 5.7651281453709036 0 5.7651281453709036 2.4710085476712251 0 0 0 0 135.57174109172774 -55.301995706737216 0 -55.301995706737216 167.94438924270435 0 0 0 0 -20.720829338359181 92.274371822895773 0 92.274371822895773 -114.79981486677571 0 0 0 0 -3.5830734974418448 -1.8719347526145427 0 -1.8719347526145427 3.0525172780125764 0 0 0 0 -287.46545627117666 -343.37977262941149 0 -343.37977262941149 -439.0365755036255 0 0 0 0 -420.95190333797291 -190.32920298601061 0 -190.32920298601061 -86.147936162160477 0 0 0 0 -424.78697675384319 -101.53139174597163 0 -101.53139174597163 275.29748435777219 0 0 0 0 -472.07551176828565 -163.88662215237127 0 -163.88662215237127 17.061637126829737 0 0 0 0 -659.81273522546689 -265.6522709095716 0 -265.6522709095716 59.159885709606897 0 0 0 0 -702.66751177878359 -137.88189725218626 0 -137.88189725218626 155.29798100682456 0 0 0 0 -536.35619953062997 -22.570310085361143 0 -22.570310085361143 167.83023812042302 0 0 0 0 -170.00352706346894 -155.20824183606146 0 -155.20824183606146 172.43208388164749 0 0 0 0 -38.457904371298355 15.602068587874783 0 15.602068587874783 38.237672599507277 0 0 0 0 -9.9296100069877866 174.91173344666595 0 174.91173344666595 19.302430011353863 0 0 0 0 -22.47575443321611 8.076006893214462 0 8.076006893214462 -9.0603625919369293 0 0 0 0 -55.855455016804783 -13.114107933426947 0 -13.114107933426947 -3.4287888589464224 0 0 0 0 -33.71085948042257 -1.7052389297994885 0 -1.7052389297994885 -1.218714222758539 0 0 0 0 -58.990032914392941 -20.504566356637952 0 -20.504566356637952 -23.587405298000022 0 0 0 0 -21.446526901785546 -0.57127674248295079 0 -0.57127674248295079 23.977951462960846 0 0 0 0 -73.052438800290901 -28.093299497756433 0 -28.093299497756433 -9.2910463229093061 0 0 0 0 -113.40450993330276 -18.723960350533993 0 -18.723960350533993 -2.3809822700054113 0 0 0 0 -83.155173722614563 -97.407488654769622 0 -97.407488654769622 -182.51017956199576 0 0 0 0 -10.899461393257575 12.30600565277973 0 12.30600565277973 10.847563886046718 0 0 0 0 48.270479145980062 31.966316575126257 0 31.966316575126257 21.891476616372529 0 0 0 0 -411.70660194630182 -82.983218456516624 0 -82.983218456516624 122.36089015202379 0 0 0 0 68.466384963860037 80.186831587754568 0 80.186831587754568 -173.45635445058724 0 0 0 0 -29.083037602671538 1.5906239738324075 0 1.5906239738324075 -10.206331571052942 0 0 0 0 -79.99713245134626 -39.35268501707742 0 -39.35268501707742 -0.82366563452706032 0 0 0 0 -48.252531152341618 -12.436925800553059 0 -12.436925800553059 -7.0902685230396143 0 0 0 0 -33.858625636399509 -11.713490303459874 0 -11.713490303459874 -13.800524648713431 0 0 0 0 -59.182800394715741 -18.341431601817931 0 -18.341431601817931 -36.128768140874854 0 0 0 0 12.92455132865507 -67.485654216619878 0 -67.485654216619878 -47.15508831484658 0 0 0 0 -80.841737081014799 -26.013435119727163 0 -26.013435119727163 -37.181516314600231 0 0 0 0 -33.198962392224104 5.4444896991953939 0 5.4444896991953939 -19.269031892814741 0 0 0 0 -81.148842569690032 -20.608832594650536 0 -20.608832594650536 -31.239803738509181 0 0 0 0 -98.692008780053584 -78.941919048493673 0 -78.941919048493673 -60.049766369401283 0 0 0 0 -42.001891458247854 -40.274935294250994 0 -40.274935294250994 -34.482813505124064 0 0 0 0 -19.080862662208006 -8.010965098759506 0 -8.010965098759506 -4.3313064352133459 0 0 0 0 -122.56306241654056 -76.276888554806192 0 -76.276888554806192 -79.217446614718938 0 0 0 0 -93.052775721829676 10.593130528332495 0 10.593130528332495 46.503897159662756 0 0 0 0 -113.09012056258507 -35.666849222581732 0 -35.666849222581732 -11.210161319129838 0 0 0 0 -45.751272179385566 -12.398839577526992 0 -12.398839577526992 -9.5151885480693821 0 0 0 0 -37.879023531293569 -9.0892724707834986 0 -9.0892724707834986 -12.67884097228216 0 0 0 0 -47.417637554874943 -20.915421817528554 0 -20.915421817528554 -4.6864346069120959 0 0 0 0 -6.0065743759209482 -1.6846880886561308 0 -1.6846880886561308 1.3474240543183136 0 0 0 0 -32.855728806811385 99.582248059323319 0 99.582248059323319 -299.12683732937876 0 0 0 0 -114.04643350948754 -30.722355110204262 0 -30.722355110204262 -30.34968482562067 0 0 0 0 -61.763163594863727 -49.449226407327842 0 -49.449226407327842 -119.88758706777662 0 0 0 0 -133.47644819279321 -31.39160847989632 0 -31.39160847989632 529.54076673552481 0 0 0 0 -121.73082659281772 305.55429177968574 0 305.55429177968574 0.27515483618481085 0 0 0 0 -11.8093948060516 -2.7037889737695124 0 -2.7037889737695124 1.7249802667709329 0 0 0 0 -87.563174181638715 -32.274824318325351 0 -32.274824318325351 -12.893904023684414 0 0 0 0 -65.576186659614905 0.039886079220536885 0 0.039886079220536885 24.514639044200521 0 0 0 0 -66.051568096168921 -144.32431843146242 0 -144.32431843146242 204.30071851958201 0 0 0 0 -209.02058117906563 261.3300244316415 0 261.3300244316415 102.50909415479873 0 0 0 0 -74.708198363878182 30.334875332158845 0 30.334875332158845 -74.156667717041273 0 0 0 0 -101.58099666731505 -184.97691007578078 0 -184.97691007578078 111.07516325211145 0 0 0 0 -49.865623340472197 -8.1045433410687124 0 -8.1045433410687124 -4.5790834491794472 0 0 0 0 -86.453827288499724 -302.54432534778084 0 -302.54432534778084 -150.94006461067693 0 0 0 0 -9.0965083954815782 27.611703711985911 0 27.611703711985911 -128.57333553569853 0 0 0 0 -92.9531243018655 28.864994070165267 0 28.864994070165267 -32.32177634903428 0 0 0 0 -0.44483215718903324 -1.3648748867069855 0 -1.3648748867069855 -2.5405572407685595 0 0 0 0 -248.30902536270833 155.29909380221682 0 155.29909380221682 -70.064715954365056 0 0 0 0 -46.051919468072811 -83.085122530338822 0 -83.085122530338822 21.074784383589645 0 0 0 0 -227.64101607331963 12.898537546489962 0 12.898537546489962 87.379309610736527 0 0 0 0 -34.411001679550282 -8.3161087279404455 0 -8.3161087279404455 -59.780487800358969 0 0 0 0 70.076969773504857 189.97392880018569 0 189.97392880018569 -309.91364033485797 0 0 0 0 -24.106175639677609 21.459981030581538 0 21.459981030581538 -38.603997926474946 0 0 0 0 -24.599613570017027 15.72251733948724 0 15.72251733948724 -73.191766960982932 0 0 0 0 -33.316055901141226 2.7864613630554231 0 2.7864613630554231 -55.824208002239175 0 0 0 0 -30.860437176536834 15.609897253371628 0 15.609897253371628 -89.053947547756252 0 0 0 0 -223.11574106617991 79.026469172800716 0 79.026469172800716 -88.582800865089666 0 0 0 0 -226.82545528051506 -99.748629356926045 0 -99.748629356926045 -100.77074601712957 0 0 0 0 -119.34514492733297 -43.049457789644066 0 -43.049457789644066 -63.301557008991949 0 0 0 0 -90.017647661021329 -44.727900943385976 0 -44.727900943385976 -81.531678238791756 0 0 0 0 -105.67516955427345 29.756556333726621 0 29.756556333726621 -72.916686644235597 0 0 0 0 -85.428133136269025 1.3297904517748975 0 1.3297904517748975 -31.658410300768082 0 0 0 0 -45.382199974706964 19.54720228885526 0 19.54720228885526 -46.109815473121671 0 0 0 0 -55.980216915095298 -16.913819881404379 0 -16.913819881404379 -60.438344296035211 0 0 0 0 -76.388704845630855 -42.99132016853946 0 -42.99132016853946 -75.161535419650136 0 0 0 0 -39.0036918220394 -50.606397449992073 0 -50.606397449992073 -94.651423785959196 0 0 0 0 -87.199232626185733 -79.401910468011693 0 -79.401910468011693 -109.36546199478653 0 0 0 0 -11.146035130359461 -9.5877106586534353 0 -9.5877106586534353 -1.4007653990796385 0 0 0 0 -75.30567558943676 -59.929875342005744 0 -59.929875342005744 -120.02020191906558 0 0 0 0 -37.979518904030556 -3.7219767185979435 0 -3.7219767185979435 -5.1393141628693684 0 0 0 0 -9.5618228159033833 4.8508954585306654 0 4.8508954585306654 -3.9692549751829063 0 0 0 0 -114.98820487449848 -41.681895414433995 0 -41.681895414433995 -18.37244993594436 0 0 0 0 -130.22136461717309 -79.889066601358877 0 -79.889066601358877 -28.094105600916237 0 0 0 0 -217.35598306476459 -52.938525076096994 0 -52.938525076096994 10.385164229535576 0 0 0 0 -167.66127033532393 -42.831888902675871 0 -42.831888902675871 -79.811901954861241 0 0 0 0 -228.48818184442644 -114.61290302293776 0 -114.61290302293776 -36.102091206964474 0 0 0 0 -40.104714611270538 -8.2940867587648768 0 -8.2940867587648768 -2.8563209471994924 0 0 0 0 -46.19505825399574 -7.9904653866583999 0 -7.9904653866583999 -2.5694535490993076 0 0 0 0 -42.986665801239724 -4.2037648309051292 0 -4.2037648309051292 -8.6395204136646271 0 0 0 0 -20.929419756398218 7.8787736790135341 0 7.8787736790135341 6.1628048490035345 0 0 0 0 -31.780379202494089 7.6575139958634537 0 7.6575139958634537 16.843907122461882 0 0 0 0 -59.292464418671443 -51.413138261784425 0 -51.413138261784425 119.76848310711543 0 0 0 0 -36.193379841075512 0.33336989781469129 0 0.33336989781469129 6.9578123612573108 0 0 0 0 -47.192939222331916 -5.9520161800887763 0 -5.9520161800887763 -1.9391085284401015 0 0 0 0 -49.062431809885311 -7.8504174258932835 0 -7.8504174258932835 -2.536487269996087 0 0 0 0 -29.953613883994862 -1.2196941903342804 0 -1.2196941903342804 -3.3356583309701797 0 0 0 0 -50.501393674945575 -6.2626591528533027 0 -6.2626591528533027 -1.9681268534544074 0 0 0 0 -41.538678764627548 -0.66713227722243573 0 -0.66713227722243573 -13.683270811120565 0 0 0 0 -43.15781681772205 -8.3004300562785147 0 -8.3004300562785147 -5.5100578571259575 0 0 0 0 -43.086751863317659 -7.2331758671001092 0 -7.2331758671001092 -0.54557003414695004 0 0 0 0 -49.326151765779287 -8.063497693137947 0 -8.063497693137947 -0.53450334098374697 0 0 0 0 -49.702232198425918 0.17343006500368574 0 0.17343006500368574 -2.7880255774841771 0 0 0 0 -32.560929786317878 -3.8625893750600024 0 -3.8625893750600024 -7.8019465808947235 0 0 0 0 -25.771929148365544 -15.697696710783411 0 -15.697696710783411 6.6027235464976073 0 0 0 0 -43.614470391257782 -10.251662297786424 0 -10.251662297786424 -12.686641577760362 0 0 0 0 -44.032133671347125 5.2018539569225553 0 5.2018539569225553 -8.0195759822999229 0 0 0 0 -22.11488578693934 36.514939216259336 0 36.514939216259336 14.367348144519781 0 0 0 0 35.437454762995003 -6.0942362586522449 0 -6.0942362586522449 -27.954828761307795 0 0 0 0 -6.0222951287287287 2.8815200390941698 0 2.8815200390941698 -23.022656006075543 0 0 0 0 -3.0875686419198765 -4.0038380457994132 0 -4.0038380457994132 -6.2534758282281109 0 0 0 0 -23.096580367637294 -5.2805885211742698 0 -5.2805885211742698 -13.800876289488167 0 0 0 0 -32.194912488361297 4.2285596944290091 0 4.2285596944290091 -15.24752817574506 0 0 0 0 -37.906433828771483 13.187408622595143 0 13.187408622595143 -20.284816161887601 0 0 0 0 -10.046411471166767 -3.0749858405154935 0 -3.0749858405154935 -12.286889271313628 0 0 0 0 -95.192410221318823 25.396467809339129 0 25.396467809339129 -32.208268722632965 0 0 0 0 -143.99966144580321 -56.843316645353298 0 -56.843316645353298 70.005560124979638 0 0 0 0 -96.807757319937735 -3.862788275692477 0 -3.862788275692477 10.097893582615132 0 0 0 0 -103.33680723866496 21.597832751004262 0 21.597832751004262 -9.6721144965795247 0 0 0 0 -170.39918691861385 -36.386589251706937 0 -36.386589251706937 -14.534294765167488 0 0 0 0 -2.4151040011638543 -19.428786877824223 0 -19.428786877824223 -12.966637522398742 0 0 0 0 0.40131902630288607 -1.2230501541257492 0 -1.2230501541257492 -3.5215547286949342 0 0 0 0 -84.871812272336683 -39.68887357726544 0 -39.68887357726544 -3.6814088312167996 0 0 0 0 -123.66234487068868 -26.86242812892192 0 -26.86242812892192 17.29817340853424 0 0 0 0 -143.12637173378607 -53.268500189275983 0 -53.268500189275983 -6.8200832847705897 0 0 0 0 -110.60920097580311 37.723608711019153 0 37.723608711019153 38.969916520549077 0 0 0 0 -210.69742400337418 23.060389230819396 0 23.060389230819396 66.521087177255481 0 0 0 0 -119.33450657653918 4.6231610630029571 0 4.6231610630029571 12.820069727140416 0 0 0 0 -183.2648492759181 35.67791194531469 0 35.67791194531469 12.618107259444798 0 0 0 0 -111.89289171477716 33.119961953469591 0 33.119961953469591 5.5338966505309282 0 0 0 0 -133.92138816768951 1.4456256380874493 0 1.4456256380874493 16.578353370278364 0 0 0 0 -289.56027534449095 93.256437011318724 0 93.256437011318724 28.112928940138318 0 0 0 0 -22.319375899405799 7.1821405525274642 0 7.1821405525274642 4.2021225112901988 0 0 0 0 -206.3471459092907 24.494116252172944 0 24.494116252172944 65.872571103712062 0 0 0 0 -213.71951887721661 8.9824142756724541 0 8.9824142756724541 33.957933767975874 0 0 0 0 -208.80528828818569 -39.01389697952925 0 -39.01389697952925 22.440439611124475 0 0 0 0 -259.38591506610828 -1.3557854203381794 0 -1.3557854203381794 58.871338352131602 0 0 0 0 -308.98313204456645 -52.163825323364676 0 -52.163825323364676 20.746602654117794 0 0 0 0 -267.1180369476715 -15.843265641462267 0 -15.843265641462267 33.53798562937186 0 0 0 0 -273.8218732747423 77.149702029259686 0 77.149702029259686 58.779253082629566 0 0 0 0 -186.29443246001028 56.037096747422993 0 56.037096747422993 -5.8007079524056735 0 0 0 0 -396.98851634853054 140.03546188516009 0 140.03546188516009 -37.028039831940873 0 0 0 0 -351.61237670642367 69.696064775221885 0 69.696064775221885 -67.056498032775835 0 0 0 0 -277.68211328140751 0.25438054336029836 0 0.25438054336029836 16.761434358816814 0 0 0 0 -481.51061950406802 -57.70128613759357 0 -57.70128613759357 7.1493046480013618 0 0 0 0 -392.22119995643152 -5.9843305346796569 0 -5.9843305346796569 -81.726128100046481 0 0 0 0 -70.950600637683237 80.904029548970357 0 80.904029548970357 -72.126042691053726 0 0 0 0 4.4794244423318617 4.2344261043091578 0 4.2344261043091578 2.657172409433874 0 0 0 0 -62.338749658236338 71.390160318267363 0 71.390160318267363 -138.76715573207434 0 0 0 0 -77.975284408712469 245.44772645714215 0 245.44772645714215 -336.73000782536747 0 0 0 0 -163.31972308050172 124.93488058788489 0 124.93488058788489 -53.47163621874688 0 0 0 0 -85.942751607191894 44.717385080361737 0 44.717385080361737 18.834371256256873 0 0 0 0 -141.01279428474663 81.816426100868512 0 81.816426100868512 69.949861640554673 0 0 0 0 -14.976989184758622 68.759044955515563 0 68.759044955515563 -3.3110508129077516 0 0 0 0 -14.986687580458238 67.775944746881464 0 67.775944746881464 -79.189282527069963 0 0 0 0 -41.37909666963742 -3.2792410477744625 0 -3.2792410477744625 -35.273846137316468 0 0 0 0 -72.20217756195234 74.838591146797171 0 74.838591146797171 -7.3465056320828808 0 0 0 0 -71.026733628015791 -24.606436643846564 0 -24.606436643846564 104.92674513786619 0 0 0 0 -62.494249566053611 25.941332141198181 0 25.941332141198181 3.5832991051017622 0 0 0 0 -96.672498211592028 55.523981997368537 0 55.523981997368537 77.565253194750483 0 0 0 0 -165.74917522281612 3.3108513629995286 0 3.3108513629995286 104.35531090718769 0 0 0 0 -32.723742687354388 5.5917112766071568 0 5.5917112766071568 10.968028406757298 0 0 0 0 -58.251772160937357 -4.7228051772600939 0 -4.7228051772600939 4.4049329804044488 0 0 0 0 -132.71167009131682 20.434217598376108 0 20.434217598376108 0.094324658693949459 0 0 0 0 -221.2110335232228 -0.41530151217625644 0 -0.41530151217625644 1.5634090089824895 0 0 0 0 -67.869319526280378 60.046698732646519 0 60.046698732646519 -39.950315401063563 0 0 0 0 -258.82337763020769 63.55062763225942 0 63.55062763225942 82.194452096619898 0 0 0 0 -247.38647289605433 -123.77547664553458 0 -123.77547664553458 -95.122508139990828 0 0 0 0 -3.8867610711993841 7.8057044741552257 0 7.8057044741552257 -10.926965779720357 0 0 0 0 388.84037470861767 180.23565358521887 0 180.23565358521887 -116.89067505291683 0 0 0 0 -183.94004903810492 -4.5222801848713061 0 -4.5222801848713061 -74.874397670425537 0 0 0 0 168.66180249067111 -48.087923921972333 0 -48.087923921972333 83.025610636021725 0 0 0 0 472.5976305853701 -53.925755434681093 0 -53.925755434681093 -47.998930042842858 0 0 0 0 372.40973195534389 51.189194530588225 0 51.189194530588225 -253.75501257638194 0 0 0 0 151.07068194813473 -226.7275593814511 0 -226.7275593814511 -273.43417796657081 0 0 0 0 -78.987375203836564 -5.7723657598317004 0 -5.7723657598317004 -341.56042905349841 0 0 0 0 -140.655538955765 -245.14649961946427 0 -245.14649961946427 66.962859095323438 0 0 0 0 -154.23555029024919 -271.15971412369646 0 -271.15971412369646 -194.76966377739643 0 0 0 0 83.183225296354067 490.59697824993935 0 490.59697824993935 -59.882306032240166 0 0 0 0 -201.29470760481672 -62.207618368816384 0 -62.207618368816384 1.1017292523283686 0 0 0 0 -158.36036906173467 -56.977997396561022 0 -56.977997396561022 -18.423420711681274 0 0 0 0 -4490.6276189675973 2059.5537008092961 0 2059.5537008092961 123.46697534470505 0 0 0 0 -3168.4358842200072 1411.5847126709673 0 1411.5847126709673 372.86749303770802 0 0 0 0 -3163.5099876038475 2443.1798887052482 0 2443.1798887052482 -1009.1759326635253 0 0 0 0 -1284.8629961425795 1092.5995791072824 0 1092.5995791072824 -301.31330199070061 0 0 0 0 -3091.4342282829975 1496.0287028540424 0 1496.0287028540424 -146.86657525680062 0 0 0 0 -95.256347916410959 -13.186272960747829 0 -13.186272960747829 -343.37287552999226 0 0 0 0 -867.24767193938715 550.8396617946471 0 550.8396617946471 -413.12632767206992 0 0 0 0 -1316.1537393328317 930.70783543170683 0 930.70783543170683 -771.82762194413056 0 0 0 0 -1629.8284393486774 230.77622597675793 0 230.77622597675793 151.85681626636347 0 0 0 0 -3291.1022284703886 713.65098170362728 0 713.65098170362728 210.93934424331883 0 0 0 0 -4500.337090103425 1133.5675692066131 0 1133.5675692066131 620.01449460261836 0 0 0 0 -3448.8952643247821 461.04378208369604 0 461.04378208369604 82.614402845851913 0 0 0 0 -3497.7470020944256 115.21833890606217 0 115.21833890606217 311.57045956051314 0 0 0 0 -13.851485983009766 6.2227886026224635 0 6.2227886026224635 -3.8751619598744558 0 0 0 0 -803.93362520098071 -493.78669788256525 0 -493.78669788256525 177.24019042090993 0 0 0 0 -2667.3139060481071 703.89941755450468 0 703.89941755450468 -88.02622457364464 0 0 0 0 -1709.4022624342979 -356.72914381240969 0 -356.72914381240969 -23.265076759324529 0 0 0 0 -1469.6759083285069 628.34652553217836 0 628.34652553217836 -299.78323176929803 0 0 0 0 -3419.8669777145678 -120.27420295161822 0 -120.27420295161822 154.00983634364104 0 0 0 0 -4498.5868466269148 -306.11760054529412 0 -306.11760054529412 758.74150614285645 0 0 0 0 -62.226016463765063 21.458246323658049 0 21.458246323658049 5.1067493442918837 0 0 0 0 -112.06998053449024 10.069346894395949 0 10.069346894395949 6.4763960780570642 0 0 0 0 -18.471263153688334 9.5836334503207734 0 9.5836334503207734 -13.245153409794863 0 0 0 0 -115.16452098717855 -24.535196692168711 0 -24.535196692168711 -9.8315627761812721 0 0 0 0 -82.554618855117766 -1.9650893684611503 0 -1.9650893684611503 0.27146208862698185 0 0 0 0 -42.881065808967847 33.895008118719048 0 33.895008118719048 -12.191395943241751 0 0 0 0 -93.233623513993734 29.261598351025782 0 29.261598351025782 -22.321703660486946 0 0 0 0 -156.82277600302041 -4.0248250940508115 0 -4.0248250940508115 26.924902757193195 0 0 0 0 -15.35126221750896 -3.6193919950618891 0 -3.6193919950618891 8.8654978111694689 0 0 0 0 -129.61986469570547 69.597933706040749 0 69.597933706040749 -5.5298316385560611 0 0 0 0 -39.408436407000409 40.540707789837597 0 40.540707789837597 -29.872573562419234 0 0 0 0 -2.485282972559034 9.0971757621618821 0 9.0971757621618821 1.6442516007918178 0 0 0 0 -37.474216416776471 25.17617285745655 0 25.17617285745655 -27.677552447420339 0 0 0 0 -30.103116375772515 23.297064957104794 0 23.297064957104794 -100.75978546853639 0 0 0 0 -10.568338586550482 0.74028815010506577 0 0.74028815010506577 1.3305002412103075 0 0 0 0 -72.19242652705725 18.905615842627412 0 18.905615842627412 62.708721309581051 0 0 0 0 -58.838493687202572 14.951305923053951 0 14.951305923053951 51.618753512140472 0 0 0 0 -74.754577781168337 12.887239559086538 0 12.887239559086538 51.642595158266886 0 0 0 0 -77.798087520985973 -43.706653415498522 0 -43.706653415498522 85.419240184921364 0 0 0 0 -116.89557041734724 -15.160389114399464 0 -15.160389114399464 76.130980430857562 0 0 0 0 -185.36030445534925 420.2640772167706 0 420.2640772167706 576.93168716414857 0 0 0 0 89.455079584986379 323.86692163108535 0 323.86692163108535 372.94997735896868 0 0 0 0 -4.0209913950378393 0.97693441633985501 0 0.97693441633985501 0.359079233365176 0 0 0 0 -103.66558649991202 167.85193966919655 0 167.85193966919655 715.87590216171543 0 0 0 0 37.084848025078827 -45.113222881282582 0 -45.113222881282582 398.03746786366628 0 0 0 0 -3542.637997420974 -589.89997678637383 0 -589.89997678637383 552.99612634263963 0 0 0 0 -3413.6780043896433 -1146.3440886085343 0 -1146.3440886085343 254.82843210341554 0 0 0 0 -209.67342792182535 666.04517031027035 0 666.04517031027035 14.805294060672168 0 0 0 0 -29.047805680037424 29.842571749918537 0 29.842571749918537 -11.158599600611417 0 0 0 0 129.74841126349202 -113.56076777083035 0 -113.56076777083035 -39.429624615730063 0 0 0 0 -3400.5983268247255 -925.44527434837357 0 -925.44527434837357 25.598291647255991 0 0 0 0 -3541.9225998949937 -1591.4036765133915 0 -1591.4036765133915 -687.9684756402354 0 0 0 0 -4499.1807892753113 -1152.8353103251918 0 -1152.8353103251918 330.46501175697261 0 0 0 0 -4499.1531716182108 -1956.7231730657841 0 -1956.7231730657841 -746.97192462195619 0 0 0 0 -13.891727614319912 10.382125408412925 0 10.382125408412925 -5.6125223000721887 0 0 0 0 467.1492743771887 0.50730606954175528 0 0.50730606954175528 381.08286349474122 0 0 0 0 -391.16070905212837 324.91590553657488 0 324.91590553657488 534.65283910864559 0 0 0 0 -473.33132324146936 317.19763728962914 0 317.19763728962914 921.17016733781907 0 0 0 0 -1298.2111164330854 432.73460769855029 0 432.73460769855029 25.998995168713463 0 0 0 0 -513.75918142275623 632.38786907364101 0 632.38786907364101 -16.345940050671288 0 0 0 0 878.09454556623132 1020.3316182279693 0 1020.3316182279693 -515.21740004041499 0 0 0 0 -309.22652118343285 1545.2039779501265 0 1545.2039779501265 -744.77022956674023 0 0 0 0 -50.014319725531095 98.331831329225793 0 98.331831329225793 253.11560617251871 0 0 0 0 -276.53073164260832 -177.6689378471456 0 -177.6689378471456 78.25839599287292 0 0 0 0 -166.93683543467705 185.41078480013266 0 185.41078480013266 298.33237532860039 0 0 0 0 -334.41697574375576 160.6059426274569 0 160.6059426274569 337.64273094576868 0 0 0 0 -463.80812086928449 -111.74626655638086 0 -111.74626655638086 -92.095960188298477 0 0 0 0 -162.32632457146246 -72.551721028157658 0 -72.551721028157658 -182.00542312063578 0 0 0 0 -227.2605725448775 -178.8891183621746 0 -178.8891183621746 -233.99400563962718 0 0 0 0 -227.61829107260473 -254.06196697410627 0 -254.06196697410627 -60.422259480198818 0 0 0 0 -155.19176106680243 -78.340259260614857 0 -78.340259260614857 45.268103352402136 0 0 0 0 -168.38860372377894 -169.27022160121902 0 -169.27022160121902 227.84198117391952 0 0 0 0 -277.28673850602354 -175.53658043483404 0 -175.53658043483404 -98.480233307973094 0 0 0 0 -204.00552310249623 -255.57550066863143 0 -255.57550066863143 -11.064668684231037 0 0 0 0 -240.81829380140698 -228.17295895668599 0 -228.17295895668599 -56.353067879690116 0 0 0 0 -305.60017866295311 -283.28040533379868 0 -283.28040533379868 -120.33550934400114 0 0 0 0 -574.13899327579566 -94.163870907950241 0 -94.163870907950241 -206.56145039259334 0 0 0 0 36.549683451914461 27.064426755167005 0 27.064426755167005 -195.88233866139308 0 0 0 0 -38.405898244200216 -9.0432028159170841 0 -9.0432028159170841 0.83241485669822168 0 0 0 0 -1.7526702475177132 1.1219963637685595 0 1.1219963637685595 -1.1685576449896411 0 0 0 0 -599.61959172028401 -426.87118684028201 0 -426.87118684028201 -65.824698965799143 0 0 0 0 4.1931289734784514 38.743682852109259 0 38.743682852109259 -12.352983446013013 0 0 0 0 -41.160617903893581 5.2781644398266963 0 5.2781644398266963 7.3720453655230358 0 0 0 0 52.438139946032607 40.651778385458556 0 40.651778385458556 -15.278259385170713 0 0 0 0 32.935330619477099 -13.925437026073155 0 -13.925437026073155 3.8817573324749901 0 0 0 0 15.066490180077381 -49.606829143460345 0 -49.606829143460345 -141.91902388116711 0 0 0 0 -2.6695497413916485 4.8908710474098314 0 4.8908710474098314 -0.58144928753765579 0 0 0 0 -58.406543831826639 -223.84200458408969 0 -223.84200458408969 81.891662441374592 0 0 0 0 -48.040399519901257 16.931683395194796 0 16.931683395194796 77.752384299952155 0 0 0 0 -454.03948985355964 -266.02906156557071 0 -266.02906156557071 4.6283453001315138 0 0 0 0 -425.09393087189528 -362.75195608918079 0 -362.75195608918079 -196.39423999163409 0 0 0 0 -395.99238411612168 -367.30485719538547 0 -367.30485719538547 -262.99370889877355 0 0 0 0 -454.2185338907293 -201.6039055980782 0 -201.6039055980782 -252.82994090762045 0 0 0 0 -460.91944143701403 -259.24578704651572 0 -259.24578704651572 43.075774072444347 0 0 0 0 -533.47270955955901 -160.47452067400513 0 -160.47452067400513 10.788932879474942 0 0 0 0 -399.53401567352557 -250.67044842964606 0 -250.67044842964606 95.283144717921459 0 0 0 0 -383.35423611579608 -163.90809668692683 0 -163.90809668692683 121.33101848457227 0 0 0 0 -477.7518989454984 -154.72257999331077 0 -154.72257999331077 -19.669031256883954 0 0 0 0 -527.02506940023159 -198.56306816438723 0 -198.56306816438723 139.86345979695852 0 0 0 0 -720.27911059274629 -22.208055324025281 0 -22.208055324025281 152.0152293393765 0 0 0 0 -529.71509735846485 -183.17474335264961 0 -183.17474335264961 118.55417837383175 0 0 0 0 -204.7743517786148 -153.30073834470693 0 -153.30073834470693 72.630084790237561 0 0 0 0 -308.48249970359029 -300.39501756476557 0 -300.39501756476557 163.44189951160979 0 0 0 0 -529.54954445672411 -181.19332402928467 0 -181.19332402928467 133.33907598654787 0 0 0 0 6.2745052650265052 50.37835412894897 0 50.37835412894897 17.261842648445509 0 0 0 0 -534.91393165905902 -108.7721505880188 0 -108.7721505880188 14.661831612260357 0 0 0 0 -5.013718399523583 4.3283225874740907 0 4.3283225874740907 -2.1572633093914835 0 0 0 0 -248.34303334342621 -180.97509445209511 0 -180.97509445209511 -161.79877478238177 0 0 0 0 -501.34283520575264 -96.759329288226581 0 -96.759329288226581 -3.6468142480355255 0 0 0 0 -544.33436308101227 21.669826233654987 0 21.669826233654987 -222.41434325306091 0 0 0 0 -591.36356035825884 -168.66058802666998 0 -168.66058802666998 -102.09140670371517 0 0 0 0 -160.36603440061299 -326.86078285752421 0 -326.86078285752421 287.3643532315723 0 0 0 0 -616.18644369771937 -196.16973105373449 0 -196.16973105373449 284.99722537846833 0 0 0 0 -864.68291420694732 210.68875879412434 0 210.68875879412434 -103.45721463744667 0 0 0 0 -441.02196874441142 374.05101923199254 0 374.05101923199254 -307.74509227832868 0 0 0 0 -4.0483768341453583 0.59423702209898366 0 0.59423702209898366 1.7609605080116921 0 0 0 0 0.1715795759438663 0.63732138166409058 0 0.63732138166409058 1.3496537595382252 0 0 0 0 -130.52019701199606 115.55817293995437 0 115.55817293995437 532.22605167150084 0 0 0 0 -12.541231163404859 -0.51219538267487508 0 -0.51219538267487508 2.5410641602365471 0 0 0 0 63.590400961136766 32.870864447365989 0 32.870864447365989 194.8338664392254 0 0 0 0 -2.0507921051903395 34.564808203187795 0 34.564808203187795 17.716934347881761 0 0 0 0 9.2016968890311546 -9.7328945010663119 0 -9.7328945010663119 14.66315641861047 0 0 0 0 -111.2360943059648 -99.122190436509982 0 -99.122190436509982 360.05221952921875 0 0 0 0 80.354562025768246 99.316257347491273 0 99.316257347491273 294.1198582919742 0 0 0 0 -283.52811235009722 -150.40045950963872 0 -150.40045950963872 163.32815903855453 0 0 0 0 -77.118802885102923 -52.035867521600494 0 -52.035867521600494 121.68238609379375 0 0 0 0 -243.9392592390177 -144.86101452707646 0 -144.86101452707646 246.51267489636848 0 0 0 0 -495.81681083138392 432.51596049184172 0 432.51596049184172 -758.89478884834989 0 0 0 0 -556.12712544249734 -112.33379533950847 0 -112.33379533950847 -337.07504558811706 0 0 0 0 -297.08027643857349 173.22109191127674 0 173.22109191127674 -152.42844768558643 0 0 0 0 -735.72287034920737 297.70012067197968 0 297.70012067197968 -166.8946993868376 0 0 0 0 -415.92437458122731 310.37027599341673 0 310.37027599341673 -588.05006900794069 0 0 0 0 -777.49702816176432 152.162996765137 0 152.162996765137 61.412472081206943 0 0 0 0 -322.71805055958976 -63.29007756503961 0 -63.29007756503961 -27.487473076227616 0 0 0 0 -207.04876929961029 -38.966756537847687 0 -38.966756537847687 243.7383962475069 0 0 0 0 -334.35163843457849 -46.466967244448824 0 -46.466967244448824 518.62682544695417 0 0 0 0 -520.29629716795534 -97.899427441159787 0 -97.899427441159787 241.36500701327168 0 0 0 0 -301.41919165782747 -44.522628895210801 0 -44.522628895210801 356.52817197579861 0 0 0 0 42.103505624516401 370.80285092184567 0 370.80285092184567 461.91355875415684 0 0 0 0 -638.70925500254816 6.5662005050107837 0 6.5662005050107837 386.26409900334329 0 0 0 0 -376.10137091217621 51.93527587796234 0 51.93527587796234 -100.78094237254118 0 0 0 0 830.14710026283865 732.49074984480467 0 732.49074984480467 599.16371040598096 0 0 0 0 -121.28480018139817 485.72162465741349 0 485.72162465741349 536.895207827989 0 0 0 0 880.1749927497367 504.94510933501442 0 504.94510933501442 1381.7900614318205 0 0 0 0 -16.728994740363959 14.923662402397206 0 14.923662402397206 -6.4233522243744261 0 0 0 0 -628.27409850033291 222.10707625554278 0 222.10707625554278 1151.251516947139 0 0 0 0 -4.0694850391657447 4.9045380065882398 0 4.9045380065882398 -31.065430721113437 0 0 0 0 -3784.7563993104341 1961.7069963015274 0 1961.7069963015274 -453.14238666270467 0 0 0 0 -1811.9834340165435 -173.37261742976443 0 -173.37261742976443 152.01152780491611 0 0 0 0 -2.1699562727800341 11.22516809854816 0 11.22516809854816 -13.477788037962164 0 0 0 0 -1811.9834340165689 -173.37261742976989 0 -173.37261742976989 152.0115278049343 0 0 0 0 -2953.4672806980379 1374.886489510116 0 1374.886489510116 -1573.8295636629955 0 0 0 0 -2137.0112268963785 1997.3917893047619 0 1997.3917893047619 -978.39569913910236 0 0 0 0 -2104.011479787514 1994.8332506077277 0 1994.8332506077277 -1133.8257572127986 0 0 0 0 1285.675998044444 1194.24760866421 0 1194.24760866421 -490.88369200911984 0 0 0 0 -1128.4879209778155 726.83711897519242 0 726.83711897519242 116.99850572131254 0 0 0 0 -2304.6223045516235 1861.7613872920847 0 1861.7613872920847 -359.50698568868393 0 0 0 0 -2337.855224754443 1702.02604298816 0 1702.02604298816 -991.6179752441476 0 0 0 0 -400.22725789838296 1043.8524146821728 0 1043.8524146821728 -532.19311567132536 0 0 0 0 -1847.6825282002028 3330.1411167048609 0 3330.1411167048609 -1379.2336056104032 0 0 0 0 -3478.3075429031778 2758.0990022293936 0 2758.0990022293936 -187.90868189854518 0 0 0 0 -2244.2535326218785 2479.0254902270681 0 2479.0254902270681 -1316.9587948549788 0 0 0 0 -1849.5545734217085 -178.41140687083862 0 -178.41140687083862 1333.4545008711175 0 0 0 0 1710.3546978995582 1963.4862928379043 0 1963.4862928379043 -2369.6737708319561 0 0 0 0 1392.9943451256468 -993.52617491493697 0 -993.52617491493697 -318.39961809221859 0 0 0 0 1128.0643156522201 324.15434529724735 0 324.15434529724735 -454.72661608175986 0 0 0 0 -1431.9627614101046 813.80236766102644 0 813.80236766102644 -472.1893828826561 0 0 0 0 378.23357304395176 2233.3113477730449 0 2233.3113477730449 -1624.2204965434994 0 0 0 0 -416.62084604745178 -3.772108994701739 0 -3.772108994701739 -1487.6306839394856 0 0 0 0 438.27259061842778 491.07346622438399 0 491.07346622438399 -276.42135689117458 0 0 0 0 -15.691953744752489 -1.6658267907329076 0 -1.6658267907329076 -16.0971502585294 0 0 0 0 -1549.7170596966025 1264.4896842053954 0 1264.4896842053954 -1372.1245106841902 0 0 0 0 -2624.9334641507739 452.54861215739584 0 452.54861215739584 -285.43797064390401 0 0 0 0 -77.619466273584237 25.170630049316944 0 25.170630049316944 54.767867993723016 0 0 0 0 -228.64000735119953 -331.5572748716379 0 -331.5572748716379 567.32625596477465 0 0 0 0 -977.8177614718079 -47.068948534964818 0 -47.068948534964818 480.20709484313033 0 0 0 0 208.70640320483835 -419.92639297088135 0 -419.92639297088135 328.47758365920072 0 0 0 0 -165.4895662531344 936.79693842024972 0 936.79693842024972 -583.53456150173224 0 0 0 0 -131.48915899853455 14.977158478359343 0 14.977158478359343 122.75121264067002 0 0 0 0 -24.55666554976051 54.469014880303803 0 54.469014880303803 75.782288530650476 0 0 0 0 -56.086724235853445 33.245940333256698 0 33.245940333256698 114.36213932310488 0 0 0 0 -1272.3050468796137 -602.88700651915497 0 -602.88700651915497 573.98308032402019 0 0 0 0 -968.45733205912256 103.95423849473536 0 103.95423849473536 183.02410540146957 0 0 0 0 -96.20818314397593 -33.228091348591526 0 -33.228091348591526 3.3730706642550281 0 0 0 0 -1125.2372925816453 -3.0082986947509198 0 -3.0082986947509198 -364.96936259763129 0 0 0 0 -1758.2548203312836 85.957131640131593 0 85.957131640131593 -376.8780519571792 0 0 0 0 -1008.1907542430636 943.75993265039688 0 943.75993265039688 -1198.4685086506688 0 0 0 0 -910.54173112626086 477.21300086905671 0 477.21300086905671 -653.20992322502389 0 0 0 0 -730.18332839863433 607.95008610478612 0 607.95008610478612 -764.53303588524182 0 0 0 0 -410.28777494470705 231.1909255178366 0 231.1909255178366 -767.10070922345039 0 0 0 0 -875.13804839187651 471.56047283925795 0 471.56047283925795 -666.03935029818945 0 0 0 0 -1329.5104715815214 831.65285613495143 0 831.65285613495143 -787.08500827922126 0 0 0 0 -482.85733742380398 452.00821257934047 0 452.00821257934047 -854.05470300080538 0 0 0 0 -778.91238147416152 503.0020633950943 0 503.0020633950943 -956.88526915501507 0 0 0 0 -793.01548753265524 460.91924583864341 0 460.91924583864341 -656.39982089607838 0 0 0 0 -446.71345540507173 596.11713800120822 0 596.11713800120822 -567.99321836100967 0 0 0 0 -342.20614198879048 696.26940741558656 0 696.26940741558656 -828.98439486716552 0 0 0 0 -363.90149607414241 810.68243077939383 0 810.68243077939383 -484.77634826346912 0 0 0 0 -17.789622606845711 24.21552722568569 0 24.21552722568569 -32.624577714215739 0 0 0 0 -4.1349392623596941 1378.0298066089485 0 1378.0298066089485 -627.72028712429085 0 0 0 0 2058.0417206998973 1061.6008178693482 0 1061.6008178693482 -1443.5940435591874 0 0 0 0 -2244.9280166953977 -673.34956464383913 0 -673.34956464383913 252.55463377974957 0 0 0 0 3.7050282552081626 741.42143691154251 0 741.42143691154251 -825.90339497923765 0 0 0 0 500.73442028735008 631.76026248871131 0 631.76026248871131 -1019.5328885306826 0 0 0 0 269.09857226580789 236.08646843961833 0 236.08646843961833 -850.37688604857249 0 0 0 0 -1924.2367702537013 216.26115358034986 0 216.26115358034986 -199.61328990640141 0 0 0 0 -2701.6735359656304 105.85320925549433 0 105.85320925549433 1097.2168182230989 0 0 0 0 1.7468093801787177 -1.0784055095448934 0 -1.0784055095448934 0.94951937159320643 0 0 0 0 -1476.5883823034237 4190.258894079433 0 4190.258894079433 -1726.4369194867315 0 0 0 0 -44.968961130580283 -341.09383193896156 0 -341.09383193896156 -97.473064051864412 0 0 0 0 -174.0285725454014 177.18529859075988 0 177.18529859075988 33.826640282353765 0 0 0 0 -334.44867998795235 143.82276360040032 0 143.82276360040032 76.268298680728549 0 0 0 0 -3.257329570595175 73.499209128525763 0 73.499209128525763 -53.603625669359644 0 0 0 0 -3.9980436778909052 20.38700550748365 0 20.38700550748365 -31.858322624790112 0 0 0 0 212.36004611053067 -15.974754818508274 0 -15.974754818508274 -131.24379440162966 0 0 0 0 -203.72766522451275 -35.090149137308345 0 -35.090149137308345 36.016532381156139 0 0 0 0 13.048851789573206 -17.766953622740061 0 -17.766953622740061 12.855206857200233 0 0 0 0 1646.8469237667887 -183.52783309988399 0 -183.52783309988399 -212.92651205279071 0 0 0 0 -1849.9480378384178 645.53016004147594 0 645.53016004147594 233.10513998361637 0 0 0 0 -504.28035334404558 -125.87474234056572 0 -125.87474234056572 274.36942271524833 0 0 0 0 -1511.6775706642948 1368.5077261528322 0 1368.5077261528322 -626.59313549045874 0 0 0 0 -2590.1490943662502 950.15692617542641 0 950.15692617542641 280.29697015945021 0 0 0 0 -1687.7349832574073 -2558.0866876830432 0 -2558.0866876830432 715.52602304866309 0 0 0 0 -674.04981901745487 1.7800233701691468 0 1.7800233701691468 159.42447392696886 0 0 0 0 -377.42275715130381 111.84694909166683 0 111.84694909166683 59.830423177602825 0 0 0 0 -378.47848881070968 48.421703923502719 0 48.421703923502719 45.267912674695253 0 0 0 0 -277.0023541215196 10.931691895511904 0 10.931691895511904 45.808552825088555 0 0 0 0 -540.2632990351849 19.358207848903476 0 19.358207848903476 105.04507385690886 0 0 0 0 -307.47799766185926 64.618119990040668 0 64.618119990040668 51.624465798119559 0 0 0 0 -316.42114014868275 6.8156282785184885 0 6.8156282785184885 64.887836705127484 0 0 0 0 -605.43410088536621 9.9854238206814898 0 9.9854238206814898 161.49897208544644 0 0 0 0 -501.07995158187987 -63.695527925338638 0 -63.695527925338638 109.9657372367883 0 0 0 0 -588.24980620747374 24.962577821416289 0 24.962577821416289 122.32138299385429 0 0 0 0 -538.84428139202532 -29.676923264146865 0 -29.676923264146865 91.416020569968168 0 0 0 0 -786.86422663520534 -7.5660233176867564 0 -7.5660233176867564 389.88723034820214 0 0 0 0 -690.84439487248892 -294.55755784756525 0 -294.55755784756525 56.381052649558114 0 0 0 0 -338.91847275754844 -68.097813935588647 0 -68.097813935588647 104.98928970947645 0 0 0 0 -287.61582366729999 -135.58476423475815 0 -135.58476423475815 15.819063085698872 0 0 0 0 -142.04571315326029 -33.628262310203652 0 -33.628262310203652 18.331118994042072 0 0 0 0 -20.593778418788418 4.6954732003655124 0 4.6954732003655124 46.146343424512779 0 0 0 0 -192.54999207044602 -161.9709069903522 0 -161.9709069903522 -42.451415880224957 0 0 0 0 -180.90579805480229 -195.59800554998355 0 -195.59800554998355 48.290496684327081 0 0 0 0 -808.04881495379959 -730.86434161070429 0 -730.86434161070429 -339.34803327077697 0 0 0 0 -314.73764265132195 -247.61912372636471 0 -247.61912372636471 136.23101387716633 0 0 0 0 -389.14032457927897 -126.27811357761539 0 -126.27811357761539 59.415091995855619 0 0 0 0 -255.08391709463831 -416.09143253696539 0 -416.09143253696539 44.738562241460386 0 0 0 0 3.5570078757167387 -29.601203738414029 0 -29.601203738414029 22.483374269114435 0 0 0 0 -108.83444169553695 -48.072874390235484 0 -48.072874390235484 16.019034341279621 0 0 0 0 -13.555486192897007 10.807934527915478 0 10.807934527915478 21.340801265214363 0 0 0 0 -164.76821445321548 9.5484569074619685 0 9.5484569074619685 24.406786553047709 0 0 0 0 172.43405193778744 -276.62766118981017 0 -276.62766118981017 -34.864643581389828 0 0 0 0 -88.346608985681087 0.77194333472652943 0 0.77194333472652943 50.461898866544288 0 0 0 0 -195.98658393362712 -126.17945614100245 0 -126.17945614100245 121.27873102233207 0 0 0 0 -223.01555415238545 -59.862630132603954 0 -59.862630132603954 202.99026934818539 0 0 0 0 -157.20644617127982 -152.37025630192875 0 -152.37025630192875 124.94917016882391 0 0 0 0 -227.436181302146 1.3568966606053436 0 1.3568966606053436 307.43784693509224 0 0 0 0 -149.23498248727992 55.277591593694524 0 55.277591593694524 94.852131859763176 0 0 0 0 -30.466351355775259 11.105339223180636 0 11.105339223180636 454.35383628105046 0 0 0 0 -53.128666903736303 76.774009391025174 0 76.774009391025174 274.58084373840393 0 0 0 0 -171.96955476616859 -8.442339905515837 0 -8.442339905515837 265.68660403497051 0 0 0 0 -137.29907382848614 239.22292686732908 0 239.22292686732908 230.91959240574215 0 0 0 0 -14.242138982457519 12.073035088452457 0 12.073035088452457 -7.939413122735715 0 0 0 0 -156.38413707033033 75.616806595688104 0 75.616806595688104 92.831466376615936 0 0 0 0 -197.9715907824575 -25.56723349243839 0 -25.56723349243839 112.73208652550238 0 0 0 0 -196.50192683245405 20.575476187816093 0 20.575476187816093 235.79352811207355 0 0 0 0 -212.56729909337082 -73.173920029174042 0 -73.173920029174042 217.94932342112588 0 0 0 0 -28.890778683712558 -21.682429582694652 0 -21.682429582694652 72.884014216940443 0 0 0 0 -96.905258988081187 30.339754662516498 0 30.339754662516498 41.13401365144091 0 0 0 0 -63.652892578108833 8.4828202829559451 0 8.4828202829559451 49.102051661956196 0 0 0 0 -219.56856475103268 -63.693520298060321 0 -63.693520298060321 178.07804045116791 0 0 0 0 -102.01956780010642 -3.7310251445639437 0 -3.7310251445639437 72.406954093934473 0 0 0 0 -97.075317530645407 2.5884860707537882 0 2.5884860707537882 67.441551717383845 0 0 0 0 -92.753348060621647 5.1540090824564686 0 5.1540090824564686 53.476588108780561 0 0 0 0 -123.12581152124631 -8.6626784809314259 0 -8.6626784809314259 16.78103303146456 0 0 0 0 -95.71854272402561 77.071924255263184 0 77.071924255263184 -48.952359055887428 0 0 0 0 -112.3220492174068 23.176916087114698 0 23.176916087114698 37.489566995596007 0 0 0 0 -75.594037439642932 23.990582475701185 0 23.990582475701185 16.289146867619955 0 0 0 0 -48.571099655440776 9.8045773432386341 0 9.8045773432386341 41.353598276145931 0 0 0 0 -75.818671032016425 11.390359492577133 0 11.390359492577133 21.71149696818857 0 0 0 0 -25.850442670867778 42.875008755945601 0 42.875008755945601 -13.114012103778805 0 0 0 0 -127.07924846897345 18.712134436561541 0 18.712134436561541 30.452619810941243 0 0 0 0 -90.798172027076362 41.834084191959846 0 41.834084191959846 10.468119028984802 0 0 0 0 -77.886241375073183 24.547981781651266 0 24.547981781651266 43.271656298115701 0 0 0 0 -84.672006145352498 42.493434911506483 0 42.493434911506483 7.8657184786497965 0 0 0 0 -62.996665962053569 44.979654960502629 0 44.979654960502629 11.616494286884738 0 0 0 0 -154.94090850272138 14.11895083148309 0 14.11895083148309 20.21741140045647 0 0 0 0 -75.891991844560835 15.782186955104407 0 15.782186955104407 30.802633511113527 0 0 0 0 -92.994322712773283 13.195880705314266 0 13.195880705314266 37.51306499659222 0 0 0 0 -194.406370584461 33.279428197894049 0 33.279428197894049 20.3941407435359 0 0 0 0 -87.167912000477116 13.260078929798993 0 13.260078929798993 20.129177123772369 0 0 0 0 -53.004530281673411 30.551651575946863 0 30.551651575946863 -15.538930813824862 0 0 0 0 -68.358201379438157 25.530420160328582 0 25.530420160328582 11.065025616967844 0 0 0 0 -78.059808699512814 46.565207016871952 0 46.565207016871952 -7.1611362496186572 0 0 0 0 -49.400830353304627 26.338894784661534 0 26.338894784661534 9.1132933759872685 0 0 0 0 -66.335749987101877 -14.876793653479275 0 -14.876793653479275 32.63738357823226 0 0 0 0 -6.439556057460095 1.6065022312114365 0 1.6065022312114365 6.5251084088921925 0 0 0 0 -85.096492592303548 -53.176883435629634 0 -53.176883435629634 -327.05053701139252 0 0 0 0 82.978959406726062 209.88438018545889 0 209.88438018545889 -13.311359333526354 0 0 0 0 -1153.8262846969701 632.46110870411303 0 632.46110870411303 1025.5612894727565 0 0 0 0 -848.70323797415767 1071.8817231567355 0 1071.8817231567355 -768.07024544058004 0 0 0 0 -69.962929778551768 -13.044725884823961 0 -13.044725884823961 3.9192212509145778 0 0 0 0 -101.55469509973773 -31.090289261146211 0 -31.090289261146211 3.0307718187335695 0 0 0 0 -66.359667019377611 8.1060942547581618 0 8.1060942547581618 14.128912662957433 0 0 0 0 -14.502374842563739 3.2690804884263827 0 3.2690804884263827 12.365084615288371 0 0 0 0 -75.086384625930805 35.060122540526436 0 35.060122540526436 7.9007417698254585 0 0 0 0 -60.004456320388869 18.804318565673761 0 18.804318565673761 23.574553051453858 0 0 0 0 -92.966088619603852 29.489770624313444 0 29.489770624313444 9.0054128139512919 0 0 0 0 -208.37863544607535 66.142546793926158 0 66.142546793926158 25.018977517647727 0 0 0 0 -417.22738160635345 361.46655375963746 0 361.46655375963746 151.57940853789205 0 0 0 0 -192.66126173041994 56.356524788385286 0 56.356524788385286 -13.498070597333935 0 0 0 0 -58.39582559027096 21.016543153971615 0 21.016543153971615 21.414429468699467 0 0 0 0 -366.08600651702727 468.57527762132668 0 468.57527762132668 -107.8794041866222 0 0 0 0 -1055.3153592708913 551.45951572579816 0 551.45951572579816 -275.48178725608886 0 0 0 0 -1106.6683354348934 588.02143563076606 0 588.02143563076606 -110.00908618140056 0 0 0 0 72.935766602342483 95.643599429509777 0 95.643599429509777 -459.92773650848176 0 0 0 0 -17.128732369454454 -2.3383868757531729 0 -2.3383868757531729 -0.27529968431061747 0 0 0 0 -290.22719560509859 -369.24706076300572 0 -369.24706076300572 7.2698024795899983 0 0 0 0 -417.64839918669168 -490.86427074657854 0 -490.86427074657854 532.14707273140084 0 0 0 0 -173.88831760054035 -49.863651739183759 0 -49.863651739183759 86.252296485811016 0 0 0 0 -344.82050375040853 40.766866454302544 0 40.766866454302544 -232.46222898167252 0 0 0 0 -104.26587902898609 104.40140982184312 0 104.40140982184312 -256.98977850228039 0 0 0 0 -21.145966636834537 -20.952711664540431 0 -20.952711664540431 26.402685611482575 0 0 0 0 -540.6598009318368 -291.14914203304943 0 -291.14914203304943 70.67774342309167 0 0 0 0 -244.42400985244967 -72.223361440061126 0 -72.223361440061126 428.43996133880137 0 0 0 0 -137.65177215175663 14.949612343909394 0 14.949612343909394 68.069450565431907 0 0 0 0 -311.79710883497819 146.9024178600921 0 146.9024178600921 157.51649763613477 0 0 0 0 -156.49964340654378 187.95451005495488 0 187.95451005495488 168.26140925352411 0 0 0 0 -185.82856506001315 43.653900911371096 0 43.653900911371096 73.731002841028413 0 0 0 0 -258.30020193697419 169.14900987530564 0 169.14900987530564 102.53391920391005 0 0 0 0 -8.8211435613178626 11.404616096559629 0 11.404616096559629 -3.6509895692355556 0 0 0 0 0.3916657142628992 35.467178251989026 0 35.467178251989026 43.022398328779673 0 0 0 0 -182.24199375572607 73.097054824582301 0 73.097054824582301 106.16357102233451 0 0 0 0 -226.90270183368602 15.327933545549968 0 15.327933545549968 94.576248773890256 0 0 0 0 -257.9106499321133 60.390558322136712 0 60.390558322136712 38.770055168133695 0 0 0 0 -30.414177844581474 36.935443815542065 0 36.935443815542065 26.388136882449242 0 0 0 0 -131.86213995679282 279.50719765745629 0 279.50719765745629 231.16160390491427 0 0 0 0 -218.89019319607905 144.58884522004746 0 144.58884522004746 35.596300296946538 0 0 0 0 -105.71617750274342 -36.21217537036712 0 -36.21217537036712 46.517520028022787 0 0 0 0 -212.73267832675629 21.541997003534561 0 21.541997003534561 15.540490464124332 0 0 0 0 -154.65441629336146 28.974837343106628 0 28.974837343106628 16.386483829803183 0 0 0 0 -214.58998990364785 49.330239735554187 0 49.330239735554187 -39.565374035712011 0 0 0 0 55.651868313594605 -36.151528516119356 0 -36.151528516119356 -106.731894417494 0 0 0 0 -467.4314753652252 89.147676798096427 0 89.147676798096427 56.295574616027125 0 0 0 0 -2.2157042479964986 19.696665825234277 0 19.696665825234277 29.840595484659161 0 0 0 0 -37.359667863560389 5.552602865949666 0 5.552602865949666 -40.438965079761601 0 0 0 0 -344.60869860849198 -108.99005283820588 0 -108.99005283820588 41.639711453037307 0 0 0 0 5.7581794467864036 -0.33333858911203862 0 -0.33333858911203862 0.43506245492164686 0 0 0 0 -426.71039853605419 40.148389741803157 0 40.148389741803157 154.65300922729512 0 0 0 0 -1.138409808040338 -3.1592425109390865 0 -3.1592425109390865 2.7162410840055173 0 0 0 0 -246.06026264914024 31.169281840195708 0 31.169281840195708 80.332219763284229 0 0 0 0 -207.83792045461814 -8.757676220171561 0 -8.757676220171561 82.949890259755193 0 0 0 0 -205.94582832983593 25.00040394239096 0 25.00040394239096 71.176759224043053 0 0 0 0 -236.76720799384475 2.3343645876848313 0 2.3343645876848313 85.506009280622038 0 0 0 0 -190.08287621191766 37.721096601782847 0 37.721096601782847 -128.43582494600741 0 0 0 0 -332.66736848729215 -71.518045830753181 0 -71.518045830753181 15.541162968163917 0 0 0 0 -72.520270543420793 -21.593216161727746 0 -21.593216161727746 33.220626342572331 0 0 0 0 -240.95287895133515 116.96476222669298 0 116.96476222669298 -30.672121299788159 0 0 0 0 -386.86045790810385 68.597994203965754 0 68.597994203965754 -3.0737647649648352 0 0 0 0 -54.032876785156567 78.030638530014244 0 78.030638530014244 -24.047224011417619 0 0 0 0 -292.50778892013477 89.16894891749871 0 89.16894891749871 16.880548789906243 0 0 0 0 -22.576921377624956 72.520044122058977 0 72.520044122058977 -24.771622785586136 0 0 0 0 -335.84581561540972 89.549716829247359 0 89.549716829247359 10.123846264446001 0 0 0 0 -313.04424701217067 49.09383608756707 0 49.09383608756707 -13.301174370294575 0 0 0 0 -115.77479805768291 -36.36702066271036 0 -36.36702066271036 39.40501336177752 0 0 0 0 -224.89694157557346 -22.363770505445444 0 -22.363770505445444 92.204179889808074 0 0 0 0 -129.35983059646242 115.42536008633033 0 115.42536008633033 -118.28295833446646 0 0 0 0 -224.92206942863049 124.04445307435799 0 124.04445307435799 29.857675918852692 0 0 0 0 -31.338193127247507 -1.8648433480397113 0 -1.8648433480397113 -5.847202902676699 0 0 0 0 -121.7790381972568 7.9920237085680128 0 7.9920237085680128 -1.6090198361162038 0 0 0 0 -157.09182164319827 64.834967797622085 0 64.834967797622085 -10.292207342843085 0 0 0 0 -64.038991997607638 -9.9881863026603597 0 -9.9881863026603597 44.918819807842269 0 0 0 0 -82.871828262032068 17.879735400929349 0 17.879735400929349 -26.974359625959551 0 0 0 0 308.28536858844018 92.862036315844307 0 92.862036315844307 -51.398349825394689 0 0 0 0 -6.4459313834995271 2.2873438219948881 0 2.2873438219948881 2.3902869008576531 0 0 0 0 -88.190437614262805 4.7348762334639112 0 4.7348762334639112 25.34914985149442 0 0 0 0 -146.52291972557214 2.9531532348073597 0 2.9531532348073597 1.7553127990313442 0 0 0 0 -127.9902252147358 101.88885115668472 0 101.88885115668472 -67.583639535272596 0 0 0 0 -96.648383005187497 -129.99813065375929 0 -129.99813065375929 126.53765486678822 0 0 0 0 -27.145844402433486 2.9351262579540798 0 2.9351262579540798 8.1157307887377215 0 0 0 0 -143.58211687973926 44.445509946463972 0 44.445509946463972 12.813409479791517 0 0 0 0 -115.3588582776465 141.91990469299071 0 141.91990469299071 -83.532766791985523 0 0 0 0 -77.990029905222485 24.717980670498854 0 24.717980670498854 9.4369273349824425 0 0 0 0 -11.99029266567959 -2.5059700035799324 0 -2.5059700035799324 67.477897192664386 0 0 0 0 -14.752262035689967 0.45771431497731285 0 0.45771431497731285 2.8853171204154009 0 0 0 0 -87.033172455845488 84.382659998698728 0 84.382659998698728 -78.452531573224405 0 0 0 0 -231.97775833829655 296.29735340872139 0 296.29735340872139 -290.00453593432394 0 0 0 0 -177.1530319033227 46.42497607882251 0 46.42497607882251 48.77219497337137 0 0 0 0 -128.92877891987882 102.93410870088155 0 102.93410870088155 -11.097436122165163 0 0 0 0 -285.67075898758776 158.54870997566468 0 158.54870997566468 660.46508837089641 0 0 0 0 -71.722625281675334 52.642546633867141 0 52.642546633867141 -24.493704777351567 0 0 0 0 -119.65440362192749 92.368177695912891 0 92.368177695912891 367.90872918951209 0 0 0 0 -47.666874501050188 102.8153357671772 0 102.8153357671772 328.29922375413298 0 0 0 0 -18.980562997797925 7.7132809268477622 0 7.7132809268477622 4.744121928624736 0 0 0 0 -58.362719982048702 132.57917534104263 0 132.57917534104263 -95.161558947747835 0 0 0 0 -956.35075586087987 -151.12986010441637 0 -151.12986010441637 -244.71536334610573 0 0 0 0 -1811.9834340165398 -173.3726174297517 0 -173.3726174297517 152.01152780494158 0 0 0 0 -37.149391378377913 40.994851119703526 0 40.994851119703526 43.680558713946084 0 0 0 0 -10.227356147595607 25.024737272668311 0 25.024737272668311 -37.369250205563667 0 0 0 0 -29.881142276167026 43.615850545152028 0 43.615850545152028 -32.52474363664237 0 0 0 0 45.916853023874864 11.213613842468476 0 11.213613842468476 -11.677574334727979 0 0 0 0 -21.631812080991949 -56.451092635898021 0 -56.451092635898021 14.178093771544809 0 0 0 0 -274.53957634967082 59.607522604281257 0 59.607522604281257 43.329138815973238 0 0 0 0 -94.032228906007731 -23.127552892958192 0 -23.127552892958192 13.413854593241012 0 0 0 0 -201.4213540355272 244.20367362639581 0 244.20367362639581 -214.96171198019147 0 0 0 0 -18.192972509719766 -115.16898177130952 0 -115.16898177130952 92.281087894054508 0 0 0 0 84.890945891371302 21.863781485977597 0 21.863781485977597 -191.54615162002119 0 0 0 0 -104.49556263233012 1.086674499450055 0 1.086674499450055 36.481721833908523 0 0 0 0 -90.513753867351511 19.801575218110337 0 19.801575218110337 15.665933254309476 0 0 0 0 -23.203979020286607 23.88192487185179 0 23.88192487185179 -57.389918040625226 0 0 0 0 -658.20812839784776 -156.79452724604926 0 -156.79452724604926 291.66705120904226 0 0 0 0 169.58348515546732 10.063079691129587 0 10.063079691129587 -352.24658911425649 0 0 0 0 -28.715888069353241 99.120611645405006 0 99.120611645405006 14.72008689510767 0 0 0 0 -34.479266679928401 29.337391983168686 0 29.337391983168686 8.5783523655417611 0 0 0 0 -77.601278796872521 29.05256316572013 0 29.05256316572013 -8.5944068019925908 0 0 0 0 -75.578246459054981 -18.913908342280227 0 -18.913908342280227 -12.955636365786074 0 0 0 0 -226.26296237498173 64.960870240596705 0 64.960870240596705 389.90533973220954 0 0 0 0 -10.898532091170637 375.81233675051408 0 375.81233675051408 17.31658942683498 0 0 0 0 -25.820334799221868 -11.969418349904004 0 -11.969418349904004 -5.6174105093191393 0 0 0 0 -696.57187851381514 -1008.4521608350406 0 -1008.4521608350406 -1358.6803790365066 0 0 0 0 -313.49571023019143 844.33123627215764 0 844.33123627215764 -489.31314326773281 0 0 0 0 -2590.908301503966 851.61740472412566 0 851.61740472412566 -481.04323692209982 0 0 0 0 -5.1698712982393129 -0.67740483769117787 0 -0.67740483769117787 3.2893330823476106 0 0 0 0 -2843.9085859116249 500.86894668727109 0 500.86894668727109 -241.84636595310531 0 0 0 0 82.186868529791354 -124.58179332013606 0 -124.58179332013606 -277.71904705200359 0 0 0 0 -2301.4220721239544 592.67753775019264 0 592.67753775019264 -235.23648624169164 0 0 0 0 -2280.0729425093123 -194.30832550306877 0 -194.30832550306877 -144.75096178088825 0 0 0 0 -3209.1277500365732 -36.2583204348457 0 -36.2583204348457 -170.59060583368409 0 0 0 0 -2581.0706898307417 241.74449213622847 0 241.74449213622847 -352.06934048352196 0 0 0 0 -3130.5109458177508 -1246.8129740109998 0 -1246.8129740109998 -1957.0338192054987 0 0 0 0 -4762.5473478188997 121.34405092012639 0 121.34405092012639 -115.81543097329632 0 0 0 0 -2339.2440861126342 -609.6222290594269 0 -609.6222290594269 -732.77828825140568 0 0 0 0 -2915.4785579180334 -734.20399557361998 0 -734.20399557361998 -739.35508064309579 0 0 0 0 -1543.629944200482 171.35872227123218 0 171.35872227123218 -634.39454321237008 0 0 0 0 -1400.9865590519312 -424.17630629408177 0 -424.17630629408177 -853.20900099625942 0 0 0 0 -2046.5508297335036 -545.55326619913103 0 -545.55326619913103 -309.77483812080754 0 0 0 0 -2170.7722913860453 -289.17292743756389 0 -289.17292743756389 -162.08985737807052 0 0 0 0 -1689.4032510342649 -97.798398557935798 0 -97.798398557935798 181.50074719554868 0 0 0 0 -2262.3598528975399 -651.03828233826516 0 -651.03828233826516 -78.094308159326829 0 0 0 0 -2294.5968255805901 -265.99513866041207 0 -265.99513866041207 -246.61961490002432 0 0 0 0 -2386.5096902607329 -867.96751084440984 0 -867.96751084440984 -187.32707504747577 0 0 0 0 -2054.5334386802424 -589.41248447040471 0 -589.41248447040471 -178.8139839945834 0 0 0 0 -2237.3635881724258 -605.69506810865732 0 -605.69506810865732 157.59855129953758 0 0 0 0 -1672.2661736095197 -1501.7370145077261 0 -1501.7370145077261 -2530.4684009966822 0 0 0 0 -2492.3589901659534 -976.92588375543619 0 -976.92588375543619 -217.29058814922246 0 0 0 0 -3746.4077394550804 -1819.6305125986528 0 -1819.6305125986528 -362.57302563074518 0 0 0 0 -996.55570696673203 -361.17847383568733 0 -361.17847383568733 -887.83418329978031 0 0 0 0 -1678.8723010112762 -803.46453441499762 0 -803.46453441499762 -1052.1550681153876 0 0 0 0 -1169.1361397784885 -44.637968699940302 0 -44.637968699940302 -511.84514602784475 0 0 0 0 -1009.6015470967777 122.97290166516359 0 122.97290166516359 -875.82396363216503 0 0 0 0 -938.82307163802398 706.58759194321101 0 706.58759194321101 -529.89820262823923 0 0 0 0 -1223.4082376484148 844.91930768132079 0 844.91930768132079 -392.47072248549011 0 0 0 0 -1319.0762618037097 776.6622634322357 0 776.6622634322357 -135.26105989883581 0 0 0 0 -1041.3972734164545 849.85769057655989 0 849.85769057655989 -394.93536743086952 0 0 0 0 -1345.8503309311182 589.06371789271543 0 589.06371789271543 -533.05628947865989 0 0 0 0 -1420.4303662869238 498.66447332332154 0 498.66447332332154 -379.86173861821226 0 0 0 0 -5.7175592599781382 -2.6581591137214522 0 -2.6581591137214522 7.389550006479972 0 0 0 0 -1429.9119453317671 491.86210512026537 0 491.86210512026537 -237.72833327869375 0 0 0 0 -1764.4933867853997 -111.50688064318638 0 -111.50688064318638 -460.85237254733147 0 0 0 0 -1607.7584085438393 512.0622198152887 0 512.0622198152887 -298.72695797212873 0 0 0 0 120.02392164756384 -167.13986216983903 0 -167.13986216983903 -213.21375462466131 0 0 0 0 -17.052067238560994 -143.22239943569366 0 -143.22239943569366 -216.29557223068286 0 0 0 0 -156.12679721768836 -136.7426974211121 0 -136.7426974211121 -20.497124494839227 0 0 0 0 -60.416583386898083 -129.66636782763135 0 -129.66636782763135 -152.58785154435645 0 0 0 0 1.3293091039511893 -0.15193340635261166 0 -0.15193340635261166 1.0071371422277196 0 0 0 0 57.533934356020382 -269.47183333692328 0 -269.47183333692328 -311.67865991381586 0 0 0 0 21.482017048369016 -255.77858490524159 0 -255.77858490524159 -218.7098309410535 0 0 0 0 19.438366491082547 -276.48739737972983 0 -276.48739737972983 2.5753842088706733 0 0 0 0 -202.0333173837771 -246.14573911383377 0 -246.14573911383377 -216.69847221094983 0 0 0 0 -114.66173578887879 -398.66335053185298 0 -398.66335053185298 57.923084951180499 0 0 0 0 -222.85786737738636 -25.631129387937108 0 -25.631129387937108 -55.624926978322037 0 0 0 0 -173.98136480940229 -150.47638591305235 0 -150.47638591305235 -370.85355039222122 0 0 0 0 -212.56094269990535 -151.38202097912563 0 -151.38202097912563 -581.9929602345419 0 0 0 0 -196.30094910806292 -65.253253857409618 0 -65.253253857409618 -253.8318168771616 0 0 0 0 -1077.6117873971452 15.889717049054525 0 15.889717049054525 -323.79522032302339 0 0 0 0 -832.75717905296005 -298.40780245395399 0 -298.40780245395399 -364.19609084165677 0 0 0 0 -806.32534028330338 -251.77044696668054 0 -251.77044696668054 -403.14163209050685 0 0 0 0 -822.23809587468713 -272.8210877780275 0 -272.8210877780275 -141.05550770124319 0 0 0 0 -2.4564562196967685 1.1824616707172986 0 1.1824616707172986 0.11637147445617657 0 0 0 0 50.420515929644353 -278.68661222934315 0 -278.68661222934315 92.306998536096216 0 0 0 0 -894.31425358860724 552.74941282117743 0 552.74941282117743 1113.1090267588788 0 0 0 0 -2839.1755084330907 -216.94195373914226 0 -216.94195373914226 346.25431550763187 0 0 0 0 -19.022384032107631 -10.666998928586091 0 -10.666998928586091 -5.8911237576568851 0 0 0 0 -2546.1654220173805 -846.80457327262229 0 -846.80457327262229 -493.25364182455451 0 0 0 0 307.04684196028938 11.610859912896558 0 11.610859912896558 -376.28244487604934 0 0 0 0 -10.588815070254487 -15.166614307367407 0 -15.166614307367407 -3.5370722194077828 0 0 0 0 -53.239746732401628 -24.956409869992946 0 -24.956409869992946 -6.0751930589227179 0 0 0 0 -365.81477719824761 -773.76579262136602 0 -773.76579262136602 84.38490848902893 0 0 0 0 335.83167124879856 -98.538501951833268 0 -98.538501951833268 -34.29468748594627 0 0 0 0 -200.77216469618452 -134.54317698950763 0 -134.54317698950763 742.4519979310644 0 0 0 0 -25.329285179688668 -141.01609324980745 0 -141.01609324980745 155.99209144004135 0 0 0 0 -74.713216210610426 -217.53671689040993 0 -217.53671689040993 221.40423981053755 0 0 0 0 -31.185191483149538 -174.57203088366896 0 -174.57203088366896 -0.29734711911987688 0 0 0 0 -11.859503196071174 -18.649737199931142 0 -18.649737199931142 -0.080614821554338967 0 0 0 0 -74.442895252602398 -30.927605177242992 0 -30.927605177242992 -9.3888305444873339 0 0 0 0 -508.84468865816598 107.22115501352982 0 107.22115501352982 1175.7855618090925 0 0 0 0 90.285845642141794 -186.07480968871278 0 -186.07480968871278 140.06430898411963 0 0 0 0 18.155996771900391 -7.8350609205017463 0 -7.8350609205017463 -160.43088095291023 0 0 0 0 -75.4983293600053 -75.706667159123754 0 -75.706667159123754 24.816195791700011 0 0 0 0 -35.764360757405484 -139.79659376922245 0 -139.79659376922245 -23.623441014482523 0 0 0 0 -788.3756023530259 695.81635075578151 0 695.81635075578151 -1448.9696562810277 0 0 0 0 -283.40582406684644 -534.90351081042775 0 -534.90351081042775 350.4027461959231 0 0 0 0 -496.68326935821824 828.1520294356169 0 828.1520294356169 846.68459409220486 0 0 0 0 -388.9215123480426 -240.25747013980344 0 -240.25747013980344 -83.323755865834755 0 0 0 0 -1086.7959425697918 -841.08490354264086 0 -841.08490354264086 167.6179100629306 0 0 0 0 -2839.448834697374 -807.90282680766541 0 -807.90282680766541 -144.18856094651028 0 0 0 0 -889.23541277120603 -2097.6617793980722 0 -2097.6617793980722 -1728.1015991075037 0 0 0 0 -391.28563177456817 -1559.3621909833828 0 -1559.3621909833828 -1159.5939912198555 0 0 0 0 102.1640757715395 -651.7788846979156 0 -651.7788846979156 -397.4840470115123 0 0 0 0 -392.98608331970536 -1496.4064825165233 0 -1496.4064825165233 -1206.163312446648 0 0 0 0 -3129.9873426918875 -2038.9997524293904 0 -2038.9997524293904 -685.58707952852455 0 0 0 0 -90.948391529490436 -1518.3237898794232 0 -1518.3237898794232 -3281.2613055005495 0 0 0 0 -404.87869286045191 -426.37778897025055 0 -426.37778897025055 111.91433056564892 0 0 0 0 -146.22204567105655 -389.19414211397998 0 -389.19414211397998 121.59235475266541 0 0 0 0 -199.20176467821148 354.37745751250077 0 354.37745751250077 160.7978294887871 0 0 0 0 -35.554261091553244 -4.8748149397085072 0 -4.8748149397085072 0.51924776773199355 0 0 0 0 -1517.4792646678252 689.65185773043504 0 689.65185773043504 886.24155507971136 0 0 0 0 -1602.1537641535397 -4.1053727548596726 0 -4.1053727548596726 612.98931662639779 0 0 0 0 -2910.2084348404351 -319.83806061078758 0 -319.83806061078758 720.61164232912779 0 0 0 0 -1292.8581114486078 -1214.6485487061036 0 -1214.6485487061036 -1483.3480558597385 0 0 0 0 -913.10758538294431 549.15980298644445 0 549.15980298644445 1951.0640264665426 0 0 0 0 313.03341299207386 -15.566161576776722 0 -15.566161576776722 48.577685035237664 0 0 0 0 -230.77328202583521 430.21106441182383 0 430.21106441182383 1246.615810434796 0 0 0 0 -644.70525554070082 391.3672763191862 0 391.3672763191862 637.93027190071189 0 0 0 0 -253.52752258561895 -187.18079506641396 0 -187.18079506641396 1038.7971732810402 0 0 0 0 -12.857202124198359 8.8464266666011859 0 8.8464266666011859 11.697425408998555 0 0 0 0 697.89345734395101 -999.10961771020629 0 -999.10961771020629 2775.1731787637254 0 0 0 0 448.2411833547294 563.86673277577984 0 563.86673277577984 1280.3777661736749 0 0 0 0 26.399682064127937 -10.397744571804164 0 -10.397744571804164 3.5354176354365023 0 0 0 0 -291.17414315087808 653.26557376763776 0 653.26557376763776 1966.2589162986915 0 0 0 0 -1121.1153551257012 -30.493904398768791 0 -30.493904398768791 2672.1432219119042 0 0 0 0 -758.07158564896963 -1056.4720128451154 0 -1056.4720128451154 2123.0609500519986 0 0 0 0 -493.26661833078651 -36.871027980380859 0 -36.871027980380859 -101.7341277547057 0 0 0 0 -953.63674794479448 384.20124152661083 0 384.20124152661083 829.24810305967003 0 0 0 0 -337.42386944781902 790.09340481852632 0 790.09340481852632 236.82321336815039 0 0 0 0 -226.69450393476654 -65.539497434403529 0 -65.539497434403529 910.83492762942842 0 0 0 0 -974.12933697647532 32.314674219374865 0 32.314674219374865 1659.9139998700393 0 0 0 0 -182.25879414547308 452.43555102030405 0 452.43555102030405 -1200.9024872784721 0 0 0 0 -736.19381091858668 521.6563362228153 0 521.6563362228153 69.518989728225279 0 0 0 0 -2216.2674602450443 798.5713412134985 0 798.5713412134985 43.259600902823877 0 0 0 0 -757.62645704431998 315.12506452066373 0 315.12506452066373 -1503.5960303233805 0 0 0 0 -2543.2415511690351 1824.0107150379376 0 1824.0107150379376 -1088.5493027462144 0 0 0 0 -1185.4850013352652 1002.9701437018068 0 1002.9701437018068 -877.02589940547114 0 0 0 0 -436.1530228853735 536.56927091800753 0 536.56927091800753 -122.62772658790936 0 0 0 0 -112.33926132136821 29.510497164528715 0 29.510497164528715 -612.27080741114332 0 0 0 0 -576.1728810980494 325.38005118711408 0 325.38005118711408 -790.64703612797348 0 0 0 0 -1229.8622895648841 -365.19229381638161 0 -365.19229381638161 136.41169561908828 0 0 0 0 -716.97848303712999 -446.3823501168481 0 -446.3823501168481 -942.96686831286934 0 0 0 0 -330.6567240122622 333.80268853357302 0 333.80268853357302 -653.26075940811415 0 0 0 0 -1625.7401933150304 541.82519961344042 0 541.82519961344042 -1269.4577532118901 0 0 0 0 363.89576358912382 470.92952619475909 0 470.92952619475909 386.69186611717032 0 0 0 0 -1748.7121642950824 -625.10322983351307 0 -625.10322983351307 1599.0892347588833 0 0 0 0 -1076.4346224481615 698.03738875752424 0 698.03738875752424 1886.1067389201471 0 0 0 0 -101.00417695082105 -2.1796984950925165 0 -2.1796984950925165 6.6205545728822512 0 0 0 0 -471.40219745907234 -29.249184181209785 0 -29.249184181209785 227.53668844268213 0 0 0 0 -480.70198647639336 -115.7240908325266 0 -115.7240908325266 109.1804967205826 0 0 0 0 -84.933876353080933 -2.3212716069376995 0 -2.3212716069376995 2.336291875686479 0 0 0 0 -481.09983024109533 -114.63540527620171 0 -114.63540527620171 810.80329936046655 0 0 0 0 -359.11332372880679 -299.64646430158109 0 -299.64646430158109 155.02556487919355 0 0 0 0 -367.5060414097461 -351.92715087624674 0 -351.92715087624674 576.9611462577459 0 0 0 0 -440.07898953889526 -225.64760555304019 0 -225.64760555304019 303.16433237365254 0 0 0 0 -355.96548908964905 -229.02795175527535 0 -229.02795175527535 109.54829295303898 0 0 0 0 -487.56597953113669 -140.53407647690892 0 -140.53407647690892 163.53040401503313 0 0 0 0 -411.33814375453221 -170.09025792852299 0 -170.09025792852299 174.98990915040304 0 0 0 0 -466.55234211633069 -79.241645915674781 0 -79.241645915674781 155.66581066210347 0 0 0 0 -374.66295028186141 -6.0466065193086251 0 -6.0466065193086251 146.1924443526259 0 0 0 0 -507.66950101492694 -145.39722890050325 0 -145.39722890050325 164.64687889692505 0 0 0 0 -530.31472141326049 2.4824954703644835 0 2.4824954703644835 130.29536826824187 0 0 0 0 -724.37672892032424 47.303436536700247 0 47.303436536700247 138.17133970805298 0 0 0 0 -625.83085650685825 -87.896053887066955 0 -87.896053887066955 152.99928719952368 0 0 0 0 170.70466414109615 -281.77992528274831 0 -281.77992528274831 -93.540157110206138 0 0 0 0 -563.31970667299538 236.57211673100801 0 236.57211673100801 -33.832738442706614 0 0 0 0 -117.66591719173287 -9.4988924205242569 0 -9.4988924205242569 27.995503731081143 0 0 0 0 -290.04256969323615 143.60138822313274 0 143.60138822313274 -18.905922654717415 0 0 0 0 -125.40163709529224 13.804747438739923 0 13.804747438739923 46.59812737557877 0 0 0 0 -526.37001002788747 -9.909828383482818 0 -9.909828383482818 147.83571952637794 0 0 0 0 -319.91850797528605 -19.647218667181733 0 -19.647218667181733 120.64710166125951 0 0 0 0 -156.57500256791536 51.488815144226464 0 51.488815144226464 90.593590185235371 0 0 0 0 -291.30881656288693 61.817453154368195 0 61.817453154368195 110.10652040317473 0 0 0 0 -265.31905924449529 -10.38643910596511 0 -10.38643910596511 113.85417879359011 0 0 0 0 -164.30616969860421 8.7685013535947292 0 8.7685013535947292 87.449640898807047 0 0 0 0 -307.16503229034424 2.8452592705652933 0 2.8452592705652933 129.78852819687563 0 0 0 0 -200.97212536753796 19.430618603853873 0 19.430618603853873 115.35800715709831 0 0 0 0 -89.178064955406967 50.255705694608949 0 50.255705694608949 35.813355903580728 0 0 0 0 -127.34990399807407 64.642681767859258 0 64.642681767859258 78.257221484720503 0 0 0 0 -129.4859869524953 -5.1619236922615528 0 -5.1619236922615528 -27.465432426921325 0 0 0 0 -205.38646118932229 -39.484371735452441 0 -39.484371735452441 72.758593467189712 0 0 0 0 -237.31946498080652 -109.9818065520667 0 -109.9818065520667 -18.837953025449679 0 0 0 0 -255.05406278666487 -58.974588486937591 0 -58.974588486937591 66.353393207326008 0 0 0 0 -296.12458978965878 -75.54516308224629 0 -75.54516308224629 122.05209350067707 0 0 0 0 -329.27184872647194 -77.80819898228583 0 -77.80819898228583 128.50187441838716 0 0 0 0 -364.93413806112221 -202.4651790756925 0 -202.4651790756925 112.84021080767525 0 0 0 0 -304.58762963550134 -144.37855024333612 0 -144.37855024333612 40.82013611324146 0 0 0 0 -327.28667283629329 -265.80718346994854 0 -265.80718346994854 50.635312981323295 0 0 0 0 -304.57890776276327 -173.03768652274266 0 -173.03768652274266 -82.984402198962925 0 0 0 0 -304.61354853537 -176.48186358082887 0 -176.48186358082887 -245.03288081548453 0 0 0 0 -259.60044988129812 -122.99553101965648 0 -122.99553101965648 50.93581492227986 0 0 0 0 -266.03188985835732 -162.40821407739168 0 -162.40821407739168 -92.675385472092785 0 0 0 0 -320.54619891219045 -49.000990833539618 0 -49.000990833539618 -76.954052018954997 0 0 0 0 -319.97719131333361 -41.866920137226089 0 -41.866920137226089 -190.74855785894397 0 0 0 0 -186.92249703810558 -34.407335678449272 0 -34.407335678449272 -181.45148602753034 0 0 0 0 -339.44003957321911 -20.539394118637574 0 -20.539394118637574 23.238215420813503 0 0 0 0 -194.95507581133097 -46.483925282093423 0 -46.483925282093423 -6.1342837053944095 0 0 0 0 -102.06764675799519 45.87506071746418 0 45.87506071746418 15.718073915697595 0 0 0 0 -131.75556016652263 247.54445574417741 0 247.54445574417741 101.97773572780409 0 0 0 0 -416.3632896144336 -183.85450642023193 0 -183.85450642023193 98.046629966738692 0 0 0 0 -146.51222741809033 4.9448138105044563 0 4.9448138105044563 -70.49228557017409 0 0 0 0 -158.33673363413072 20.686110719534099 0 20.686110719534099 28.150272611936089 0 0 0 0 -2723.8847647300499 -313.32308594976803 0 -313.32308594976803 292.35564419478578 0 0 0 0 -1846.6140065019426 3.5655749761572224 0 3.5655749761572224 395.12661450003816 0 0 0 0 -7.0305878798692873 -8.6871742078564438 0 -8.6871742078564438 -13.249874003368205 0 0 0 0 -1468.5479315160592 -43.29617824494062 0 -43.29617824494062 400.85441267181886 0 0 0 0 -1601.8849932380381 -540.38023545337887 0 -540.38023545337887 -96.726607202133891 0 0 0 0 -933.22821407427546 -219.10098289260623 0 -219.10098289260623 -262.52673219948747 0 0 0 0 -632.81998649642992 -286.28182363403721 0 -286.28182363403721 -199.07033819681055 0 0 0 0 -927.98424682694895 -249.59443110643315 0 -249.59443110643315 -116.4317019489381 0 0 0 0 -1024.0620761286955 -84.70462297852373 0 -84.70462297852373 228.29663529046229 0 0 0 0 -1490.4796665381109 -86.924538390348516 0 -86.924538390348516 253.87572715004353 0 0 0 0 -342.33405942548825 -93.85229959080749 0 -93.85229959080749 -14.112768507671717 0 0 0 0 -590.07580368863273 -180.72856283810324 0 -180.72856283810324 -21.529635999662787 0 0 0 0 -491.71542733725801 -161.35134497039871 0 -161.35134497039871 -132.88062500166052 0 0 0 0 -309.0187866593551 30.514193141561918 0 30.514193141561918 -221.36271054630606 0 0 0 0 -488.24152168622095 -372.63313670028583 0 -372.63313670028583 -57.75463608638529 0 0 0 0 -1088.8582888753663 -242.37122823797108 0 -242.37122823797108 -31.420935689902763 0 0 0 0 -495.63704225542097 -121.44933311504337 0 -121.44933311504337 -365.02014791828697 0 0 0 0 -1228.1260337326567 28.05296496021856 0 28.05296496021856 -431.72167045739752 0 0 0 0 -1381.314745990996 -589.06721919439315 0 -589.06721919439315 -549.26798120694184 0 0 0 0 -2080.7018393072904 -242.32457431148305 0 -242.32457431148305 794.72558938392285 0 0 0 0 -90.271680568055956 -29.675573546269714 0 -29.675573546269714 -9.4872981213709018 0 0 0 0 -862.05464793074134 -1198.0472294607721 0 -1198.0472294607721 -588.8879665768236 0 0 0 0 -1026.8200927540674 -263.4830851624838 0 -263.4830851624838 -254.52571171150976 0 0 0 0 -932.04497138127408 -318.71614417927049 0 -318.71614417927049 -542.30772245995013 0 0 0 0 -1318.9638161442999 -381.54791401407329 0 -381.54791401407329 -208.71754583738129 0 0 0 0 -926.85125157449511 -94.801916829586844 0 -94.801916829586844 -61.948428529705325 0 0 0 0 -90.217341456917751 -29.803423358127265 0 -29.803423358127265 -9.2156108655120832 0 0 0 0 -1037.448033380886 108.4718534730946 0 108.4718534730946 -47.41600431443112 0 0 0 0 -260.46727428915437 -31.385265528827063 0 -31.385265528827063 -32.889076795152505 0 0 0 0 -274.11439683480421 -84.200093591721725 0 -84.200093591721725 -189.85421979286775 0 0 0 0 -6.1459429820513378 6.8071445071802259 0 6.8071445071802259 -5.8895554628756344 0 0 0 0 174.83317686750343 319.20744007724147 0 319.20744007724147 -118.30808081353462 0 0 0 0 -105.47557958547259 551.35460169260114 0 551.35460169260114 -190.32829791459153 0 0 0 0 -1162.2634920930068 -117.31952667282349 0 -117.31952667282349 -16.805515613550597 0 0 0 0 -950.65180537982087 -170.63712078236767 0 -170.63712078236767 -6.1633139470104652 0 0 0 0 -818.35516200517304 -22.672537297291456 0 -22.672537297291456 -114.31647493356832 0 0 0 0 -952.68034666434573 -49.542976557966952 0 -49.542976557966952 -114.3737303448961 0 0 0 0 -779.008907442083 -599.28227347596203 0 -599.28227347596203 701.98914824029271 0 0 0 0 -1058.0918373540517 115.93951774327138 0 115.93951774327138 -159.21077238780526 0 0 0 0 -502.79022397201334 -194.42921274179389 0 -194.42921274179389 -611.68719993792001 0 0 0 0 -1123.9136967272789 -93.097835302358362 0 -93.097835302358362 82.587661201560877 0 0 0 0 -1051.0821901974559 135.28165545370302 0 135.28165545370302 82.185818385492894 0 0 0 0 -861.0988150324556 -57.437931389525147 0 -57.437931389525147 -191.94767629557373 0 0 0 0 -901.39695872271841 -126.50136954713389 0 -126.50136954713389 46.862168859053781 0 0 0 0 7.3239299167552758 2.8003927009663414 0 2.8003927009663414 2.3239113154185596 0 0 0 0 -310.59141269962129 296.89262526248876 0 296.89262526248876 -187.24692176896383 0 0 0 0 -66.177672546444228 52.803942841906974 0 52.803942841906974 600.92249833457572 0 0 0 0 134.42300763528328 -150.32158531969981 0 -150.32158531969981 -90.192637554222529 0 0 0 0 129.05345547558863 -119.19884810154008 0 -119.19884810154008 247.76016521890051 0 0 0 0 -1232.9367747108918 -96.667325526061177 0 -96.667325526061177 445.24163615275484 0 0 0 0 135.25817730782001 1473.6312212075627 0 1473.6312212075627 -1555.9647352504653 0 0 0 0 -2.052630773397027 2.3822053689656286 0 2.3822053689656286 7.353767863951866 0 0 0 0 -868.44480242895224 31.071623725889367 0 31.071623725889367 103.55821585192098 0 0 0 0 115.4051359171649 56.240268115271704 0 56.240268115271704 -241.1490582974111 0 0 0 0 -405.1001178057486 -80.746299814905797 0 -80.746299814905797 38.12647949933671 0 0 0 0 120.40520468609134 155.48642145032014 0 155.48642145032014 -9.7425662996884057 0 0 0 0 -205.81316531584162 68.530846946548991 0 68.530846946548991 -29.065502524590784 0 0 0 0 -107.79979922377422 47.41898759065046 0 47.41898759065046 11.5260369016131 0 0 0 0 -196.26249599236326 -57.243557204571516 0 -57.243557204571516 29.625947590566284 0 0 0 0 -97.695821789151921 -18.562210590380275 0 -18.562210590380275 -7.4380260126036575 0 0 0 0 -15.764560520306986 127.65420710772651 0 127.65420710772651 242.20348265253415 0 0 0 0 -26.468161081317163 14.245861436807246 0 14.245861436807246 -13.903538023666631 0 0 0 0 -42.357161172360065 96.581553581750086 0 96.581553581750086 228.74106461485735 0 0 0 0 5.7450733207904818 23.244323757313012 0 23.244323757313012 2.4898600035120886 0 0 0 0 -93.835204074486683 117.50180268357781 0 117.50180268357781 331.26115616759125 0 0 0 0 -59.914686821124633 140.82594253997013 0 140.82594253997013 240.5232331307152 0 0 0 0 92.453192505727202 106.59668283910923 0 106.59668283910923 124.21348838645645 0 0 0 0 -43.96907203484443 224.91366292553357 0 224.91366292553357 72.423500093320399 0 0 0 0 -32.869692063482944 203.34037342556394 0 203.34037342556394 109.67745705000198 0 0 0 0 -63.572139535921451 161.10486782847966 0 161.10486782847966 185.37491260154275 0 0 0 0 -100.4925725304347 172.19204451265614 0 172.19204451265614 192.42162109347646 0 0 0 0 -119.82315993517113 145.57121154482411 0 145.57121154482411 152.14475947808842 0 0 0 0 -112.63511301987455 112.65934708737041 0 112.65934708737041 277.46577516633624 0 0 0 0 -84.31166920317628 181.15119063373459 0 181.15119063373459 169.50171789870546 0 0 0 0 -26.688807262187765 74.639353908362864 0 74.639353908362864 259.07346501182474 0 0 0 0 -56.165589643398562 -3.7894290917406579 0 -3.7894290917406579 454.34100317722186 0 0 0 0 -67.35389296291396 160.00840609640909 0 160.00840609640909 314.76670054566966 0 0 0 0 -181.21708298862723 -253.31336402315037 0 -253.31336402315037 1040.458791178271 0 0 0 0 78.157837029553775 -11.370151422162962 0 -11.370151422162962 392.76304745966263 0 0 0 0 -56.903822326683439 -2.3335726950863318 0 -2.3335726950863318 423.06121581701154 0 0 0 0 -166.04434997252247 130.33286769346432 0 130.33286769346432 319.94092110530346 0 0 0 0 -50.545138715362555 -23.552036161504475 0 -23.552036161504475 105.08753339760187 0 0 0 0 -54.734252163718338 155.93744012902334 0 155.93744012902334 110.89978472777693 0 0 0 0 -394.72137510456378 0.93688272439521825 0 0.93688272439521825 147.56960975891889 0 0 0 0 -0.77685018591170518 -1.2791680434753232 0 -1.2791680434753232 4.6167230459276212 0 0 0 0 -282.08625538128399 -82.33223168737095 0 -82.33223168737095 -147.25028269220093 0 0 0 0 -773.89384316059295 -120.70102568252332 0 -120.70102568252332 274.1683313388412 0 0 0 0 -360.63588968841941 392.59168662200045 0 392.59168662200045 466.23252933302501 0 0 0 0 -361.12503228124115 100.82520813809788 0 100.82520813809788 -123.74138517500933 0 0 0 0 0.32293281583662292 2.2502525453058446 0 2.2502525453058446 2.0741929480396664 0 0 0 0 -369.35465231715352 192.86571406907115 0 192.86571406907115 600.21779821560813 0 0 0 0 -281.68355714183417 -29.728871117048584 0 -29.728871117048584 -58.151225236095343 0 0 0 0 -900.94814500987559 -115.29030396337248 0 -115.29030396337248 -35.342823633509397 0 0 0 0 -638.72055832906335 -150.82852120484358 0 -150.82852120484358 -301.74109851600224 0 0 0 0 -495.00907167637342 -180.82934670996201 0 -180.82934670996201 14.50872793846429 0 0 0 0 -579.92555228630954 -30.990145672174549 0 -30.990145672174549 -78.903164585053048 0 0 0 0 -938.67421845954959 -37.346782760204405 0 -37.346782760204405 -72.469650853858184 0 0 0 0 -529.07127154759655 55.650681417542728 0 55.650681417542728 -254.64742432536241 0 0 0 0 -926.23908908546582 -170.15958405977199 0 -170.15958405977199 -99.640449251483005 0 0 0 0 -523.74025649550094 15.660688880212547 0 15.660688880212547 -13.182054996728766 0 0 0 0 -574.27317276511167 -53.767127838072156 0 -53.767127838072156 69.970276187488707 0 0 0 0 -78.567238999530673 372.56025182197072 0 372.56025182197072 16.376305189978666 0 0 0 0 -1186.9330621927365 -159.5808428659393 0 -159.5808428659393 57.33465036990907 0 0 0 0 -704.44849022317067 143.31544407721458 0 143.31544407721458 -110.21956330116518 0 0 0 0 -769.49699782591779 252.83324653787167 0 252.83324653787167 94.605627675453434 0 0 0 0 -1393.9495898202586 695.07707930702782 0 695.07707930702782 263.92278485006591 0 0 0 0 -421.88702962740717 550.33815203643871 0 550.33815203643871 280.2816895677206 0 0 0 0 -139.36138979913812 550.81318237614414 0 550.81318237614414 -7.0926689761399757 0 0 0 0 -0.42771292129341987 0.15892233783324627 0 0.15892233783324627 1.9855190345362814 0 0 0 0 518.12714605007204 441.94513974015672 0 441.94513974015672 2.060107798520221 0 0 0 0 329.47930342479958 79.933324858263859 0 79.933324858263859 20.032633217056173 0 0 0 0 -1616.673010534847 -402.57676845969877 0 -402.57676845969877 1274.3061970254621 0 0 0 0 -14.659731054759163 12.39716052751443 0 12.39716052751443 -7.1493267875608062 0 0 0 0 288.10810820765619 1075.5170442460667 0 1075.5170442460667 28.763409569879968 0 0 0 0 -2.0693377513405693 1.4663912264994963 0 1.4663912264994963 25.547638108962268 0 0 0 0 -1420.1060448239805 -1020.9170308188399 0 -1020.9170308188399 -288.95102793292972 0 0 0 0 -578.45329983321426 -38.93089076536296 0 -38.93089076536296 -505.72707114641275 0 0 0 0 -662.19847890680467 -126.6399186401643 0 -126.6399186401643 -56.511780475294472 0 0 0 0 -233.47749257665419 135.88231294215416 0 135.88231294215416 161.09341680125323 0 0 0 0 -843.70303947523644 -98.41794663576843 0 -98.41794663576843 131.37222619192084 0 0 0 0 -35.338407252273043 34.775775381079256 0 34.775775381079256 -25.811357775661065 0 0 0 0 -832.3061579806772 -42.839895263243193 0 -42.839895263243193 233.68216027821654 0 0 0 0 -84.00808259905898 223.89648838206904 0 223.89648838206904 465.89690911390426 0 0 0 0 -75.168095504603116 254.82593919565261 0 254.82593919565261 4.7723888527523286 0 0 0 0 -887.32915214740206 218.63066564258634 0 218.63066564258634 56.566428436237402 0 0 0 0 -725.78235545632924 -20.498193906736105 0 -20.498193906736105 240.05864646305054 0 0 0 0 -788.5686577695742 194.59391393677561 0 194.59391393677561 415.78506241969762 0 0 0 0 135.00424824970833 184.7632734672884 0 184.7632734672884 37.353816650461795 0 0 0 0 327.8855828800879 715.54420508335807 0 715.54420508335807 339.38960276128989 0 0 0 0 192.45058558529308 112.43414658458971 0 112.43414658458971 -69.475517753189706 0 0 0 0 254.14132548483758 458.30631826223907 0 458.30631826223907 481.06351404117595 0 0 0 0 -44.886667269199023 49.172024781992306 0 49.172024781992306 -44.52490555383568 0 0 0 0 -111.74120330851292 520.73196717173846 0 520.73196717173846 158.03383564308319 0 0 0 0 -644.54191932046524 149.81877108585149 0 149.81877108585149 38.704938511509681 0 0 0 0 -397.30379254812578 -191.6366306435616 0 -191.6366306435616 -188.35039681372655 0 0 0 0 -948.23068471052102 -358.44684539456489 0 -358.44684539456489 -181.22914606027189 0 0 0 0 1508.3373968434171 -6370.9766372304557 0 -6370.9766372304557 726.08011595623975 0 0 0 0 -22.325895541987848 -695.7568262499226 0 -695.7568262499226 1022.419053848047 0 0 0 0 -28.802367668400706 -13.174211923006212 0 -13.174211923006212 -6.2968476576675414 0 0 0 0 -2419.5327841298422 2430.1325226879089 0 2430.1325226879089 1802.8826753744943 0 0 0 0 -122.77409363147308 117.92214744646844 0 117.92214744646844 206.41605905865435 0 0 0 0 -62.235231087513966 -113.54580322009497 0 -113.54580322009497 1083.3126409383149 0 0 0 0 56.963252000903594 -740.14413939429323 0 -740.14413939429323 328.47454407084297 0 0 0 0 -152.26700211279967 -361.00916510940533 0 -361.00916510940533 -164.65558639980372 0 0 0 0 -1284.6611897047551 402.53822363940617 0 402.53822363940617 70.83075465594402 0 0 0 0 -596.43280170192884 -219.46839815772546 0 -219.46839815772546 266.641594392353 0 0 0 0 -1753.3208863572363 -777.55937898711272 0 -777.55937898711272 -27.369725722786825 0 0 0 0 -139.42642629088004 16.65549011349367 0 16.65549011349367 128.64418883013423 0 0 0 0 -73.711479206976946 63.78245090960263 0 63.78245090960263 92.904305570742508 0 0 0 0 -53.619274737959557 33.424315310448677 0 33.424315310448677 102.55775295237872 0 0 0 0 -54.330538928945316 202.42320276780356 0 202.42320276780356 135.12108645394619 0 0 0 0 -3.1591524338653301 16.696043823725574 0 16.696043823725574 19.181757131145986 0 0 0 0 -921.07053629343864 -124.82396185833113 0 -124.82396185833113 186.20994554961362 0 0 0 0 -17.780704083107324 -8.7663997616202778 0 -8.7663997616202778 46.573658260756901 0 0 0 0 -833.80760512611596 -194.51645347924932 0 -194.51645347924932 251.13195836541024 0 0 0 0 -856.56402975401579 -118.7928662469667 0 -118.7928662469667 19.213430508441888 0 0 0 0 -335.0273937407037 184.7911662895167 0 184.7911662895167 79.025772690869417 0 0 0 0 -347.64712660328223 0.89484649346104561 0 0.89484649346104561 -388.04744250457588 0 0 0 0 -669.40033500753634 -59.079044974636417 0 -59.079044974636417 62.998730785393491 0 0 0 0 -0.043950886749456686 1.5114534836858695 0 1.5114534836858695 -7.0964942619462548 0 0 0 0 -870.85388832950048 367.01105305013743 0 367.01105305013743 -92.912571279055555 0 0 0 0 -880.71095909531869 -68.728026216941544 0 -68.728026216941544 135.46699452799066 0 0 0 0 -752.37572537479718 -183.55025440769077 0 -183.55025440769077 -41.168448182015709 0 0 0 0 -714.28294647645453 247.11673396928745 0 247.11673396928745 51.570965535836876 0 0 0 0 164.50311791692366 59.665129158524906 0 59.665129158524906 -184.4038119143288 0 0 0 0 -2.2877957278701366 23.589045401677737 0 23.589045401677737 -33.734418196792006 0 0 0 0 -1311.2760200227785 102.54259441142904 0 102.54259441142904 -10.308669381442996 0 0 0 0 -1490.1628774726414 742.84870410409394 0 742.84870410409394 -197.2579387149737 0 0 0 0 -932.96137932671263 337.22160464593981 0 337.22160464593981 -34.53952063766792 0 0 0 0 -1338.0861881308883 78.221747542926778 0 78.221747542926778 38.035606367249784 0 0 0 0 -1076.3961705194306 333.21053510080856 0 333.21053510080856 56.151647883161786 0 0 0 0 313.61030902908715 -15.11111685252024 0 -15.11111685252024 -173.08834365353141 0 0 0 0 -549.36460087900923 376.43836811165511 0 376.43836811165511 -66.448596250842925 0 0 0 0 -2.6895216688979406 17.529552458677784 0 17.529552458677784 -28.420028026907204 0 0 0 0 -860.72344198691644 -42.895525494512867 0 -42.895525494512867 56.240989437867029 0 0 0 0 -1580.4696491262875 216.08292427734978 0 216.08292427734978 228.95218424545965 0 0 0 0 -1180.0956173047744 -225.81226408642488 0 -225.81226408642488 -141.80946064550972 0 0 0 0 -386.16017872921657 -576.14889352244973 0 -576.14889352244973 -63.427076492274601 0 0 0 0 -112.67365459656867 173.69855531247231 0 173.69855531247231 -288.48020609404739 0 0 0 0 -511.13831514992444 -177.97988512258286 0 -177.97988512258286 -39.802659434350062 0 0 0 0 -199.18132357270224 10.108457600934344 0 10.108457600934344 -381.95481242507958 0 0 0 0 0.098776637287386393 -0.073576408693355688 0 -0.073576408693355688 -18.74034441306209 0 0 0 0 -276.22916487995099 67.592055787412392 0 67.592055787412392 -208.56469650512372 0 0 0 0 -296.69146186948637 140.05793185569019 0 140.05793185569019 -146.13124338417401 0 0 0 0 -258.68477028427151 225.7255567924708 0 225.7255567924708 18.307170863448846 0 0 0 0 -806.49881260797338 -265.2647255703082 0 -265.2647255703082 353.59322454749054 0 0 0 0 -0.66108711444141477 -1.4232021203877423 0 -1.4232021203877423 -7.0534695868667541 0 0 0 0 -951.16808123174997 -253.76052655669082 0 -253.76052655669082 411.26511449322243 0 0 0 0 0.3456480155544881 -3.1648628162012642 0 -3.1648628162012642 -15.396392538531721 0 0 0 0 742.31937633514463 -254.16284387432734 0 -254.16284387432734 -539.50276824324101 0 0 0 0 18.623462303134147 409.35553444687139 0 409.35553444687139 54.73688984456021 0 0 0 0 453.09866210780456 75.912639895945176 0 75.912639895945176 -251.15817646905271 0 0 0 0 -366.75660606459132 106.03126442442226 0 106.03126442442226 -57.22918274106496 0 0 0 0 -287.51506600195717 375.04264078445158 0 375.04264078445158 -29.44200843701401 0 0 0 0 4.3315408058115281 9.0546931409626268 0 9.0546931409626268 3.3811744039189762 0 0 0 0 -1345.6192430452065 182.07183850976708 0 182.07183850976708 -51.580687306470281 0 0 0 0 -1940.1691356965093 -92.92392009197647 0 -92.92392009197647 250.57673926760435 0 0 0 0 489.96735204163269 -86.682702687139681 0 -86.682702687139681 -216.82240852907307 0 0 0 0 -469.4697693990347 316.6493146360931 0 316.6493146360931 -58.71740156409578 0 0 0 0 -2.3107907083747552 9.5461149200536966 0 9.5461149200536966 -20.906873313494202 0 0 0 0 -840.96009879882331 -378.42394912264717 0 -378.42394912264717 -10.839485057498678 0 0 0 0 -495.0518665171403 -560.71102019124737 0 -560.71102019124737 -42.716724505797174 0 0 0 0 -1891.9632085869307 -161.02423218510739 0 -161.02423218510739 -40.862565544692274 0 0 0 0 -880.50723961671792 130.10714971160712 0 130.10714971160712 -499.1867722921852 0 0 0 0 -1429.6902551686399 246.51161817626962 0 246.51161817626962 -137.33444266543484 0 0 0 0 -1.7011945350136699 1.6299963855526585 0 1.6299963855526585 -8.17451731454792 0 0 0 0 -70.081401772069512 -318.04164073616903 0 -318.04164073616903 -333.99745871441701 0 0 0 0 -291.97527423300198 -125.32734194685645 0 -125.32734194685645 -260.2804996089526 0 0 0 0 -1298.1730845136335 299.72287716486153 0 299.72287716486153 18.324896782751239 0 0 0 0 -642.83415374995639 160.47343252997757 0 160.47343252997757 -484.41136302541418 0 0 0 0 -1415.3847698152276 -142.74274000184539 0 -142.74274000184539 112.21346371187792 0 0 0 0 -930.51276508709998 -234.7810034500244 0 -234.7810034500244 -446.88399012134573 0 0 0 0 564.02838077714114 -85.386945994346206 0 -85.386945994346206 359.58115682306379 0 0 0 0 0.36737195210906748 -3.5069696447056913 0 -3.5069696447056913 -13.346732853442234 0 0 0 0 742.95664351906453 -128.9308309995763 0 -128.9308309995763 -616.57662292201712 0 0 0 0 -291.8279054677696 -114.05615040070552 0 -114.05615040070552 134.56362952394693 0 0 0 0 -967.57094645024335 -131.67375461060033 0 -131.67375461060033 -13.230197349035734 0 0 0 0 668.00180748474668 -103.81569298922477 0 -103.81569298922477 -53.059479805604497 0 0 0 0 -2.3179748147143755 -5.5384353672771738 0 -5.5384353672771738 -9.4609517410921598 0 0 0 0 -326.33578161864716 175.3775870954305 0 175.3775870954305 -224.53185876460338 0 0 0 0 -621.01283601329305 35.549064243128782 0 35.549064243128782 47.226899755809427 0 0 0 0 -5.0870193235434158 -13.90148836625724 0 -13.90148836625724 -25.210780286854479 0 0 0 0 -585.75521193293389 -21.687013789924094 0 -21.687013789924094 344.48322441797609 0 0 0 0 874.43282531853765 -339.4181395102205 0 -339.4181395102205 -421.498798413646 0 0 0 0 -109.21296488446387 -446.60854448626742 0 -446.60854448626742 -87.478407606380642 0 0 0 0 -0.60698825713396332 -2.7243933824387909 0 -2.7243933824387909 -4.5615191887805082 0 0 0 0 510.37671757277349 631.78271505662224 0 631.78271505662224 958.73100929045177 0 0 0 0 -203.58071768065565 -78.66171104791556 0 -78.66171104791556 -84.606160242521582 0 0 0 0 -560.58424145633762 -17.310116006346107 0 -17.310116006346107 225.29435409334656 0 0 0 0 -593.33421546973113 101.37599997109783 0 101.37599997109783 69.05915313078367 0 0 0 0 -409.49058424838586 101.41214768458576 0 101.41214768458576 137.94071116907162 0 0 0 0 -598.47539725252136 -175.93857218798485 0 -175.93857218798485 225.60275015228945 0 0 0 0 101.26441003529908 -292.40534236227904 0 -292.40534236227904 -91.353303432488246 0 0 0 0 -5.2495538596140534 -18.588903478294128 0 -18.588903478294128 -24.836059096993562 0 0 0 0 727.4149378008442 -967.77440629797093 0 -967.77440629797093 -792.72962627555262 0 0 0 0 676.98500030468767 197.55211576364439 0 197.55211576364439 -411.23507538103149 0 0 0 0 -333.18576507279067 -319.2003795556484 0 -319.2003795556484 14.505388532520556 0 0 0 0 -1121.6761251090793 -179.13638285170236 0 -179.13638285170236 229.07953807222839 0 0 0 0 -347.94826966450819 -435.1190635747289 0 -435.1190635747289 -13.783506771344037 0 0 0 0 -1229.4239588826022 -844.11158647289176 0 -844.11158647289176 -192.37242444466301 0 0 0 0 -143.85450276853953 -471.88246438312808 0 -471.88246438312808 -644.1943309900671 0 0 0 0 186.6408353875886 -704.35931553034152 0 -704.35931553034152 -1283.9302721275585 0 0 0 0 -80.535687893250724 -583.47485733952453 0 -583.47485733952453 -461.176911896815 0 0 0 0 824.52379201962322 314.88426001492735 0 314.88426001492735 -567.34644509501231 0 0 0 0 -16.704248113923597 -11.7437227172787 0 -11.7437227172787 -3.0168826804473774 0 0 0 0 339.04886856473604 75.449513861311289 0 75.449513861311289 -105.70788719166285 0 0 0 0 413.81866351906501 49.51006154213519 0 49.51006154213519 -245.84611515969755 0 0 0 0 -722.41387507326726 831.84248692383062 0 831.84248692383062 470.0737419881616 0 0 0 0 -1684.8479564196023 771.61743692202708 0 771.61743692202708 481.28014571336553 0 0 0 0 -38.08599302093296 3.6546160523561255 0 3.6546160523561255 0.43922571272369826 0 0 0 0 -463.68692771304995 322.10640401262725 0 322.10640401262725 131.43437451919635 0 0 0 0 -529.05562504648697 738.16431586611452 0 738.16431586611452 219.60873261427696 0 0 0 0 -1660.1581303322164 -1479.5615480152728 0 -1479.5615480152728 -901.43871014527394 0 0 0 0 -2963.5233470326493 -828.50123496489323 0 -828.50123496489323 301.09214243181304 0 0 0 0 -2375.5415285643539 654.50466471595701 0 654.50466471595701 676.2317894966809 0 0 0 0 -1622.8465107765223 -231.64142142278433 0 -231.64142142278433 484.80745790592027 0 0 0 0 -1125.9494872489304 -146.29896823113904 0 -146.29896823113904 383.5767350950714 0 0 0 0 -1409.1765013517143 153.11054980905374 0 153.11054980905374 358.76490090229345 0 0 0 0 -831.06256782296259 254.69313391563537 0 254.69313391563537 141.82060087260834 0 0 0 0 -1026.7940141812142 419.25766862863929 0 419.25766862863929 283.72550228135879 0 0 0 0 -1550.659974065391 394.26832218500658 0 394.26832218500658 300.79852940918499 0 0 0 0 -1019.1748861483757 127.76624001225196 0 127.76624001225196 166.0139861074731 0 0 0 0 -725.12844100885559 217.76881124440479 0 217.76881124440479 153.98092880545755 0 0 0 0 -988.08734184967761 69.107550010784507 0 69.107550010784507 260.68744124149271 0 0 0 0 -1015.977231485027 90.122843164728692 0 90.122843164728692 368.61136385644613 0 0 0 0 -851.79177793764393 15.052476264361758 0 15.052476264361758 258.64192543565406 0 0 0 0 -1068.5684984095697 142.24160816679057 0 142.24160816679057 204.81069075211781 0 0 0 0 -784.03838769937283 105.07280890465972 0 105.07280890465972 95.972084191522299 0 0 0 0 -783.21798556795693 93.804108275334329 0 93.804108275334329 29.698549614891817 0 0 0 0 -916.49206558454898 78.237503269816898 0 78.237503269816898 186.07853874755983 0 0 0 0 -1039.6154013527957 -36.225909323938083 0 -36.225909323938083 79.69965932838204 0 0 0 0 -700.02491583564552 -105.80594839090099 0 -105.80594839090099 -61.478131222956108 0 0 0 0 -827.1852245117625 -141.40637376017366 0 -141.40637376017366 -7.7026356903916167 0 0 0 0 -716.43474054661056 -219.8399604765691 0 -219.8399604765691 -72.758444418956344 0 0 0 0 -500.17676004947862 -145.44483180906127 0 -145.44483180906127 -103.66941185620271 0 0 0 0 -508.97664683870971 -32.981874974499988 0 -32.981874974499988 -4.3502327173975743 0 0 0 0 -705.19579355864698 -69.284505503575019 0 -69.284505503575019 -4.2258847575167238 0 0 0 0 -375.41430798037982 -11.63959928594204 0 -11.63959928594204 -127.74707604902505 0 0 0 0 -502.41905647481326 -145.83144598265142 0 -145.83144598265142 8.9720605781840277 0 0 0 0 -530.00030931401125 -203.25820739097753 0 -203.25820739097753 -73.998422575353288 0 0 0 0 -0.71515150653577564 -2.7171669668432514 0 -2.7171669668432514 5.1737673015035881 0 0 0 0 -692.21510370064789 -173.31124320529898 0 -173.31124320529898 28.910650772440476 0 0 0 0 -477.57939924058155 -18.849560228607061 0 -18.849560228607061 1.2732585340836522 0 0 0 0 -560.30579674255569 -111.76689733837293 0 -111.76689733837293 -10.921074777015178 0 0 0 0 -0.69957096364892379 -2.0060929127291729 0 -2.0060929127291729 2.3427673025043632 0 0 0 0 -586.97910111324381 -270.53048353162842 0 -270.53048353162842 312.05851740344679 0 0 0 0 -513.64660524990177 -64.047595815755358 0 -64.047595815755358 75.653949343824934 0 0 0 0 -420.92159656868898 -189.5105153294071 0 -189.5105153294071 -98.874506194371861 0 0 0 0 -855.22073899806855 -358.9965857293912 0 -358.9965857293912 286.36505900317843 0 0 0 0 -211.61648228604463 -241.97995671813942 0 -241.97995671813942 253.41402726805939 0 0 0 0 -1441.3652552142303 -50.758047310115217 0 -50.758047310115217 562.65462499265595 0 0 0 0 -229.24794003237912 -91.271023771549153 0 -91.271023771549153 58.015637566789337 0 0 0 0 -294.78916246272274 372.19642525235986 0 372.19642525235986 61.772102760449343 0 0 0 0 -409.92213952905149 14.980472545394605 0 14.980472545394605 3.8961092018380441 0 0 0 0 -161.40428310990683 71.373363047725888 0 71.373363047725888 458.89743145194984 0 0 0 0 -195.27944284797195 40.49143004651296 0 40.49143004651296 190.52436726807355 0 0 0 0 -306.35720583093644 -258.98122235924347 0 -258.98122235924347 258.79334646073949 0 0 0 0 104.44158193684416 -309.09263656267376 0 -309.09263656267376 476.68008007857452 0 0 0 0 445.9749558318872 347.91912129637967 0 347.91912129637967 62.757757442766433 0 0 0 0 -308.21783847000916 1.1307847854918691 0 1.1307847854918691 901.99386410225179 0 0 0 0 -67.634775564769882 15.305439424280905 0 15.305439424280905 -0.42041663545045349 0 0 0 0 -3827.0684680571867 2586.2870226229952 0 2586.2870226229952 1820.9732234641269 0 0 0 0 -3020.9571222577142 -1390.0989121554185 0 -1390.0989121554185 637.39727178546673 0 0 0 0 1634.5743734194111 319.13721846042881 0 319.13721846042881 -981.59100478912114 0 0 0 0 -2036.7798659100954 336.72450336424754 0 336.72450336424754 -927.78155497576256 0 0 0 0 -2279.4089267755189 -1120.2804980814894 0 -1120.2804980814894 -992.09790108355264 0 0 0 0 -29.469801785121376 11.419688857457729 0 11.419688857457729 -3.7211567764582272 0 0 0 0 -1547.6890316002973 -684.35679592048791 0 -684.35679592048791 -39.579461984562386 0 0 0 0 -505.82289430747187 -539.16811413793744 0 -539.16811413793744 -43.819369865014778 0 0 0 0 772.63209728224319 1158.3027561331155 0 1158.3027561331155 -441.34235945493037 0 0 0 0 1369.8788567799929 542.60063002976858 0 542.60063002976858 -969.26721049535479 0 0 0 0 1381.8552145068388 612.10380988543898 0 612.10380988543898 -982.84660643595089 0 0 0 0 -3304.4814156359353 162.95840620763738 0 162.95840620763738 985.59966692024364 0 0 0 0 -856.62418308817723 839.12373553040379 0 839.12373553040379 -487.32261077845624 0 0 0 0 -1720.4701827742392 812.43684726194988 0 812.43684726194988 1199.2208739486041 0 0 0 0 46.86144816839078 -720.52983960865595 0 -720.52983960865595 -481.52340851994722 0 0 0 0 -1521.7951534778258 1364.5891410537552 0 1364.5891410537552 1439.5859121955477 0 0 0 0 -50.819026865973228 28.416607313911982 0 28.416607313911982 -13.603888495991132 0 0 0 0 -1160.6332296692199 -894.63081579806158 0 -894.63081579806158 -691.16333501707277 0 0 0 0 -775.4534773006344 -261.12009174485115 0 -261.12009174485115 -96.604861743706806 0 0 0 0 -601.29632132017286 -362.11465313829308 0 -362.11465313829308 -112.62377648968868 0 0 0 0 -282.20812807776383 124.49202348498761 0 124.49202348498761 46.200668388347367 0 0 0 0 -673.19680568791227 446.07496863291658 0 446.07496863291658 -241.22261370968954 0 0 0 0 -1935.4034508192199 -127.8599235543104 0 -127.8599235543104 315.42626615782638 0 0 0 0 -1736.5171700211358 -206.58249086225123 0 -206.58249086225123 28.782968764515317 0 0 0 0 -18.234457206314403 11.389592778640321 0 11.389592778640321 -9.3922189729735202 0 0 0 0 -2757.1430174552952 -1762.5859432885418 0 -1762.5859432885418 -873.59397166484359 0 0 0 0 -3587.028349255168 -343.97498580122419 0 -343.97498580122419 95.626440759732304 0 0 0 0 -1746.6933433137601 -275.91827935062247 0 -275.91827935062247 -145.24731257127814 0 0 0 0 -2288.7307307027804 -359.88492506093985 0 -359.88492506093985 305.41467598348709 0 0 0 0 -1590.5899511113821 -411.76580776802484 0 -411.76580776802484 262.06352854606973 0 0 0 0 -1417.9538617926155 264.30366722382905 0 264.30366722382905 374.26429903026383 0 0 0 0 -667.44218423689745 -215.17211130242379 0 -215.17211130242379 346.64504015668081 0 0 0 0 182.2400323128677 818.99208700916336 0 818.99208700916336 122.79648091513957 0 0 0 0 -10.184946284679853 8.8409806431434959 0 8.8409806431434959 -2.6286663592976485 0 0 0 0 815.48144055181183 326.20183590704892 0 326.20183590704892 -278.28676912553556 0 0 0 0 -624.87292697936209 269.1606217822727 0 269.1606217822727 396.38181472748147 0 0 0 0 845.70223366541904 535.75904754220937 0 535.75904754220937 150.91968160975921 0 0 0 0 -2.8476766036525589 3.0796365364017788 0 3.0796365364017788 -2.8949607011705591 0 0 0 0 -1513.4799450242717 -289.43408020919196 0 -289.43408020919196 176.77681371291783 0 0 0 0 -623.25932753117377 -78.097661850566965 0 -78.097661850566965 113.66479245775326 0 0 0 0 -412.79996654954448 -24.606979602325509 0 -24.606979602325509 -71.886469002513877 0 0 0 0 -383.54482675525651 -125.62713196258903 0 -125.62713196258903 113.81687972337841 0 0 0 0 -69.357649720128393 -125.51782345165105 0 -125.51782345165105 80.506315179571175 0 0 0 0 -76.540857547617634 -46.441690880411898 0 -46.441690880411898 -44.072177419505351 0 0 0 0 -438.51366229279665 -231.60150007102902 0 -231.60150007102902 -120.90272804327299 0 0 0 0 -434.17615317003219 52.559557957272318 0 52.559557957272318 23.119689089946405 0 0 0 0 -84.394647396635264 536.11004841469321 0 536.11004841469321 174.88866812815832 0 0 0 0 243.09812099827104 -193.42215039313123 0 -193.42215039313123 -52.171645541921521 0 0 0 0 -44.581137780449353 -240.2832395379246 0 -240.2832395379246 287.34030806794499 0 0 0 0 -160.67242914663802 82.040728867631515 0 82.040728867631515 230.20967558542179 0 0 0 0 -98.063290260041128 -14.209627639875119 0 -14.209627639875119 3.7141108062915356 0 0 0 0 -14.211535661874564 8.650649791437786 0 8.650649791437786 2.6634896769244611 0 0 0 0 177.7811655479527 246.68586207977546 0 246.68586207977546 -173.37043228859602 0 0 0 0 307.82609776129539 399.62029869164303 0 399.62029869164303 416.69559828101319 0 0 0 0 -100.72708630449415 -544.46818011594155 0 -544.46818011594155 -14.273678125713559 0 0 0 0 182.89220452037989 657.74677698739288 0 657.74677698739288 -1243.2062658239802 0 0 0 0 -7.1216156608124379 -0.5175498969060115 0 -0.5175498969060115 -0.36062516476417361 0 0 0 0 -3944.1678810820013 254.88079012743128 0 254.88079012743128 1069.7649946271158 0 0 0 0 -807.7772519561986 1687.4817314138327 0 1687.4817314138327 38.465711405853654 0 0 0 0 -709.67114610149292 -1870.6425124146681 0 -1870.6425124146681 -879.71848691316518 0 0 0 0 1582.9930318748411 -2443.0173851739182 0 -2443.0173851739182 -2284.872561648006 0 0 0 0 -945.20556063193362 -2305.0423760118701 0 -2305.0423760118701 -978.79872276587503 0 0 0 0 -34.666566745656098 -8.723765188068036 0 -8.723765188068036 -2.4467737600190329 0 0 0 0 -1462.0932873867496 -27.272250530120573 0 -27.272250530120573 186.91445045014007 0 0 0 0 -306.2021144485916 460.55895341643804 0 460.55895341643804 -293.89240056541803 0 0 0 0 490.99951634011813 -77.891731496114517 0 -77.891731496114517 -90.809739987244484 0 0 0 0 -947.21348836015386 272.75848446868804 0 272.75848446868804 1455.9141078558168 0 0 0 0 -83.17058129809044 -15.669304529230647 0 -15.669304529230647 -2.0278716070188643 0 0 0 0 526.283365885698 163.55597577716526 0 163.55597577716526 478.16294912166177 0 0 0 0 -950.5980020382849 -80.853430635215773 0 -80.853430635215773 545.68744488344328 0 0 0 0 -1165.7535073843901 143.91972981256094 0 143.91972981256094 210.4690055653009 0 0 0 0 -1145.7292983917141 89.021598972316497 0 89.021598972316497 117.06273029667682 0 0 0 0 -904.31516103311878 59.541235677606437 0 59.541235677606437 98.990782700217096 0 0 0 0 -862.44799086590501 168.37730205663934 0 168.37730205663934 84.280815799342236 0 0 0 0 -791.41629536112305 468.43180071985807 0 468.43180071985807 -324.27669564034295 0 0 0 0 -828.21536480880604 265.14032328080134 0 265.14032328080134 -97.360540952446172 0 0 0 0 -1279.7977006651054 336.02391439048006 0 336.02391439048006 17.078206571895862 0 0 0 0 -476.00548954395344 231.76059181562141 0 231.76059181562141 -195.08421494312097 0 0 0 0 -1159.2648413844145 69.339068344696898 0 69.339068344696898 7.5628953139184887 0 0 0 0 -1024.0031910739744 181.01030246034776 0 181.01030246034776 71.977952097797242 0 0 0 0 -1477.9468691270158 271.09582281007351 0 271.09582281007351 76.122569243529142 0 0 0 0 -1725.8712973214424 201.93407924318126 0 201.93407924318126 220.10351421261657 0 0 0 0 -1339.0400001358939 243.38781568198829 0 243.38781568198829 61.26363249447968 0 0 0 0 -1488.6580166751592 11.823557408354645 0 11.823557408354645 282.10448033436842 0 0 0 0 -1713.1591410313267 -130.50545167906785 0 -130.50545167906785 305.14519009541868 0 0 0 0 -1317.5976507864398 -370.65366740852278 0 -370.65366740852278 -212.64401119872491 0 0 0 0 -4.7858090557795379 -2.0563234585887642 0 -2.0563234585887642 1.0283295497491807 0 0 0 0 -252.83050569801708 -1182.4787830348268 0 -1182.4787830348268 520.45009582280272 0 0 0 0 -1521.1439821209933 248.84635974927687 0 248.84635974927687 1054.3133561221148 0 0 0 0 529.75054084746807 -607.29390657244403 0 -607.29390657244403 14.110600818781677 0 0 0 0 342.89103056320164 -481.77304413983984 0 -481.77304413983984 198.09133636543265 0 0 0 0 -4.6166639482269716 0.51988388009921493 0 0.51988388009921493 3.7134452656558565 0 0 0 0 -1635.1337108342432 891.72758581096048 0 891.72758581096048 -322.82125935433214 0 0 0 0 -8.6927153324980679 -1.5098814118661181 0 -1.5098814118661181 3.3229819306574129 0 0 0 0 319.1961329599435 -289.55243477266032 0 -289.55243477266032 481.07461318100195 0 0 0 0 -259.64298760554811 500.02944640776332 0 500.02944640776332 589.65037009760817 0 0 0 0 349.50905922162929 280.65859999175154 0 280.65859999175154 324.58997931957856 0 0 0 0 -589.35677365299489 706.91381161666777 0 706.91381161666777 96.563395962017239 0 0 0 0 -1044.9297834621248 78.795696182814027 0 78.795696182814027 322.88829524099856 0 0 0 0 -506.83558300559525 -767.77284107113883 0 -767.77284107113883 32.348812208198069 0 0 0 0 65.015990501953638 360.02510021981561 0 360.02510021981561 23.57571854696107 0 0 0 0 -168.64264498381817 359.82943168973725 0 359.82943168973725 323.82002468468454 0 0 0 0 -162.47600911631434 452.15852843959271 0 452.15852843959271 64.881582480189536 0 0 0 0 -131.48031158065714 321.80091208471458 0 321.80091208471458 253.73173618802957 0 0 0 0 -213.78494664793834 61.455862459979471 0 61.455862459979471 636.92991040702805 0 0 0 0 -128.17265907686669 88.918040015715178 0 88.918040015715178 114.19769134530179 0 0 0 0 284.87496626621578 -393.30550096292336 0 -393.30550096292336 433.6388372475194 0 0 0 0 161.18976836180082 -244.10898948919476 0 -244.10898948919476 370.23256579510053 0 0 0 0 -495.547105882084 179.56808370574072 0 179.56808370574072 -170.07889817973046 0 0 0 0 -8.5769320393379758 1.2457258497935584 0 1.2457258497935584 10.077261914692954 0 0 0 0 -343.72416807137779 242.32227140540635 0 242.32227140540635 -154.4602745610473 0 0 0 0 -621.10638665049919 129.09719129535551 0 129.09719129535551 -60.896119373312104 0 0 0 0 -373.29385369071679 129.36639196420037 0 129.36639196420037 -67.718635809116677 0 0 0 0 -372.20676678532618 123.17380184195463 0 123.17380184195463 -103.62904579184033 0 0 0 0 -8.7169725875959614 3.8598420730915706 0 3.8598420730915706 15.399235304843039 0 0 0 0 -123.61097520641124 142.42886326339158 0 142.42886326339158 -240.87714365480679 0 0 0 0 -110.2331981058669 190.28348237598402 0 190.28348237598402 -178.64375158670555 0 0 0 0 215.05808455251099 -253.09757944235298 0 -253.09757944235298 365.16200998946988 0 0 0 0 238.24580727941066 -224.49081195426879 0 -224.49081195426879 344.09056301713201 0 0 0 0 -35.705205106714857 15.639807670366736 0 15.639807670366736 189.06911002779725 0 0 0 0 90.320736345034675 53.08387156444951 0 53.08387156444951 -36.488212434556772 0 0 0 0 -246.31312560610968 221.59654938110498 0 221.59654938110498 -69.087549015514014 0 0 0 0 -206.81755200514453 175.26170829560397 0 175.26170829560397 -60.436842594577683 0 0 0 0 -161.665175859991 299.82465913114447 0 299.82465913114447 -200.60395701413654 0 0 0 0 -3.7279133208164978 0.38994153068185256 0 0.38994153068185256 2.3630222236037 0 0 0 0 200.22152777789597 -215.26567336446033 0 -215.26567336446033 346.23607799955425 0 0 0 0 -86.261186646937858 154.24930397373009 0 154.24930397373009 -183.29852638961518 0 0 0 0 -178.74835772172082 169.8076015759998 0 169.8076015759998 23.969712888534559 0 0 0 0 -133.60995761267259 232.25760676159007 0 232.25760676159007 44.991368411681833 0 0 0 0 -156.05685376128895 227.87537561832869 0 227.87537561832869 69.13230093598213 0 0 0 0 -62.435473958365037 260.69688981370837 0 260.69688981370837 78.237622525410188 0 0 0 0 -1.0572991121880477 238.67151142646435 0 238.67151142646435 75.119316321013685 0 0 0 0 -144.09156266672653 192.79394340117051 0 192.79394340117051 18.198167040578483 0 0 0 0 -100.37199771494852 210.80915928702598 0 210.80915928702598 115.73823478973281 0 0 0 0 -128.58869767206488 220.574119558034 0 220.574119558034 110.50597935211795 0 0 0 0 -84.838202880797326 180.02375063371619 0 180.02375063371619 67.872966664554042 0 0 0 0 -158.67041184258414 187.7218653717573 0 187.7218653717573 68.205343450640612 0 0 0 0 -197.21201481255412 156.76514531101611 0 156.76514531101611 -18.989216638328799 0 0 0 0 -130.21076924580848 171.25213464309763 0 171.25213464309763 -22.054182394991585 0 0 0 0 -147.07735133534879 161.90370520252418 0 161.90370520252418 24.951496399409734 0 0 0 0 -141.79127119336044 175.41042971852403 0 175.41042971852403 -92.04491437275874 0 0 0 0 -146.86702474162303 121.7484009980667 0 121.7484009980667 -35.209792021149042 0 0 0 0 -292.69722189405002 97.853098191629215 0 97.853098191629215 -0.60005580400274994 0 0 0 0 -172.8633064727328 122.42403397568182 0 122.42403397568182 49.313237944592402 0 0 0 0 -147.40670855439384 78.711572441687167 0 78.711572441687167 92.809278378854287 0 0 0 0 -117.8363905207807 186.41466335645691 0 186.41466335645691 58.622822328463371 0 0 0 0 -185.67584089607408 21.989071222964412 0 21.989071222964412 -59.356136695167152 0 0 0 0 -237.729810368779 124.43686005127165 0 124.43686005127165 76.339524297334719 0 0 0 0 -277.11113184028363 76.302027709436516 0 76.302027709436516 -11.109590258882236 0 0 0 0 -466.64125744933699 -34.959126482622196 0 -34.959126482622196 12.629914501900203 0 0 0 0 -573.67765118778334 70.267028376641974 0 70.267028376641974 68.705631738992906 0 0 0 0 -201.47484519737191 186.09321762503896 0 186.09321762503896 -38.710112442272134 0 0 0 0 -189.80486675633438 157.14557603653566 0 157.14557603653566 -41.438901387571605 0 0 0 0 -390.80409844739188 255.9939580276573 0 255.9939580276573 19.92391048673926 0 0 0 0 -65.68971606688865 326.0090058558153 0 326.0090058558153 -105.06183271424925 0 0 0 0 -894.3793686479039 364.0430046068409 0 364.0430046068409 189.09941084523962 0 0 0 0 -385.85111192283603 205.74182186383678 0 205.74182186383678 165.46240016727643 0 0 0 0 -913.62553431210108 406.95928556389981 0 406.95928556389981 109.37399200771961 0 0 0 0 -533.07177422649693 998.85905975440028 0 998.85905975440028 -1378.3232241041815 0 0 0 0 -2290.8629411371912 760.04095740712592 0 760.04095740712592 102.75474604392639 0 0 0 0 -162.75590395054314 508.86931886896264 0 508.86931886896264 -332.55127861450728 0 0 0 0 61.24575704542076 117.16707494528441 0 117.16707494528441 27.486631267232951 0 0 0 0 -12.512195559320389 70.009459269101171 0 70.009459269101171 -96.066833164283025 0 0 0 0 66.313620704633649 236.71380566641346 0 236.71380566641346 138.54101914523153 0 0 0 0 -13.901852808978276 7.8326263747506033 0 7.8326263747506033 28.202810770770313 0 0 0 0 405.6109743432462 -747.91207860526652 0 -747.91207860526652 279.26216725061477 0 0 0 0 1012.5532853398581 -945.223040847947 0 -945.223040847947 34.91453683387499 0 0 0 0 -106.95012972294353 -0.80181771359639242 0 -0.80181771359639242 57.096662276558618 0 0 0 0 -626.38292146089952 -577.02407652593956 0 -577.02407652593956 -1163.450617210277 0 0 0 0 -1236.7395543154562 -504.74121157218542 0 -504.74121157218542 -129.17172218919313 0 0 0 0 133.67263485057629 244.59206427697217 0 244.59206427697217 -364.55934055862144 0 0 0 0 -12.080365854951765 5.9902287226749493 0 5.9902287226749493 5.9970285702974699 0 0 0 0 -1359.6637786329957 789.98294006986282 0 789.98294006986282 1200.0328007438227 0 0 0 0 292.68643928071833 -502.79572158152905 0 -502.79572158152905 -830.82936964178657 0 0 0 0 140.08252129540779 -6.832510805928905 0 -6.832510805928905 -877.355276685994 0 0 0 0 1179.4279464081337 340.28882941333899 0 340.28882941333899 159.36056427605098 0 0 0 0 -365.51499991217861 266.82348659613581 0 266.82348659613581 -651.11391796718817 0 0 0 0 -670.82688650628552 82.635639395498401 0 82.635639395498401 -175.70074256705993 0 0 0 0 -394.05371259246022 -21.324562300352227 0 -21.324562300352227 -225.01384092268745 0 0 0 0 -670.82688650640193 82.635639395503858 0 82.635639395503858 -175.70074256704538 0 0 0 0 -83.464452126732795 -123.08078033553602 0 -123.08078033553602 -260.11292386572768 0 0 0 0 -295.52398729256674 45.757445798542562 0 45.757445798542562 -136.40550233492377 0 0 0 0 -259.08898139870871 -148.27808025068373 0 -148.27808025068373 -120.34233192610191 0 0 0 0 207.2619850623305 -192.85734595378744 0 -192.85734595378744 -799.73282203999906 0 0 0 0 44.21469066895952 -604.3488129722366 0 -604.3488129722366 84.624736495246907 0 0 0 0 -281.53008898018743 -49.956887300712879 0 -49.956887300712879 817.56314501144243 0 0 0 0 -97.271784831842524 468.1868967597884 0 468.1868967597884 801.50129609781777 0 0 0 0 -65.947453026002563 34.871621211359141 0 34.871621211359141 -14.398180559432806 0 0 0 0 -164.57825100448099 -126.80456721265364 0 -126.80456721265364 -40.342304728799718 0 0 0 0 -355.32102200909867 -16.271579814567758 0 -16.271579814567758 410.20503158831798 0 0 0 0 101.16486410761718 164.4148516003338 0 164.4148516003338 238.06796774040981 0 0 0 0 -166.60032093228074 -114.021388754496 0 -114.021388754496 72.155296163056846 0 0 0 0 -162.50670780177461 -102.71404986329253 0 -102.71404986329253 70.674116908088763 0 0 0 0 -190.33341136184754 -80.773873322597865 0 -80.773873322597865 147.04374871518485 0 0 0 0 -238.11513524365728 -55.088119017992994 0 -55.088119017992994 270.4354465188726 0 0 0 0 -82.994934601039859 -51.437319864967776 0 -51.437319864967776 185.51305743112107 0 0 0 0 -188.95201129623456 -155.88806291510741 0 -155.88806291510741 83.608960042869512 0 0 0 0 -299.6984451811295 -121.25510142877647 0 -121.25510142877647 77.874912618965027 0 0 0 0 -210.75009832758224 -245.83558419921883 0 -245.83558419921883 -18.466080494124981 0 0 0 0 -172.84783530417189 -177.91838077058515 0 -177.91838077058515 -0.28815145503449457 0 0 0 0 -193.54195390586392 -160.42330027826029 0 -160.42330027826029 116.33758927816325 0 0 0 0 -170.32037655380554 -224.8831348902122 0 -224.8831348902122 -123.58798557387763 0 0 0 0 -22.414006863496411 -18.951317288924749 0 -18.951317288924749 14.840396840652241 0 0 0 0 -301.11773005616851 -236.90284676992178 0 -236.90284676992178 -16.331148286928965 0 0 0 0 -432.84262355300598 -154.86606339752507 0 -154.86606339752507 -67.422265601690015 0 0 0 0 -455.65193275525235 -189.0532619802384 0 -189.0532619802384 61.048863031064684 0 0 0 0 -505.49753436178435 -123.74753685379073 0 -123.74753685379073 15.105202949695922 0 0 0 0 -670.82688650617274 82.635639395505564 0 82.635639395505564 -175.70074256707449 0 0 0 0 -56.368978276223061 -12.301531659676584 0 -12.301531659676584 49.051691190108613 0 0 0 0 24.919362778855429 -69.165624736781865 0 -69.165624736781865 34.700782132666063 0 0 0 0 -13.255008128172499 -4.8580147114818431 0 -4.8580147114818431 12.891080435160724 0 0 0 0 -133.02141346558346 -54.300565215256938 0 -54.300565215256938 -16.168344266708573 0 0 0 0 -103.54641865144367 -112.16349111118598 0 -112.16349111118598 -123.42640692578212 0 0 0 0 -90.050652488775086 -3.76746113715717 0 -3.76746113715717 26.393226269469778 0 0 0 0 -23.355361461474871 -21.660616781668153 0 -21.660616781668153 32.391194323824685 0 0 0 0 -159.39127082428604 -47.941184477401976 0 -47.941184477401976 88.463247948019671 0 0 0 0 -137.5052189748385 -100.41361692912051 0 -100.41361692912051 -20.202001774621749 0 0 0 0 -162.45224801154109 -59.586804857893185 0 -59.586804857893185 45.22162299307638 0 0 0 0 -64.688739852593528 -5.8071819970170466 0 -5.8071819970170466 14.755134614526281 0 0 0 0 -88.334349205739272 -7.2443386897455184 0 -7.2443386897455184 33.062584558210801 0 0 0 0 -81.975136574095814 -13.264588991914707 0 -13.264588991914707 27.536011559436929 0 0 0 0 -71.028124006392318 -24.222946288259664 0 -24.222946288259664 23.721573483202519 0 0 0 0 -123.21090113655373 -14.246089225654941 0 -14.246089225654941 57.318496864634653 0 0 0 0 0.55187284980507201 1.181897413599529 0 1.181897413599529 2.9499413758570441 0 0 0 0 -89.294763451423933 25.689428280439472 0 25.689428280439472 7.2561470059881685 0 0 0 0 11.500247112839133 187.12604056741839 0 187.12604056741839 154.14013276545302 0 0 0 0 -96.441904515944771 -78.014539062877702 0 -78.014539062877702 44.135862811534025 0 0 0 0 122.95474856164947 -25.485974471326699 0 -25.485974471326699 -126.84916718000022 0 0 0 0 -9.3068454118148338 5.627754965109844 0 5.627754965109844 19.868280581802114 0 0 0 0 431.8850242421031 168.14240103173961 0 168.14240103173961 -131.53177009123101 0 0 0 0 -20.254245175048709 381.7367465855441 0 381.7367465855441 331.01920160210648 0 0 0 0 394.84783387734115 -328.52819788054182 0 -328.52819788054182 214.93062112730695 0 0 0 0 -99.246776995190885 -37.886619986997175 0 -37.886619986997175 -297.56156541609562 0 0 0 0 -209.75704411714105 196.27385164340183 0 196.27385164340183 415.83586546220249 0 0 0 0 -320.8915897267434 -228.89735452049354 0 -228.89735452049354 243.09431367713478 0 0 0 0 -229.82429213732939 40.72070158696522 0 40.72070158696522 129.78706407840946 0 0 0 0 -170.03424436031491 103.36258988674308 0 103.36258988674308 97.609110951165349 0 0 0 0 -162.46287432899771 62.496119196187237 0 62.496119196187237 -89.518177914982516 0 0 0 0 -671.78207247063983 115.65220286631848 0 115.65220286631848 15.355785353194733 0 0 0 0 -320.78921239713964 98.451597065691885 0 98.451597065691885 -37.609265752882493 0 0 0 0 -336.55502306603012 145.44778256032987 0 145.44778256032987 193.72009065227576 0 0 0 0 -601.69704754736449 -35.719170218861109 0 -35.719170218861109 159.80913332219279 0 0 0 0 67.620028190111043 -217.75033173871634 0 -217.75033173871634 301.03935245495541 0 0 0 0 1.5943777754766586 1.0878989475706362 0 1.0878989475706362 0.48720758981226453 0 0 0 0 -198.6858801683411 -83.444669612916186 0 -83.444669612916186 411.31947168022998 0 0 0 0 -230.521016271392 96.128249280367527 0 96.128249280367527 236.704082646389 0 0 0 0 -89.154224901905764 19.691179457637645 0 19.691179457637645 253.9322176914211 0 0 0 0 -24.284800071293063 3.3817920055208646 0 3.3817920055208646 8.9598871154829922 0 0 0 0 -14.781534361172817 -26.670033010821498 0 -26.670033010821498 66.096211024078002 0 0 0 0 -79.619521652159165 -17.10010086935381 0 -17.10010086935381 65.535822603543295 0 0 0 0 -498.23768175105943 162.22755524389004 0 162.22755524389004 25.060275356318016 0 0 0 0 -104.45810584900619 7.4621719148822194 0 7.4621719148822194 1.5096318509224904 0 0 0 0 -560.62181140072062 344.48916176039529 0 344.48916176039529 -29.722671721632651 0 0 0 0 -376.19512594393746 13.493506604206686 0 13.493506604206686 132.28320696240917 0 0 0 0 -1644.1611746864219 739.19986272008464 0 739.19986272008464 -422.78139046230626 0 0 0 0 0.71507524993427296 -0.00069337679990155721 0 -0.00069337679990155721 -1.7401448458977953 0 0 0 0 -841.99285830472945 689.74961688311669 0 689.74961688311669 81.82463642213952 0 0 0 0 -33.79009488693427 1.4267720807123396 0 1.4267720807123396 9.3380719550938167 0 0 0 0 -1147.5315235218004 636.51845014469473 0 636.51845014469473 81.644681901274453 0 0 0 0 -906.21658510914131 294.95016878502884 0 294.95016878502884 -181.55384786401919 0 0 0 0 -432.27360477847105 449.38793754973631 0 449.38793754973631 -147.45292060103202 0 0 0 0 -671.25041527574649 -231.67521303980175 0 -231.67521303980175 -286.25704317188865 0 0 0 0 -1018.6669384841443 -215.48507007239368 0 -215.48507007239368 -89.780335416911839 0 0 0 0 -1451.4565255738344 8.3722866987509406 0 8.3722866987509406 141.18563824866033 0 0 0 0 -1243.9701573697675 56.535247879640337 0 56.535247879640337 1.0499628880043019 0 0 0 0 -1464.2041167433636 123.64985522760526 0 123.64985522760526 -37.428797213640792 0 0 0 0 -1326.355569265681 202.44155580286679 0 202.44155580286679 96.774518046153389 0 0 0 0 -1493.2402209255815 181.62532500157249 0 181.62532500157249 -298.37991536453046 0 0 0 0 -1434.6002299340325 58.741062567232802 0 58.741062567232802 -45.325580806942298 0 0 0 0 -357.20591578932363 -369.05572451905482 0 -369.05572451905482 430.0014896542707 0 0 0 0 -325.92279298673384 86.737559944956956 0 86.737559944956956 174.86417858751156 0 0 0 0 -862.40826606754854 -106.56933102349149 0 -106.56933102349149 -68.962040197169699 0 0 0 0 -700.24732913146727 103.58706210179116 0 103.58706210179116 24.056178684331826 0 0 0 0 -779.99060345750331 -56.718273436482377 0 -56.718273436482377 15.927238567906898 0 0 0 0 -1240.960739808248 79.659598353058868 0 79.659598353058868 155.56874807018175 0 0 0 0 -1362.3815039770707 -30.174578876592932 0 -30.174578876592932 134.19526842138657 0 0 0 0 -2653.156846588955 -6.9701746883565647 0 -6.9701746883565647 48.808249672347301 0 0 0 0 -1332.2735005847062 221.87566152267482 0 221.87566152267482 -53.260275421311235 0 0 0 0 -429.40763838929706 -3.6237872744129334 0 -3.6237872744129334 137.35109488310343 0 0 0 0 -557.62858957891876 91.606748674847267 0 91.606748674847267 71.834467397044534 0 0 0 0 -556.08289675490232 104.16482073457064 0 104.16482073457064 128.43149049991609 0 0 0 0 -609.50662587897386 106.13101136229108 0 106.13101136229108 149.95623502663483 0 0 0 0 -598.66038431671041 42.485494980885903 0 42.485494980885903 112.82567017581005 0 0 0 0 -668.52298524625076 125.60841088220155 0 125.60841088220155 143.54045692542059 0 0 0 0 -599.61638265507645 61.630944559714749 0 61.630944559714749 190.06659317040055 0 0 0 0 -285.66392656773678 83.543903718377919 0 83.543903718377919 68.423232131543728 0 0 0 0 -545.06061431731359 133.74922536588971 0 133.74922536588971 36.30607920140983 0 0 0 0 -633.50926145375706 -41.643469282468004 0 -41.643469282468004 37.251102667061559 0 0 0 0 -120.2242269873276 -16.25138001206308 0 -16.25138001206308 21.500539233998698 0 0 0 0 -572.29046651504177 -103.29163859519474 0 -103.29163859519474 -139.71539600187043 0 0 0 0 -1431.7422793426231 635.48155268013807 0 635.48155268013807 765.54256298152541 0 0 0 0 -828.36539980433008 216.02910555662271 0 216.02910555662271 -104.18858704799459 0 0 0 0 -119.62909074244038 -16.505201312031595 0 -16.505201312031595 12.972507169775451 0 0 0 0 -725.30599662734312 111.72636165083918 0 111.72636165083918 -302.19499978050374 0 0 0 0 -790.08254086104716 204.48776796444756 0 204.48776796444756 47.741017823756465 0 0 0 0 -648.49763036431978 47.097692787448295 0 47.097692787448295 -26.819061199282089 0 0 0 0 -573.63170235755388 231.53668823659626 0 231.53668823659626 -176.96923306695794 0 0 0 0 -45.580361841939293 -23.724793107653795 0 -23.724793107653795 -21.747719508828947 0 0 0 0 -940.60584087744792 327.81194984038302 0 327.81194984038302 -182.53090954095433 0 0 0 0 -501.9080506041937 170.22968253332192 0 170.22968253332192 -33.135605613132157 0 0 0 0 -347.54429788573179 308.51683586899526 0 308.51683586899526 -163.20743521585609 0 0 0 0 -407.76782832891331 51.65496334102545 0 51.65496334102545 -19.860828413664422 0 0 0 0 -13.050163368047635 -13.513089072111455 0 -13.513089072111455 -14.380185514711762 0 0 0 0 -1022.4704098418588 311.28122843984988 0 311.28122843984988 -46.638381819391725 0 0 0 0 -614.32356796823296 237.6200388959993 0 237.6200388959993 -28.429774800810264 0 0 0 0 -495.6163147589541 246.62304090202872 0 246.62304090202872 -28.040807991304632 0 0 0 0 -406.73909526399802 149.6072346205375 0 149.6072346205375 73.580124548854428 0 0 0 0 -604.20982018936775 99.81662980870459 0 99.81662980870459 139.32075642666359 0 0 0 0 -600.21561120040133 133.83149135078838 0 133.83149135078838 49.788003975105212 0 0 0 0 -0.84194687812821178 0.51480223238368694 0 0.51480223238368694 1.0877566618120715 0 0 0 0 -459.34768503002124 143.08645269006209 0 143.08645269006209 94.247706574430254 0 0 0 0 -605.92782211909071 163.16440302785179 0 163.16440302785179 166.85696798485799 0 0 0 0 -769.80857801382081 1.2416088893546089 0 1.2416088893546089 52.105497691709388 0 0 0 0 -647.64753684817697 -53.610979719365787 0 -53.610979719365787 -14.69907119188133 0 0 0 0 -526.68687293559196 -56.901735599972312 0 -56.901735599972312 -29.332201089853697 0 0 0 0 -657.1687005632848 82.085621561838934 0 82.085621561838934 55.65117161310036 0 0 0 0 -852.44379961851519 36.653653481370839 0 36.653653481370839 95.167518695550598 0 0 0 0 -429.37927495173062 -328.56989609373755 0 -328.56989609373755 -785.08285741039265 0 0 0 0 -618.80129073793069 -132.85915680921585 0 -132.85915680921585 -8.6803593598473867 0 0 0 0 -700.82432882950525 -129.35488706121225 0 -129.35488706121225 15.034089342367224 0 0 0 0 -53.190324351089657 4.8136344183791948 0 4.8136344183791948 -11.419702242935045 0 0 0 0 311.7616397472957 -158.93797256995504 0 -158.93797256995504 -277.0598658782601 0 0 0 0 -359.70897471802891 419.114795417452 0 419.114795417452 -149.61203000513297 0 0 0 0 -12.334016720937655 -15.916140331049178 0 -15.916140331049178 -2.187599824090432 0 0 0 0 -287.96907966432627 45.561778384719332 0 45.561778384719332 83.412551284902065 0 0 0 0 -210.94787090041791 177.7225447894528 0 177.7225447894528 341.78866113445929 0 0 0 0 -45.645555646755383 -0.37191638615036027 0 -0.37191638615036027 -7.8667968350921456 0 0 0 0 -25.460078917752895 -16.208109104597526 0 -16.208109104597526 0.79830195577040208 0 0 0 0 -137.77635494945571 -435.41059085421682 0 -435.41059085421682 -124.6878133021562 0 0 0 0 -1219.1166977761604 -136.73823998560533 0 -136.73823998560533 323.88740654529335 0 0 0 0 -199.03593883675057 406.84970756928715 0 406.84970756928715 211.52008634458434 0 0 0 0 -374.69113348550673 -99.627991786964287 0 -99.627991786964287 -4.1577398647511927 0 0 0 0 -1074.2333749044046 1188.1043319445007 0 1188.1043319445007 -133.67461969561441 0 0 0 0 -7.0985680291017843 -4.247647859539768 0 -4.247647859539768 -1.7491332128291914 0 0 0 0 -394.34138245153008 -121.06958373914449 0 -121.06958373914449 -357.10280883299993 0 0 0 0 -197.07392366739805 -168.26828240247232 0 -168.26828240247232 -193.07883173779828 0 0 0 0 -39.934414312990953 -30.010142185242159 0 -30.010142185242159 12.40383255517812 0 0 0 0 -90.274533839692594 0.081710579640912329 0 0.081710579640912329 8.6323973130411105 0 0 0 0 -239.26981659591547 160.6757611707576 0 160.6757611707576 124.70105771378257 0 0 0 0 -13.99500936408856 -9.9381806170257363 0 -9.9381806170257363 4.5417604772534457 0 0 0 0 -87.892561742191901 1.9484265477653935 0 1.9484265477653935 9.7325725119922026 0 0 0 0 -83.289170451214886 -9.92037616599373 0 -9.92037616599373 19.034196948206045 0 0 0 0 -56.445510393864083 -21.612601807555336 0 -21.612601807555336 26.261444979436046 0 0 0 0 -85.336584747084999 -0.40234080523066496 0 -0.40234080523066496 7.0412158977542276 0 0 0 0 -202.18425804335857 40.633030364467686 0 40.633030364467686 88.709727525672861 0 0 0 0 -24.650834761145134 -14.414379811868429 0 -14.414379811868429 22.017171578277555 0 0 0 0 -161.47238654262037 25.466609752074419 0 25.466609752074419 156.96064409527708 0 0 0 0 -157.81752439442789 20.86809289849225 0 20.86809289849225 4.9112972896309657 0 0 0 0 -200.57459269902756 45.828301966869276 0 45.828301966869276 -20.935414551846407 0 0 0 0 -25.8468574770435 8.129366948816056 0 8.129366948816056 -1.2318039079766532 0 0 0 0 -97.392342536128126 25.622704336441075 0 25.622704336441075 -3.2451926000758249 0 0 0 0 -70.205307707132306 32.938629920653739 0 32.938629920653739 -25.163317430728057 0 0 0 0 -15.628079401472448 1.3073474491214085 0 1.3073474491214085 -6.2608538242263521 0 0 0 0 -68.98857358157602 35.825918072729792 0 35.825918072729792 -11.481166439654462 0 0 0 0 -62.568207557007554 -2.2510179770872583 0 -2.2510179770872583 2.8488641299236406 0 0 0 0 -89.487106735687121 -3.7104228702738453 0 -3.7104228702738453 4.4190125661148159 0 0 0 0 -45.886859377981864 3.4969003195354418 0 3.4969003195354418 -0.88708507988223317 0 0 0 0 -15.493064514920434 9.1945933506036113 0 9.1945933506036113 0.82665457200848103 0 0 0 0 36.699822227761615 -3.2661859983802515 0 -3.2661859983802515 -79.095455653589852 0 0 0 0 -94.763566938430813 46.447833990567005 0 46.447833990567005 -16.735963837228155 0 0 0 0 -70.519073929109936 35.714695890303531 0 35.714695890303531 -14.071076598683106 0 0 0 0 -131.05505526126581 74.777429561188569 0 74.777429561188569 259.80309725851203 0 0 0 0 -8.052152601259877 137.27254525924081 0 137.27254525924081 18.331274446560201 0 0 0 0 -81.162231602240354 1.106569785154079 0 1.106569785154079 109.88619259489951 0 0 0 0 -4.0867662448645206 67.016197684788267 0 67.016197684788267 -118.30770568767639 0 0 0 0 -390.05014084860159 -11.735158158764534 0 -11.735158158764534 -10.878702686136421 0 0 0 0 -24.122291351151944 -69.4005991166581 0 -69.4005991166581 -89.765818469681562 0 0 0 0 -115.43455205675127 131.26951125511414 0 131.26951125511414 -37.991424998257116 0 0 0 0 1.202322653452029 -0.20055182617664968 0 -0.20055182617664968 1.424247110465326 0 0 0 0 -91.514280413372035 62.283370341605604 0 62.283370341605604 -5.1994089917425299 0 0 0 0 -75.728901812573895 44.951908593820008 0 44.951908593820008 -28.505672265024259 0 0 0 0 -74.738736051425803 12.441017225483165 0 12.441017225483165 -3.9551587979835858 0 0 0 0 -46.330460839919397 57.260733199502397 0 57.260733199502397 -22.700968871022496 0 0 0 0 -65.574588276416762 -0.29536497908492265 0 -0.29536497908492265 9.5360797770936472 0 0 0 0 -9.1759634504269343 23.651071396864381 0 23.651071396864381 -28.400549974292517 0 0 0 0 -3.7526737851927123 -2.220905003876311 0 -2.220905003876311 -6.8239892692442661 0 0 0 0 -400.72379903470573 134.75550201515966 0 134.75550201515966 134.03949263386721 0 0 0 0 -90.58104404039446 99.465909607347157 0 99.465909607347157 -145.6643851191659 0 0 0 0 -90.649685948908456 35.193935503035817 0 35.193935503035817 -37.252812647673409 0 0 0 0 -73.087213828606764 -122.33609218932381 0 -122.33609218932381 -129.42512286012874 0 0 0 0 -1.2760952595495496 -0.65038492285370353 0 -0.65038492285370353 0.90975133851117107 0 0 0 0 15.098509740113514 -5.487688488054971 0 -5.487688488054971 -166.42992515801814 0 0 0 0 -10.025812665316309 -16.310562346889611 0 -16.310562346889611 -3.8938843004614032 0 0 0 0 70.46132852230221 23.130839505196718 0 23.130839505196718 -60.990408149193627 0 0 0 0 17.027005134004867 -45.981341775333647 0 -45.981341775333647 -74.023209327619497 0 0 0 0 91.38966203101154 -12.572870600879241 0 -12.572870600879241 -67.818105918370293 0 0 0 0 2.2201121441102885 -0.78729499800860481 0 -0.78729499800860481 -0.34644706372447986 0 0 0 0 -148.90516671485966 -24.583088036970139 0 -24.583088036970139 96.46177999103179 0 0 0 0 -99.264872956497129 -70.759125596887316 0 -70.759125596887316 55.399939967274804 0 0 0 0 -48.048248314677039 55.857755086729867 0 55.857755086729867 20.914503226098077 0 0 0 0 -61.747430819319561 -101.0280347920359 0 -101.0280347920359 21.442449833984597 0 0 0 0 -120.83325561316451 -61.247237878039073 0 -61.247237878039073 135.80778876710428 0 0 0 0 -27.832118210528279 -32.647238509895629 0 -32.647238509895629 -3.5293395497292295 0 0 0 0 -30.821125278496766 -43.128197107710776 0 -43.128197107710776 -10.395559949873586 0 0 0 0 -30.156146479392191 -71.481230729622311 0 -71.481230729622311 -214.55270846064096 0 0 0 0 -29.884754611603796 10.215854765222019 0 10.215854765222019 -2.4460809580079697 0 0 0 0 -56.422237619117368 13.416962859035721 0 13.416962859035721 153.15928158087627 0 0 0 0 -193.46299512506812 100.24734357604956 0 100.24734357604956 50.059743920936427 0 0 0 0 -94.171153671151842 62.250727500350358 0 62.250727500350358 -0.26063250271850941 0 0 0 0 134.24414495461679 -7.9983001230430517 0 -7.9983001230430517 -34.290909091819529 0 0 0 0 -9.5948218854333618 -0.31203255040435351 0 -0.31203255040435351 0.73500516077249789 0 0 0 0 -13.580919080821332 -21.163242678152315 0 -21.163242678152315 47.059474089551443 0 0 0 0 -6.9887832820040359 1.584333519285849 0 1.584333519285849 0.040529142319803146 0 0 0 0 -20.141046364500653 -9.5114736074782371 0 -9.5114736074782371 28.422233105448615 0 0 0 0 12.076297522231471 -25.461636614335287 0 -25.461636614335287 -0.057855779420374308 0 0 0 0 -81.649373452004511 49.20013370619219 0 49.20013370619219 40.929051380118239 0 0 0 0 -10.278027566449964 -12.934236087826235 0 -12.934236087826235 4.3088070104070884 0 0 0 0 5.1102574621327221 -55.004902604984864 0 -55.004902604984864 47.605065520615881 0 0 0 0 53.793520400962734 -23.991702486145073 0 -23.991702486145073 -57.712649109471386 0 0 0 0 -48.928697304363595 -51.267492620812391 0 -51.267492620812391 -2.7406003494420474 0 0 0 0 -111.92466536886059 12.449715432429343 0 12.449715432429343 -33.96761826150609 0 0 0 0 -595.63213807076681 -20.05590232891393 0 -20.05590232891393 66.925817996402202 0 0 0 0 -53.682761980719079 -70.881524844467236 0 -70.881524844467236 -89.456563498832111 0 0 0 0 -323.78363605587219 -162.74232448374488 0 -162.74232448374488 -59.543357751239114 0 0 0 0 -3.0889812381602155 0.83248862395679168 0 0.83248862395679168 -0.34883357955235617 0 0 0 0 -121.77119819683139 123.83391768632046 0 123.83391768632046 -18.376746270692678 0 0 0 0 -729.72642271869699 -335.00115509794341 0 -335.00115509794341 -101.16116852351377 0 0 0 0 28.183539382967865 -46.712633127331046 0 -46.712633127331046 18.23120064138304 0 0 0 0 -1078.6022171689547 171.40691449332917 0 171.40691449332917 18.076125256702881 0 0 0 0 -1292.3643154240563 0.57049237498579619 0 0.57049237498579619 -0.18150164452472051 0 0 0 0 -883.49767446654732 254.04266708472719 0 254.04266708472719 -147.7188524419814 0 0 0 0 -779.54741092631593 9.9207727970617725 0 9.9207727970617725 104.04517444420037 0 0 0 0 -573.97407746273529 43.539083985074754 0 43.539083985074754 47.588894357306572 0 0 0 0 -605.26571989216609 7.7469593033301862 0 7.7469593033301862 69.705537527765273 0 0 0 0 -679.74593585360708 119.71045836570082 0 119.71045836570082 9.2875852900067457 0 0 0 0 -695.86704682554409 70.835687486177619 0 70.835687486177619 104.2828517022931 0 0 0 0 -563.73270712359226 61.272714600756899 0 61.272714600756899 60.607216658204607 0 0 0 0 -654.50382798854844 55.753484882110115 0 55.753484882110115 113.92135719021576 0 0 0 0 -559.78155464019619 16.288794025908203 0 16.288794025908203 102.4548604184547 0 0 0 0 -414.16329741239315 56.244040743618029 0 56.244040743618029 55.256903281239147 0 0 0 0 -524.04047434794484 66.510227706168394 0 66.510227706168394 71.449014444863906 0 0 0 0 -314.81986153815524 23.159540416839036 0 23.159540416839036 39.856683572752672 0 0 0 0 -417.61816591705428 -53.124186565985838 0 -53.124186565985838 61.74514877929667 0 0 0 0 -146.40019697509706 -57.962888448882268 0 -57.962888448882268 -37.894171685934296 0 0 0 0 -172.36167947310605 33.442517588111059 0 33.442517588111059 17.767884569166199 0 0 0 0 -233.09556206385605 -14.913353868852028 0 -14.913353868852028 32.578012669355928 0 0 0 0 -409.51975497795502 19.670843115233197 0 19.670843115233197 90.511975800550545 0 0 0 0 -352.40480520686833 72.273632805666466 0 72.273632805666466 41.687225307554854 0 0 0 0 -83.587721967283869 -35.297506864526895 0 -35.297506864526895 18.153164347608154 0 0 0 0 -185.92650974157732 76.595843046775485 0 76.595843046775485 25.175093318722929 0 0 0 0 -57.3978256824048 130.89377113396529 0 130.89377113396529 -1.9264321565383398 0 0 0 0 -558.37860884284601 107.81359299258406 0 107.81359299258406 111.66665178854896 0 0 0 0 -677.38914765138907 -14.285360361461471 0 -14.285360361461471 13.970108206429359 0 0 0 0 -689.36902440047561 29.052928342248549 0 29.052928342248549 122.55504026635072 0 0 0 0 -547.39490299401223 77.52628688532991 0 77.52628688532991 80.488833084714543 0 0 0 0 -545.19871507154312 63.344272764178868 0 63.344272764178868 93.811297685982709 0 0 0 0 -352.5314785105511 72.442955397180526 0 72.442955397180526 59.324063260991807 0 0 0 0 -681.87037577052251 41.115621639664027 0 41.115621639664027 -12.935463290522804 0 0 0 0 -682.54522025716142 35.200243793265827 0 35.200243793265827 97.719041468271598 0 0 0 0 -668.06266002272605 -24.619045084332811 0 -24.619045084332811 23.405669035877736 0 0 0 0 -668.51473372073815 -30.180845366744421 0 -30.180845366744421 -19.285311940561542 0 0 0 0 -583.94897845064406 67.472273761786255 0 67.472273761786255 57.858977774628329 0 0 0 0 -618.24956111531355 57.722463017762806 0 57.722463017762806 -49.846775785235309 0 0 0 0 -641.38643891527317 90.996611343291647 0 90.996611343291647 52.246435102504293 0 0 0 0 -2.0076865696394943 1.4327234121005574 0 1.4327234121005574 2.75807744962861 0 0 0 0 -451.35585311372415 -154.09009652764354 0 -154.09009652764354 -49.100869149922914 0 0 0 0 -841.89919738576282 -17.468635401001848 0 -17.468635401001848 -41.817399301008223 0 0 0 0 -826.0432819695925 82.097424663162343 0 82.097424663162343 -7.1340952136534952 0 0 0 0 -825.68769977864577 84.307454559793484 0 84.307454559793484 -6.865128206803945 0 0 0 0 -2.2322549582133888 -0.4669157391227543 0 -0.4669157391227543 -0.14643143146050819 0 0 0 0 -1001.5815345952869 99.687461097684633 0 99.687461097684633 17.730306602828534 0 0 0 0 -683.96151547707268 80.427335313655249 0 80.427335313655249 -14.913401182191137 0 0 0 0 -688.91506737879706 59.391104139309085 0 59.391104139309085 43.385664831607528 0 0 0 0 -686.15771429566666 76.930679836079321 0 76.930679836079321 90.091130015431872 0 0 0 0 -654.50559605801345 58.666435434962779 0 58.666435434962779 54.584193116751067 0 0 0 0 -709.24553203803953 170.58614889148356 0 170.58614889148356 -8.0339402896776342 0 0 0 0 -699.32699643399974 144.78648877977741 0 144.78648877977741 48.428709227492334 0 0 0 0 -3.1353994021679625 -0.95540623269013736 0 -0.95540623269013736 2.3090950266755552 0 0 0 0 -20.374500895646634 7.0019636803407099 0 7.0019636803407099 -2.1029911320839929 0 0 0 0 -810.80863291707465 258.97815410705732 0 258.97815410705732 -61.295781657377916 0 0 0 0 -15.180289437223109 7.7456494451243172 0 7.7456494451243172 -0.001706255605911239 0 0 0 0 -902.31408031439059 253.05974592348775 0 253.05974592348775 -57.899814033014913 0 0 0 0 -1.2814551655660864 -0.11927625276234721 0 -0.11927625276234721 0.70364815727174268 0 0 0 0 -9.814748773991596 1.1971020853542322 0 1.1971020853542322 -2.1029911320881354 0 0 0 0 -967.30398490231096 119.58251106581629 0 119.58251106581629 -27.271984220502219 0 0 0 0 -0.95265934031257027 0.94694640840094735 0 0.94694640840094735 -0.29524462466966006 0 0 0 0 -1011.8345988857909 110.77567543976876 0 110.77567543976876 -0.81581375151144031 0 0 0 0 -1.8317976034731216 2.4666988641530736 0 2.4666988641530736 -0.64341839052688066 0 0 0 0 -770.87722717132488 74.005282699543372 0 74.005282699543372 -30.612153070808517 0 0 0 0 -815.42315647829673 54.044112303929793 0 54.044112303929793 -24.693438586402152 0 0 0 0 -869.62754356194637 77.644620536213978 0 77.644620536213978 -0.35998068185298848 0 0 0 0 -709.46822903142311 295.15556809569705 0 295.15556809569705 -120.35630908861984 0 0 0 0 -2.5884672899291559 -0.61416312854862554 0 -0.61416312854862554 0.40713660696895781 0 0 0 0 -1105.0530192692095 373.42602258791442 0 373.42602258791442 -78.456280824054119 0 0 0 0 -7.3340529238048475 -0.45876326647198107 0 -0.45876326647198107 -0.00079082579671365847 0 0 0 0 -7.7784662312624278 0.17070404902267594 0 0.17070404902267594 -0.41644494090966955 0 0 0 0 -10.24144278660242 0.79648467879455187 0 0.79648467879455187 -0.42086889403065142 0 0 0 0 -4.2698886401436482 -2.2956045683568789 0 -2.2956045683568789 0.86052866878247414 0 0 0 0 -472.57527328896686 135.84792464875318 0 135.84792464875318 -81.92222711255161 0 0 0 0 -295.96402480575489 151.09198359530998 0 151.09198359530998 -44.807044576037214 0 0 0 0 -529.89575143251568 202.81042082668614 0 202.81042082668614 -42.801219009872312 0 0 0 0 -667.47578140220139 114.96713449036572 0 114.96713449036572 -44.436426200320881 0 0 0 0 -631.42253917420749 75.219058584643349 0 75.219058584643349 -16.048243539394491 0 0 0 0 -541.06158183363732 112.49204673230329 0 112.49204673230329 43.025892838907623 0 0 0 0 -640.55330809342195 160.16204513111509 0 160.16204513111509 21.505355935124214 0 0 0 0 -583.93113761854761 151.93477296014674 0 151.93477296014674 84.438419146015576 0 0 0 0 -375.80793346604332 98.483391640052275 0 98.483391640052275 46.821848922072746 0 0 0 0 -534.56084332729915 164.79914997822931 0 164.79914997822931 21.497219459350163 0 0 0 0 -551.12780286336783 -111.54601888360503 0 -111.54601888360503 199.34850330947279 0 0 0 0 -556.05120609666483 -66.045659252241819 0 -66.045659252241819 282.76220500518139 0 0 0 0 -518.56600854812132 47.405497662930657 0 47.405497662930657 143.57150829707462 0 0 0 0 -431.39437648429885 -54.286964856353734 0 -54.286964856353734 260.84223890643443 0 0 0 0 -687.23770053415501 -27.270272731503781 0 -27.270272731503781 111.21587191568523 0 0 0 0 -547.05301224453433 -17.812629987379466 0 -17.812629987379466 42.572807843134115 0 0 0 0 -597.63764954592625 -211.78918558351967 0 -211.78918558351967 55.62835006436012 0 0 0 0 -336.88279763585888 -295.29055664923288 0 -295.29055664923288 51.15823436787332 0 0 0 0 -375.90575593605172 -66.483697904545792 0 -66.483697904545792 150.8099390943255 0 0 0 0 -466.59267054565134 -158.39938201363339 0 -158.39938201363339 202.81114455019667 0 0 0 0 -469.4269604999281 -87.084893044646719 0 -87.084893044646719 253.22180045140692 0 0 0 0 -268.81283505065039 -227.64726920401455 0 -227.64726920401455 277.6092333178276 0 0 0 0 -296.68893330302672 -93.133691129191561 0 -93.133691129191561 223.46243782654051 0 0 0 0 -165.65726615966742 -133.1829846880006 0 -133.1829846880006 194.6308569769667 0 0 0 0 -413.85949017081293 1.3303700664164353 0 1.3303700664164353 133.11461603831972 0 0 0 0 -450.20107115074279 -132.06023443266238 0 -132.06023443266238 129.70835795164999 0 0 0 0 -433.55511807236326 -36.337450142536568 0 -36.337450142536568 207.98917168999719 0 0 0 0 -451.01550301485986 -59.325961746413157 0 -59.325961746413157 282.15294792036002 0 0 0 0 -299.60949208209786 151.82185905699288 0 151.82185905699288 376.40520613586932 0 0 0 0 -12.159899538047881 8.7433187129937835 0 8.7433187129937835 -0.51289800183248158 0 0 0 0 -1030.1249032911292 90.597009766512883 0 90.597009766512883 319.98920557571512 0 0 0 0 -1456.8377366564237 -179.40852306266424 0 -179.40852306266424 333.88092214858585 0 0 0 0 -1401.8391219695623 -275.1004877670091 0 -275.1004877670091 360.63177077156388 0 0 0 0 -2559.6858070318267 -656.65741497972635 0 -656.65741497972635 110.13999771864576 0 0 0 0 -1199.1654054201936 -235.2953386970504 0 -235.2953386970504 47.148544037479041 0 0 0 0 -355.43510819159565 -89.274104702188652 0 -89.274104702188652 -28.331938706030996 0 0 0 0 -1388.7686720406364 -203.9478285894036 0 -203.9478285894036 239.58049975178028 0 0 0 0 -1447.3842235446782 -109.0489149199924 0 -109.0489149199924 231.04668887513708 0 0 0 0 -777.93188676946738 42.952210038356043 0 42.952210038356043 -3.2104989525287237 0 0 0 0 -1158.2876053320942 -117.60674455093067 0 -117.60674455093067 5.9019160757806617 0 0 0 0 -385.34227794842445 22.16805745938359 0 22.16805745938359 -99.979058433683122 0 0 0 0 -779.24352522377922 34.625323721968869 0 34.625323721968869 68.067074974233037 0 0 0 0 -863.78856667882064 -50.077455899238316 0 -50.077455899238316 -9.1169408268842158 0 0 0 0 -718.4641443266155 180.81345553708991 0 180.81345553708991 -9.0956080057999316 0 0 0 0 -1152.8046488791369 277.2747422136764 0 277.2747422136764 138.14173910911654 0 0 0 0 -393.40667707347893 165.5812962394769 0 165.5812962394769 -74.368449704697696 0 0 0 0 -5.7505560793780148 3.2117828997415927 0 3.2117828997415927 -0.062502877628995535 0 0 0 0 112.06545031174755 704.43078995444148 0 704.43078995444148 402.01962729029333 0 0 0 0 -1735.0356206143624 272.71148837594512 0 272.71148837594512 140.18271378226177 0 0 0 0 -1371.9948739492538 118.40106127239835 0 118.40106127239835 213.76646327143192 0 0 0 0 -1288.9403522506618 83.772034133535954 0 83.772034133535954 9.6446655087032127 0 0 0 0 -1245.8909795826039 287.69793046747191 0 287.69793046747191 282.82259314852286 0 0 0 0 -1701.7099127760885 -39.399059986213445 0 -39.399059986213445 144.29990612874329 0 0 0 0 -1021.6629311490906 -7.3909604678404577 0 -7.3909604678404577 -670.74450596122642 0 0 0 0 -1005.5482304220459 86.037048250604371 0 86.037048250604371 -129.70253079869138 0 0 0 0 -225.72216716417461 264.82369425972547 0 264.82369425972547 -277.35638055749035 0 0 0 0 -890.08570322301239 195.19668612686041 0 195.19668612686041 35.951963341700349 0 0 0 0 -1640.7791615009519 473.21657568329152 0 473.21657568329152 169.57778488357332 0 0 0 0 -884.67726002090785 231.05359492698139 0 231.05359492698139 48.521860793360418 0 0 0 0 -518.75531741645682 594.58640137730788 0 594.58640137730788 -358.59412644640872 0 0 0 0 -11.459759315495717 4.6626076464009429 0 4.6626076464009429 -2.506269136893672 0 0 0 0 -100.0875293668214 -108.63579032495136 0 -108.63579032495136 49.313364875633397 0 0 0 0 -8.7808947376470314 3.8532361220917437 0 3.8532361220917437 -195.80274385246406 0 0 0 0 16.988606460079609 -92.407659879212872 0 -92.407659879212872 -132.56673015542555 0 0 0 0 -1225.9446330261853 -480.15557227499278 0 -480.15557227499278 -168.22070218475065 0 0 0 0 -1116.5708389885549 37.644748747552867 0 37.644748747552867 0.22863355046973199 0 0 0 0 -752.71393748861738 -237.19147515582466 0 -237.19147515582466 -27.888255284366409 0 0 0 0 -1811.189935246417 317.28258277701713 0 317.28258277701713 -78.116532062423886 0 0 0 0 -1154.0923042755312 35.828297868261679 0 35.828297868261679 34.708632748905131 0 0 0 0 -1170.9303264958507 62.643112363702009 0 62.643112363702009 0.016038292052865485 0 0 0 0 -799.60606958654535 -60.272144732402232 0 -60.272144732402232 -0.11108558684619779 0 0 0 0 -971.00586474606098 155.66845441057546 0 155.66845441057546 -211.07523774925875 0 0 0 0 -697.1072717828938 -39.626889069948135 0 -39.626889069948135 -245.91745378361722 0 0 0 0 -705.45012277028582 -42.048733303839043 0 -42.048733303839043 -213.4774321172813 0 0 0 0 -579.34038974194118 -129.61572578531533 0 -129.61572578531533 -111.99048834093844 0 0 0 0 -657.99979460114264 7.5582402217357867 0 7.5582402217357867 -178.78106060828378 0 0 0 0 -593.72476152668241 -2.1202990203128564 0 -2.1202990203128564 -214.03014443202505 0 0 0 0 -881.15632948785787 -220.75559558179361 0 -220.75559558179361 -56.630069297000205 0 0 0 0 -458.16832147878813 -323.86814445756011 0 -323.86814445756011 -85.244331159137118 0 0 0 0 -394.82785258739023 -161.60397410607374 0 -161.60397410607374 -61.770379416116498 0 0 0 0 -588.27090751568176 -46.590371538592052 0 -46.590371538592052 -275.38665975519427 0 0 0 0 -657.26570438820636 -101.33942919258547 0 -101.33942919258547 -294.92677841343971 0 0 0 0 -3.888746372312653 -0.99895867812137595 0 -0.99895867812137595 -0.31649390282770573 0 0 0 0 -518.81307141393336 188.50194296082719 0 188.50194296082719 140.82028946797254 0 0 0 0 -277.04307765747944 -398.79305540312038 0 -398.79305540312038 -400.41094817485236 0 0 0 0 -746.6411045861023 -211.9521729529493 0 -211.9521729529493 -117.14145573166459 0 0 0 0 -634.84946197572572 69.131634810153656 0 69.131634810153656 0.64607832975140433 0 0 0 0 -455.10963984606497 -59.817239956701144 0 -59.817239956701144 0.038223992829866799 0 0 0 0 -148.80897137397551 96.771694935962344 0 96.771694935962344 -39.611893267263127 0 0 0 0 14.088418100494891 -56.158796961731952 0 -56.158796961731952 -0.047465673956151339 0 0 0 0 -88.087746586348658 -51.841763570234683 0 -51.841763570234683 39.752767647993366 0 0 0 0 35.416600736847613 -46.004074302485634 0 -46.004074302485634 36.999820929237188 0 0 0 0 -27.138455063657602 -57.364894762797917 0 -57.364894762797917 -13.992480687435297 0 0 0 0 -91.405120129675197 -73.437140874415789 0 -73.437140874415789 187.43935424273587 0 0 0 0 98.015226011222694 1.8916376916867681 0 1.8916376916867681 -0.04864385876124732 0 0 0 0 24.336968953706673 -31.855354938964506 0 -31.855354938964506 48.002541230796737 0 0 0 0 13.883625602175016 -58.561527713782212 0 -58.561527713782212 76.774398298173452 0 0 0 0 28.591429080392118 -45.386140746368184 0 -45.386140746368184 39.913046977717173 0 0 0 0 -9.7766037198377944 -3.556283962835721 0 -3.556283962835721 -0.14428145796744185 0 0 0 0 -18.087495340412715 62.808582380223839 0 62.808582380223839 -67.885640548821215 0 0 0 0 -3.2404663179862609 0.91135849876903308 0 0.91135849876903308 1.5195389343361094 0 0 0 0 9.8700930846098345 37.685656318539898 0 37.685656318539898 39.297751008476411 0 0 0 0 -14.755681523063913 -1.6780271133153519 0 -1.6780271133153519 1.0475960072621195 0 0 0 0 -21.091493838233873 16.461686977713725 0 16.461686977713725 -3.5390063087702401 0 0 0 0 -45.358801774738822 170.42312985266108 0 170.42312985266108 152.74697417156096 0 0 0 0 -9.5183017952776936 -150.34437582467385 0 -150.34437582467385 347.78282413694819 0 0 0 0 4.3510992770025041 8.8593958672784652 0 8.8593958672784652 11.022366376446087 0 0 0 0 -7.5782964356286868 -3.254952866773607 0 -3.254952866773607 1.615694884857525 0 0 0 0 -803.49961159421946 -22.931291207968798 0 -22.931291207968798 638.77237988384741 0 0 0 0 -127.294588707824 543.88078204753333 0 543.88078204753333 -420.63842933293336 0 0 0 0 -137.61293589291745 362.06897689691414 0 362.06897689691414 301.80876421594121 0 0 0 0 8.5086492218833882 239.8315954467248 0 239.8315954467248 66.170676948085884 0 0 0 0 188.7209116344311 392.35902041979205 0 392.35902041979205 164.59565388209455 0 0 0 0 -142.33471894660033 -3.2607890874726309 0 -3.2607890874726309 42.13230905824696 0 0 0 0 -8.7224571666561133 -2.3276326287615419 0 -2.3276326287615419 -0.43258557510217399 0 0 0 0 -67.447066572582116 -29.738560831336372 0 -29.738560831336372 44.295117396230125 0 0 0 0 3.4802564515994163 13.025485249965357 0 13.025485249965357 -8.7718909407783485 0 0 0 0 -349.21292443768471 -105.80545412975755 0 -105.80545412975755 -51.325755540640188 0 0 0 0 -63.24646613385994 34.597556870395124 0 34.597556870395124 -8.4089574176892938 0 0 0 0 -52.531362013338367 -175.01393627367327 0 -175.01393627367327 -239.44193380995921 0 0 0 0 -296.63338450531592 -221.53332879703015 0 -221.53332879703015 -20.604782492155209 0 0 0 0 50.715985563292634 -119.84785846327554 0 -119.84785846327554 130.39245032873407 0 0 0 0 -1.567460074526025 -224.91969611383456 0 -224.91969611383456 337.45927702022891 0 0 0 0 1324.606283778412 -725.27236871493506 0 -725.27236871493506 -13.837548344980064 0 0 0 0 -2.287085616895709 -3.6502856905280225 0 -3.6502856905280225 0.68782749094697637 0 0 0 0 -1.4549474494082517 -2.82410481675754 0 -2.82410481675754 -1.696304307102853 0 0 0 0 614.07051291997777 -706.69158921940516 0 -706.69158921940516 194.93145811849809 0 0 0 0 -1230.4297716058791 -298.68592619225274 0 -298.68592619225274 163.06893174671856 0 0 0 0 -800.9936675625504 -229.63586048268991 0 -229.63586048268991 57.497810227138586 0 0 0 0 56.803661369471229 490.59548913860408 0 490.59548913860408 297.70573862398442 0 0 0 0 -7.0925891567940766 3.7692282993582467 0 3.7692282993582467 -1.1492858648690012 0 0 0 0 93.534316395860515 -85.04138288931847 0 -85.04138288931847 -115.13030790157595 0 0 0 0 -935.14461731082702 -112.41664679379664 0 -112.41664679379664 -79.825569355925154 0 0 0 0 -1902.2863926892751 328.60753199751827 0 328.60753199751827 213.21083601771954 0 0 0 0 -871.5927238855511 -12.989223237835091 0 -12.989223237835091 60.592637886988541 0 0 0 0 -721.96139514276729 -254.57700146435954 0 -254.57700146435954 211.80956374356197 0 0 0 0 -539.62781708537659 -140.43954861112169 0 -140.43954861112169 68.157565983026871 0 0 0 0 -588.95224806614715 -56.234629623900375 0 -56.234629623900375 66.480452205526376 0 0 0 0 -750.72332585771801 -213.34160387510337 0 -213.34160387510337 124.55119074427245 0 0 0 0 -898.9385074500824 45.935151342387854 0 45.935151342387854 9.5427860007132495 0 0 0 0 -157.94496314846219 -110.01712078252956 0 -110.01712078252956 179.49346964380084 0 0 0 0 228.00618062542344 -161.81515441002824 0 -161.81515441002824 154.32126345197617 0 0 0 0 534.37734062923118 -481.88462547703853 0 -481.88462547703853 219.91497284359764 0 0 0 0 -1149.4688005901044 51.474124420590329 0 51.474124420590329 124.01718056561117 0 0 0 0 -6.4980919513931781 -10.785547545324533 0 -10.785547545324533 2.6665193694945204 0 0 0 0 -6.6614132451205705 4.0025644655635801 0 4.0025644655635801 -1.6887549186427186 0 0 0 0 -1239.081049344386 -80.793303475417474 0 -80.793303475417474 213.69728729449935 0 0 0 0 -241.83344326248516 -6.8934538127129485 0 -6.8934538127129485 33.262697532045422 0 0 0 0 -1206.1568747177371 424.59225764140888 0 424.59225764140888 39.703046389436906 0 0 0 0 -0.80408009906897604 4.2856799616886008 0 4.2856799616886008 0.74631777681379363 0 0 0 0 -9.1396207454381511 -135.81432031520328 0 -135.81432031520328 16.084443394124719 0 0 0 0 -454.39129075563687 156.19420012185685 0 156.19420012185685 -47.81670135628633 0 0 0 0 -907.03937647675048 -216.71243199657476 0 -216.71243199657476 -287.13343739333209 0 0 0 0 1.2155377347424547 5.9501703129960219 0 5.9501703129960219 0.20708197769135861 0 0 0 0 -974.24512793648591 599.54731570275794 0 599.54731570275794 123.42999106148432 0 0 0 0 -434.67437949409941 452.64440907130847 0 452.64440907130847 66.297432558278388 0 0 0 0 -435.97950258804485 395.1879535715841 0 395.1879535715841 -69.876335949237273 0 0 0 0 -521.45748208052828 -57.754648593285651 0 -57.754648593285651 49.297010842981308 0 0 0 0 -137.77761879751051 -7.3439313989928792 0 -7.3439313989928792 12.936975540714286 0 0 0 0 -62.104156014378532 -165.358183206158 0 -165.358183206158 305.63079946085622 0 0 0 0 203.75974713319738 340.23886942887702 0 340.23886942887702 -65.350963620211076 0 0 0 0 -148.74683705781354 698.16301283601467 0 698.16301283601467 104.271647073482 0 0 0 0 -156.37203332525678 279.45136334426314 0 279.45136334426314 395.67775223137642 0 0 0 0 -76.535635490876302 339.46496817690615 0 339.46496817690615 366.36409372646074 0 0 0 0 -13.505575989201759 7.9532262258789501 0 7.9532262258789501 -2.7789109695486758 0 0 0 0 128.95010296505825 -4.1180574597529969 0 -4.1180574597529969 132.66514965086731 0 0 0 0 -646.11264781598584 -146.33768092301932 0 -146.33768092301932 211.14081432681201 0 0 0 0 -97.794856315127618 53.205689619051611 0 53.205689619051611 57.492531262080774 0 0 0 0 -726.05045076280658 -209.85377056183586 0 -209.85377056183586 211.39197872831858 0 0 0 0 -935.68143768380105 248.61943343901493 0 248.61943343901493 113.62276972440463 0 0 0 0 -918.52989854544285 188.74073940815941 0 188.74073940815941 8.3851059552764582 0 0 0 0 -1.0638090541615703 2.205063221088551 0 2.205063221088551 2.1799989701724156 0 0 0 0 -1084.5797189023433 -46.672996039031148 0 -46.672996039031148 191.41570086481619 0 0 0 0 -749.78881347311835 23.143045456583991 0 23.143045456583991 48.697343091246694 0 0 0 0 -823.31703004873998 -139.63319512150079 0 -139.63319512150079 68.447712614461238 0 0 0 0 -773.23402126149449 -127.7816818957328 0 -127.7816818957328 -11.116787458318356 0 0 0 0 -1.0757776027124635 0.19041604658579558 0 0.19041604658579558 0.95621347827329561 0 0 0 0 -340.81727045201114 165.99365371452637 0 165.99365371452637 163.97988689656728 0 0 0 0 -299.62968212748819 -39.328280035078905 0 -39.328280035078905 -7.8836795370225445 0 0 0 0 -1035.1087894221855 -98.887160788383937 0 -98.887160788383937 26.399027673894405 0 0 0 0 -592.84872746165638 27.200100545441586 0 27.200100545441586 58.284291506873615 0 0 0 0 -76.830767270177603 10.116132470177774 0 10.116132470177774 -72.926356609293975 0 0 0 0 -30.346485203230259 141.12033904543358 0 141.12033904543358 -101.97612436603197 0 0 0 0 -378.74049023909174 324.8948050979119 0 324.8948050979119 -297.68710863473694 0 0 0 0 -322.59346706588985 -216.18112689325324 0 -216.18112689325324 -79.72267358505556 0 0 0 0 -5.7959415914996271 -0.10852802354043689 0 -0.10852802354043689 -0.2292110519174364 0 0 0 0 -487.84844092237472 -19.786641217700193 0 -19.786641217700193 0.065717457433999205 0 0 0 0 -1125.834108927651 -122.26588212399116 0 -122.26588212399116 101.75767587699447 0 0 0 0 -230.76396516981185 -168.84195020675443 0 -168.84195020675443 -22.987526061733455 0 0 0 0 66.214828228970873 38.217451329089386 0 38.217451329089386 -80.593886258618895 0 0 0 0 -684.81322995957453 -60.952822406507551 0 -60.952822406507551 27.387232104703148 0 0 0 0 -695.23585013519914 -115.67234670059887 0 -115.67234670059887 -259.86692876117587 0 0 0 0 -894.73179134479142 159.19109593429951 0 159.19109593429951 -150.22876126140912 0 0 0 0 -695.92946931401093 -32.080638663427592 0 -32.080638663427592 0.076053725925250185 0 0 0 0 -457.87196018025861 -3.0326126553772124 0 -3.0326126553772124 -144.38716988267007 0 0 0 0 -508.84009833206164 -63.319691636174014 0 -63.319691636174014 22.769667030955191 0 0 0 0 -0.99585154670323206 -0.25584753366354107 0 -0.25584753366354107 -0.019871926811442453 0 0 0 0 -386.57427918734902 -60.699547229390134 0 -60.699547229390134 -15.845835484514765 0 0 0 0 -369.6597984375403 -84.000119979904355 0 -84.000119979904355 3.9626949413262054 0 0 0 0 -304.70429257163778 -45.906485499745372 0 -45.906485499745372 -12.359089987281635 0 0 0 0 -404.15431335561152 -103.61208076001473 0 -103.61208076001473 0.0081410569648437264 0 0 0 0 -228.7937741423375 -112.49096160519707 0 -112.49096160519707 -0.047613966916647113 0 0 0 0 -285.22696737889783 -165.18340373642144 0 -165.18340373642144 -43.259344298722766 0 0 0 0 -152.85016583354445 98.369449851967261 0 98.369449851967261 157.34261207503141 0 0 0 0 -1.6070028269377303 -0.087502167225053995 0 -0.087502167225053995 0.30052320034842173 0 0 0 0 -68.686241660307132 -100.01701573931467 0 -100.01701573931467 -89.853894915853346 0 0 0 0 -3.4471898369113774 -0.40927579002787695 0 -0.40927579002787695 1.0826078882270189 0 0 0 0 -91.108523262271774 -126.83156610835886 0 -126.83156610835886 -212.70423811907426 0 0 0 0 -157.46260635847284 -91.966937054924728 0 -91.966937054924728 -112.24261488156679 0 0 0 0 -386.13161379966186 -248.10651942690325 0 -248.10651942690325 -204.83273345375443 0 0 0 0 -370.75879308549338 -22.948394209313989 0 -22.948394209313989 -11.045476104150971 0 0 0 0 -319.6252727408264 -30.165996267994238 0 -30.165996267994238 -42.322413078472209 0 0 0 0 -953.51056710020202 -213.12299335828607 0 -213.12299335828607 21.185622155065175 0 0 0 0 -847.00918701889168 -301.86284030178103 0 -301.86284030178103 -9.399146207090439 0 0 0 0 -754.52452442183494 -181.40846856075405 0 -181.40846856075405 0.095847275200882348 0 0 0 0 -518.73401663177356 -227.62138421355328 0 -227.62138421355328 -85.003047155336333 0 0 0 0 -510.36150119191734 -291.42440732971068 0 -291.42440732971068 -80.019991353505475 0 0 0 0 -510.4779540193158 -291.37766673757352 0 -291.37766673757352 -31.751956114062693 0 0 0 0 -518.75982645520708 -233.51944846048491 0 -233.51944846048491 -4.5272217603273646 0 0 0 0 -310.67586482554907 -137.53815010050906 0 -137.53815010050906 -0.17645614905317106 0 0 0 0 -177.49019265432435 -72.151030823990951 0 -72.151030823990951 56.235806530478555 0 0 0 0 -172.73248686396232 -196.0797261514428 0 -196.0797261514428 -151.11819698450495 0 0 0 0 -476.70287075506349 -321.2285968105511 0 -321.2285968105511 -134.67546082692141 0 0 0 0 -802.17412732464436 -357.01229576843014 0 -357.01229576843014 -53.865689060913212 0 0 0 0 -504.57666027862433 -276.10401480939242 0 -276.10401480939242 -111.99867908131392 0 0 0 0 -957.05895226477151 -421.41665492457588 0 -421.41665492457588 -152.96497985868859 0 0 0 0 -938.90263408015016 -397.51671392880638 0 -397.51671392880638 -132.29234323747488 0 0 0 0 -926.46657120352029 -407.14867180678289 0 -407.14867180678289 -166.03187417676997 0 0 0 0 -387.45008813518507 -354.47057735465182 0 -354.47057735465182 -282.26466996423534 0 0 0 0 -877.53355212427596 -603.6025716470939 0 -603.6025716470939 -407.3417858654193 0 0 0 0 -2.307101288260526 -1.38311015917769 0 -1.38311015917769 1.1902788692259509 0 0 0 0 -113.73485711801914 -165.23780289899162 0 -165.23780289899162 197.05961830858428 0 0 0 0 -156.31271647516405 -67.093005356144886 0 -67.093005356144886 -28.518820131200073 0 0 0 0 -51.212979306175839 13.32115046699596 0 13.32115046699596 40.738187543596837 0 0 0 0 -1.8044722834893037 -120.53638912525301 0 -120.53638912525301 95.852510799923323 0 0 0 0 24.839708382583922 -146.18205012031979 0 -146.18205012031979 -266.5444624723923 0 0 0 0 -3.5313617449821209 -1.2413484241487538 0 -1.2413484241487538 1.6893435466339655 0 0 0 0 70.917683028092142 34.564122889790667 0 34.564122889790667 -190.00901653857863 0 0 0 0 -261.54522320890101 -137.63393699540447 0 -137.63393699540447 -99.032288529513792 0 0 0 0 -74.175020795199089 -128.48306166429924 0 -128.48306166429924 -104.11939944863411 0 0 0 0 -73.933620377415195 -36.982196851306696 0 -36.982196851306696 -100.35458637557713 0 0 0 0 -22.981423667552008 -28.544530312796581 0 -28.544530312796581 23.993265345871123 0 0 0 0 -63.384034695001901 -66.511951603034134 0 -66.511951603034134 110.26547204524911 0 0 0 0 11.044771420355573 -69.932091215367336 0 -69.932091215367336 106.01037492058526 0 0 0 0 -29.686672610987443 -29.077361115156918 0 -29.077361115156918 4.0434141250989342 0 0 0 0 -130.82075726227777 -81.62659722398206 0 -81.62659722398206 83.534057682550724 0 0 0 0 -37.661719850024383 -11.888525023205901 0 -11.888525023205901 -0.92394084061086401 0 0 0 0 -65.371662894471228 -21.688226872883831 0 -21.688226872883831 7.3056714251069934 0 0 0 0 14.41369432186184 -63.791421275551329 0 -63.791421275551329 -58.179763845383377 0 0 0 0 -15.871924232333882 -21.533314857068063 0 -21.533314857068063 9.0032576480046274 0 0 0 0 -56.655048329557758 -10.291918625299104 0 -10.291918625299104 20.134200937326113 0 0 0 0 -34.308724488611858 -11.827339413287461 0 -11.827339413287461 -0.80892379616157184 0 0 0 0 18.077697883505607 -81.009424246479284 0 -81.009424246479284 90.409262058277037 0 0 0 0 44.991451620149746 -89.165083581545105 0 -89.165083581545105 81.0313668979461 0 0 0 0 -97.479564864603162 -11.223688120762972 0 -11.223688120762972 -0.55740195270527693 0 0 0 0 -10.056680661231667 -6.516535859734617 0 -6.516535859734617 1.1997447177936391 0 0 0 0 -12.224660518704539 -1.0111948435032048 0 -1.0111948435032048 2.3940404497945527 0 0 0 0 -129.4740336331306 30.410187017187752 0 30.410187017187752 -19.263052626038188 0 0 0 0 -208.61975742922732 -123.89779927874952 0 -123.89779927874952 -27.067500068237223 0 0 0 0 -11.160702279399288 10.361509935691515 0 10.361509935691515 8.235735238023997 0 0 0 0 -252.95864471665118 -132.14839256736707 0 -132.14839256736707 331.97798027074759 0 0 0 0 -95.416081083880272 -39.870689026404193 0 -39.870689026404193 -90.377982046054626 0 0 0 0 127.44442728362628 -146.96736169529163 0 -146.96736169529163 26.832378966847045 0 0 0 0 -71.286223632291581 3.885651640137187 0 3.885651640137187 2.55350668639133 0 0 0 0 -53.834026992466534 -207.03426551450127 0 -207.03426551450127 -56.05662721491899 0 0 0 0 -313.69796996662262 -580.25292209574752 0 -580.25292209574752 -770.74487612483949 0 0 0 0 -407.96367769583594 -30.590592673909896 0 -30.590592673909896 73.401247732589297 0 0 0 0 -204.2883828758786 -22.150049804049843 0 -22.150049804049843 10.907333659398546 0 0 0 0 -251.05674250857555 -26.865920598219816 0 -26.865920598219816 57.38530178809674 0 0 0 0 -240.43847949136398 3.8861631584138081 0 3.8861631584138081 -1.891343847910349 0 0 0 0 -256.47537770698546 0.33611072394809582 0 0.33611072394809582 37.659201524261562 0 0 0 0 -259.84058503329288 15.834770142673733 0 15.834770142673733 -26.08740376566503 0 0 0 0 -272.15317071698519 14.745797347830734 0 14.745797347830734 0.81899579271191669 0 0 0 0 -316.65700438358908 -37.334428829268148 0 -37.334428829268148 9.0358487270232217 0 0 0 0 -84.592862282355782 -23.088835424486831 0 -23.088835424486831 -63.958730038809875 0 0 0 0 -147.5469513802891 -73.815174478973404 0 -73.815174478973404 -85.163890176821383 0 0 0 0 -100.48576727410546 -87.422243392494579 0 -87.422243392494579 -2.4940734316268163 0 0 0 0 -89.186015321261948 -3.3028265840466702 0 -3.3028265840466702 106.75149575140301 0 0 0 0 -95.509796672675293 -66.355929906860183 0 -66.355929906860183 135.06481644889948 0 0 0 0 -142.97012830752647 -77.219376916457691 0 -77.219376916457691 36.499530767731812 0 0 0 0 -195.97518805073923 -0.83719218562131914 0 -0.83719218562131914 65.227322942169167 0 0 0 0 -114.87748199986527 -92.825101165517822 0 -92.825101165517822 68.471078396902925 0 0 0 0 -199.64999268186511 -7.307057437068579 0 -7.307057437068579 -11.634042280682024 0 0 0 0 -146.36346466463874 -120.01527627121351 0 -120.01527627121351 223.33541065200734 0 0 0 0 -433.57605225895531 -230.67328828437348 0 -230.67328828437348 168.94830773597914 0 0 0 0 -388.64992551309842 78.309418440591855 0 78.309418440591855 39.969595536592124 0 0 0 0 -148.36036305988091 -3.4641086380529487 0 -3.4641086380529487 348.10159448968341 0 0 0 0 -2.5054103779699517 0.10527393975877075 0 0.10527393975877075 0.079887934506533753 0 0 0 0 299.88226615224266 -300.22318711705327 0 -300.22318711705327 -262.09999681970692 0 0 0 0 5.1502470702498613 32.907147747760987 0 32.907147747760987 167.57663194158351 0 0 0 0 -55.246659856951737 89.314872231995878 0 89.314872231995878 -81.192421243852323 0 0 0 0 124.87711791621405 -90.297144756737566 0 -90.297144756737566 27.875256847109085 0 0 0 0 -11.30778826533691 -9.5066401599179073 0 -9.5066401599179073 -0.63011050917167033 0 0 0 0 -206.13446131077944 -37.979429092725638 0 -37.979429092725638 110.5764868703169 0 0 0 0 18.441161778755486 -291.13654465695174 0 -291.13654465695174 121.50961566912986 0 0 0 0 -209.02397980928072 -59.112979727800337 0 -59.112979727800337 65.682716077674741 0 0 0 0 -82.363217868085485 -87.116460822704312 0 -87.116460822704312 69.982065018426169 0 0 0 0 -177.36567645915784 50.291743102566329 0 50.291743102566329 42.736227740330833 0 0 0 0 -257.59558383398689 4.1349366286654003 0 4.1349366286654003 97.523924858809551 0 0 0 0 -269.19815024500713 8.0482667351255941 0 8.0482667351255941 125.69601966917639 0 0 0 0 -253.47240313988732 -1.1929418367383278 0 -1.1929418367383278 65.873719920087296 0 0 0 0 -287.45070774442866 -16.083514841958163 0 -16.083514841958163 98.202782913502347 0 0 0 0 -248.66426812170539 10.572057366359786 0 10.572057366359786 94.578232500399565 0 0 0 0 -229.15297351952177 -32.80147064388774 0 -32.80147064388774 52.235481750072495 0 0 0 0 -212.00332056317347 -38.061737284686316 0 -38.061737284686316 45.50905993305264 0 0 0 0 -238.75097752758302 -4.7199632313603388 0 -4.7199632313603388 34.425623799933533 0 0 0 0 -222.51251017136383 -25.139464939371123 0 -25.139464939371123 42.150330991693764 0 0 0 0 -158.20531288345228 -33.123652035028272 0 -33.123652035028272 41.161246103253092 0 0 0 0 -260.19592675377498 -76.294509566767573 0 -76.294509566767573 120.2904142958073 0 0 0 0 -208.20647397315042 -208.82538377592715 0 -208.82538377592715 106.9562189633366 0 0 0 0 -317.95453061413718 -51.240584729010379 0 -51.240584729010379 112.51771098226504 0 0 0 0 -196.48580072048935 -111.69476400284384 0 -111.69476400284384 -143.18697425638015 0 0 0 0 -737.71676043202751 -27.151496387595898 0 -27.151496387595898 109.15599549169951 0 0 0 0 -173.83273662248394 -32.287614063161726 0 -32.287614063161726 125.85056522777245 0 0 0 0 -330.43500303880137 215.00401822405749 0 215.00401822405749 805.98642823095361 0 0 0 0 -943.26425835170085 -610.88317885872402 0 -610.88317885872402 -476.69350164222851 0 0 0 0 -652.92862283840077 1514.135301599654 0 1514.135301599654 -1818.8763574700379 0 0 0 0 -72.080206742014468 -22.401138077768898 0 -22.401138077768898 -6.7830809365266393 0 0 0 0 198.48717852521986 -1378.9574403114921 0 -1378.9574403114921 -294.18743219256294 0 0 0 0 156.9687161653419 132.95316582233681 0 132.95316582233681 -312.4857437323866 0 0 0 0 -75.704416341905016 -32.688034895919373 0 -32.688034895919373 18.161120848467363 0 0 0 0 -13.934126017739118 -9.7410187603956615 0 -9.7410187603956615 -6.8682449778061621 0 0 0 0 -367.06856910817442 102.05203917966571 0 102.05203917966571 9.3827956412244475 0 0 0 0 -657.78600235166959 -35.701159663350154 0 -35.701159663350154 83.921370101888442 0 0 0 0 -320.2466098893492 -54.196915133385403 0 -54.196915133385403 108.70683319444584 0 0 0 0 -405.38280626878259 15.913820470212386 0 15.913820470212386 128.83014566061297 0 0 0 0 -180.15501947066514 110.51259388303561 0 110.51259388303561 9.5072531526666353 0 0 0 0 10.9920447631157 5.2768200377690846 0 5.2768200377690846 30.79286773464176 0 0 0 0 41.355440202518366 -115.62005718118814 0 -115.62005718118814 34.014626848264356 0 0 0 0 92.483707069506636 -24.597232593171157 0 -24.597232593171157 -65.855543444575233 0 0 0 0 -37.044556009874213 -393.73369844523131 0 -393.73369844523131 183.73211390791403 0 0 0 0 -46.079160643444993 -24.971214782737434 0 -24.971214782737434 -9.2410292210703577 0 0 0 0 36.790042162698228 -120.61295403298038 0 -120.61295403298038 29.897439618661735 0 0 0 0 36.192878068541177 -646.87103975733953 0 -646.87103975733953 -369.33317948245713 0 0 0 0 -207.03213116852567 7.5059647714642779 0 7.5059647714642779 -31.418030862959313 0 0 0 0 -23.564640144784789 41.67562075950346 0 41.67562075950346 -955.10757962379739 0 0 0 0 -5.2500465594653321 0.18873783837989322 0 0.18873783837989322 -0.64741466894479061 0 0 0 0 96.655607525201049 -2.7424964502611147 0 -2.7424964502611147 -35.915163151928255 0 0 0 0 -4.2575334989697815 4.7071336873560767 0 4.7071336873560767 -1.2731733653848103 0 0 0 0 -342.92417106472112 -14.590745361447318 0 -14.590745361447318 32.253945605809349 0 0 0 0 -58.825077973750012 -8.8860897210404346 0 -8.8860897210404346 2.1741162192083721 0 0 0 0 -61.320792864557006 -9.8965477212182122 0 -9.8965477212182122 6.1164490935907452 0 0 0 0 -54.011804272580775 -25.645563047627775 0 -25.645563047627775 3.8357354416821181 0 0 0 0 -63.665183838485973 -7.5689163762717726 0 -7.5689163762717726 4.2787630469802025 0 0 0 0 -40.920469021649126 -14.259396752785555 0 -14.259396752785555 -5.6815795429211855 0 0 0 0 -72.790681002068595 -21.509061152886147 0 -21.509061152886147 -3.0797309264253272 0 0 0 0 -59.491694155891309 -7.6961182358127189 0 -7.6961182358127189 0.091506361587562424 0 0 0 0 -78.882025140585029 -3.6679888971593755 0 -3.6679888971593755 -0.54652758630300013 0 0 0 0 -0.44373688708655301 4.2527967306511698 0 4.2527967306511698 1.8730701338000664 0 0 0 0 -90.50545558903832 -9.7145865392899395 0 -9.7145865392899395 -2.9871411250501296 0 0 0 0 -86.486395408996032 -16.270626087046367 0 -16.270626087046367 -3.9274489986364642 0 0 0 0 -91.061041949011269 -33.647195989700322 0 -33.647195989700322 -4.3658134849706585 0 0 0 0 -105.08791284932886 -29.343254129678371 0 -29.343254129678371 0.19457619095555856 0 0 0 0 -108.96300441179847 -42.079093493213691 0 -42.079093493213691 -0.12406749577348819 0 0 0 0 -102.51278720339178 -39.678826997452575 0 -39.678826997452575 2.2125407976036513 0 0 0 0 -90.968842351307103 -45.056657411403876 0 -45.056657411403876 -4.0922350460668895 0 0 0 0 -99.361506814766472 -50.878642890475646 0 -50.878642890475646 -2.261421117833379 0 0 0 0 -87.678379881351248 -31.799890267587287 0 -31.799890267587287 -5.0724090647452735 0 0 0 0 -76.215646260927315 -31.154941203924409 0 -31.154941203924409 2.0818477561351756 0 0 0 0 -81.699728105399117 -24.0515745359628 0 -24.0515745359628 12.595577735895858 0 0 0 0 -85.57153629430104 -26.974739854362269 0 -26.974739854362269 -1.0139661522334791 0 0 0 0 -75.417906811955618 -32.449944235423573 0 -32.449944235423573 1.7827696240774458 0 0 0 0 -77.405592612427427 -18.336956373192152 0 -18.336956373192152 1.561484560120789 0 0 0 0 -767.73315453495889 -372.02146575840857 0 -372.02146575840857 -139.57610692199341 0 0 0 0 -1312.1941877361096 449.54734966955289 0 449.54734966955289 -309.89066546956019 0 0 0 0 -1923.4878840147139 -149.24594629921148 0 -149.24594629921148 -544.82240177888525 0 0 0 0 -346.89867626296473 287.44915055429828 0 287.44915055429828 -733.40439884619627 0 0 0 0 -1437.4730176350276 173.97518082512454 0 173.97518082512454 -53.88162085517979 0 0 0 0 -557.67426346981665 347.94498512397377 0 347.94498512397377 -364.65021308696805 0 0 0 0 -291.77994326347834 294.25954443333467 0 294.25954443333467 -315.65495768869687 0 0 0 0 -289.62427487468813 -201.63982782348444 0 -201.63982782348444 99.924269159257165 0 0 0 0 4.1297825435890658 -18.787444041684125 0 -18.787444041684125 -11.062562265382896 0 0 0 0 273.07873319728242 -161.89704729071173 0 -161.89704729071173 -236.73728702027802 0 0 0 0 -290.70840639871312 615.44747915929111 0 615.44747915929111 160.89585070111707 0 0 0 0 -58.259691626979475 -26.814356071590637 0 -26.814356071590637 -15.261052883069169 0 0 0 0 354.04165118178935 114.26382356308204 0 114.26382356308204 8.6282550846697177 0 0 0 0 -24.592635353564276 2.9517873350657737 0 2.9517873350657737 10.246425456235634 0 0 0 0 -79.439119894173928 -3.6261532855914993 0 -3.6261532855914993 46.234673365638173 0 0 0 0 -43.247707512578927 -12.984674088645761 0 -12.984674088645761 -5.644647231076533 0 0 0 0 -47.778998026275076 -21.203628206633084 0 -21.203628206633084 2.2228583655751777 0 0 0 0 -32.554876017387414 -4.7827238491894946 0 -4.7827238491894946 12.504779096215245 0 0 0 0 -1323.9520748652285 1147.3879532293759 0 1147.3879532293759 -414.43451889048447 0 0 0 0 -1689.5810935990885 -473.45924313249907 0 -473.45924313249907 1034.7580957057553 0 0 0 0 780.57543698419613 54.106477194574609 0 54.106477194574609 -955.77263025450884 0 0 0 0 -1093.1391334398068 714.52651306105054 0 714.52651306105054 -259.37899527205536 0 0 0 0 -8.3749569794390482 -1.9749707503029441 0 -1.9749707503029441 -2.9715795523307102 0 0 0 0 -489.05968955237768 66.562434325428512 0 66.562434325428512 16.681955941501656 0 0 0 0 573.72932910839154 -753.91688629931764 0 -753.91688629931764 231.54980103540402 0 0 0 0 -546.35662861837773 -222.76556242184779 0 -222.76556242184779 65.14036978758304 0 0 0 0 63.555563985952176 -313.26731364558782 0 -313.26731364558782 53.512743722482128 0 0 0 0 -302.49610650679097 0.90093066064832783 0 0.90093066064832783 -19.373404572987965 0 0 0 0 -260.69513025941706 -94.213460380084371 0 -94.213460380084371 -88.559805755845446 0 0 0 0 -471.49739010127087 62.497253578693517 0 62.497253578693517 -41.118589328032385 0 0 0 0 -336.60707090868527 193.04129369872499 0 193.04129369872499 2.277484166882914 0 0 0 0 -222.06629799430084 313.56215951723834 0 313.56215951723834 -303.8717907913624 0 0 0 0 -245.19347192339774 221.70558908298472 0 221.70558908298472 -230.06089131172405 0 0 0 0 1.5689619274398865 209.54540741978644 0 209.54540741978644 -655.71676011874843 0 0 0 0 -28.524116117041558 42.391907798128159 0 42.391907798128159 -255.97755575304109 0 0 0 0 -25.128492394607747 50.368965903410754 0 50.368965903410754 -285.11221757717226 0 0 0 0 92.747218778609749 21.957748512177943 0 21.957748512177943 -261.45479856528073 0 0 0 0 51.517561061889865 -135.22708702241471 0 -135.22708702241471 -317.05107861406032 0 0 0 0 -160.91415389161557 275.57011245885224 0 275.57011245885224 -609.08385032749902 0 0 0 0 -5.3129137212453017 -3.3849489234384862 0 -3.3849489234384862 -1.7946840360604952 0 0 0 0 -2.5372855713640092 -4.6323546880393422 0 -4.6323546880393422 -2.7587853339771939 0 0 0 0 -305.99912285534083 276.54832096882365 0 276.54832096882365 -573.19210935058618 0 0 0 0 -342.88467360472714 580.00745795603575 0 580.00745795603575 -928.26003723959002 0 0 0 0 -304.04559270948812 568.36590933563184 0 568.36590933563184 -300.95698741800788 0 0 0 0 -260.75255468677642 346.80021942626274 0 346.80021942626274 -731.8095007438078 0 0 0 0 -268.21523387322668 360.7589737530825 0 360.7589737530825 -350.47318212180016 0 0 0 0 -620.1092212797812 254.01861449850594 0 254.01861449850594 -385.60357808036679 0 0 0 0 -1066.3782218094566 481.88847296013046 0 481.88847296013046 -446.48464579677238 0 0 0 0 -1763.8818461972551 381.98625555667149 0 381.98625555667149 -92.105764750438539 0 0 0 0 -2363.3838078165427 51.103934555067099 0 51.103934555067099 -191.84982170750845 0 0 0 0 -1127.814429688995 756.95045091336442 0 756.95045091336442 -845.23808492861099 0 0 0 0 -1247.6112579389592 477.56004404546093 0 477.56004404546093 -169.68401570704191 0 0 0 0 -1551.071667770666 -85.468074116759453 0 -85.468074116759453 -801.8316163806121 0 0 0 0 -2581.6956489966688 1042.1689559853539 0 1042.1689559853539 -838.28176829768017 0 0 0 0 -830.00116399845047 184.47594674697461 0 184.47594674697461 492.08941286482559 0 0 0 0 -1665.0515555886086 -53.385048139828996 0 -53.385048139828996 880.89687391612165 0 0 0 0 -808.85124970652396 -276.20481901943913 0 -276.20481901943913 274.44822139857433 0 0 0 0 -446.83490155380423 617.17119343820445 0 617.17119343820445 146.22583553481218 0 0 0 0 -57.674823712819489 -121.12586219898503 0 -121.12586219898503 146.82692854949028 0 0 0 0 0.37318835797103533 0.57344773997857601 0 0.57344773997857601 9.4030058791298039 0 0 0 0 -492.20841370426933 157.23225558644663 0 157.23225558644663 573.02538626058458 0 0 0 0 -492.54633318215974 141.13424498187675 0 141.13424498187675 -14.996703609854194 0 0 0 0 -755.51571217061428 64.920124273113288 0 64.920124273113288 154.36397506529829 0 0 0 0 -394.88521046914684 5.5969068334342751 0 5.5969068334342751 -57.19492502718731 0 0 0 0 -890.73770578236145 -45.10052432579505 0 -45.10052432579505 196.12979779678608 0 0 0 0 -609.99041378828406 -62.235595836285938 0 -62.235595836285938 80.533147857015592 0 0 0 0 -738.20746885037806 -112.75339948006285 0 -112.75339948006285 60.662125175892925 0 0 0 0 -397.07166662208056 18.478995256413015 0 18.478995256413015 91.140430188353093 0 0 0 0 -9.8000534826381216 -2.2398743817842046 0 -2.2398743817842046 30.219652170471996 0 0 0 0 -81.312439995599561 -7.0781277525834412 0 -7.0781277525834412 -31.607571896199715 0 0 0 0 -253.56809667802008 -30.044164511526105 0 -30.044164511526105 42.690139878113314 0 0 0 0 -180.41751210249106 -223.09927059020708 0 -223.09927059020708 -234.47948727259495 0 0 0 0 -11.412364073774484 -7.2432933743149164 0 -7.2432933743149164 5.0217142198645899 0 0 0 0 -1674.8610067744012 673.96379840806708 0 673.96379840806708 -228.92987846146815 0 0 0 0 -1822.3333853252552 -238.96544953075266 0 -238.96544953075266 345.41769842555561 0 0 0 0 -102.776041330304 -7.0946557937486432 0 -7.0946557937486432 -3.0007376948910292 0 0 0 0 -122.55845385696011 -28.761715907432517 0 -28.761715907432517 18.358382336081377 0 0 0 0 -152.50218166292325 -26.344938875979778 0 -26.344938875979778 18.216596858277626 0 0 0 0 -115.84336212409107 -31.881295199301803 0 -31.881295199301803 -0.39065252427280939 0 0 0 0 -100.34602451458341 -15.751949600996795 0 -15.751949600996795 -2.3600723241934247 0 0 0 0 -92.196775758013246 -20.458445217127519 0 -20.458445217127519 -6.4702464871375014 0 0 0 0 -89.3676982988909 -10.523962005864178 0 -10.523962005864178 -2.5108259907301544 0 0 0 0 -1.1681496736235069 2.4029452972288254 0 2.4029452972288254 4.1604846011514169 0 0 0 0 -128.44827482407709 -27.459960190511083 0 -27.459960190511083 -8.9854106418265474 0 0 0 0 -86.696062065575461 7.3286349068740719 0 7.3286349068740719 5.3942727637859207 0 0 0 0 -74.113089963953826 -28.881374612873856 0 -28.881374612873856 -37.016538300003049 0 0 0 0 -77.84264239584445 31.468682133867333 0 31.468682133867333 -17.403883095366155 0 0 0 0 -0.85930691368202972 0.34456726799157877 0 0.34456726799157877 2.4023605726392958 0 0 0 0 -143.76798119595333 54.087163254665029 0 54.087163254665029 187.69388752502527 0 0 0 0 -172.36530293073156 -31.692405384857011 0 -31.692405384857011 101.52553049675998 0 0 0 0 -54.939316937321564 11.391399001621039 0 11.391399001621039 5.728777739303041 0 0 0 0 -78.534765270131174 -14.343579011002021 0 -14.343579011002021 104.71516952405545 0 0 0 0 -102.6789543521154 11.387755528346133 0 11.387755528346133 51.033114901801127 0 0 0 0 -99.187356033609831 17.336020757212282 0 17.336020757212282 15.740246248260519 0 0 0 0 -119.1175051574246 4.651052359658479 0 4.651052359658479 29.700073014346344 0 0 0 0 -159.77833214923157 7.2722256062506858 0 7.2722256062506858 30.871821907189769 0 0 0 0 -170.86027283345175 16.925306440084569 0 16.925306440084569 43.348559854657651 0 0 0 0 -163.70750191741536 54.560719647584392 0 54.560719647584392 18.116345156873649 0 0 0 0 -196.86422549688723 9.6457188587073688 0 9.6457188587073688 41.663155032155373 0 0 0 0 -18.544900635915962 -42.922559261225786 0 -42.922559261225786 58.737940812018429 0 0 0 0 -149.8684677711135 -42.928575573935177 0 -42.928575573935177 27.835516846786049 0 0 0 0 -466.63747327869351 -17.911716341230203 0 -17.911716341230203 131.36985862138317 0 0 0 0 -373.29143382556504 16.12061228433231 0 16.12061228433231 98.901368777991593 0 0 0 0 -409.15889919869369 -90.948703173310605 0 -90.948703173310605 95.268586713675177 0 0 0 0 -348.35220361221582 -105.41934054012563 0 -105.41934054012563 72.244088923083837 0 0 0 0 -210.65658718208579 -24.015271238640253 0 -24.015271238640253 60.96333425492594 0 0 0 0 -166.23109234735603 -31.75358351476234 0 -31.75358351476234 49.745520714097438 0 0 0 0 -5.2454518926144864 -50.837845828813613 0 -50.837845828813613 37.798594172713848 0 0 0 0 -359.41972323239315 -108.94310126974688 0 -108.94310126974688 27.869032279370003 0 0 0 0 -359.40015193907766 -107.35312895087242 0 -107.35312895087242 140.62194929894031 0 0 0 0 -289.12960611434391 -232.66971356109298 0 -232.66971356109298 30.638700343663913 0 0 0 0 -5.1992279333607812 -51.229577847785464 0 -51.229577847785464 15.341902843991633 0 0 0 0 -145.52263087786559 -43.977615841277839 0 -43.977615841277839 9.6842257697544483 0 0 0 0 -137.53557173482841 -136.14512753829467 0 -136.14512753829467 25.449259032516466 0 0 0 0 -283.59882298631419 7.1143487788594939 0 7.1143487788594939 6.7872771641930854 0 0 0 0 -412.84713392999402 -139.85684700534512 0 -139.85684700534512 121.35325131423997 0 0 0 0 -778.22413700533798 86.903684337608865 0 86.903684337608865 11.286044358994673 0 0 0 0 -122.32220953086653 -31.57639569436833 0 -31.57639569436833 80.529179225744883 0 0 0 0 -191.94461056798173 -84.454893703662492 0 -84.454893703662492 66.133056879298238 0 0 0 0 -12.589038122700202 -10.930390322628767 0 -10.930390322628767 -0.94873130361619218 0 0 0 0 109.75511781676323 -153.94416645185083 0 -153.94416645185083 129.5275462902664 0 0 0 0 -136.38103881399729 -28.974744088902298 0 -28.974744088902298 273.64518757875339 0 0 0 0 -301.69360491093539 -72.853829013192808 0 -72.853829013192808 75.755634131908664 0 0 0 0 -298.80500296443643 -93.230444551675646 0 -93.230444551675646 218.08954924785576 0 0 0 0 -216.78370040582377 -19.073834324288327 0 -19.073834324288327 120.37360404738138 0 0 0 0 -310.88213079827256 -26.335132861477177 0 -26.335132861477177 190.79428518716304 0 0 0 0 -270.16823093540734 38.079538661408151 0 38.079538661408151 133.52439553013392 0 0 0 0 -314.2860109203757 -43.242180745859514 0 -43.242180745859514 119.16192836795381 0 0 0 0 -182.92155791586265 -89.09136800485885 0 -89.09136800485885 223.08170265473746 0 0 0 0 -127.44126467729802 56.480247446623252 0 56.480247446623252 171.4668590503079 0 0 0 0 -98.352316352131311 6.2937799309656839 0 6.2937799309656839 160.46307537864777 0 0 0 0 -44.311773362540407 -14.570887542135097 0 -14.570887542135097 526.61645117693843 0 0 0 0 -86.256933913595276 78.821834339240013 0 78.821834339240013 319.54495388970099 0 0 0 0 -24.564972316700732 166.05730345364645 0 166.05730345364645 313.55757197822095 0 0 0 0 -21.835853112774203 -151.7903997073081 0 -151.7903997073081 354.8773216960376 0 0 0 0 -36.163173274049768 -126.397040999811 0 -126.397040999811 500.81294062038432 0 0 0 0 244.83740072289947 -202.46817587754049 0 -202.46817587754049 518.9152205927312 0 0 0 0 -521.1475143005373 135.39037637480214 0 135.39037637480214 -64.751687956875685 0 0 0 0 -187.99111525955959 -125.347933469493 0 -125.347933469493 -119.33489729402572 0 0 0 0 337.48411414359907 353.4163441553701 0 353.4163441553701 -572.82768122848938 0 0 0 0 -1033.5832309865218 88.8429034757919 0 88.8429034757919 127.19794155556156 0 0 0 0 -707.12757574790157 -115.9041886272189 0 -115.9041886272189 40.700958710684063 0 0 0 0 -10.604608382678379 15.20754869410797 0 15.20754869410797 -21.167886884396054 0 0 0 0 -1131.1934603008413 -90.126276787552342 0 -90.126276787552342 70.504626180279047 0 0 0 0 -1115.0697191574181 -30.385855704315873 0 -30.385855704315873 132.47254186909413 0 0 0 0 -539.04302944950905 762.47419534216488 0 762.47419534216488 463.68687650447282 0 0 0 0 -7.632934839677489 -5.11322235891231 0 -5.11322235891231 3.7532615078483644 0 0 0 0 130.56025504876743 -285.39804558956348 0 -285.39804558956348 312.02513635358628 0 0 0 0 -870.73998638479679 14.432037848006075 0 14.432037848006075 8.9806607270147651 0 0 0 0 -827.59600432602747 127.22608016669255 0 127.22608016669255 191.98269250769408 0 0 0 0 -1382.7259161618858 115.11594506392976 0 115.11594506392976 284.62569156553218 0 0 0 0 -1450.2248779044166 388.96000088415349 0 388.96000088415349 216.68532391242661 0 0 0 0 -1022.9143951681726 231.86888812888128 0 231.86888812888128 253.87853845192876 0 0 0 0 -1459.5911794230342 105.69131482740158 0 105.69131482740158 218.15273195404279 0 0 0 0 -807.8726361052104 272.05182174303263 0 272.05182174303263 -56.907099847020618 0 0 0 0 -1405.7941575481236 380.29952995121994 0 380.29952995121994 155.53159600329673 0 0 0 0 -802.65408532469883 326.89378966192544 0 326.89378966192544 87.116821695133694 0 0 0 0 -13.849612422287464 -107.22088676533531 0 -107.22088676533531 -11.785421435639137 0 0 0 0 205.49576666984649 506.58744516198112 0 506.58744516198112 -175.9723522553395 0 0 0 0 -364.24022040658747 -165.90302411851007 0 -165.90302411851007 527.09480137832816 0 0 0 0 -2786.5998592232354 -687.94931292314868 0 -687.94931292314868 -68.550107049621602 0 0 0 0 -398.78327061385789 540.42073210907438 0 540.42073210907438 -872.93446326283174 0 0 0 0 -2326.469396586428 662.57718372486033 0 662.57718372486033 204.5256662053298 0 0 0 0 -869.95701050150819 -441.27712980783326 0 -441.27712980783326 47.813646504984945 0 0 0 0 447.85599390957213 -481.68252825433001 0 -481.68252825433001 -246.38457590730582 0 0 0 0 -535.65749820147175 49.587564111290703 0 49.587564111290703 -1.1592815194994728 0 0 0 0 477.63612252358871 1147.5269165164189 0 1147.5269165164189 -415.47428273312926 0 0 0 0 -2.9806166664089915 4.3374757487988518 0 4.3374757487988518 -10.148724005252319 0 0 0 0 -456.4214652099472 957.07268839810069 0 957.07268839810069 -429.14104911668073 0 0 0 0 -499.08124227420922 -104.89639748919217 0 -104.89639748919217 371.51133916808067 0 0 0 0 -2600.801351918024 432.17777834166441 0 432.17777834166441 702.97146623274409 0 0 0 0 -2539.5353281831922 345.36183324713306 0 345.36183324713306 104.78055817321774 0 0 0 0 -1115.2330121584528 -647.66086294987304 0 -647.66086294987304 -194.49816102882926 0 0 0 0 -681.46229702518031 1278.7094410777286 0 1278.7094410777286 -854.60842725856105 0 0 0 0 -31.37770469173995 3.7454344422796018 0 3.7454344422796018 -1.5267259848821624 0 0 0 0 -219.79344684732678 -336.04761374037594 0 -336.04761374037594 -270.64999995739026 0 0 0 0 -1172.6958367914485 116.69558616860741 0 116.69558616860741 116.3237738954615 0 0 0 0 -320.71798383005807 80.27590746410965 0 80.27590746410965 540.01809936314135 0 0 0 0 -113.00794382322056 62.991844046758843 0 62.991844046758843 120.64523068113775 0 0 0 0 -81.427642372605249 7.107002904253692 0 7.107002904253692 6.6266905042625552 0 0 0 0 -91.726614273477026 180.65345033337036 0 180.65345033337036 -79.399339024565279 0 0 0 0 -1.8587452923249543 2.0997083319135363 0 2.0997083319135363 1.750651143170822 0 0 0 0 -11.120096552609283 36.196347836995471 0 36.196347836995471 28.12443350909659 0 0 0 0 -18.519877799142421 -13.331523473238974 0 -13.331523473238974 5.8445625529235556 0 0 0 0 66.679812573580421 -107.59693431318044 0 -107.59693431318044 51.25793805160788 0 0 0 0 -96.078258863475639 -31.821658250166706 0 -31.821658250166706 -46.215662477414071 0 0 0 0 -434.34696010171319 -189.25414181181122 0 -189.25414181181122 -60.116313681059864 0 0 0 0 -574.08637013488624 -64.116380171760511 0 -64.116380171760511 46.634536775291338 0 0 0 0 -541.20211477963312 -108.81060012716983 0 -108.81060012716983 22.931171541240474 0 0 0 0 -6.8685354506655045 -13.981323510493695 0 -13.981323510493695 3.7667133331859439 0 0 0 0 216.9323463060864 -169.17021700574287 0 -169.17021700574287 55.997059983416648 0 0 0 0 -927.49766120258391 57.550828498412528 0 57.550828498412528 -12.557690206062489 0 0 0 0 -492.96337562534245 -89.07025920463397 0 -89.07025920463397 20.227718885430932 0 0 0 0 -1014.810097834008 -352.98056571796735 0 -352.98056571796735 -92.950893472158555 0 0 0 0 -669.44173707110167 -182.65921111284712 0 -182.65921111284712 43.809942893547941 0 0 0 0 -712.65444260672666 -190.0244960257578 0 -190.0244960257578 49.938508499950103 0 0 0 0 -772.47498658380209 -161.18576882269917 0 -161.18576882269917 79.509890680143144 0 0 0 0 -708.79894553651684 -137.29830708982422 0 -137.29830708982422 78.390781379019586 0 0 0 0 -710.26682389248163 13.336416483048566 0 13.336416483048566 54.369741413379415 0 0 0 0 -326.88336438655824 133.61395095774998 0 133.61395095774998 -32.94795537608843 0 0 0 0 -758.318321624487 194.85129820043943 0 194.85129820043943 -37.988348524684625 0 0 0 0 -1012.7953174535942 82.592240582662271 0 82.592240582662271 23.283180251199781 0 0 0 0 -653.77589565204107 17.728794792215467 0 17.728794792215467 31.429365716882785 0 0 0 0 -714.45081422881049 270.88303668126423 0 270.88303668126423 -128.09660903134409 0 0 0 0 -615.72215925181808 318.58900495092252 0 318.58900495092252 -19.368114480021177 0 0 0 0 -583.53162176607293 294.26800093865495 0 294.26800093865495 -117.26076226582768 0 0 0 0 -575.74772952747298 301.40144585753887 0 301.40144585753887 -299.81203582919261 0 0 0 0 -742.93850909234607 298.52418365355334 0 298.52418365355334 -111.30944497154462 0 0 0 0 -558.93522843258688 258.20204340181772 0 258.20204340181772 -102.49149991899924 0 0 0 0 -474.34684025470051 334.55236768482678 0 334.55236768482678 -34.013185873470547 0 0 0 0 -425.4547683995479 364.21977530608001 0 364.21977530608001 -23.934796103023018 0 0 0 0 -743.51395699896966 162.80116460145348 0 162.80116460145348 117.53225144821204 0 0 0 0 -553.89089014549972 388.76596303242877 0 388.76596303242877 47.930480788407294 0 0 0 0 -88.743381809603306 179.18389076430253 0 179.18389076430253 -171.09891307442376 0 0 0 0 256.74934632449003 67.282727677327756 0 67.282727677327756 -350.11734817461229 0 0 0 0 -7.6936107576967139 5.1725321168974858 0 5.1725321168974858 7.1464877481765372 0 0 0 0 -297.17482281854609 107.05436743738233 0 107.05436743738233 28.861689845120509 0 0 0 0 -508.33538072713418 285.02345551445592 0 285.02345551445592 -77.126376776646794 0 0 0 0 -505.41616660915315 285.95012298052188 0 285.95012298052188 -118.55310611636696 0 0 0 0 -427.86096829059534 202.65071867636834 0 202.65071867636834 -107.0017570222924 0 0 0 0 -271.35415949125309 276.2771381096145 0 276.2771381096145 -169.21043388475073 0 0 0 0 -405.99422100826632 142.1309520313448 0 142.1309520313448 -151.50642422144966 0 0 0 0 -65.304126875722432 -161.86461906101727 0 -161.86461906101727 -261.93363653153801 0 0 0 0 -463.52665733676986 277.55245063613722 0 277.55245063613722 -219.23065717432291 0 0 0 0 7.7258232316989961 0.75034603244710496 0 0.75034603244710496 -0.4743045150483618 0 0 0 0 -131.40007981273811 -42.908028108986855 0 -42.908028108986855 5.0270414561528014 0 0 0 0 -16.187147084740225 -51.457573931820065 0 -51.457573931820065 -5.5053257441715431 0 0 0 0 157.19312079879273 -42.56584060608256 0 -42.56584060608256 -244.58922037021694 0 0 0 0 -552.18329671144602 -309.67845174237164 0 -309.67845174237164 -174.42081427830863 0 0 0 0 -431.03928702976555 -205.61310445114032 0 -205.61310445114032 62.813775316981264 0 0 0 0 -86.272138409112813 -40.379010209883745 0 -40.379010209883745 -31.141144147451087 0 0 0 0 427.46846721303882 -671.00826758105313 0 -671.00826758105313 -601.62114331185785 0 0 0 0 -941.45061955109122 89.685509469875797 0 89.685509469875797 116.0980044958992 0 0 0 0 -7.3230661919351405 -7.0636248472957561 0 -7.0636248472957561 -2.4907171537216968 0 0 0 0 -957.16973663747194 -128.63729901775696 0 -128.63729901775696 27.896424979842777 0 0 0 0 -381.77027583005474 -57.033413805652799 0 -57.033413805652799 3.9475120167535351 0 0 0 0 -936.13563292851904 -128.43061506650429 0 -128.43061506650429 19.830826453808186 0 0 0 0 -1063.1465199039958 -189.59765837012128 0 -189.59765837012128 136.09652523561272 0 0 0 0 120.3431739762309 964.45677287044487 0 964.45677287044487 -2549.5129810537933 0 0 0 0 633.65066439947987 -219.54717353996546 0 -219.54717353996546 -1030.0470499392977 0 0 0 0 -397.47248295819736 667.16145317778046 0 667.16145317778046 -1092.3566623106917 0 0 0 0 -1327.4174997413356 526.74027252818462 0 526.74027252818462 -180.60863680754392 0 0 0 0 -542.89984111045487 188.88078086269252 0 188.88078086269252 -319.1398699199367 0 0 0 0 -595.8134027380147 264.86904592826704 0 264.86904592826704 -208.88388130517797 0 0 0 0 -582.97452431300189 171.33503028558425 0 171.33503028558425 -309.72857394372477 0 0 0 0 -743.38448341900948 279.99884593353636 0 279.99884593353636 -332.26307590755368 0 0 0 0 -369.06538892170647 -25.946853794925119 0 -25.946853794925119 -506.94254679582627 0 0 0 0 -185.45824813074432 99.757456175857442 0 99.757456175857442 -3397.3001894894041 0 0 0 0 -819.14095365814865 -810.8856362943734 0 -810.8856362943734 612.23656897146429 0 0 0 0 -387.61089034038014 152.8602487224457 0 152.8602487224457 -358.73280654203154 0 0 0 0 -558.83431946956262 94.367473611590185 0 94.367473611590185 -233.4044539565466 0 0 0 0 -3690.8364449437649 72.321512093647129 0 72.321512093647129 233.36535125075147 0 0 0 0 -3924.5663387498353 731.80144797443791 0 731.80144797443791 670.81987237293106 0 0 0 0 -3966.9047707264472 393.77714827360552 0 393.77714827360552 -289.55537426557282 0 0 0 0 -4500.041590845779 231.47067065695191 0 231.47067065695191 235.86940619164628 0 0 0 0 -4127.7469469948628 333.29701976569152 0 333.29701976569152 92.53980415542992 0 0 0 0 -3602.4132948042461 -779.25822255979824 0 -779.25822255979824 -468.91511329501282 0 0 0 0 -1795.1475635404349 -348.33548475288148 0 -348.33548475288148 -370.83225013865217 0 0 0 0 -1978.2678749266634 -536.87737940561885 0 -536.87737940561885 -225.63564810837397 0 0 0 0 -3178.9691452858169 538.52220771281122 0 538.52220771281122 566.64069774173765 0 0 0 0 151.50575388141442 51.873822876317774 0 51.873822876317774 -96.85883741382321 0 0 0 0 -1449.3069410511816 -564.5340989482695 0 -564.5340989482695 1158.9415355541541 0 0 0 0 -2757.9599423919572 62.438513372663465 0 62.438513372663465 684.64460788472172 0 0 0 0 -1640.4139201494036 591.93290943120007 0 591.93290943120007 375.17138577781168 0 0 0 0 -3524.7752365624074 988.89300751215319 0 988.89300751215319 765.15439517377979 0 0 0 0 -4498.9129984132014 597.4298941015312 0 597.4298941015312 866.52851395738821 0 0 0 0 -4501.1413368522772 1919.7967950150266 0 1919.7967950150266 358.06650136303898 0 0 0 0 -2807.1581103909557 816.73172068464078 0 816.73172068464078 786.52921219531299 0 0 0 0 -1935.0147233686876 1188.0156222498263 0 1188.0156222498263 -130.98744268465651 0 0 0 0 -306.36898668817594 4.5360117468420125 0 4.5360117468420125 -1.5602279127631253 0 0 0 0 -4492.0244403623656 3158.7370290049976 0 3158.7370290049976 -1646.6333974259096 0 0 0 0 -24.102077041131906 -0.06757405709875286 0 -0.06757405709875286 0.76770368263828848 0 0 0 0 -4443.0227176575863 -1725.2191226110288 0 -1725.2191226110288 1.0418059633281112 0 0 0 0 -91.453446924425407 5.6939242914277015 0 5.6939242914277015 12.627756782419937 0 0 0 0 -102.531011123996 -85.023453934128071 0 -85.023453934128071 -7.4867242629527428 0 0 0 0 -53.941104842128937 -8.1385032082772284 0 -8.1385032082772284 2.2895743204954355 0 0 0 0 -67.074690188586374 -16.394245897700912 0 -16.394245897700912 5.8225504546113989 0 0 0 0 -695.45717899287411 -158.45535645965208 0 -158.45535645965208 207.76233126325712 0 0 0 0 -1875.8899812234231 773.03124917161131 0 773.03124917161131 -185.90219085703768 0 0 0 0 -571.84792686490982 459.75404086393917 0 459.75404086393917 -166.68019844911555 0 0 0 0 -2767.5004786710779 799.46267216065348 0 799.46267216065348 478.43520507661469 0 0 0 0 15.105943827016745 97.372172822040852 0 97.372172822040852 29.971431801026938 0 0 0 0 317.31499299472489 -150.74315502037825 0 -150.74315502037825 -77.418214743450335 0 0 0 0 -15.9192995443927 -5.6341820945190193 0 -5.6341820945190193 20.011542064476657 0 0 0 0 -145.46065682015615 5.8987613660074203 0 5.8987613660074203 271.99021617870358 0 0 0 0 -51.301284762669468 -27.986808617547517 0 -27.986808617547517 -6.9969950565451038 0 0 0 0 63.198418988919002 20.242035653329594 0 20.242035653329594 -227.44240507858012 0 0 0 0 -516.51205374910205 38.124517275924177 0 38.124517275924177 60.044529344016837 0 0 0 0 -616.26087364033083 -216.61664729339645 0 -216.61664729339645 -10.067935114448119 0 0 0 0 -8.1226378416904481 -41.856866640369788 0 -41.856866640369788 -136.78683755086968 0 0 0 0 -88.844868587140809 -18.71858287968568 0 -18.71858287968568 29.965074304597437 0 0 0 0 -17.667252666354997 -5.2575908489973813 0 -5.2575908489973813 4.7932415475786456 0 0 0 0 -74.326052380711189 3.6356259482362967 0 3.6356259482362967 0.64989415972611608 0 0 0 0 -486.45467475472833 -120.93346585379018 0 -120.93346585379018 112.21889258535577 0 0 0 0 -577.85531115713093 84.885008891671703 0 84.885008891671703 -171.70988961898411 0 0 0 0 -66.267263529705815 48.721527275018126 0 48.721527275018126 -139.75811954724611 0 0 0 0 -653.90545837723039 -246.30975190541037 0 -246.30975190541037 0.088841829971013864 0 0 0 0 1.1855397539310957 -0.32814349813381227 0 -0.32814349813381227 1.2884166859245361 0 0 0 0 -1251.179335722074 -132.36326513305096 0 -132.36326513305096 51.701839437006925 0 0 0 0 -1573.1046458506171 -371.31782186793765 0 -371.31782186793765 0.30704877205872638 0 0 0 0 -1261.3886362794437 -126.52821417020675 0 -126.52821417020675 194.05179209647429 0 0 0 0 -2098.7658755878365 -244.21611028552968 0 -244.21611028552968 284.77727900845719 0 0 0 0 -1774.311465266539 -670.99847133276535 0 -670.99847133276535 -204.12239467529025 0 0 0 0 -1025.1531957681 232.61170813950946 0 232.61170813950946 -134.60212588767581 0 0 0 0 -3301.3290405755106 272.44238336609715 0 272.44238336609715 191.02331548978373 0 0 0 0 -570.71819004480494 -1224.222673820922 0 -1224.222673820922 -1931.2266917837946 0 0 0 0 -18.999724731120864 -10.425812185945134 0 -10.425812185945134 -7.071853282268842 0 0 0 0 -2135.4350370124448 -1361.6697576332085 0 -1361.6697576332085 -1126.1130834740543 0 0 0 0 -2637.3470351476135 171.20764622756013 0 171.20764622756013 -526.22226541022656 0 0 0 0 -1392.6652037205058 -195.14767946357642 0 -195.14767946357642 -1903.9273158037461 0 0 0 0 -1503.7650952097247 -259.8681437682983 0 -259.8681437682983 -376.92451677193048 0 0 0 0 -1508.8658078063454 -423.71364480226362 0 -423.71364480226362 119.58067771944934 0 0 0 0 -1992.1091046839865 -739.66036454876337 0 -739.66036454876337 230.53302927493951 0 0 0 0 -915.87268294597743 -652.73562943504248 0 -652.73562943504248 237.24586026281418 0 0 0 0 -1419.3032080329849 -377.40171003576393 0 -377.40171003576393 142.76097275436905 0 0 0 0 -1407.742146849545 -1330.2158517771884 0 -1330.2158517771884 -4.2614072864996615 0 0 0 0 -1284.7514469602029 -1147.3601631743118 0 -1147.3601631743118 182.32393026847458 0 0 0 0 -1270.7987658020575 -1349.6653259423474 0 -1349.6653259423474 771.43762221332781 0 0 0 0 -1474.2825234186166 -1027.8106893653485 0 -1027.8106893653485 -78.536870533211641 0 0 0 0 -1775.0969417308806 -1269.4751296612581 0 -1269.4751296612581 182.04219518564926 0 0 0 0 -1547.5868051952202 -1620.4700008564007 0 -1620.4700008564007 -104.88531564492905 0 0 0 0 -2202.9140799184679 -2164.1898059809728 0 -2164.1898059809728 -915.61335092266745 0 0 0 0 -1210.3687724090269 -1266.57969649304 0 -1266.57969649304 -335.79275210303103 0 0 0 0 -3293.9977890513401 -1045.8107557294923 0 -1045.8107557294923 -44.180688477441436 0 0 0 0 -1051.4479840260901 -1339.7575156888577 0 -1339.7575156888577 -765.48088966748423 0 0 0 0 -608.3596652969718 -442.18153511800256 0 -442.18153511800256 832.76684142721638 0 0 0 0 -830.79733535628839 -1554.6340884912424 0 -1554.6340884912424 59.607672605235166 0 0 0 0 -1165.1330147724366 -1449.4957360458723 0 -1449.4957360458723 -38.010402461122567 0 0 0 0 -1060.4961706978793 -1156.3797886613957 0 -1156.3797886613957 -452.53458321850104 0 0 0 0 -1237.3851875602122 -1214.8552475687584 0 -1214.8552475687584 -464.72130843655691 0 0 0 0 -1112.240791470329 -1288.9206158879319 0 -1288.9206158879319 -865.99216918885622 0 0 0 0 -943.23039881252771 -849.14412806301755 0 -849.14412806301755 -1079.5332383514942 0 0 0 0 -2327.6980916576067 -1360.1400842844005 0 -1360.1400842844005 -1266.163038408265 0 0 0 0 -76.863604703541597 23.597674217654358 0 23.597674217654358 9.6320105302430967 0 0 0 0 -722.06670805733302 -213.96107861703331 0 -213.96107861703331 135.8703935789909 0 0 0 0 -792.62595009111101 -447.44534130155989 0 -447.44534130155989 152.02869787811176 0 0 0 0 -783.77983947034227 -390.28461540717353 0 -390.28461540717353 -228.30339630232879 0 0 0 0 -1138.3552418467443 -516.27918752576056 0 -516.27918752576056 64.789457121331139 0 0 0 0 -96.861791286955111 -24.30316060464579 0 -24.30316060464579 -1.4476662929462487 0 0 0 0 -1060.0026679913281 -681.47794560380476 0 -681.47794560380476 379.09406006426047 0 0 0 0 -1117.5262267284343 -777.99150481764718 0 -777.99150481764718 234.41935557939064 0 0 0 0 -1456.6911227793062 -672.70509835571966 0 -672.70509835571966 771.71825256513807 0 0 0 0 -855.87741331392317 -1101.3372941385428 0 -1101.3372941385428 329.4074509101842 0 0 0 0 -28.716367759739398 -14.023029261831795 0 -14.023029261831795 12.165923590742487 0 0 0 0 -1258.1404478498735 -401.81118230371385 0 -401.81118230371385 1024.1200241408962 0 0 0 0 -1271.5027157553704 -572.94839666168423 0 -572.94839666168423 -213.22267162288193 0 0 0 0 -640.10979416144255 -312.21906279988275 0 -312.21906279988275 48.895114231858201 0 0 0 0 -850.5602339750003 -222.96546547836456 0 -222.96546547836456 195.57033990158021 0 0 0 0 -876.60839583796042 -533.83062471958635 0 -533.83062471958635 281.47065266503211 0 0 0 0 -1248.5446778742771 -367.33114618793627 0 -367.33114618793627 206.94775321746704 0 0 0 0 -97.104988245179641 -23.673400942516054 0 -23.673400942516054 -3.0696103230839986 0 0 0 0 -1097.6390249588876 -333.5269267969195 0 -333.5269267969195 36.079352138773544 0 0 0 0 -428.20245489751687 -280.61399486946402 0 -280.61399486946402 129.30381144152307 0 0 0 0 -95.31895648085117 -27.588385108957091 0 -27.588385108957091 5.4353872390862268 0 0 0 0 -39.745621526504692 -109.31018703180496 0 -109.31018703180496 26.565928939387049 0 0 0 0 -269.40500150053413 47.909997390543737 0 47.909997390543737 265.71065294601033 0 0 0 0 -16.990633028151194 -20.201754585882753 0 -20.201754585882753 5.720481278810202 0 0 0 0 -606.77111800819694 299.99484570604704 0 299.99484570604704 -86.793628507525682 0 0 0 0 -62.618461034668144 -212.2276614949983 0 -212.2276614949983 -418.86068341429723 0 0 0 0 3.4817097170310376 -2.6757269147481395 0 -2.6757269147481395 -0.25654336294967717 0 0 0 0 -588.97327300495817 57.566010484326057 0 57.566010484326057 181.09729972115096 0 0 0 0 20.59137371450197 443.38001637697215 0 443.38001637697215 297.27157402525359 0 0 0 0 -391.51232242645347 -140.38195619664003 0 -140.38195619664003 -197.08999330388815 0 0 0 0 -660.27939274642267 -39.509832587443725 0 -39.509832587443725 147.88965184720996 0 0 0 0 -255.65316936455201 -142.31106097700126 0 -142.31106097700126 110.0412535896242 0 0 0 0 -747.84630675108929 0.65902948017469498 0 0.65902948017469498 -251.84149897187945 0 0 0 0 -880.23893440498796 250.89984125128495 0 250.89984125128495 -267.717811208032 0 0 0 0 -378.84906288555794 152.14829011977702 0 152.14829011977702 -279.61156510010676 0 0 0 0 -966.052077508808 2.7148935999640571 0 2.7148935999640571 -413.5606984392989 0 0 0 0 -655.25038592078272 134.64046950395692 0 134.64046950395692 -372.50608231766228 0 0 0 0 -716.94104639170837 -106.7699815096164 0 -106.7699815096164 -448.26371961137033 0 0 0 0 -940.25328144158993 -78.541447500044683 0 -78.541447500044683 -403.35134450867201 0 0 0 0 -883.17872982735571 -267.43467566160712 0 -267.43467566160712 -630.64012126657428 0 0 0 0 -1079.4779905931791 -160.85327599442235 0 -160.85327599442235 -394.78711646198678 0 0 0 0 -1016.5158006501879 -114.62796439395936 0 -114.62796439395936 -53.812044973562479 0 0 0 0 -728.28310198079726 -256.99998146490589 0 -256.99998146490589 -372.63503491484335 0 0 0 0 -1410.4606675742107 -23.184626262658639 0 -23.184626262658639 -320.23052812033256 0 0 0 0 -1020.9298814721785 -416.55179956598897 0 -416.55179956598897 63.814439343798767 0 0 0 0 -1017.7119182973183 -358.53137490344648 0 -358.53137490344648 -691.23275717789465 0 0 0 0 -1385.0084692926321 -315.56529507113646 0 -315.56529507113646 -619.00746652598491 0 0 0 0 -1090.3193099337223 -464.0201000901219 0 -464.0201000901219 -934.35959523637007 0 0 0 0 -1124.4361023996262 -331.37949724137798 0 -331.37949724137798 -462.32924022632847 0 0 0 0 -1302.4297854523466 -454.71234137572281 0 -454.71234137572281 -278.73547255411177 0 0 0 0 -1182.5682684141066 -461.54313180253661 0 -461.54313180253661 -547.3539185609402 0 0 0 0 -1644.9399460467394 -640.37180547303433 0 -640.37180547303433 -247.37331055957634 0 0 0 0 -1588.1252987799962 -754.45543878782792 0 -754.45543878782792 -589.31116085586109 0 0 0 0 -1644.0822822745249 -498.09751046251546 0 -498.09751046251546 21.667450829274117 0 0 0 0 -1531.6167910643562 -534.43525048216634 0 -534.43525048216634 -204.37931932812558 0 0 0 0 -1540.6952451069374 -381.16127820779553 0 -381.16127820779553 -0.1162728477548729 0 0 0 0 -1547.5820230796526 -393.9693462822845 0 -393.9693462822845 18.104924998582661 0 0 0 0 -1289.5291429362769 -262.70440958285661 0 -262.70440958285661 -0.13209702467128626 0 0 0 0 -1347.0565026222903 -382.04577213982719 0 -382.04577213982719 -101.85516379140529 0 0 0 0 -1358.5232143071407 -358.67690456007449 0 -358.67690456007449 -132.66025150701023 0 0 0 0 -1200.9756752969261 -263.12194773662048 0 -263.12194773662048 -232.20204460360253 0 0 0 0 -1215.9173365530878 -236.75679242474965 0 -236.75679242474965 -195.34512879040074 0 0 0 0 -1098.6043774432474 -132.58356095182828 0 -132.58356095182828 -242.40608922091258 0 0 0 0 -1138.1957557874703 -260.50739859604028 0 -260.50739859604028 -261.9163598593052 0 0 0 0 -1113.5098486768984 -206.79793891739462 0 -206.79793891739462 -427.62732537887905 0 0 0 0 -886.80513941826939 -38.765906976248061 0 -38.765906976248061 -398.49932221248287 0 0 0 0 -1208.7809161442856 1.428365358227154 0 1.428365358227154 -176.30309283205082 0 0 0 0 -1290.0219665894583 -108.55949316991372 0 -108.55949316991372 5.1902914695871232 0 0 0 0 -1212.416741102872 -165.64216713755874 0 -165.64216713755874 13.813731036011859 0 0 0 0 -1206.2843765104772 -136.10780646360365 0 -136.10780646360365 -152.25471276603938 0 0 0 0 -1124.9656048504257 -79.17219804423064 0 -79.17219804423064 -114.87823195885846 0 0 0 0 -1185.2346532457523 -177.92482697782796 0 -177.92482697782796 -89.249789278668914 0 0 0 0 -1202.3985004424903 -196.69725941023964 0 -196.69725941023964 0.048328714911210185 0 0 0 0 -1232.2998267118674 -249.93115921190071 0 -249.93115921190071 -92.668264115720163 0 0 0 0 -1139.3538699104247 -193.41252899508663 0 -193.41252899508663 -62.7169663900317 0 0 0 0 -1132.7232593322769 -256.28761232060458 0 -256.28761232060458 41.908113296039573 0 0 0 0 -969.18123770023522 -185.61872799676718 0 -185.61872799676718 -0.054778808650727116 0 0 0 0 -1242.5941189076839 -253.96434035849211 0 -253.96434035849211 17.626836299468039 0 0 0 0 -960.5594897976589 -233.37729577550988 0 -233.37729577550988 -36.866943341492004 0 0 0 0 -1158.5515682691184 -130.93728124218302 0 -130.93728124218302 -63.87437338510972 0 0 0 0 -1070.9732203973399 -248.67573212347332 0 -248.67573212347332 -26.850269665148232 0 0 0 0 -1505.1280245136877 -389.76300089353543 0 -389.76300089353543 8.6099911247636101 0 0 0 0 -1108.9455415648408 -498.76125260386954 0 -498.76125260386954 -70.323322001620284 0 0 0 0 -1764.5834032406565 -491.86157919958669 0 -491.86157919958669 -43.907053312088095 0 0 0 0 -2189.1031790429115 41.788787994925883 0 41.788787994925883 18.277676052388628 0 0 0 0 -1600.978840690972 -366.5844677749941 0 -366.5844677749941 -154.46896287986095 0 0 0 0 -1472.2823984360293 -40.651308064275071 0 -40.651308064275071 25.097485714958736 0 0 0 0 -1488.9790165425511 -64.134861705039299 0 -64.134861705039299 -4.7290587278473595 0 0 0 0 -1544.4254836468899 211.23370585847243 0 211.23370585847243 -86.556888180653118 0 0 0 0 -1016.4189942830453 180.69042503839216 0 180.69042503839216 -273.76790684318553 0 0 0 0 -1193.19952960909 102.00473548501765 0 102.00473548501765 -126.37886911051461 0 0 0 0 -1160.3945472276755 363.37101580910405 0 363.37101580910405 -181.00607536720622 0 0 0 0 -1383.3943584671943 190.78793903375413 0 190.78793903375413 -113.05341531453175 0 0 0 0 -960.16010849038139 179.55519020498332 0 179.55519020498332 -273.99587903388533 0 0 0 0 -1490.127013497935 375.3094219037265 0 375.3094219037265 -431.80983634213584 0 0 0 0 -1644.0801175921661 -93.871431138240098 0 -93.871431138240098 -307.86214476686604 0 0 0 0 -942.48342179096653 600.05861809970622 0 600.05861809970622 -6.9229219941391875 0 0 0 0 -1261.7199869894102 -316.6877396320931 0 -316.6877396320931 144.82903789887212 0 0 0 0 -1218.1725487489166 -93.724766568773475 0 -93.724766568773475 -870.48808113068731 0 0 0 0 -1417.1058586205472 -662.12852062701108 0 -662.12852062701108 -1780.5757994713688 0 0 0 0 -1421.898907731942 -649.7137176042213 0 -649.7137176042213 -505.25565509176795 0 0 0 0 -1948.2087089025008 566.30210456796067 0 566.30210456796067 -1533.6933585862205 0 0 0 0 -737.76517772820807 1100.6938968320665 0 1100.6938968320665 -1000.4078653851499 0 0 0 0 -1640.4512487805041 -1285.8149360796428 0 -1285.8149360796428 -894.00373206147106 0 0 0 0 -27.05273568836941 5.1119756255929438 0 5.1119756255929438 -2.4628990405324704 0 0 0 0 -3424.116516332484 -120.70396100037215 0 -120.70396100037215 -172.4269856214101 0 0 0 0 -787.60523953594384 817.80930107374047 0 817.80930107374047 -235.89160186416348 0 0 0 0 -684.14397332603403 1240.6864294894694 0 1240.6864294894694 641.14919934387581 0 0 0 0 -3034.4999866327562 750.76257000167334 0 750.76257000167334 127.70261630691039 0 0 0 0 -2250.0975439590402 2049.0899908072606 0 2049.0899908072606 800.320190215396 0 0 0 0 -2089.5302111446945 1347.5126120056066 0 1347.5126120056066 -156.44831197807616 0 0 0 0 -1493.835081125324 960.06688555762605 0 960.06688555762605 83.129758801760545 0 0 0 0 -1513.5991979947721 -758.52223058329764 0 -758.52223058329764 -1608.403618387702 0 0 0 0 -2561.3895637346577 695.99702516856473 0 695.99702516856473 -140.44939121111656 0 0 0 0 -569.41019526259333 -562.96377396942353 0 -562.96377396942353 -2869.6932202324019 0 0 0 0 -2159.4532970743167 -1700.9887085299206 0 -1700.9887085299206 -1496.4247785219623 0 0 0 0 -2484.0015634753572 -2081.8254051304689 0 -2081.8254051304689 -312.44533237339783 0 0 0 0 -2280.1035685027582 957.02268157138883 0 957.02268157138883 134.42773543070325 0 0 0 0 -681.50537113925384 269.82302714677644 0 269.82302714677644 -489.18670680488867 0 0 0 0 -361.47685375396395 -36.142617023981074 0 -36.142617023981074 -270.37934219487943 0 0 0 0 -178.834377789055 -626.0487858929223 0 -626.0487858929223 778.90772051541217 0 0 0 0 253.3014432674463 1228.0354951319437 0 1228.0354951319437 871.99097350680677 0 0 0 0 -1396.2993470028741 509.82940421629695 0 509.82940421629695 3746.1408547905603 0 0 0 0 -94.908143112090215 3.683381842430804 0 3.683381842430804 3.6165629254068881 0 0 0 0 -177.87432307505514 -99.409127975990913 0 -99.409127975990913 323.93917284844525 0 0 0 0 -52.892879983817693 -10.481602330738085 0 -10.481602330738085 -39.704716388948896 0 0 0 0 -1056.1760767038941 -623.80202974345229 0 -623.80202974345229 -392.39703483794892 0 0 0 0 7.5189510334462 -21.600482551488682 0 -21.600482551488682 22.488323520963178 0 0 0 0 -1583.2908411747485 -834.05050838963416 0 -834.05050838963416 -237.51520792701467 0 0 0 0 -132.73044639907675 -131.52690840569235 0 -131.52690840569235 119.53326341057686 0 0 0 0 -734.27624089704477 734.23846780170788 0 734.23846780170788 3032.0276012367949 0 0 0 0 -87.104786124653742 13.451720541820654 0 13.451720541820654 4.8351458880083964 0 0 0 0 323.30299038707926 272.38482717971596 0 272.38482717971596 1042.237758408126 0 0 0 0 -5307.7057941587846 -799.30272962994195 0 -799.30272962994195 -439.4531662775189 0 0 0 0 -22.240658281948242 5.0001710108158761 0 5.0001710108158761 2.1525860936443664 0 0 0 0 478.6427599710205 2082.3432549639001 0 2082.3432549639001 702.77695694024442 0 0 0 0 -4560.3288585465634 -1738.0592751508193 0 -1738.0592751508193 -646.859608833518 0 0 0 0 -3.084863347958958 -1.4657806964462168 0 -1.4657806964462168 3.9875011422623508 0 0 0 0 -2275.0754430000961 56.571728834758687 0 56.571728834758687 -669.57321266211102 0 0 0 0 -3365.7548037595843 -260.97477360237872 0 -260.97477360237872 22.657216993635302 0 0 0 0 -2005.4695394299342 -2252.4140421132206 0 -2252.4140421132206 -1591.7873955488224 0 0 0 0 -1726.7330591775535 -223.9457332453353 0 -223.9457332453353 450.57636599854141 0 0 0 0 -2037.970821557301 -580.9987575400221 0 -580.9987575400221 94.781587804518495 0 0 0 0 -1667.4482313775516 -215.85106858545191 0 -215.85106858545191 402.61273284948584 0 0 0 0 -1582.4259582505329 -116.14983702426389 0 -116.14983702426389 413.5630053344936 0 0 0 0 -838.92047229554737 -430.69831335686195 0 -430.69831335686195 -74.491380443875642 0 0 0 0 -517.28917186302715 -187.39638542945841 0 -187.39638542945841 2.3678126216382225 0 0 0 0 -1104.5313369897849 8.9951604228467659 0 8.9951604228467659 488.22048501474455 0 0 0 0 -1241.8751974267652 27.002325292034072 0 27.002325292034072 488.08634561081328 0 0 0 0 -984.07135787200241 -245.75288316081128 0 -245.75288316081128 70.791459821590252 0 0 0 0 -1560.2862999801837 407.66975136831957 0 407.66975136831957 86.847246793309182 0 0 0 0 -929.96157854054763 -134.59051293737792 0 -134.59051293737792 -624.31787090268699 0 0 0 0 -714.99295238444756 95.832267780911337 0 95.832267780911337 -83.84817036310109 0 0 0 0 -929.66031557910901 -181.2686539524617 0 -181.2686539524617 287.66496945971727 0 0 0 0 -358.56639225535037 -256.24224942371876 0 -256.24224942371876 -88.853459021936942 0 0 0 0 -1807.5510664806643 -474.51827772660971 0 -474.51827772660971 127.5945856020615 0 0 0 0 -788.55589020013576 -562.93785182689066 0 -562.93785182689066 -435.94997502243268 0 0 0 0 -237.79325335499016 -517.98539294544912 0 -517.98539294544912 212.25410647002053 0 0 0 0 238.65926655509247 31.353871213310185 0 31.353871213310185 184.8481197404077 0 0 0 0 -576.42056200285151 -295.15509585433836 0 -295.15509585433836 490.9460483955304 0 0 0 0 -79.468021144290105 -39.031274086252665 0 -39.031274086252665 175.29308241883734 0 0 0 0 153.76023622591674 -859.60035218268297 0 -859.60035218268297 650.53109565511807 0 0 0 0 -1168.8609958294983 -740.68260964573676 0 -740.68260964573676 1116.8859694605892 0 0 0 0 1254.0587939653196 -500.06422540176322 0 -500.06422540176322 -151.81299134619456 0 0 0 0 -1269.3111097493456 -422.90993147459704 0 -422.90993147459704 465.46744692469883 0 0 0 0 0.64214314987193077 -1.0004716119367743 0 -1.0004716119367743 3.0179344249063345 0 0 0 0 -222.01021098570482 14.17310589152169 0 14.17310589152169 917.58414610677505 0 0 0 0 0.96099727036931881 -4.8253597161727697 0 -4.8253597161727697 7.9165870064459734 0 0 0 0 -222.76921933935955 29.320356051447106 0 29.320356051447106 629.25704498833682 0 0 0 0 -232.5377360854327 -269.27067283077668 0 -269.27067283077668 -59.640838942561459 0 0 0 0 -469.11405178961286 97.750518049084803 0 97.750518049084803 213.91956158808625 0 0 0 0 -512.7130885120132 -258.32251971509754 0 -258.32251971509754 -57.886022562608105 0 0 0 0 8.7484889980524088 -12.461346059135465 0 -12.461346059135465 15.398638433008896 0 0 0 0 -236.16985434327216 -228.97918929543988 0 -228.97918929543988 -32.139185295221466 0 0 0 0 -168.87141720019645 -23.674373457142096 0 -23.674373457142096 -98.222265204704058 0 0 0 0 -163.83537793186406 -36.461547525195101 0 -36.461547525195101 -8.0548590040392583 0 0 0 0 -219.69667242777359 -52.020184660447853 0 -52.020184660447853 59.566160251558244 0 0 0 0 -178.85402163220715 -39.865612057468766 0 -39.865612057468766 271.75534459212656 0 0 0 0 -582.00109817535849 228.30622809229374 0 228.30622809229374 95.238019323463575 0 0 0 0 -487.99774236790836 22.500481944516025 0 22.500481944516025 387.88170879144286 0 0 0 0 -444.8832600825117 -198.08232520972285 0 -198.08232520972285 863.63020010711284 0 0 0 0 -265.34957829976338 -393.88155611925094 0 -393.88155611925094 -206.68114648520157 0 0 0 0 -303.01569140440552 -324.8171368943128 0 -324.8171368943128 271.90650386099156 0 0 0 0 7.6774298546952195 -77.717357957340255 0 -77.717357957340255 273.03546639248384 0 0 0 0 -621.97051520052628 87.186273497886077 0 87.186273497886077 798.6983843418509 0 0 0 0 -367.90757637821662 -174.82907232494233 0 -174.82907232494233 259.33936656046171 0 0 0 0 -263.33473201048037 -83.354393783055684 0 -83.354393783055684 -263.44680481130308 0 0 0 0 -1243.8264537314826 -23.004232881533426 0 -23.004232881533426 274.78307330387139 0 0 0 0 -84.259573950506081 -30.962941684848126 0 -30.962941684848126 -6.9067124372706044 0 0 0 0 -754.55304147957395 -455.45297871126417 0 -455.45297871126417 478.07836843806717 0 0 0 0 -390.00166387601348 -220.62348700495647 0 -220.62348700495647 791.21412498135169 0 0 0 0 -46.662561938690487 -68.98647397542868 0 -68.98647397542868 533.1325729061017 0 0 0 0 -88.898603007586644 -700.10892836739117 0 -700.10892836739117 955.60039455402921 0 0 0 0 -524.14187073218636 -189.66391043266634 0 -189.66391043266634 537.90204926050365 0 0 0 0 -847.22440431386349 -352.86001243985481 0 -352.86001243985481 257.1243566779894 0 0 0 0 -296.61743785741669 -681.83816825514168 0 -681.83816825514168 -109.85778456389221 0 0 0 0 -269.80146621919994 -113.27168453264284 0 -113.27168453264284 356.4356867621492 0 0 0 0 -694.08999049476643 -427.50879519293198 0 -427.50879519293198 291.78834416030719 0 0 0 0 -707.37143771874435 -929.22392678684321 0 -929.22392678684321 46.53128329055653 0 0 0 0 -1861.798667205243 728.70058710531112 0 728.70058710531112 335.16636314615153 0 0 0 0 -34.689985280223482 -1312.4502593204691 0 -1312.4502593204691 -1840.7625396271515 0 0 0 0 -1169.7233625399385 -1540.1508445193158 0 -1540.1508445193158 -521.63927884956865 0 0 0 0 -27.595169850238335 -5.7734367219486957 0 -5.7734367219486957 -0.27650152722470028 0 0 0 0 -452.73220640320505 -1589.0529451695243 0 -1589.0529451695243 -1064.5919241615661 0 0 0 0 -2854.4526045442035 -1004.4569501000587 0 -1004.4569501000587 140.89179712119935 0 0 0 0 -1127.517113728376 548.47408525935725 0 548.47408525935725 89.866495154323687 0 0 0 0 3.2545865933352616 85.552857726874066 0 85.552857726874066 -13.258400228801023 0 0 0 0 -48.10259175810279 10.040285816173501 0 10.040285816173501 44.073037669917909 0 0 0 0 -165.50742716479726 -16.62585778895761 0 -16.62585778895761 369.43092526465864 0 0 0 0 146.40271642208245 -811.45559866749386 0 -811.45559866749386 24.149201263639043 0 0 0 0 -768.3738005446794 -1314.3159527919142 0 -1314.3159527919142 1987.5624222273814 0 0 0 0 -73.387381638864383 -4.8791745525295322 0 -4.8791745525295322 2.1930971739540444 0 0 0 0 138.21141731549869 -1263.9905105640787 0 -1263.9905105640787 -968.77662985134884 0 0 0 0 175.66575057911177 -777.97449273330722 0 -777.97449273330722 -662.28571189910781 0 0 0 0 80.314192563499091 -937.01509396019992 0 -937.01509396019992 -742.61714439527259 0 0 0 0 108.16121001724969 -927.81917258574958 0 -927.81917258574958 -4518.5906856724941 0 0 0 0 -1829.8381090347029 163.16356764307756 0 163.16356764307756 347.47358041239204 0 0 0 0 -19.49769712752402 -11.976613175993393 0 -11.976613175993393 -8.2308990252663214 0 0 0 0 -218.96824394303258 -541.69765282240405 0 -541.69765282240405 -1238.9755910783424 0 0 0 0 -234.64868743920215 -648.95875808213577 0 -648.95875808213577 -245.01776993063322 0 0 0 0 -53.105798661458721 -38.719055771909574 0 -38.719055771909574 -5.3317130639909394 0 0 0 0 -660.43365642131539 -287.16311474704378 0 -287.16311474704378 -17.335195680215378 0 0 0 0 -3.9149339275001012 -36.115167328836748 0 -36.115167328836748 36.467063629631312 0 0 0 0 -973.32034520681191 -589.32968450845874 0 -589.32968450845874 -234.88268389766637 0 0 0 0 -676.82226234240807 -375.07980371373014 0 -375.07980371373014 -80.413472252312317 0 0 0 0 -0.030759677119874596 -9.758572996416305 0 -9.758572996416305 21.965737065114233 0 0 0 0 -1006.9439605850785 -670.61269534180371 0 -670.61269534180371 -220.4555236552518 0 0 0 0 -722.86878664192045 -1102.7906638777085 0 -1102.7906638777085 -353.75676529979137 0 0 0 0 -990.04187444082345 -614.59411493525647 0 -614.59411493525647 281.15428377067099 0 0 0 0 -972.13289813298798 -883.96855285478466 0 -883.96855285478466 -158.55234350445193 0 0 0 0 -945.7016666096024 -597.81878401852657 0 -597.81878401852657 -400.20679714322534 0 0 0 0 -996.0197703482263 -726.33958439796243 0 -726.33958439796243 -163.99013835466803 0 0 0 0 -1001.3739017129774 -489.21659854908336 0 -489.21659854908336 109.12377663909388 0 0 0 0 -960.68137840261625 -462.4475868893972 0 -462.4475868893972 70.693688294293722 0 0 0 0 -806.29235183645505 -365.43515659204496 0 -365.43515659204496 201.1008735227399 0 0 0 0 -955.41942921751979 -406.40038881206385 0 -406.40038881206385 214.91980401634851 0 0 0 0 -673.68866862219875 -426.47943916954807 0 -426.47943916954807 129.79908905578316 0 0 0 0 -232.58906189118352 446.87317749856976 0 446.87317749856976 885.30193299230791 0 0 0 0 -59.457191961511995 20.243003026610864 0 20.243003026610864 6.5072903948077103 0 0 0 0 -876.09573065882432 -567.4021598937104 0 -567.4021598937104 754.42546907001724 0 0 0 0 -898.87155922943521 -229.87962480250093 0 -229.87962480250093 211.95303807750958 0 0 0 0 -1378.52482724328 -614.80958034984383 0 -614.80958034984383 97.989413384959505 0 0 0 0 -1511.68533676894 -333.89349417957396 0 -333.89349417957396 -237.82027901768382 0 0 0 0 -1485.9936073454883 -1230.2598456449555 0 -1230.2598456449555 -149.50304505394007 0 0 0 0 -915.08044246276404 -974.06631103484119 0 -974.06631103484119 -117.07086039817776 0 0 0 0 -3.7733296717284475 -2.2596644683296887 0 -2.2596644683296887 5.6616100665540507 0 0 0 0 -937.21085226361174 -1122.9234301546076 0 -1122.9234301546076 -667.86467369273839 0 0 0 0 612.28665958499187 -4.8167304191697298 0 -4.8167304191697298 -277.72810323373977 0 0 0 0 -319.65936115497607 -858.25390295020145 0 -858.25390295020145 13.264476995630957 0 0 0 0 -313.04600501670211 -913.84700264693595 0 -913.84700264693595 -350.60978418003299 0 0 0 0 -2214.9159376882599 -1415.7016985812911 0 -1415.7016985812911 -158.46633980027877 0 0 0 0 -25.821567012960998 -8.3689403691939503 0 -8.3689403691939503 -3.0338246851779704 0 0 0 0 132.32860151765726 -1198.9032241327559 0 -1198.9032241327559 -499.22209437893559 0 0 0 0 65.92983937842655 -59.353052147833978 0 -59.353052147833978 451.64798711385583 0 0 0 0 -907.65576428305576 563.07808603101557 0 563.07808603101557 -155.06847834775908 0 0 0 0 -64.576182990290107 -23.202642476436822 0 -23.202642476436822 -5.0774180455331965 0 0 0 0 -918.73625595706471 560.34708023179087 0 560.34708023179087 85.206803815159446 0 0 0 0 -1278.4957850413848 1015.490829481764 0 1015.490829481764 -637.46278621346551 0 0 0 0 -1915.8456049054366 -789.06232340029396 0 -789.06232340029396 8.1749607562915116 0 0 0 0 -1657.7142123097365 120.36672879493813 0 120.36672879493813 -299.25665995594505 0 0 0 0 -2175.3367387450635 205.6170404700664 0 205.6170404700664 374.41878649263344 0 0 0 0 -3212.4379940667859 -323.13282056154566 0 -323.13282056154566 -406.19694374636299 0 0 0 0 -3030.1056835219424 1561.9017238103497 0 1561.9017238103497 -777.61970697135496 0 0 0 0 -2179.5341460435084 -450.17047127653564 0 -450.17047127653564 -1925.6183815265451 0 0 0 0 -2868.2115163245144 401.34246380335588 0 401.34246380335588 -888.97668742775284 0 0 0 0 -2148.7027538136754 -412.0085617178857 0 -412.0085617178857 -201.17432930716399 0 0 0 0 -2760.6976482242317 -146.61485920499069 0 -146.61485920499069 -845.74800360953088 0 0 0 0 -3142.2034511790989 78.182454573391254 0 78.182454573391254 -773.52879448806198 0 0 0 0 -3377.4521720984048 -487.30343488970465 0 -487.30343488970465 -509.90905920713158 0 0 0 0 -3187.0658493760566 -500.98446369938324 0 -500.98446369938324 -527.2968568795884 0 0 0 0 -2171.7794703788368 -358.833666831416 0 -358.833666831416 -852.7549475421398 0 0 0 0 -2596.5554065568649 -459.6059256427443 0 -459.6059256427443 -653.29160742300542 0 0 0 0 -2533.3702018449621 -682.6772505530073 0 -682.6772505530073 -557.31977082535832 0 0 0 0 -3181.76929477253 -896.94788994450187 0 -896.94788994450187 -307.52606340643524 0 0 0 0 -2525.6791896563664 -1033.4496612156572 0 -1033.4496612156572 -169.99386005307497 0 0 0 0 -2872.0221286293527 -805.78869305851708 0 -805.78869305851708 -298.70897080797295 0 0 0 0 -3046.0246904049272 -913.83206358176881 0 -913.83206358176881 193.55413685962003 0 0 0 0 -1784.6848568730929 -706.83686156650992 0 -706.83686156650992 -602.56957533696618 0 0 0 0 -2536.6142864761191 -788.1207883091746 0 -788.1207883091746 69.342153512430741 0 0 0 0 -9.5195591591060023 -1.3690220302991918 0 -1.3690220302991918 10.464647366003772 0 0 0 0 -4148.5728920016918 -1224.1683888624018 0 -1224.1683888624018 -125.2038526727556 0 0 0 0 -4462.0980963383045 -1050.1635869761897 0 -1050.1635869761897 -224.58090956449354 0 0 0 0 -3703.3773210052022 -1046.4599309661999 0 -1046.4599309661999 -418.81885952349808 0 0 0 0 -3480.4120195329306 -722.37370848898604 0 -722.37370848898604 -152.69128471767095 0 0 0 0 -4076.2172673938185 -1029.9937079059541 0 -1029.9937079059541 -76.726286057410107 0 0 0 0 -3081.3479286009824 -804.53119223037243 0 -804.53119223037243 -97.41318431698943 0 0 0 0 -3414.1464731271117 -888.44557582802963 0 -888.44557582802963 263.48006191342438 0 0 0 0 -3225.5076549294172 -1045.4869981225293 0 -1045.4869981225293 -125.28272755218933 0 0 0 0 -3591.2464835266874 -750.88243443216061 0 -750.88243443216061 -259.28727086796403 0 0 0 0 -3212.5701121251732 -836.03977756760048 0 -836.03977756760048 -406.24492871736174 0 0 0 0 -4499.8306127805918 -1034.6638657982737 0 -1034.6638657982737 -185.10100774517699 0 0 0 0 -4214.6155633363887 -798.66357758626134 0 -798.66357758626134 -16.058593946072506 0 0 0 0 -9.3952745177309396 -0.83011558543920216 0 -0.83011558543920216 8.0820458149648733 0 0 0 0 -3466.2303302094224 -958.64945420211052 0 -958.64945420211052 -369.55107862235502 0 0 0 0 -4120.0427468313137 -741.98490366410624 0 -741.98490366410624 -234.48543617074961 0 0 0 0 -6.6462402281488835 -0.54358902665904907 0 -0.54358902665904907 2.7797692641900964 0 0 0 0 -4723.9574314398924 -616.83459248683505 0 -616.83459248683505 -107.99398515422067 0 0 0 0 -3374.441995192552 -579.92057871730492 0 -579.92057871730492 -235.60680929372165 0 0 0 0 -4499.6008384101879 -783.1252410909982 0 -783.1252410909982 78.065890219344453 0 0 0 0 -3655.4497213957511 -298.37975095197686 0 -298.37975095197686 95.00329548155355 0 0 0 0 -4298.7554683311173 -567.37961085282234 0 -567.37961085282234 221.36126971692403 0 0 0 0 -4499.5920765709816 -119.64095029538878 0 -119.64095029538878 -585.53872817395313 0 0 0 0 -4150.6289601179415 -234.26943231616235 0 -234.26943231616235 -1014.2010560668793 0 0 0 0 -3591.5499517221178 138.06367170132467 0 138.06367170132467 213.88517050706656 0 0 0 0 -2355.1188917815489 707.23237739854392 0 707.23237739854392 -434.62844151318876 0 0 0 0 -3431.7447706178937 1168.979785967389 0 1168.979785967389 566.14217465019999 0 0 0 0 -1153.4927398848586 405.07430765903058 0 405.07430765903058 -453.75643664266988 0 0 0 0 -4888.1243747886183 -284.2946748761575 0 -284.2946748761575 236.59947881841151 0 0 0 0 -6308.8757365744241 -2069.8405801383929 0 -2069.8405801383929 -1220.8235227556627 0 0 0 0 460.15202494492405 1728.7252297105126 0 1728.7252297105126 599.07715672418135 0 0 0 0 -25.730456543499542 8.0708986724416008 0 8.0708986724416008 1.113966788486751 0 0 0 0 -2307.2259848998274 -924.36706543293462 0 -924.36706543293462 -913.91973098841152 0 0 0 0 -4499.4966306470888 -39.051205850978342 0 -39.051205850978342 -490.86516177223962 0 0 0 0 -4344.3485624170462 -49.313019409433814 0 -49.313019409433814 -557.37925763530211 0 0 0 0 -4572.8299699708878 345.40327510612008 0 345.40327510612008 -1063.1519790816164 0 0 0 0 316.70382842357503 382.30814150027913 0 382.30814150027913 562.9202813962695 0 0 0 0 -18.567468447762771 16.119613965131542 0 16.119613965131542 -9.9846850019330038 0 0 0 0 -190.53454540224629 1665.1443079964311 0 1665.1443079964311 244.50266388532245 0 0 0 0 -871.98336755514902 1786.8508119829803 0 1786.8508119829803 -317.4578191212774 0 0 0 0 -4490.3641742468826 1337.2177487826882 0 1337.2177487826882 1122.5300521079405 0 0 0 0 -4496.0028419328191 -708.15335632099254 0 -708.15335632099254 814.70756194879596 0 0 0 0 -764.49891452300926 -104.55442983844105 0 -104.55442983844105 882.31315752654541 0 0 0 0 -1058.7442234837799 -567.22804527717392 0 -567.22804527717392 271.33325566872037 0 0 0 0 -403.63918480329085 427.56319723353954 0 427.56319723353954 396.8498670143972 0 0 0 0 -1214.1959398944127 -174.11459755557632 0 -174.11459755557632 -604.47485670909418 0 0 0 0 -1206.3094905647522 -102.44495088356643 0 -102.44495088356643 -125.91734196824797 0 0 0 0 -1847.5864280518799 -246.45677097937948 0 -246.45677097937948 161.17249070338357 0 0 0 0 -845.98839805527132 -378.16566728327228 0 -378.16566728327228 67.266781488513971 0 0 0 0 1119.3095435661889 495.47624497596604 0 495.47624497596604 -29.745616942846254 0 0 0 0 -7.5111797948968757 6.9298162059416839 0 6.9298162059416839 -5.5361367324665585 0 0 0 0 -318.11073789742659 28.047848348121363 0 28.047848348121363 -265.83401239949478 0 0 0 0 -1576.3321059106711 366.88634640342661 0 366.88634640342661 161.40885120456574 0 0 0 0 -782.78174098242926 -168.75231842277526 0 -168.75231842277526 662.88149762055286 0 0 0 0 -236.79099178921388 1111.374588169891 0 1111.374588169891 745.87572679998402 0 0 0 0 780.6069623751755 426.3529627566503 0 426.3529627566503 19.822142452103321 0 0 0 0 780.9168899862467 1022.5365835092684 0 1022.5365835092684 -103.17540730784422 0 0 0 0 -26.253565374892858 10.246368058867965 0 10.246368058867965 -3.5979492563115665 0 0 0 0 -3088.3724714010314 -2357.8007996714646 0 -2357.8007996714646 -1872.52830609899 0 0 0 0 -4496.7254909981129 -3212.0842032207452 0 -3212.0842032207452 -2181.2378604733321 0 0 0 0 -4500.5359565146209 -2420.7872995382399 0 -2420.7872995382399 -609.4309608584299 0 0 0 0 -2926.4415588054108 -1841.7236651199805 0 -1841.7236651199805 -906.92995707611522 0 0 0 0 -64.40093589012956 32.917691986221939 0 32.917691986221939 -6.1912847874979011 0 0 0 0 -3117.7898386557827 -1966.3019163572103 0 -1966.3019163572103 -892.69392682812941 0 0 0 0 -3382.3861105644173 -1526.4411262455894 0 -1526.4411262455894 69.811080437102476 0 0 0 0 -3917.3502436133858 -1059.5509418601928 0 -1059.5509418601928 1299.5075413133077 0 0 0 0 -4497.2213630288825 -1754.7244642029902 0 -1754.7244642029902 689.7630237556665 0 0 0 0 -3760.9783255113762 -986.29707368757954 0 -986.29707368757954 764.77260698249256 0 0 0 0 -3644.0312656200986 -1188.3718928368019 0 -1188.3718928368019 415.10549151497139 0 0 0 0 -3692.8626793536096 -748.18160612375141 0 -748.18160612375141 841.01590281863264 0 0 0 0 -3464.9662583347672 -681.27327127328488 0 -681.27327127328488 229.11123252307834 0 0 0 0 -3722.7102445722994 -526.79040215830764 0 -526.79040215830764 36.445616227259165 0 0 0 0 -9.4204009952375785 -0.3277601052582213 0 -0.3277601052582213 5.6903690544083823 0 0 0 0 -4500.0214831356861 -1084.7342043343524 0 -1084.7342043343524 -254.27392285592055 0 0 0 0 -3934.8869979904011 -550.34078915718908 0 -550.34078915718908 843.74171580261691 0 0 0 0 -2193.5074800479779 -765.72978161189508 0 -765.72978161189508 916.29804070423279 0 0 0 0 -1278.2930007811956 -584.45102773749386 0 -584.45102773749386 444.75298272071905 0 0 0 0 -1410.5101136059966 -558.54008520912953 0 -558.54008520912953 968.43300880082825 0 0 0 0 -1805.7644194888853 -972.82354781407389 0 -972.82354781407389 473.61598826230966 0 0 0 0 -2029.6706677948387 -654.6124491561568 0 -654.6124491561568 23.093261096261244 0 0 0 0 -2547.6927044809272 -1081.0059501617318 0 -1081.0059501617318 549.86606262947407 0 0 0 0 -2673.8680630654853 -853.09144783506713 0 -853.09144783506713 143.9025559038239 0 0 0 0 -3327.5863146587435 -924.56807196295222 0 -924.56807196295222 593.64464036479239 0 0 0 0 -2779.299888765483 -906.64905293672496 0 -906.64905293672496 493.45371633455807 0 0 0 0 -2190.0713422842819 -739.83648273809854 0 -739.83648273809854 456.89418044104264 0 0 0 0 -2575.7299417437462 -1131.4155204384078 0 -1131.4155204384078 -161.7717137309935 0 0 0 0 -2253.3655589709815 -340.92096144102379 0 -340.92096144102379 425.38609945258258 0 0 0 0 -2787.2862671629628 -896.34929534117987 0 -896.34929534117987 605.59802932960429 0 0 0 0 -2335.0078579511464 -577.73840429246752 0 -577.73840429246752 165.8861518743476 0 0 0 0 -38.531836977712899 7.6458964168709116 0 7.6458964168709116 4.7942192446365999 0 0 0 0 -2059.2325556503783 -578.38992837687692 0 -578.38992837687692 -236.46687445609399 0 0 0 0 -2066.9878418136286 -414.8492216537694 0 -414.8492216537694 -73.182227232619141 0 0 0 0 -427.62179489177652 111.99698483551242 0 111.99698483551242 898.76002443317157 0 0 0 0 -887.51931044456433 -896.0208540512233 0 -896.0208540512233 554.13572404653405 0 0 0 0 -15.490219744094219 18.442718121158897 0 18.442718121158897 13.772407654233138 0 0 0 0 -50.159492129489081 -466.76179441700901 0 -466.76179441700901 771.2025154275633 0 0 0 0 -40.796958457379105 117.83168072235728 0 117.83168072235728 27.49517327410922 0 0 0 0 -102.99148666873882 23.647639604690504 0 23.647639604690504 25.998412384711248 0 0 0 0 -146.60892843181864 131.08674087977897 0 131.08674087977897 622.49231198392226 0 0 0 0 -90.477758680439138 50.721407012130712 0 50.721407012130712 -5.1726597414564353 0 0 0 0 -113.63826193985187 -22.176659628004728 0 -22.176659628004728 524.11030073342954 0 0 0 0 -2033.6457446923087 -672.53261378593504 0 -672.53261378593504 -219.13182774075131 0 0 0 0 -1989.8512514146933 -986.15261506522904 0 -986.15261506522904 -134.56552962356716 0 0 0 0 -294.64860412326379 -8.9236737530245591 0 -8.9236737530245591 654.79933703200368 0 0 0 0 -386.64229841684937 -222.94407279072908 0 -222.94407279072908 461.41448492223753 0 0 0 0 -680.99407089033775 299.23382442706497 0 299.23382442706497 -148.9877092890606 0 0 0 0 -1458.1221390563151 188.56940145859789 0 188.56940145859789 806.81012317700879 0 0 0 0 -1495.8999076887631 497.64011303845382 0 497.64011303845382 421.89199353908225 0 0 0 0 -1302.4233993562229 -279.98948833165832 0 -279.98948833165832 1004.1464017430503 0 0 0 0 -39.136771057544934 5.6716130572128591 0 5.6716130572128591 39.044962110380091 0 0 0 0 -870.82705020067806 -127.56617292339524 0 -127.56617292339524 -263.82415027913612 0 0 0 0 -144.68981413826987 -248.01483925550656 0 -248.01483925550656 1356.8472782837266 0 0 0 0 50.366321952897124 1169.5287758503457 0 1169.5287758503457 1425.6813028417973 0 0 0 0 -17.177642054767375 -9.9521342306211693 0 -9.9521342306211693 6.9387435833702575 0 0 0 0 -102.19236732504967 -16.963774824213964 0 -16.963774824213964 4.4476941837099426 0 0 0 0 -831.90872083530849 -37.237551703675308 0 -37.237551703675308 241.15493908496683 0 0 0 0 -1446.5854753430176 -745.06124701925546 0 -745.06124701925546 -127.75877561886023 0 0 0 0 -1499.9891176446181 235.87569205828868 0 235.87569205828868 590.26438578778971 0 0 0 0 -899.50990084659134 82.607845944131896 0 82.607845944131896 386.27548123088809 0 0 0 0 -1537.1581331728994 -184.16458179511278 0 -184.16458179511278 459.07252375812641 0 0 0 0 -717.98706218754523 -359.27690737085823 0 -359.27690737085823 402.6287394425517 0 0 0 0 -1588.0291430786456 243.27404365464622 0 243.27404365464622 1819.8967023859168 0 0 0 0 -759.66754285484785 431.78217849536622 0 431.78217849536622 -55.814793361949341 0 0 0 0 -789.84311556273178 738.35901255619137 0 738.35901255619137 -595.4775542410971 0 0 0 0 -1224.888065260544 580.20659826494875 0 580.20659826494875 -80.027698292778496 0 0 0 0 -911.2347190109831 209.9796527912506 0 209.9796527912506 -380.3975186899961 0 0 0 0 -77.377642564837402 -17.520562132584296 0 -17.520562132584296 -1.366268565256032 0 0 0 0 -1288.4142346592416 -339.84661591336521 0 -339.84661591336521 1768.6928084300409 0 0 0 0 26.793769707835963 -586.06243164369494 0 -586.06243164369494 -287.96373751869214 0 0 0 0 -1900.8914846941589 -613.79422274642002 0 -613.79422274642002 -162.03387603211786 0 0 0 0 -2372.3118717993057 -936.99506022506557 0 -936.99506022506557 57.970045608353075 0 0 0 0 -2228.0266769104928 570.28969123159732 0 570.28969123159732 339.52985945473392 0 0 0 0 -3030.4315902648996 1543.1116812026551 0 1543.1116812026551 -467.04791629513869 0 0 0 0 -9.9338818308198427 -2.1091057100186177 0 -2.1091057100186177 24.441036189970387 0 0 0 0 432.67042350840529 -802.01891102908166 0 -802.01891102908166 510.36440778524468 0 0 0 0 -694.28100298738354 -253.50334238728328 0 -253.50334238728328 915.77531778472951 0 0 0 0 -5.1021138058717881 -0.63404286543337918 0 -0.63404286543337918 7.1584879357042226 0 0 0 0 1210.7188914956714 -1413.4482756086463 0 -1413.4482756086463 477.54999720188459 0 0 0 0 -2148.4366962536551 -279.93413271897481 0 -279.93413271897481 683.30544912876098 0 0 0 0 -640.50161571803983 -338.54398686727859 0 -338.54398686727859 -793.20598121486591 0 0 0 0 -759.75001331337262 396.80969755652359 0 396.80969755652359 -169.54616311949644 0 0 0 0 -974.65388407576756 -485.00974929437848 0 -485.00974929437848 -1397.9153913344417 0 0 0 0 -962.42394611814598 -240.5134237791724 0 -240.5134237791724 -620.48937508907852 0 0 0 0 -1615.3024235692301 64.446727137923517 0 64.446727137923517 -2193.8499189265058 0 0 0 0 -1549.9943951912283 -261.93880079790188 0 -261.93880079790188 -763.14895001903187 0 0 0 0 -3103.1795637103787 -2546.4243715390116 0 -2546.4243715390116 -1545.6699293646247 0 0 0 0 -4354.1769588262978 -414.81281061428149 0 -414.81281061428149 -487.35037419355467 0 0 0 0 -25.569249260364188 3.750789776554214 0 3.750789776554214 2.8437174352232795 0 0 0 0 -1131.3964983031256 2230.0952129909674 0 2230.0952129909674 175.81692376601222 0 0 0 0 -1613.572027939812 -1474.4483161122525 0 -1474.4483161122525 -1216.3973178646729 0 0 0 0 -1406.4614897015781 -329.39631094645881 0 -329.39631094645881 -586.55085560105886 0 0 0 0 -2964.8449481213138 -1025.4727994175355 0 -1025.4727994175355 129.52072309313712 0 0 0 0 -327.33222057033709 -357.08283471692192 0 -357.08283471692192 304.72007701009488 0 0 0 0 65.013140803479473 -123.36976385189303 0 -123.36976385189303 -204.37982391770129 0 0 0 0 -54.914413131462425 9.7138978925402348 0 9.7138978925402348 8.7651731651109976 0 0 0 0 -1122.4329543241111 -567.87700441683739 0 -567.87700441683739 -1.1968425756890611 0 0 0 0 -448.44898973452291 406.48736830994767 0 406.48736830994767 1361.0870569441954 0 0 0 0 236.22294519830757 -947.88119731342522 0 -947.88119731342522 -375.75349821210102 0 0 0 0 -1.4373420393458218 78.729854643719364 0 78.729854643719364 -1536.9989691468018 0 0 0 0 -175.62837906566347 -736.23325801490046 0 -736.23325801490046 -1568.6939159879303 0 0 0 0 -789.48754120112426 -533.98445896137764 0 -533.98445896137764 51.794979038323163 0 0 0 0 -287.69832484549988 -448.06862124819145 0 -448.06862124819145 -394.68892361982716 0 0 0 0 -111.45037803621744 -579.39776545170571 0 -579.39776545170571 -613.60492155277461 0 0 0 0 -152.17735057028767 -427.76929431030476 0 -427.76929431030476 -777.50056800650145 0 0 0 0 -37.746963298619278 -3.1105312952213353 0 -3.1105312952213353 -20.243487834760217 0 0 0 0 -17.622738048972678 0.18450877859504544 0 0.18450877859504544 -3.7843903985340148 0 0 0 0 -250.91514609905425 48.499376464897068 0 48.499376464897068 396.59391568477804 0 0 0 0 -34.573429711974967 -5.3114353616320216 0 -5.3114353616320216 -14.440299041514555 0 0 0 0 -39.86176106532514 6.7508988410655917 0 6.7508988410655917 -9.5742011200910397 0 0 0 0 -273.21095761860488 -70.561885838003946 0 -70.561885838003946 -224.92660024400314 0 0 0 0 -407.50178728484025 -753.64859510718725 0 -753.64859510718725 -218.20961537133104 0 0 0 0 -380.63396336954611 -630.79959377436899 0 -630.79959377436899 341.07417667797779 0 0 0 0 -298.23698932670231 -677.32485447817726 0 -677.32485447817726 -606.35705276557928 0 0 0 0 -509.7521942283056 -1010.6067179248857 0 -1010.6067179248857 -415.29447824912677 0 0 0 0 276.07775663332723 -49.26927108610198 0 -49.26927108610198 -393.42626706104693 0 0 0 0 -41.670167902258981 -669.53375060229678 0 -669.53375060229678 -1079.1589345114353 0 0 0 0 51.035105672890495 -457.63014092016874 0 -457.63014092016874 -594.79576675270346 0 0 0 0 -77.703191782165959 -365.61791824086663 0 -365.61791824086663 -378.96025780810629 0 0 0 0 -146.0954818618884 -321.0606270633366 0 -321.0606270633366 -88.336774957403691 0 0 0 0 -53.595239161768404 -69.936691637356489 0 -69.936691637356489 -28.590770744027395 0 0 0 0 -35.192266611258674 -80.812894734457586 0 -80.812894734457586 80.128616740214966 0 0 0 0 -11.804285208830478 -2.5147806112068167 0 -2.5147806112068167 -20.023041979360759 0 0 0 0 -110.6027326257572 -91.877904095129452 0 -91.877904095129452 81.013568202488841 0 0 0 0 -41.812572800762524 -3.1589896284462711 0 -3.1589896284462711 9.4479794617697479 0 0 0 0 127.64645308346371 709.62599928121722 0 709.62599928121722 268.32627085411559 0 0 0 0 21.955433879498742 -161.57693789504083 0 -161.57693789504083 -156.79514627682647 0 0 0 0 -54.658939559431587 9.0377648131447614 0 9.0377648131447614 12.257069972621302 0 0 0 0 -1070.6580985262626 489.53230521158503 0 489.53230521158503 899.14049337299912 0 0 0 0 -197.83189155832952 127.90685681444438 0 127.90685681444438 545.83594987304582 0 0 0 0 -686.90090894406603 -614.92357570396894 0 -614.92357570396894 246.80523800592982 0 0 0 0 -1316.998733928549 -1186.4876524636761 0 -1186.4876524636761 -202.72143533560927 0 0 0 0 -2961.9566539081352 -969.97078810283347 0 -969.97078810283347 244.02170990743008 0 0 0 0 -1105.3020394040814 -2124.5075722771348 0 -2124.5075722771348 211.6165470451142 0 0 0 0 -31.139583028277031 -7.563994750394917 0 -7.563994750394917 -1.7802953989151984 0 0 0 0 -1284.3211924128773 827.04101047378663 0 827.04101047378663 -889.43931469534255 0 0 0 0 -718.57371729927399 -1078.1683491641309 0 -1078.1683491641309 -1638.1435146645681 0 0 0 0 -3140.7904850702034 -214.48183415514609 0 -214.48183415514609 -19.648887047207609 0 0 0 0 -2116.3570161463285 1601.4447409218042 0 1601.4447409218042 -1148.5849696216651 0 0 0 0 -1668.4480032498977 510.67319041694464 0 510.67319041694464 103.23947210759889 0 0 0 0 -1057.3378153608755 -399.82753305361723 0 -399.82753305361723 -29.582775680830309 0 0 0 0 -631.18431550925015 -157.00832329036893 0 -157.00832329036893 43.254379290656743 0 0 0 0 -459.11751505833672 268.339318814026 0 268.339318814026 17.346389529196585 0 0 0 0 -1341.4625098070483 -637.15073665501814 0 -637.15073665501814 67.950052064073134 0 0 0 0 -23.343219328941565 -6.1417632659875494 0 -6.1417632659875494 -6.0127747955691895 0 0 0 0 -559.51453836329165 -863.65257061572902 0 -863.65257061572902 118.60151503222187 0 0 0 0 -86.249743158631958 -37.251566844468279 0 -37.251566844468279 -10.949836332460297 0 0 0 0 -16.421194096053455 -30.547226712679404 0 -30.547226712679404 -15.299025377473672 0 0 0 0 48.901797491453181 -602.89184507334903 0 -602.89184507334903 -432.01382523835264 0 0 0 0 -366.77050844555197 -121.16721955476987 0 -121.16721955476987 -1.9659579802371354 0 0 0 0 -11.413794168681422 -27.545723167976647 0 -27.545723167976647 -15.510473639870442 0 0 0 0 699.57259278672882 -108.85652784228807 0 -108.85652784228807 -616.65335596645582 0 0 0 0 -16.59796256690349 -35.882457113135189 0 -35.882457113135189 -9.5232063946147871 0 0 0 0 -104.52177372573078 -28.655230037216612 0 -28.655230037216612 -3.0810328447314532 0 0 0 0 -87.61035757602076 -43.218772756176236 0 -43.218772756176236 -14.237219818969606 0 0 0 0 -45.047934960733983 -36.517872623279118 0 -36.517872623279118 -22.154714979479195 0 0 0 0 -1025.5037706138392 -847.30587097151147 0 -847.30587097151147 -319.93615158855914 0 0 0 0 150.1591356859426 -144.29925154107474 0 -144.29925154107474 -66.789044844362934 0 0 0 0 -22.652519543968054 -8.5085416430155192 0 -8.5085416430155192 -3.9313797705061297 0 0 0 0 -588.02970424835803 -463.33315335225279 0 -463.33315335225279 -398.00535543427475 0 0 0 0 -272.39513930946123 109.13505432961097 0 109.13505432961097 89.710173075783814 0 0 0 0 32.092477967177729 -39.462759006382782 0 -39.462759006382782 -107.97206899786886 0 0 0 0 -428.90101743518608 -127.80957411039776 0 -127.80957411039776 13.115270742014957 0 0 0 0 -75.267577283571882 -17.449232690220583 0 -17.449232690220583 -16.407039187995679 0 0 0 0 -15.744303588827087 -36.41659740290099 0 -36.41659740290099 -9.2777945487033122 0 0 0 0 -59.969505632427172 -40.500725732299315 0 -40.500725732299315 -15.387701001324878 0 0 0 0 -36.080233569705115 -33.848170711217563 0 -33.848170711217563 -17.291867893501909 0 0 0 0 -70.40288983263099 -36.561669445964576 0 -36.561669445964576 -11.765366719778285 0 0 0 0 -641.3959123113018 -49.360419979782023 0 -49.360419979782023 189.02880664179935 0 0 0 0 4.1017808808128393 -5.6967721585154578 0 -5.6967721585154578 -0.91733402945461529 0 0 0 0 185.79173000303945 -314.9992080364762 0 -314.9992080364762 16.47041875297009 0 0 0 0 -250.2457865633769 -12.522179578660086 0 -12.522179578660086 124.56354632116131 0 0 0 0 -6.0987637030209463 -7.0591569651860482 0 -7.0591569651860482 12.268341996441411 0 0 0 0 -143.6085674450951 -84.772546982208496 0 -84.772546982208496 12.361433516323814 0 0 0 0 54.72969886464125 -58.372132579344452 0 -58.372132579344452 -303.03404235288292 0 0 0 0 -1009.3527418792946 -138.30706584525529 0 -138.30706584525529 119.165578798046 0 0 0 0 -829.07292875005805 -357.24573958947047 0 -357.24573958947047 169.39236806228757 0 0 0 0 -366.81566945571467 -419.00330811432121 0 -419.00330811432121 135.11010572828218 0 0 0 0 -892.76581591903232 -490.05478490333229 0 -490.05478490333229 213.12189937739282 0 0 0 0 -831.19405240529886 -307.03836127196757 0 -307.03836127196757 252.40914604765771 0 0 0 0 -694.12627861370856 -324.72934780158528 0 -324.72934780158528 206.37559269640599 0 0 0 0 -813.00188806519145 -340.65272846462187 0 -340.65272846462187 239.30820001700602 0 0 0 0 -926.86128619220108 -393.27719484318561 0 -393.27719484318561 234.02703125271171 0 0 0 0 -703.94534493389074 -318.06771874042278 0 -318.06771874042278 242.10000003206017 0 0 0 0 -1140.4841884109628 -183.52858039851714 0 -183.52858039851714 344.75889350723219 0 0 0 0 -646.77894811154692 -326.53435163495703 0 -326.53435163495703 71.66796569083499 0 0 0 0 -574.71120417529528 164.3229374144336 0 164.3229374144336 557.40919757202357 0 0 0 0 121.5217131388199 -266.85826233328635 0 -266.85826233328635 -391.46606072343479 0 0 0 0 317.19112477563613 231.40965525349446 0 231.40965525349446 -111.31299551239454 0 0 0 0 -391.10477623954648 -54.22153061310587 0 -54.22153061310587 294.17076484094139 0 0 0 0 -1484.7593572407786 -189.18600108270516 0 -189.18600108270516 162.91085843332417 0 0 0 0 -859.57598638458876 -192.45412037121355 0 -192.45412037121355 146.79476514161297 0 0 0 0 -435.56911188945014 -353.66441388357629 0 -353.66441388357629 -144.79131313519269 0 0 0 0 -896.17853907600511 -658.14141173832718 0 -658.14141173832718 -295.7733087290967 0 0 0 0 -1018.7127270414931 245.81498749465578 0 245.81498749465578 92.784720853632507 0 0 0 0 -1306.2048464256222 285.39079473174706 0 285.39079473174706 -319.61782212948253 0 0 0 0 -438.00021643417131 -161.26772258253072 0 -161.26772258253072 -164.10411869838299 0 0 0 0 -622.31691307656001 141.61095807057291 0 141.61095807057291 32.346182417713862 0 0 0 0 -1021.132024916049 -417.69797722059479 0 -417.69797722059479 -20.303150477861891 0 0 0 0 -509.68438144086394 -27.256778586445535 0 -27.256778586445535 385.22262368379552 0 0 0 0 13.464497849388863 218.01933403977137 0 218.01933403977137 -26.296562838983391 0 0 0 0 -901.39028773428436 -108.83166705394558 0 -108.83166705394558 -17.005132117005815 0 0 0 0 -27.262398503521382 2.3328679628225757 0 2.3328679628225757 24.168490109034163 0 0 0 0 -40.546387479703 51.607507379072885 0 51.607507379072885 -76.655240158158904 0 0 0 0 -700.09613605382947 79.311763445045472 0 79.311763445045472 26.660943094804679 0 0 0 0 -293.90291291940957 -267.03691907365555 0 -267.03691907365555 -85.967509580339538 0 0 0 0 31.982163087493973 185.27004940745474 0 185.27004940745474 -365.13287449489371 0 0 0 0 -370.74094499091007 73.817645728212483 0 73.817645728212483 -10.116853490600988 0 0 0 0 -259.06839946545824 37.111955358288441 0 37.111955358288441 -470.82449417144107 0 0 0 0 -156.49979227447329 -75.9006732843809 0 -75.9006732843809 16.606770518051235 0 0 0 0 -491.28934760266566 -124.63601065206785 0 -124.63601065206785 237.44392935505766 0 0 0 0 -79.594422506742887 -18.899193617567605 0 -18.899193617567605 -18.079854532119917 0 0 0 0 -362.90313922418864 -159.08903021454967 0 -159.08903021454967 57.286348551535411 0 0 0 0 -957.00662953100982 -355.36097761884321 0 -355.36097761884321 153.84287832543441 0 0 0 0 -745.91369418869726 -437.06862990488162 0 -437.06862990488162 66.51253868830554 0 0 0 0 -85.322242853450177 -38.2278376681056 0 -38.2278376681056 -10.579766271657762 0 0 0 0 -36.438180207019542 -47.774236918438632 0 -47.774236918438632 -34.98039088395187 0 0 0 0 -631.21850772917969 -212.32864801106643 0 -212.32864801106643 -129.48009843963928 0 0 0 0 -5.806965670554737 -5.174834078638284 0 -5.174834078638284 0.89034333081673012 0 0 0 0 -516.58845026418567 -394.15390447885511 0 -394.15390447885511 -399.41280591446645 0 0 0 0 -363.65023563686327 -114.58742616499391 0 -114.58742616499391 -399.68915086028755 0 0 0 0 -791.32320426885053 -216.07402216626951 0 -216.07402216626951 138.26253477060163 0 0 0 0 -258.70386191748548 -198.67662880520129 0 -198.67662880520129 -481.96633713345454 0 0 0 0 -1267.6335958428099 -60.855611735694765 0 -60.855611735694765 105.16247432910677 0 0 0 0 -218.07303025742294 24.828964747181089 0 24.828964747181089 61.894804081686743 0 0 0 0 -69.949209886939997 -7.523840659532091 0 -7.523840659532091 4.0545128760965827 0 0 0 0 -337.85271198229748 -36.958430003441208 0 -36.958430003441208 85.183178523126116 0 0 0 0 30.431751633082968 -87.579557539081975 0 -87.579557539081975 -112.81788164758655 0 0 0 0 -287.9542491248867 -177.05835810783537 0 -177.05835810783537 34.332853888441605 0 0 0 0 -336.39639294770313 -133.01921819879681 0 -133.01921819879681 205.17725321682155 0 0 0 0 14.132515637891572 -21.904629994398821 0 -21.904629994398821 -18.306077043635966 0 0 0 0 308.22430104134764 -194.36814456404204 0 -194.36814456404204 94.770701500103314 0 0 0 0 -368.49130510515533 -251.91916676712026 0 -251.91916676712026 -284.93786669679139 0 0 0 0 -310.33693157976086 -66.942967474509942 0 -66.942967474509942 -53.20239054179001 0 0 0 0 -362.45056778176922 -37.990186143148392 0 -37.990186143148392 67.595548705867259 0 0 0 0 -338.06439260202751 -254.29019586200047 0 -254.29019586200047 -315.87836682152465 0 0 0 0 -367.1256637279148 -126.81958425091034 0 -126.81958425091034 18.122548235880458 0 0 0 0 -239.72692196327807 -160.56067287283406 0 -160.56067287283406 -266.40719462383186 0 0 0 0 -989.89784929683083 -603.90523984411243 0 -603.90523984411243 -187.27119665268583 0 0 0 0 -446.41173799378157 -90.658462745047842 0 -90.658462745047842 -162.89259865590853 0 0 0 0 -532.78090137520121 -464.57706985004887 0 -464.57706985004887 -590.41377906130174 0 0 0 0 -408.39237810415216 -188.08928152118187 0 -188.08928152118187 -369.05959374095755 0 0 0 0 -880.05039309062704 -383.60028557916507 0 -383.60028557916507 -109.03146986951188 0 0 0 0 -7.6406239716715305 4.7948388745462154 0 4.7948388745462154 4.7806746451223319 0 0 0 0 -5.4106962056787324 4.4487765327116193 0 4.4487765327116193 -2.1647276147879504 0 0 0 0 -846.66050627948425 -881.22698964142705 0 -881.22698964142705 -617.36241373425651 0 0 0 0 -152.84982384090108 116.13713766382034 0 116.13713766382034 -424.34318443450547 0 0 0 0 -445.53093975492811 -270.8868611371596 0 -270.8868611371596 -1105.8855245986592 0 0 0 0 -346.47500174907327 -66.032145884874808 0 -66.032145884874808 -28.749829391150342 0 0 0 0 -97.366162252037611 -68.136535260895926 0 -68.136535260895926 -50.66917146839296 0 0 0 0 -174.41856369683228 -76.061419167048371 0 -76.061419167048371 -43.294535095727042 0 0 0 0 0.27017152043014292 3.9991698537241263 0 3.9991698537241263 -7.9550555288039053 0 0 0 0 -1669.0268355215157 -659.99220755393935 0 -659.99220755393935 59.253362742073477 0 0 0 0 -106.47547818037128 -34.250980801183687 0 -34.250980801183687 -21.210824510121711 0 0 0 0 -99.559173869594815 -44.399310468335898 0 -44.399310468335898 -31.480884972334024 0 0 0 0 -753.90627044171561 -203.05049346032956 0 -203.05049346032956 -1260.9551365233638 0 0 0 0 -21.459885571479987 2.703378408547394 0 2.703378408547394 -1.7649224375351906 0 0 0 0 -93.097594012710033 -34.082801626780565 0 -34.082801626780565 -30.748906406643073 0 0 0 0 -61.304362260748732 -9.2208170974696344 0 -9.2208170974696344 -0.30084138575775654 0 0 0 0 -16.43356466272563 6.4310886729121819 0 6.4310886729121819 -12.07289441786266 0 0 0 0 -68.393502567807445 -42.426445909859467 0 -42.426445909859467 -48.13628638152295 0 0 0 0 -93.377643641564646 -33.513690242758003 0 -33.513690242758003 -23.669252749481529 0 0 0 0 -46.355207708345205 -14.343506297968535 0 -14.343506297968535 -9.7938493783689466 0 0 0 0 -61.367364429650479 -10.748146771864413 0 -10.748146771864413 1.7979340558122203 0 0 0 0 -72.305526854197524 -25.380557452034282 0 -25.380557452034282 -19.173586513010378 0 0 0 0 -76.95102263026638 -37.686458989708626 0 -37.686458989708626 -20.507562787573988 0 0 0 0 -163.26416088139376 27.278792325902941 0 27.278792325902941 12.457190237033501 0 0 0 0 -87.423878361406992 3.0721753506248106 0 3.0721753506248106 2.8057579838744218 0 0 0 0 -74.329944498938858 0.085593044637789717 0 0.085593044637789717 7.44735038282397 0 0 0 0 -86.113767531801756 -4.9581526770184468 0 -4.9581526770184468 14.089855451993479 0 0 0 0 -90.505508928795933 -8.2178191311872997 0 -8.2178191311872997 3.3690395861777418 0 0 0 0 -275.01654398254323 215.66732652059045 0 215.66732652059045 -316.53752611874006 0 0 0 0 -27.28154844333767 17.825279756060809 0 17.825279756060809 41.185937778835068 0 0 0 0 -149.15526046224113 163.65433957044115 0 163.65433957044115 155.55639857623646 0 0 0 0 -786.38246530004835 166.22440641270077 0 166.22440641270077 -31.225606202426206 0 0 0 0 -780.67788948801172 127.75004464197445 0 127.75004464197445 -45.357246481733455 0 0 0 0 -39.549677986605175 28.928388216428374 0 28.928388216428374 -44.306782410705729 0 0 0 0 -101.44971010534209 41.124740831049166 0 41.124740831049166 -9.3137503681182352 0 0 0 0 -228.62392684222141 90.728644576859551 0 90.728644576859551 -11.070587116839306 0 0 0 0 -90.137984978049644 156.92472850656486 0 156.92472850656486 199.99840070503706 0 0 0 0 -454.10607769192575 -16.404607460795887 0 -16.404607460795887 70.964222167878688 0 0 0 0 -66.185212569867872 69.695703993325878 0 69.695703993325878 -150.80017077656157 0 0 0 0 -31.717589915621446 12.277044243086781 0 12.277044243086781 2.4404979927593748 0 0 0 0 -15.638050680339802 239.85630889989443 0 239.85630889989443 361.57142063615356 0 0 0 0 -10.665696296206079 120.91741126714942 0 120.91741126714942 256.06151276406854 0 0 0 0 84.290996117663781 51.291811866221451 0 51.291811866221451 -44.582359540789184 0 0 0 0 154.86302280900782 231.51436347722392 0 231.51436347722392 102.82180446190068 0 0 0 0 -14.397694138391293 -3.1688117337422561 0 -3.1688117337422561 2.2268146787961953 0 0 0 0 -96.024103144513901 -22.869711207342789 0 -22.869711207342789 26.309971260290695 0 0 0 0 235.11081721708069 249.54986657761219 0 249.54986657761219 41.954233131446017 0 0 0 0 -68.881144984191707 2.1642317633298838 0 2.1642317633298838 5.4239208498690177 0 0 0 0 -74.841068408102728 10.512472749565859 0 10.512472749565859 16.024972834897198 0 0 0 0 -58.963697850864705 -0.73079668893423388 0 -0.73079668893423388 3.4809308987830061 0 0 0 0 -109.10505404768628 27.785395952832005 0 27.785395952832005 38.194143411820619 0 0 0 0 -62.154045733026578 -0.56362835674372036 0 -0.56362835674372036 10.004123245629671 0 0 0 0 -51.687477577244863 -15.683219935061061 0 -15.683219935061061 -0.73946877404523548 0 0 0 0 -58.072885672178771 -8.7501340880198413 0 -8.7501340880198413 10.546868478564463 0 0 0 0 -51.317241883833425 -0.36649826364999427 0 -0.36649826364999427 -16.799058503248446 0 0 0 0 -38.288089892506832 -9.7259752097634191 0 -9.7259752097634191 -0.078284464800162823 0 0 0 0 -55.352444300486241 -23.458758631990349 0 -23.458758631990349 -48.951091497583548 0 0 0 0 -51.830113519463339 -13.415717830943322 0 -13.415717830943322 -37.38987501525844 0 0 0 0 -49.137144331866949 -13.669153490282476 0 -13.669153490282476 -2.9609494584349747 0 0 0 0 -70.985096557000361 51.103362851156589 0 51.103362851156589 8.4400223686570826 0 0 0 0 -8.9082777225209213 8.4885480889490239 0 8.4885480889490239 19.189265293921196 0 0 0 0 -56.320094196758873 25.116695875580263 0 25.116695875580263 -24.790860165472623 0 0 0 0 -89.492355822474565 -5.1862073816664633 0 -5.1862073816664633 68.986326750449734 0 0 0 0 1.4638439253822639 3.3834355419043689 0 3.3834355419043689 12.428384993559714 0 0 0 0 16.268639593232365 149.40868765423193 0 149.40868765423193 23.831582792592485 0 0 0 0 -43.287177531925408 41.493290064521716 0 41.493290064521716 -32.7092935092478 0 0 0 0 -93.456153181086847 73.602698588786097 0 73.602698588786097 -26.050728289655126 0 0 0 0 -87.126183509835755 118.25327742127593 0 118.25327742127593 41.729020976041284 0 0 0 0 -107.80515754087446 80.456730971906609 0 80.456730971906609 -23.266989158246361 0 0 0 0 -142.8167596882231 64.254958834054833 0 64.254958834054833 20.185223061211673 0 0 0 0 -1.2117119370025762 -0.001639100393909132 0 -0.001639100393909132 5.4910251836953066 0 0 0 0 -15.272841420573968 80.588014410465348 0 80.588014410465348 21.309326117895125 0 0 0 0 92.534723973634755 -59.773515303885688 0 -59.773515303885688 -61.968229173765167 0 0 0 0 108.09685127953435 70.52714348304039 0 70.52714348304039 -91.040384408002865 0 0 0 0 26.837197913460841 -56.578098550127834 0 -56.578098550127834 -51.272852543070258 0 0 0 0 -66.985124179202103 66.029183668037149 0 66.029183668037149 -171.72430814631298 0 0 0 0 -320.18323599353153 -68.25229500452383 0 -68.25229500452383 -24.328921043348601 0 0 0 0 -270.95296898498054 -134.28115698083502 0 -134.28115698083502 -84.045086351977034 0 0 0 0 -290.81456534790141 -78.663539228483387 0 -78.663539228483387 -227.60630810169459 0 0 0 0 -436.3169329594657 -250.64959398239455 0 -250.64959398239455 149.27316860578867 0 0 0 0 -517.81737429067107 -385.38045208517815 0 -385.38045208517815 -14.109390846744645 0 0 0 0 -525.30771282571732 -74.743758318542859 0 -74.743758318542859 271.14253608758963 0 0 0 0 -4.1468513917916425 316.43606665205834 0 316.43606665205834 -286.90051822207897 0 0 0 0 -353.42628155980583 -218.76657952151265 0 -218.76657952151265 100.24763165942386 0 0 0 0 -656.76250060294115 153.90634304137575 0 153.90634304137575 -295.18879621925726 0 0 0 0 -2.6091566978034635 -0.93801919688223023 0 -0.93801919688223023 -2.5379574155273721 0 0 0 0 -364.31531444759821 292.88450161743344 0 292.88450161743344 -241.40216471759345 0 0 0 0 -649.9016126385086 -191.8192965168937 0 -191.8192965168937 133.47922469912146 0 0 0 0 -561.11447773386999 -154.28716879351038 0 -154.28716879351038 105.91137165373038 0 0 0 0 -1093.5588741981774 159.45307365356558 0 159.45307365356558 -27.39223262150395 0 0 0 0 -827.72439505492639 -273.48864004861241 0 -273.48864004861241 -45.585831606078727 0 0 0 0 -327.54849506962819 201.17178849510742 0 201.17178849510742 -589.21506803489706 0 0 0 0 -8.93867316422741 -1.2037125034831053 0 -1.2037125034831053 0.15303377530426177 0 0 0 0 -757.53685534960096 444.20846730748258 0 444.20846730748258 -293.0807368292385 0 0 0 0 -135.25807344945861 -163.29692667294282 0 -163.29692667294282 -145.83179269040943 0 0 0 0 -213.08316091717461 49.37130663374279 0 49.37130663374279 32.384925561446266 0 0 0 0 -819.24362221707815 -236.38447964059276 0 -236.38447964059276 39.973152095855482 0 0 0 0 -962.1342821207204 105.85028074837439 0 105.85028074837439 27.836837834385619 0 0 0 0 -23.000554078000278 -14.066283479683449 0 -14.066283479683449 15.066960189394763 0 0 0 0 -87.790639539649419 -69.837770298971634 0 -69.837770298971634 13.084333375109736 0 0 0 0 -12.261837707138056 -5.3178022265388645 0 -5.3178022265388645 -0.34511000001426639 0 0 0 0 -12.094370579545284 0.36045835067810117 0 0.36045835067810117 -2.2978904031825778 0 0 0 0 -12.336369084696873 1.5416483344749992 0 1.5416483344749992 3.7013971720388197 0 0 0 0 -84.884391340525326 -138.56449889951918 0 -138.56449889951918 -54.572180901219987 0 0 0 0 -9.1192091625798639 -8.9038981074929779 0 -8.9038981074929779 -14.744340162934691 0 0 0 0 -7.2116828414576801 -4.1468747628964788 0 -4.1468747628964788 -4.0061451663840559 0 0 0 0 -20.87616821188567 -27.981122588557469 0 -27.981122588557469 46.075136635044601 0 0 0 0 -9.3111330233047092 2.0130729588559646 0 2.0130729588559646 -0.80377429333083672 0 0 0 0 26.164526071823275 93.381480790016909 0 93.381480790016909 -28.104976285570579 0 0 0 0 -17.754867100724368 -1.9924741801842174 0 -1.9924741801842174 1.933282375649469 0 0 0 0 -18.705168477103143 0.026061422110046806 0 0.026061422110046806 1.2945030872019743 0 0 0 0 -9.1110277677056644 -2.7132002304594103 0 -2.7132002304594103 1.6608351620542017 0 0 0 0 -35.883126575827191 12.260493597240043 0 12.260493597240043 5.8046174643464497 0 0 0 0 -18.449533310474635 1.6161173355143319 0 1.6161173355143319 -0.70977090731503267 0 0 0 0 -15.145482547792199 -1.1165715094000461 0 -1.1165715094000461 -2.1665201868880786 0 0 0 0 -40.493217463988913 -2.3052816570993429 0 -2.3052816570993429 20.049612037165616 0 0 0 0 -18.549117629893047 -5.9752659632753584 0 -5.9752659632753584 -0.13460858076875271 0 0 0 0 -83.379342420950707 94.450092353016544 0 94.450092353016544 -101.76876849997461 0 0 0 0 -14.027321661209498 -2.8433293945500964 0 -2.8433293945500964 0.47163289634863759 0 0 0 0 -15.496321222238244 0.91187756821454968 0 0.91187756821454968 2.5311469577573447 0 0 0 0 -80.91442273609573 135.14908700462956 0 135.14908700462956 -205.0203027085031 0 0 0 0 14.344286746872967 91.885211555905698 0 91.885211555905698 -186.77842568047117 0 0 0 0 -12.147046052185033 -2.760588255174298 0 -2.760588255174298 -518.39380643842424 0 0 0 0 -143.83403950638967 54.074963440509464 0 54.074963440509464 113.90887641554127 0 0 0 0 -74.923408917085908 256.28559828987659 0 256.28559828987659 112.35529680173113 0 0 0 0 -89.140338730639996 107.07850214640939 0 107.07850214640939 -10.94377000698023 0 0 0 0 -124.69156691920216 60.978409666313382 0 60.978409666313382 -5.2538566898228964 0 0 0 0 -125.90614093151635 55.881420552860163 0 55.881420552860163 47.969471129186786 0 0 0 0 -98.896853666250536 -13.359360488703715 0 -13.359360488703715 183.46840638498816 0 0 0 0 -107.15095622240915 29.426368629948229 0 29.426368629948229 -26.914781247684914 0 0 0 0 5.6822047455568878 -5.0734645302349364 0 -5.0734645302349364 -4.4044788388263614 0 0 0 0 38.954132650065731 -81.456693959403538 0 -81.456693959403538 -0.89208918121516945 0 0 0 0 -31.607900445726784 -21.677685821745023 0 -21.677685821745023 -9.3581378679600569 0 0 0 0 24.336652358651918 -133.53525364770462 0 -133.53525364770462 -178.53980547726417 0 0 0 0 11.182423093840043 40.510677069543931 0 40.510677069543931 -73.364552548614597 0 0 0 0 8.903051458124537 39.530779821224485 0 39.530779821224485 -44.791276125332388 0 0 0 0 -43.621712382486294 2.5614880568030003 0 2.5614880568030003 43.413285273653855 0 0 0 0 -45.221583637365256 38.594488305062896 0 38.594488305062896 0.066125362592629244 0 0 0 0 -11.525173627804648 -5.125711522635445 0 -5.125711522635445 -0.94934285122440443 0 0 0 0 2.7323711537937925 -3.2439219929670458 0 -3.2439219929670458 -18.286071480404956 0 0 0 0 -9.4388962091106805 -37.404084638709946 0 -37.404084638709946 33.699240521355634 0 0 0 0 -10.386833644552237 -4.6341178219059529 0 -4.6341178219059529 -0.61999850336686657 0 0 0 0 -448.70133529461418 69.124621218045604 0 69.124621218045604 2.7518480303171771 0 0 0 0 -437.96485663903348 282.29314503622345 0 282.29314503622345 -162.5221662748832 0 0 0 0 -532.89494779640609 145.72639574694071 0 145.72639574694071 -12.660026695834745 0 0 0 0 -86.735876527367509 -79.909735509182156 0 -79.909735509182156 -103.33348104569677 0 0 0 0 -421.11979228223936 249.25959255299364 0 249.25959255299364 -33.717424592478451 0 0 0 0 -1138.9478413795186 351.68201166306375 0 351.68201166306375 -342.45948036652862 0 0 0 0 -1135.9298617120439 390.54833655607194 0 390.54833655607194 49.403491413107645 0 0 0 0 -1032.3174942980258 194.60237119963611 0 194.60237119963611 -170.69463350017452 0 0 0 0 -979.90352249055286 327.71192941669875 0 327.71192941669875 8.6940294018583018 0 0 0 0 -1234.8748147278147 238.75494845287326 0 238.75494845287326 8.2052986220700177 0 0 0 0 -1360.6729616163275 51.507194149196692 0 51.507194149196692 -181.03705816382978 0 0 0 0 -1516.478192085573 405.23076570743876 0 405.23076570743876 -237.88517781014707 0 0 0 0 -1285.6446675090247 584.54652734841147 0 584.54652734841147 -225.36637325982167 0 0 0 0 -99.275382754453858 -159.15591879559065 0 -159.15591879559065 -83.725154219203887 0 0 0 0 -5.4667134228579641 -1.4877269669159965 0 -1.4877269669159965 0.21893102517174734 0 0 0 0 -1338.7906907405541 201.48256671369097 0 201.48256671369097 -5.1563303621244359 0 0 0 0 -902.18926047686 -233.81660035205482 0 -233.81660035205482 93.046198162235896 0 0 0 0 -1154.2519984354258 329.44780741193563 0 329.44780741193563 -310.98709082931168 0 0 0 0 -1078.0630987081342 473.79952321911901 0 473.79952321911901 -78.663639023916403 0 0 0 0 -857.68471965321442 323.2235688935034 0 323.2235688935034 -147.7168686491118 0 0 0 0 -1070.7359847401644 523.74831798116293 0 523.74831798116293 -78.395194243340484 0 0 0 0 144.06635255983565 428.46151601050133 0 428.46151601050133 -16.56409465552133 0 0 0 0 -1109.4888151038722 447.40553029914622 0 447.40553029914622 -39.586398743819245 0 0 0 0 -462.43286700694807 210.3990144014158 0 210.3990144014158 -100.22003331188807 0 0 0 0 -32.177178955124532 -27.516979090872944 0 -27.516979090872944 -17.187699041348871 0 0 0 0 -489.67090879631371 -67.803148895653209 0 -67.803148895653209 -73.499570673925973 0 0 0 0 -386.8055881451055 199.99415239922405 0 199.99415239922405 64.726080742370414 0 0 0 0 -111.9683955978835 348.64524809989052 0 348.64524809989052 -47.412577524777589 0 0 0 0 -215.50561068306342 -844.39480613186879 0 -844.39480613186879 -9.1030593799532653 0 0 0 0 -101.54229877988655 152.49254482501237 0 152.49254482501237 -38.704655684639874 0 0 0 0 -150.51630627519626 205.68860805770964 0 205.68860805770964 244.74767741112601 0 0 0 0 24.415508947357011 24.191769984416169 0 24.191769984416169 -227.04413476257014 0 0 0 0 8.6192030715101282 162.23153696049485 0 162.23153696049485 -53.613585953199618 0 0 0 0 -32.991900367189373 80.18855060453825 0 80.18855060453825 -147.69820543313108 0 0 0 0 21.318806197934464 -7.5485541660909803 0 -7.5485541660909803 -44.128962706763559 0 0 0 0 -1.6266950066328718 4.1368886240781144 0 4.1368886240781144 -7.8289924292543347 0 0 0 0 7.388703422366234 199.9292785036846 0 199.9292785036846 -314.9124704562073 0 0 0 0 -527.26001068219193 460.11437444551848 0 460.11437444551848 342.92257118935868 0 0 0 0 -1030.9200739590451 87.511685253025462 0 87.511685253025462 344.20272927870246 0 0 0 0 -927.73565203444923 -158.53666488957765 0 -158.53666488957765 -8.993710056431155 0 0 0 0 -325.84717459625244 66.086681795370168 0 66.086681795370168 0.98977867426401644 0 0 0 0 -0.56462527764968229 0.11100392591617236 0 0.11100392591617236 -1.1750693914036034 0 0 0 0 -579.75906737571859 72.704256671645453 0 72.704256671645453 -39.67232384473391 0 0 0 0 -435.97176573927391 339.80593497203199 0 339.80593497203199 113.25104354498399 0 0 0 0 -69.585828023122303 45.169031006179694 0 45.169031006179694 30.135220005024166 0 0 0 0 -51.473807594808022 7.6675075658404239 0 7.6675075658404239 37.92513494769446 0 0 0 0 -92.22073839528457 -98.159032837553241 0 -98.159032837553241 -163.92915515587265 0 0 0 0 -17.147638745563853 10.648172418415463 0 10.648172418415463 -18.509858713253628 0 0 0 0 -43.5849387193052 -0.19299797398518592 0 -0.19299797398518592 -2.1413047919701773 0 0 0 0 -82.962359160908818 -13.50286173034965 0 -13.50286173034965 13.590766889525185 0 0 0 0 -22.860700355053268 37.782037044578374 0 37.782037044578374 -9.5169712936531141 0 0 0 0 -74.084783955244347 -39.045716124914179 0 -39.045716124914179 -35.770777436511707 0 0 0 0 -74.142668952954409 -41.037845650726013 0 -41.037845650726013 -24.940950801494182 0 0 0 0 -14.96639495819187 -3.4654531524827235 0 -3.4654531524827235 -2.0647497725726964 0 0 0 0 -64.58381240136805 -31.049597838209593 0 -31.049597838209593 -49.296565702017688 0 0 0 0 -75.870891879792907 -32.837472027871627 0 -32.837472027871627 -34.169232349928279 0 0 0 0 -77.448538526015909 -27.413252295321399 0 -27.413252295321399 -34.62525584748073 0 0 0 0 -66.851896752399625 -6.815851775376359 0 -6.815851775376359 -9.9127408858785202 0 0 0 0 -70.773062126216246 -17.347897325387748 0 -17.347897325387748 -19.499136544756766 0 0 0 0 -153.09437501928164 225.77573315792637 0 225.77573315792637 -266.28941715872133 0 0 0 0 -129.56750409406231 -50.063805303182562 0 -50.063805303182562 -14.351727033814313 0 0 0 0 -15.218598251832063 -2.7523630386759166 0 -2.7523630386759166 -0.25097964224709646 0 0 0 0 -1114.0631049593721 377.3033743251026 0 377.3033743251026 221.63552097129832 0 0 0 0 -106.76292777931667 404.76632834733755 0 404.76632834733755 -608.93864474133989 0 0 0 0 -10.590386504080058 -9.253400492448236 0 -9.253400492448236 -9.8404239894967027 0 0 0 0 721.66039653082407 -446.91977719687225 0 -446.91977719687225 -1724.7117644081791 0 0 0 0 -893.19918059187944 673.41788433576608 0 673.41788433576608 -462.64984110025944 0 0 0 0 -434.95063289054087 -102.70834853701126 0 -102.70834853701126 506.64566672840829 0 0 0 0 -26.607220887579302 -23.966581206775473 0 -23.966581206775473 -18.918893620310257 0 0 0 0 477.44958217692329 -543.6677852788589 0 -543.6677852788589 329.37019379952108 0 0 0 0 -379.28934048990777 499.91674808442986 0 499.91674808442986 -177.62074096746846 0 0 0 0 -2173.4523546379205 63.513404662494395 0 63.513404662494395 -469.88023096195593 0 0 0 0 -1846.9746140259049 -213.13433092042078 0 -213.13433092042078 -617.69241330287605 0 0 0 0 -1646.8220889023796 -276.14094239681162 0 -276.14094239681162 -599.89390784124657 0 0 0 0 -1545.8396998131575 315.59676922796007 0 315.59676922796007 -378.87251504872597 0 0 0 0 -2093.105456161843 -43.197559199361194 0 -43.197559199361194 -927.32238059356678 0 0 0 0 -2161.9501259041244 659.76615033170992 0 659.76615033170992 -436.43436941066591 0 0 0 0 -2300.8632766256633 196.36487155877512 0 196.36487155877512 -1152.3010165409687 0 0 0 0 -1899.942341828837 -362.22825733617174 0 -362.22825733617174 -889.92083789892149 0 0 0 0 -2851.6472997938108 -339.73905571193995 0 -339.73905571193995 -890.44001249405392 0 0 0 0 -2081.8204440930058 -1129.2331426120627 0 -1129.2331426120627 -1731.9959756142007 0 0 0 0 -1490.74798039913 -559.97665932358382 0 -559.97665932358382 -1188.9391219553372 0 0 0 0 -1391.0670264185264 -864.01576848110631 0 -864.01576848110631 -1100.5107780985572 0 0 0 0 -1102.4453668658643 -736.7139486270039 0 -736.7139486270039 -1094.476763816253 0 0 0 0 -1102.5290352346551 -743.93036598715764 0 -743.93036598715764 -879.6302287442295 0 0 0 0 -1168.9925771019298 -878.67523440459354 0 -878.67523440459354 -967.68958899788026 0 0 0 0 -1111.3069645692558 -793.01373922674884 0 -793.01373922674884 -858.63950338971244 0 0 0 0 -1072.8722371041931 -876.84369366868123 0 -876.84369366868123 -929.78814492466654 0 0 0 0 -1650.9041916853021 -820.07135843330707 0 -820.07135843330707 -985.50112375199001 0 0 0 0 -1296.1617045009898 -537.75122883949643 0 -537.75122883949643 -770.77773664219148 0 0 0 0 -1128.8278675528891 -584.53279684979316 0 -584.53279684979316 -759.50876564869395 0 0 0 0 -1008.668551372295 -450.99541034625531 0 -450.99541034625531 -614.20089030233703 0 0 0 0 -510.06763813671569 -348.34108243193623 0 -348.34108243193623 -641.87010821264334 0 0 0 0 -823.96249356405315 -816.79806234736725 0 -816.79806234736725 -866.53122859435734 0 0 0 0 -1102.5701615598737 -860.37649843808617 0 -860.37649843808617 -728.2791672785695 0 0 0 0 -395.8907649314624 -800.44543591672436 0 -800.44543591672436 -856.16693797506787 0 0 0 0 -676.70879380553561 -319.31130535498437 0 -319.31130535498437 -439.36988827935193 0 0 0 0 5.2920377064292552 -176.97751226538503 0 -176.97751226538503 -309.51614011232505 0 0 0 0 -326.41890502183014 -494.50279057479167 0 -494.50279057479167 -267.78913564243931 0 0 0 0 -169.29337800816938 -503.88130688146748 0 -503.88130688146748 -547.23899151591377 0 0 0 0 -932.44402174844072 -151.57798789528988 0 -151.57798789528988 -279.10234782531597 0 0 0 0 -264.16001840843819 -390.67097884732266 0 -390.67097884732266 -440.20645176406242 0 0 0 0 -541.65037527608001 -117.11243347597701 0 -117.11243347597701 -14.186896348775463 0 0 0 0 -334.97727133139415 69.816592080785995 0 69.816592080785995 117.99631791540287 0 0 0 0 -349.50453545801429 20.558804327241432 0 20.558804327241432 -228.57092124826386 0 0 0 0 -616.19312629538399 248.59321882331233 0 248.59321882331233 87.92197011750568 0 0 0 0 -627.94768388926605 124.74161673976369 0 124.74161673976369 -154.37417773695006 0 0 0 0 -677.65163607110662 757.1138119244722 0 757.1138119244722 -15.325441767686243 0 0 0 0 -694.69948457139981 240.65103035678567 0 240.65103035678567 -242.33462324337279 0 0 0 0 -1193.9876719499553 -26.470162570207776 0 -26.470162570207776 -384.91910816051427 0 0 0 0 -1238.0866013896007 5.7042289428624997 0 5.7042289428624997 -406.58209836508377 0 0 0 0 -1173.5168908766182 514.54446868286902 0 514.54446868286902 -89.762901905808576 0 0 0 0 -1439.2723036270727 634.61755306958912 0 634.61755306958912 -108.06780156588275 0 0 0 0 -1510.1413920024752 250.15114967221484 0 250.15114967221484 -292.15516126131342 0 0 0 0 -1301.3304202949075 582.34286223218442 0 582.34286223218442 135.79930549262372 0 0 0 0 -1630.0823049197934 498.75300121726286 0 498.75300121726286 167.39193651909147 0 0 0 0 -1275.4860205682926 517.42637680189569 0 517.42637680189569 -70.066521990288038 0 0 0 0 -4.5358427057145363 3.1141684803642029 0 3.1141684803642029 -1.6704799463949063 0 0 0 0 52.745998680715275 933.59114135206187 0 933.59114135206187 151.4358495817564 0 0 0 0 -1318.7997272656248 790.05725719157965 0 790.05725719157965 180.89127549366117 0 0 0 0 -264.06510348214579 -10.924335748194324 0 -10.924335748194324 505.3051741411283 0 0 0 0 -201.70649314939874 147.93868488504154 0 147.93868488504154 76.085035715855611 0 0 0 0 -248.63036717276555 154.24968899606193 0 154.24968899606193 -89.618966631582282 0 0 0 0 -16.576857914225727 2.6577184544440229 0 2.6577184544440229 -1.4453434499274809 0 0 0 0 -98.362879240881739 194.57551922852622 0 194.57551922852622 704.8403170114542 0 0 0 0 -1042.864429039837 -625.81302268348304 0 -625.81302268348304 -114.30727584800451 0 0 0 0 -1706.6625851655663 156.23698527040617 0 156.23698527040617 152.5889537197026 0 0 0 0 -1311.4159443930948 -68.844355303104692 0 -68.844355303104692 111.2588689971241 0 0 0 0 -941.15252200819396 458.3806545016875 0 458.3806545016875 -25.962364375704396 0 0 0 0 -172.57843607209361 -150.12983684566638 0 -150.12983684566638 -91.175034430004132 0 0 0 0 265.61662216594414 -58.860921686152324 0 -58.860921686152324 -311.60759994991923 0 0 0 0 -18.839529369557692 -11.581300178572569 0 -11.581300178572569 -6.4699166464521802 0 0 0 0 63.280505475669997 414.14537584475624 0 414.14537584475624 -234.88483164628849 0 0 0 0 553.04170441635324 -245.91340535725959 0 -245.91340535725959 -289.32993794820527 0 0 0 0 -717.56094258726989 -845.45980194714184 0 -845.45980194714184 290.83261917273353 0 0 0 0 -4.8285435428693759 -3.9673138802098258 0 -3.9673138802098258 -4.4272873461912452 0 0 0 0 115.5735988678727 -4.9505947437359481 0 -4.9505947437359481 29.626332423280473 0 0 0 0 -32.399760637739774 -0.40558677047496516 0 -0.40558677047496516 15.268447266277771 0 0 0 0 -62.189896060871661 -5.86466179118338 0 -5.86466179118338 36.102896834778676 0 0 0 0 -106.06989095603785 13.179193841825963 0 13.179193841825963 67.293797072779171 0 0 0 0 161.3360470264015 -373.6200932409447 0 -373.6200932409447 166.67040582026448 0 0 0 0 -1.0058249548810636 -137.73976373407686 0 -137.73976373407686 53.689991699231086 0 0 0 0 -837.77218190173699 393.29357198156868 0 393.29357198156868 130.06049803962287 0 0 0 0 -5.2894639819616316 -4.4340679349003222 0 -4.4340679349003222 -3.6199598301760156 0 0 0 0 -430.97592705666466 204.96611753743218 0 204.96611753743218 -66.363801681634925 0 0 0 0 -157.35714629921495 56.897516400042377 0 56.897516400042377 -48.052779494983724 0 0 0 0 372.19782345399244 -420.9147524464156 0 -420.9147524464156 -84.51153347888976 0 0 0 0 -479.85473409372753 -172.70729073296661 0 -172.70729073296661 116.26027752399068 0 0 0 0 -28.957250427873987 71.774708259321159 0 71.774708259321159 73.138566651427709 0 0 0 0 -1375.1182932676238 -575.71008445525104 0 -575.71008445525104 787.65014474983491 0 0 0 0 -25.732013482916386 -3.0034148134570309 0 -3.0034148134570309 9.9344769401258315 0 0 0 0 -866.97946946019511 415.18445646228065 0 415.18445646228065 -463.82939791976059 0 0 0 0 151.64851376347178 -266.83400949722864 0 -266.83400949722864 -44.612675347188315 0 0 0 0 25.004122043877942 -22.330442359137066 0 -22.330442359137066 -75.353568682891364 0 0 0 0 -16.1582210202032 -56.288401140071642 0 -56.288401140071642 29.22112978529276 0 0 0 0 -109.39605585367462 -34.456180676611439 0 -34.456180676611439 85.575562433453342 0 0 0 0 -153.49322155526534 4.4093881682738356 0 4.4093881682738356 57.103516867752205 0 0 0 0 -78.224211683162139 3.9431644744979621 0 3.9431644744979621 -23.825971226681759 0 0 0 0 -289.08370441133047 513.17281032490246 0 513.17281032490246 -341.73958739700993 0 0 0 0 74.779327646188904 -229.46578993058984 0 -229.46578993058984 -318.65933153913056 0 0 0 0 -136.09293994026689 -122.00668830328502 0 -122.00668830328502 -52.595349079664629 0 0 0 0 0.32419738259365261 0.51939621404240555 0 0.51939621404240555 -1.2096805305261031 0 0 0 0 -140.0969929150906 -30.96820896449475 0 -30.96820896449475 74.217669959602517 0 0 0 0 539.36434946797544 343.05416538630493 0 343.05416538630493 -316.51626561172219 0 0 0 0 -32.649810435572363 -284.92744790186271 0 -284.92744790186271 736.79580953201457 0 0 0 0 -184.74912907332691 -310.04622948988504 0 -310.04622948988504 1001.5101129075697 0 0 0 0 -106.23253289260174 4.1646643660372433 0 4.1646643660372433 68.869459650176395 0 0 0 0 50.682390478883462 -142.87621146091888 0 -142.87621146091888 628.22018670008902 0 0 0 0 -22.513441706742363 -7.748738618851295 0 -7.748738618851295 0.31021689717075596 0 0 0 0 -167.51126664459298 43.040226432925238 0 43.040226432925238 488.31098527735185 0 0 0 0 -203.96520046846854 58.629801441942163 0 58.629801441942163 435.00266471490067 0 0 0 0 -271.84870086767114 -179.07901100777195 0 -179.07901100777195 832.30230438521266 0 0 0 0 -173.2882265069602 -125.18921289863374 0 -125.18921289863374 191.77072488540171 0 0 0 0 -440.02011966543796 23.565392182973937 0 23.565392182973937 498.21213590362186 0 0 0 0 86.158322592935292 262.08328048771364 0 262.08328048771364 988.28071100016325 0 0 0 0 -279.59051866777008 -122.02939360657456 0 -122.02939360657456 607.20002999186499 0 0 0 0 514.6189898399607 -55.809895877514464 0 -55.809895877514464 -91.491288376445482 0 0 0 0 625.29646089479866 111.58190588513764 0 111.58190588513764 153.53639239021686 0 0 0 0 -10.034152245278818 -5.8014025936290174 0 -5.8014025936290174 -2.7024686940970017 0 0 0 0 -1920.3460227803207 421.9605664717734 0 421.9605664717734 -24.627522535096944 0 0 0 0 237.00771755185497 -1076.7604876986752 0 -1076.7604876986752 -406.25839138047377 0 0 0 0 -2721.3936018053428 -629.81117599336915 0 -629.81117599336915 -63.188823538819577 0 0 0 0 -2522.9574154884485 -791.61503212005448 0 -791.61503212005448 -612.85198617981746 0 0 0 0 -2357.5397388613601 -662.56233577876469 0 -662.56233577876469 -176.84184813364129 0 0 0 0 -1872.0635150842463 40.72612787203002 0 40.72612787203002 98.12816433937239 0 0 0 0 -1073.2461924548861 -512.89517045682078 0 -512.89517045682078 123.28952068305421 0 0 0 0 -14.354721749795702 -0.68729358479182068 0 -0.68729358479182068 3.177820663428518 0 0 0 0 -1523.7563793022709 -9.7300657194650739 0 -9.7300657194650739 301.06702763378701 0 0 0 0 -157.17746125522694 -43.956252677050827 0 -43.956252677050827 53.145592254638359 0 0 0 0 -576.63726281882555 77.9300063029591 0 77.9300063029591 -110.79808055854573 0 0 0 0 -1601.605843819867 -68.439280202416739 0 -68.439280202416739 106.34359403716644 0 0 0 0 -1961.6819053748586 -354.29510932798439 0 -354.29510932798439 232.89684969874634 0 0 0 0 -2000.5048867056248 -205.41566834889773 0 -205.41566834889773 69.070377938303864 0 0 0 0 -2284.9193901001636 -96.402986665072518 0 -96.402986665072518 91.594123663223684 0 0 0 0 -2393.2585904841835 8.9193176690000655 0 8.9193176690000655 70.887741239530925 0 0 0 0 -1983.5955012655086 -342.13177578371415 0 -342.13177578371415 -36.59844709097888 0 0 0 0 -2712.5080870084767 -575.11402004197362 0 -575.11402004197362 -121.48613502109265 0 0 0 0 -2733.8845298816068 -446.14388168295591 0 -446.14388168295591 -80.383824868671354 0 0 0 0 -2573.1340112678627 -441.0595253692527 0 -441.0595253692527 -96.467069367503427 0 0 0 0 -2573.1139744978645 -416.76911537213823 0 -416.76911537213823 -12.814362603207883 0 0 0 0 -2894.9638491456535 -75.418944437511527 0 -75.418944437511527 306.06366103253504 0 0 0 0 -2649.2938277345802 170.64677231167138 0 170.64677231167138 415.20489884967446 0 0 0 0 -2400.1515039029073 44.230338123434649 0 44.230338123434649 140.91024066896898 0 0 0 0 -3174.4560666804737 -36.590790218298935 0 -36.590790218298935 342.38724140398745 0 0 0 0 -60.254555373483527 222.79065606646782 0 222.79065606646782 1.020631362007407 0 0 0 0 96.45181041727119 -29.227001673893028 0 -29.227001673893028 44.100290227765072 0 0 0 0 -35.552391701585606 29.430267272862519 0 29.430267272862519 -12.420671053632148 0 0 0 0 -57.83455946366729 -22.652052515283728 0 -22.652052515283728 23.715245398342994 0 0 0 0 -25.283866137203226 -7.7757344025741588 0 -7.7757344025741588 20.586630133241862 0 0 0 0 -35.796128070574923 -19.420919526335183 0 -19.420919526335183 -38.039293618954616 0 0 0 0 -2404.296503143305 -520.70603353204842 0 -520.70603353204842 -173.45430191655214 0 0 0 0 -797.35025576680528 -1133.4071823588474 0 -1133.4071823588474 -209.29847951651027 0 0 0 0 -13.15623725086774 2.3846580513221269 0 2.3846580513221269 0.99956813588355242 0 0 0 0 -434.24042486086546 -909.54428509520199 0 -909.54428509520199 -950.5470332527002 0 0 0 0 -13.157072999336304 -9.0120130022706952 0 -9.0120130022706952 -7.1702151497608373 0 0 0 0 -5650.3299164683149 1392.5509587630845 0 1392.5509587630845 -581.47291285952201 0 0 0 0 -1148.3251133850499 851.11270070908824 0 851.11270070908824 -141.93213596777605 0 0 0 0 -2713.6148738056136 846.16830699384263 0 846.16830699384263 898.7963930173255 0 0 0 0 -2392.0573941174807 306.9503802643934 0 306.9503802643934 276.48000522577786 0 0 0 0 -1949.662388991941 145.5867021175427 0 145.5867021175427 -215.63351983171697 0 0 0 0 -2460.7976933446571 -351.31334408501658 0 -351.31334408501658 -196.79325285886648 0 0 0 0 -2018.6301786375852 -627.72336280225466 0 -627.72336280225466 -653.1899590903713 0 0 0 0 -4503.566648522833 -1486.8634874062379 0 -1486.8634874062379 -2670.561249728099 0 0 0 0 -3023.0861750726835 -1658.6874158928449 0 -1658.6874158928449 -1090.8810996901291 0 0 0 0 -4561.7131069711613 -1330.3103398051314 0 -1330.3103398051314 -310.23270826369082 0 0 0 0 -3353.5226493336795 -1263.2536568233318 0 -1263.2536568233318 -333.45886908052097 0 0 0 0 -3410.841756799588 -1047.5759601603877 0 -1047.5759601603877 -381.99045573258786 0 0 0 0 -2667.8933817925827 -736.59471512611992 0 -736.59471512611992 -448.31020985592363 0 0 0 0 -2664.0266576134491 -518.43033757437502 0 -518.43033757437502 -174.62189356593342 0 0 0 0 -2882.2014468743255 -782.12410362714354 0 -782.12410362714354 -191.48283662559771 0 0 0 0 -2893.660776826302 -992.88215124250792 0 -992.88215124250792 -421.2687101025295 0 0 0 0 -4498.0201727864269 -1010.5209465331164 0 -1010.5209465331164 36.672577768002057 0 0 0 0 -3564.0341860147637 -673.86187286151392 0 -673.86187286151392 -256.09314992417836 0 0 0 0 -4500.593527519477 205.14561007237307 0 205.14561007237307 -131.9315941064653 0 0 0 0 -2976.4576817976777 383.81823828025375 0 383.81823828025375 -135.80745903828236 0 0 0 0 -2978.6833932926402 -461.88092400351849 0 -461.88092400351849 -236.54988485747785 0 0 0 0 -2957.7814789237218 -441.1407976139767 0 -441.1407976139767 -798.40466051114277 0 0 0 0 -795.48868188452252 -1464.2795931752285 0 -1464.2795931752285 -527.88221585673011 0 0 0 0 -1095.9256599890768 -864.80596527010414 0 -864.80596527010414 -834.8327917556046 0 0 0 0 -2228.2347302427952 -1077.7372148836575 0 -1077.7372148836575 -364.10413682732826 0 0 0 0 -2113.7906213044826 -200.0000835638408 0 -200.0000835638408 -854.75819906187439 0 0 0 0 -2005.5765943886909 -437.04784742705766 0 -437.04784742705766 -685.6604471668752 0 0 0 0 -1358.4902894911452 -361.45434181707492 0 -361.45434181707492 -858.61798141534496 0 0 0 0 -1225.3415273306164 -921.96603628670437 0 -921.96603628670437 -836.67666475260648 0 0 0 0 -1461.3035479634527 -838.84592808704429 0 -838.84592808704429 -776.68335616667218 0 0 0 0 -1191.0116323455586 -823.03384931467076 0 -823.03384931467076 -949.85135718408605 0 0 0 0 -1084.2848066613897 -562.86997992846796 0 -562.86997992846796 -774.0016716488185 0 0 0 0 -1224.4898059385268 -724.76460287321754 0 -724.76460287321754 -753.50403968234741 0 0 0 0 -1113.5182110646747 -654.78069552935403 0 -654.78069552935403 -992.49199294724872 0 0 0 0 -1180.5188296770539 -659.12961719240752 0 -659.12961719240752 -316.15280119720148 0 0 0 0 -1529.1414535619042 -441.62174427282105 0 -441.62174427282105 -666.98851749623248 0 0 0 0 -844.87311645109003 -283.23978459347154 0 -283.23978459347154 -632.58769978659984 0 0 0 0 490.88356874425517 975.89801622061032 0 975.89801622061032 -1146.3131717590504 0 0 0 0 -2572.5141246912099 1642.1673399314691 0 1642.1673399314691 -1172.3979772722932 0 0 0 0 -12.129446196626276 7.8480145353761657 0 7.8480145353761657 -6.0361583567788184 0 0 0 0 -4490.9781251395043 1114.1035589063761 0 1114.1035589063761 -145.64011695060543 0 0 0 0 -2576.5644092274342 580.3074806041418 0 580.3074806041418 -942.32543446237423 0 0 0 0 -924.05362278863686 157.95363287454879 0 157.95363287454879 -889.21444147406146 0 0 0 0 -105.50773136324278 -12.639164961784445 0 -12.639164961784445 68.382442889887898 0 0 0 0 -62.734571443789605 -43.063866076515161 0 -43.063866076515161 37.102239269154992 0 0 0 0 -94.404138883355245 23.690085307429527 0 23.690085307429527 13.204161015678718 0 0 0 0 -136.43333441817958 12.214687448878976 0 12.214687448878976 192.44105287027196 0 0 0 0 -1665.2063411485142 -1357.2282020268085 0 -1357.2282020268085 -876.58295717073634 0 0 0 0 -7.8228055262527505 1.5542360785891631 0 1.5542360785891631 -3.8295611685087607 0 0 0 0 -38.535654705708112 21.373119946194535 0 21.373119946194535 -10.513106469713222 0 0 0 0 -1285.4125760882816 -243.35987135435789 0 -243.35987135435789 -82.064951873149312 0 0 0 0 -8.9420510284962802 198.38498646781682 0 198.38498646781682 108.04586857964023 0 0 0 0 -294.18183082035466 176.10846409099395 0 176.10846409099395 157.92587981280303 0 0 0 0 -119.9642802067101 53.451505135424668 0 53.451505135424668 115.03461709981457 0 0 0 0 -367.76891232261551 -120.93705435447555 0 -120.93705435447555 -92.020458863378735 0 0 0 0 -178.54619480152905 -19.410033869280596 0 -19.410033869280596 71.065370514581446 0 0 0 0 -88.648462927376386 -6.800102775428968 0 -6.800102775428968 -55.719018503223197 0 0 0 0 -31.673932145913795 28.412520687129216 0 28.412520687129216 -9.2546873738908886 0 0 0 0 -147.07097953715129 54.291842575934425 0 54.291842575934425 227.10332875759195 0 0 0 0 -159.24057867031661 -75.760837419125892 0 -75.760837419125892 7.3187771471020824 0 0 0 0 -169.19506462557183 89.775004840672409 0 89.775004840672409 181.72129808048339 0 0 0 0 -19.430138260406135 5.903530127987608 0 5.903530127987608 79.899373068706552 0 0 0 0 -256.71062696605804 -56.332863273728435 0 -56.332863273728435 30.889154191769194 0 0 0 0 -133.01151535190002 -46.158825862125013 0 -46.158825862125013 -17.136228913344894 0 0 0 0 -242.54053689495777 -40.164621905415515 0 -40.164621905415515 45.383887636107829 0 0 0 0 -101.70593581051799 23.652657936283504 0 23.652657936283504 73.903232136037332 0 0 0 0 -66.922244837522157 7.6910899206814065 0 7.6910899206814065 10.04114966265206 0 0 0 0 -125.9012059350498 36.953574566698762 0 36.953574566698762 33.565578558343987 0 0 0 0 -117.61993186702603 37.169105820616096 0 37.169105820616096 49.799941906388995 0 0 0 0 -50.789789367670892 -6.0818617801542132 0 -6.0818617801542132 94.9832981645377 0 0 0 0 -94.411200899360239 6.2689197136291845 0 6.2689197136291845 34.524789543713418 0 0 0 0 -123.95481228280283 -39.094488319524537 0 -39.094488319524537 59.750349874419335 0 0 0 0 -95.644467520775493 35.643175083354265 0 35.643175083354265 47.727314829141555 0 0 0 0 -58.967084072809314 44.535073107675622 0 44.535073107675622 11.210756508671487 0 0 0 0 -133.31454464193666 30.669655661494744 0 30.669655661494744 28.54143515665487 0 0 0 0 -73.725889264576836 -36.284400726963213 0 -36.284400726963213 152.62407041687038 0 0 0 0 -91.062148415444142 7.6035341302905266 0 7.6035341302905266 21.393733383732869 0 0 0 0 -159.39267391932663 -26.89110289076234 0 -26.89110289076234 129.50354465675264 0 0 0 0 -118.11090594119742 12.484070489710575 0 12.484070489710575 54.716658762352381 0 0 0 0 -88.789199544032243 12.268811975948751 0 12.268811975948751 45.714951271316167 0 0 0 0 -125.16595456382493 56.018462120578079 0 56.018462120578079 26.30853510912857 0 0 0 0 -84.514322482147577 33.27471633817752 0 33.27471633817752 1.1667324553107967 0 0 0 0 -134.17447989617358 47.040615410351165 0 47.040615410351165 16.60119952497007 0 0 0 0 -128.54021839250345 39.533402010297323 0 39.533402010297323 41.64402744817653 0 0 0 0 -110.2276964004126 8.6823853126384485 0 8.6823853126384485 36.333956546792763 0 0 0 0 -148.91800476770629 53.724733157787611 0 53.724733157787611 20.012850764551835 0 0 0 0 -201.60121572015362 -15.586429660030376 0 -15.586429660030376 55.239661129409797 0 0 0 0 -221.50229262422363 109.03881470067245 0 109.03881470067245 64.896731462050411 0 0 0 0 -93.839685239251793 31.234286572555007 0 31.234286572555007 33.538433691087903 0 0 0 0 -32.411166382798598 16.558277912870345 0 16.558277912870345 0.28140717107832103 0 0 0 0 -82.389052239017701 223.95204675622642 0 223.95204675622642 159.61873052562805 0 0 0 0 -491.40435309178935 -211.7704774382039 0 -211.7704774382039 112.0261106160433 0 0 0 0 -513.43653191478188 34.591425226397405 0 34.591425226397405 380.09523769162843 0 0 0 0 -261.93318734711102 88.518938543051263 0 88.518938543051263 143.03648556476946 0 0 0 0 -92.913160286707807 31.887065216207766 0 31.887065216207766 -3.6335820765944549 0 0 0 0 -135.44954966497949 -17.935989879723365 0 -17.935989879723365 231.32918997243178 0 0 0 0 -620.26976235700658 0.97864344756180799 0 0.97864344756180799 -119.75123120926787 0 0 0 0 -210.18162749021576 154.53798164389082 0 154.53798164389082 -166.95297822127031 0 0 0 0 -331.34510336771928 230.0409672018377 0 230.0409672018377 175.0510363934859 0 0 0 0 -18.53545240067524 -46.365749099954883 0 -46.365749099954883 -422.87635960222178 0 0 0 0 -712.76594897395989 -275.8308768865536 0 -275.8308768865536 -230.82169236510981 0 0 0 0 -700.10848540594679 -310.02624888101809 0 -310.02624888101809 -408.59824321676206 0 0 0 0 -765.27884393385602 -297.56680281312401 0 -297.56680281312401 -262.87728644303934 0 0 0 0 -666.17692285754765 -283.24655884348977 0 -283.24655884348977 -395.98174249934164 0 0 0 0 -715.04300906262415 -268.35256525164732 0 -268.35256525164732 -375.52339457918606 0 0 0 0 -687.60010072738078 -173.2984152816789 0 -173.2984152816789 -242.10292614240643 0 0 0 0 -802.83172598600959 -435.61421643024005 0 -435.61421643024005 -424.75390382818182 0 0 0 0 -36.976042780183398 -2.2001958193526541 0 -2.2001958193526541 24.144485244524972 0 0 0 0 552.2918784081121 328.36646556995402 0 328.36646556995402 -777.60666233531811 0 0 0 0 -64.433220514923363 -31.900793839631405 0 -31.900793839631405 68.029210599856754 0 0 0 0 -105.59746940001787 -21.776327684617172 0 -21.776327684617172 107.00152590292339 0 0 0 0 -98.335013945312681 12.95373731453877 0 12.95373731453877 24.728564072621502 0 0 0 0 -109.48778980252973 15.540490834588581 0 15.540490834588581 101.86474852115384 0 0 0 0 -36.907810617434805 15.546871785449497 0 15.546871785449497 -16.779312915515675 0 0 0 0 430.81470002765127 -850.61749490939656 0 -850.61749490939656 -426.52167184827704 0 0 0 0 -145.18894932815616 -15.47201144046238 0 -15.47201144046238 62.841374561865123 0 0 0 0 -2034.355054747175 -924.82007557340512 0 -924.82007557340512 -47.500749952999286 0 0 0 0 -1499.1833067874977 -1571.0837357496348 0 -1571.0837357496348 -646.20099515853144 0 0 0 0 -665.8998255452625 -188.37787552723239 0 -188.37787552723239 -274.08668360217098 0 0 0 0 -743.10582122856033 -132.68109636719964 0 -132.68109636719964 1.9499359602232289 0 0 0 0 -674.27448268046192 -201.99131941759697 0 -201.99131941759697 -249.97754746921237 0 0 0 0 -366.18754852416168 87.772723634388967 0 87.772723634388967 358.73584829479023 0 0 0 0 -85.512571784473636 -26.09544156549202 0 -26.09544156549202 36.815849993559219 0 0 0 0 -109.6728519868775 -91.276492819186387 0 -91.276492819186387 307.78140250766705 0 0 0 0 -79.972689560071217 -34.197251356785188 0 -34.197251356785188 14.951504297874486 0 0 0 0 159.67334865615703 115.32114529604144 0 115.32114529604144 73.081467730796248 0 0 0 0 -15.560289449317612 4.930872817754647 0 4.930872817754647 15.114259576073053 0 0 0 0 -18.956758988075158 1.8551982929053992 0 1.8551982929053992 -0.69171175255675266 0 0 0 0 218.10593885194976 -78.577621392206311 0 -78.577621392206311 14.049149239046528 0 0 0 0 -220.65140273126599 -748.3246810832843 0 -748.3246810832843 -36.460256774487789 0 0 0 0 -1.8800067465999746 370.1315350279956 0 370.1315350279956 406.90279556583118 0 0 0 0 -549.95167451417365 77.542482918339374 0 77.542482918339374 739.6801454813758 0 0 0 0 -550.48653400625335 -289.80277759691489 0 -289.80277759691489 -76.342436620674562 0 0 0 0 -1161.0770948349527 -73.168844848378285 0 -73.168844848378285 -132.6789472429482 0 0 0 0 -479.80764695298421 105.56471588111708 0 105.56471588111708 375.93885704020431 0 0 0 0 -592.63971236959333 61.404565694519988 0 61.404565694519988 -368.62926051112481 0 0 0 0 -591.88787568738917 41.278745926125339 0 41.278745926125339 117.66144173682778 0 0 0 0 -523.70582491818641 -161.60435526587753 0 -161.60435526587753 74.070926772317307 0 0 0 0 53.841488891019253 -243.01325296094365 0 -243.01325296094365 103.20157203466442 0 0 0 0 -345.76323035050882 18.840601320029236 0 18.840601320029236 127.99185274878255 0 0 0 0 -596.56307418135111 321.18259760691581 0 321.18259760691581 88.779521901749376 0 0 0 0 -400.67515584544162 -174.38776640181641 0 -174.38776640181641 533.18011733288222 0 0 0 0 -424.9471276866243 325.551089051698 0 325.551089051698 544.07497309180258 0 0 0 0 -355.3852870263745 -10.907482083274999 0 -10.907482083274999 40.919935344656551 0 0 0 0 -369.2865929799591 240.66611506884146 0 240.66611506884146 -19.294276660319156 0 0 0 0 -735.32496157562127 213.05688700761311 0 213.05688700761311 8.9241149544686778 0 0 0 0 -593.66147875516617 321.18974529773914 0 321.18974529773914 -101.20660265739571 0 0 0 0 -585.88328083136003 255.54805489946193 0 255.54805489946193 4.1433157536275758 0 0 0 0 -453.78439136432826 316.1222210067765 0 316.1222210067765 -185.90019630794632 0 0 0 0 -862.08675320365001 -1.1175690352938545 0 -1.1175690352938545 -259.33866695348479 0 0 0 0 -1028.0453847896788 112.85109394877622 0 112.85109394877622 -249.33293658072944 0 0 0 0 -710.29074804841366 335.5906641852107 0 335.5906641852107 70.222730605833931 0 0 0 0 -496.05458991974592 291.22112493832356 0 291.22112493832356 -142.96845756770199 0 0 0 0 -251.89176769614278 -443.07910197283127 0 -443.07910197283127 -1024.5670925224931 0 0 0 0 -911.54146911716089 -987.12561374013785 0 -987.12561374013785 -663.61742198328739 0 0 0 0 406.08710024453467 152.78741564283609 0 152.78741564283609 -252.25299787443873 0 0 0 0 -529.59315293715645 -311.24914345402499 0 -311.24914345402499 -449.88488223930108 0 0 0 0 -827.37560668567312 -305.31107096849155 0 -305.31107096849155 -340.69360104889711 0 0 0 0 -1435.6972544657765 -1216.5215188410057 0 -1216.5215188410057 -731.08034734758485 0 0 0 0 -1079.7618383676017 -573.4857125254166 0 -573.4857125254166 -545.13890483721661 0 0 0 0 -595.45715547443251 -842.59729519696657 0 -842.59729519696657 -758.90299080669138 0 0 0 0 222.66170549195158 112.93884509824784 0 112.93884509824784 -327.38717740787251 0 0 0 0 213.52420330340829 108.66307548044915 0 108.66307548044915 -141.5068656888543 0 0 0 0 -13.11938508503016 7.572204401829552 0 7.572204401829552 -3.9851121219367798 0 0 0 0 154.07156366237905 83.091459951399884 0 83.091459951399884 -78.771677941891539 0 0 0 0 -1838.9927750664938 -453.51126716850558 0 -453.51126716850558 -185.62374435619859 0 0 0 0 -1384.0069725876601 -220.34748387977743 0 -220.34748387977743 -922.55726865801989 0 0 0 0 119.66101978553343 415.5475155585591 0 415.5475155585591 -260.63506929107007 0 0 0 0 -168.5184154867602 618.96663419855759 0 618.96663419855759 328.04964449590261 0 0 0 0 -724.74303657599376 -1222.4714215943332 0 -1222.4714215943332 -543.67346436452226 0 0 0 0 145.07316394975351 116.7985131759724 0 116.7985131759724 419.29846395865934 0 0 0 0 188.60721302490856 244.46686482680161 0 244.46686482680161 -68.809803340518556 0 0 0 0 117.76908480864222 389.13342382127803 0 389.13342382127803 312.14855038318638 0 0 0 0 -939.42997358654975 -136.91418546942259 0 -136.91418546942259 -18.003961219703342 0 0 0 0 -1.0975601918110272 -3.6685756931883589 0 -3.6685756931883589 -25.9988212752923 0 0 0 0 -602.22716267086798 354.08664789167597 0 354.08664789167597 35.794635894355451 0 0 0 0 513.67120664461982 385.20306306618659 0 385.20306306618659 -604.53463990669115 0 0 0 0 -1051.4994358191543 -48.503137165220323 0 -48.503137165220323 119.05888399663672 0 0 0 0 -1329.196372730672 -420.5083344227678 0 -420.5083344227678 -239.14647016524572 0 0 0 0 -1432.9331452161277 -1323.8630111748444 0 -1323.8630111748444 195.6577446817173 0 0 0 0 -26.482230155634568 -4.3136687100309503 0 -4.3136687100309503 -1.2342247631312411 0 0 0 0 -2720.873804010218 -638.15960718019778 0 -638.15960718019778 -30.928923977582599 0 0 0 0 -1858.5579904671067 2164.6137451396735 0 2164.6137451396735 80.83694136365375 0 0 0 0 -371.72932682519604 60.480234317534041 0 60.480234317534041 -246.93496122857323 0 0 0 0 -313.38300347326731 301.71042865816253 0 301.71042865816253 -234.54999476532248 0 0 0 0 -1090.5743345959272 350.72489043052155 0 350.72489043052155 -14.21349673588702 0 0 0 0 -2343.3910070222046 -1580.3151865076325 0 -1580.3151865076325 -242.539359333025 0 0 0 0 -3.6031523709669386 -5.0566919323026411 0 -5.0566919323026411 -12.745231480587108 0 0 0 0 -215.12297268091061 318.29672840400599 0 318.29672840400599 -752.62688512521709 0 0 0 0 -1730.8333590223483 482.76529480608406 0 482.76529480608406 -61.113674716521928 0 0 0 0 -2613.4564312246875 -101.38374525725612 0 -101.38374525725612 170.82381162312959 0 0 0 0 -1247.8985814223142 170.75791418218728 0 170.75791418218728 114.95430408183529 0 0 0 0 -1232.9989477036634 89.289284951445325 0 89.289284951445325 -824.62069062502997 0 0 0 0 -2136.9247193036572 325.40847764363207 0 325.40847764363207 247.90625249532786 0 0 0 0 -1050.439935287759 -791.79707511697688 0 -791.79707511697688 -648.02716013645841 0 0 0 0 -132.27727629354922 181.8954849506481 0 181.8954849506481 855.50683660384129 0 0 0 0 -51.781897695429507 -128.05592434179198 0 -128.05592434179198 114.74937973985652 0 0 0 0 -59.131018096016021 -19.022105547242585 0 -19.022105547242585 7.2713013537691111 0 0 0 0 -46.942326528471312 -32.79858115236857 0 -32.79858115236857 47.360097430118913 0 0 0 0 -5.2569120334700017 -33.487089703984566 0 -33.487089703984566 29.041844432852081 0 0 0 0 25.635406017056084 -130.24387689439573 0 -130.24387689439573 -23.209135106833855 0 0 0 0 -97.161773844185518 532.594726366955 0 532.594726366955 -511.95842678854024 0 0 0 0 -292.30846136793843 125.38180813258077 0 125.38180813258077 -18.936666521014558 0 0 0 0 -625.32369013123389 475.94287158757288 0 475.94287158757288 -117.15684940589199 0 0 0 0 -400.78131676914199 51.096296766826526 0 51.096296766826526 -24.281166469416348 0 0 0 0 -22.803179567698152 21.890918346953612 0 21.890918346953612 -22.993579572233969 0 0 0 0 27.066056729032425 -49.534468542738978 0 -49.534468542738978 -138.89779527560313 0 0 0 0 -70.94793803277571 134.51234163433583 0 134.51234163433583 -121.27883901427413 0 0 0 0 1.0374301359828451 4.3908614737348692 0 4.3908614737348692 -1.6981247970451827 0 0 0 0 11.025731756293681 155.42219121259222 0 155.42219121259222 126.05287993172533 0 0 0 0 -62.991151064357837 58.145844112688792 0 58.145844112688792 30.700317048052966 0 0 0 0 -90.908978219106075 27.737624702126595 0 27.737624702126595 4.09433893149754 0 0 0 0 -52.715005078818649 -272.98042749242086 0 -272.98042749242086 237.19309085451164 0 0 0 0 -244.30307244138385 -5.5747944209888374 0 -5.5747944209888374 139.59029241855023 0 0 0 0 196.66022515740406 399.04125822647893 0 399.04125822647893 133.36616850728024 0 0 0 0 -12.180287193459662 2.3944454491668132 0 2.3944454491668132 1.7464197387422118 0 0 0 0 -275.39244798274012 23.935378383994248 0 23.935378383994248 95.241586708847535 0 0 0 0 -477.61888154501503 619.80894415802504 0 619.80894415802504 -502.78827470307988 0 0 0 0 -207.02166969663085 240.38088465052488 0 240.38088465052488 -138.09115158945133 0 0 0 0 -150.50373325605324 70.19130218432656 0 70.19130218432656 -72.853826842358103 0 0 0 0 -348.02187255336321 105.75130979618552 0 105.75130979618552 -73.351462320577411 0 0 0 0 -323.64100875459553 209.04472727185612 0 209.04472727185612 47.329226439986087 0 0 0 0 -420.90448682814895 327.70855486351138 0 327.70855486351138 -91.588386880768667 0 0 0 0 -264.41524169570766 5.8370812144130468 0 5.8370812144130468 -51.454758605599636 0 0 0 0 -12.059798028916703 -21.848208459350644 0 -21.848208459350644 65.26899815120214 0 0 0 0 -28.657217217629807 -8.6576737863265958 0 -8.6576737863265958 8.6501237978292664 0 0 0 0 -309.76374684096663 -1.1958537747887021 0 -1.1958537747887021 -48.948333617423486 0 0 0 0 208.2210838084211 222.70627939557744 0 222.70627939557744 299.1702133751678 0 0 0 0 159.0576023622998 341.00671491578305 0 341.00671491578305 350.64058276430296 0 0 0 0 -509.04739585774951 -27.882521040653955 0 -27.882521040653955 96.042332632223406 0 0 0 0 -4.0127025954232778 -14.243948594907266 0 -14.243948594907266 12.991369860577592 0 0 0 0 87.215545902989106 248.06897709058103 0 248.06897709058103 294.23128555368385 0 0 0 0 96.296057835905231 201.25254697854325 0 201.25254697854325 103.98826216424641 0 0 0 0 -155.52958413749002 263.43703741535865 0 263.43703741535865 651.63676319879596 0 0 0 0 -334.51687148795463 154.75927013652108 0 154.75927013652108 14.87738432205515 0 0 0 0 -395.56089810217964 111.88117896534095 0 111.88117896534095 6.7011843327672977 0 0 0 0 -470.35768094737432 79.85993208608852 0 79.85993208608852 113.90275910300261 0 0 0 0 -384.25305869957811 193.71539487263817 0 193.71539487263817 46.457430234891945 0 0 0 0 -371.83371370995883 153.5803389063858 0 153.5803389063858 77.85304269604967 0 0 0 0 -465.00418385773082 104.97429194435244 0 104.97429194435244 196.6849958718667 0 0 0 0 -446.07179441226617 103.63574057934875 0 103.63574057934875 239.34696691082354 0 0 0 0 -460.33217910025269 216.37221020772995 0 216.37221020772995 178.76819919516856 0 0 0 0 -390.82741261244519 134.00349112819549 0 134.00349112819549 169.75769485041383 0 0 0 0 -452.01666778256185 147.50523984459869 0 147.50523984459869 205.06342335369482 0 0 0 0 -372.4178894429424 203.63995057634929 0 203.63995057634929 244.61282763619965 0 0 0 0 -337.69695906387642 248.59417014480277 0 248.59417014480277 130.17003503805608 0 0 0 0 -407.0986773186014 251.54998512070597 0 251.54998512070597 216.70779349478107 0 0 0 0 -188.256050325057 136.07621509436285 0 136.07621509436285 168.40407030031201 0 0 0 0 -498.10782384828781 93.833504927530157 0 93.833504927530157 351.09512950363569 0 0 0 0 -463.69668634887785 176.21962198692927 0 176.21962198692927 319.17879841096874 0 0 0 0 -584.40288318163948 194.20960659696721 0 194.20960659696721 318.18003253669303 0 0 0 0 -459.69562722949195 301.07112870028504 0 301.07112870028504 408.37752920635103 0 0 0 0 -544.70241734804586 108.16971683346492 0 108.16971683346492 504.50850992306368 0 0 0 0 -717.33522422029637 329.14348439048626 0 329.14348439048626 688.45184150648129 0 0 0 0 -544.82533618226807 109.0435464735715 0 109.0435464735715 666.30593523744028 0 0 0 0 -920.23341660969891 -108.06159038378973 0 -108.06159038378973 -55.837057805205404 0 0 0 0 -687.6342144626251 224.27813994107419 0 224.27813994107419 943.50422345817788 0 0 0 0 -1690.935653405264 1272.659566479153 0 1272.659566479153 945.75367062661485 0 0 0 0 -407.87033191352384 623.5943437989481 0 623.5943437989481 -8.1776015005889349 0 0 0 0 -715.24781428427036 518.18612451572722 0 518.18612451572722 269.53132080518117 0 0 0 0 -152.51279840013012 118.57824722414261 0 118.57824722414261 85.950495957993553 0 0 0 0 -52.180081533209886 262.15078110074683 0 262.15078110074683 126.91785956205331 0 0 0 0 -278.26382698773523 424.43758030082972 0 424.43758030082972 169.0318155105997 0 0 0 0 -10.043812547897687 415.2137162980116 0 415.2137162980116 54.080136948723521 0 0 0 0 -6.1009480899447226 8.7915308550840052 0 8.7915308550840052 -11.582397686779387 0 0 0 0 179.75969916913891 50.878425789955145 0 50.878425789955145 -130.41892499836104 0 0 0 0 -509.06329153847037 296.98074586312123 0 296.98074586312123 -29.923459163605003 0 0 0 0 1.7615662520693149 128.82144707757834 0 128.82144707757834 -162.32681571556896 0 0 0 0 3.5198972047946882 137.85747086589618 0 137.85747086589618 -121.59516496930155 0 0 0 0 170.11245123523986 101.70549163105898 0 101.70549163105898 -141.93193861567852 0 0 0 0 24.506658728147158 59.8685495419777 0 59.8685495419777 146.05894485711178 0 0 0 0 -45.528928967833053 -59.608871817938052 0 -59.608871817938052 148.36909311052295 0 0 0 0 -345.81246648990782 599.97928211692852 0 599.97928211692852 -719.11182377111982 0 0 0 0 -470.02866960060783 -636.87385554017965 0 -636.87385554017965 783.08080298568166 0 0 0 0 211.23534112656489 -1623.9674767083088 0 -1623.9674767083088 -646.3389151651354 0 0 0 0 286.67301665584091 -207.0438589034311 0 -207.0438589034311 -1412.0505675289023 0 0 0 0 61.304261554294499 -15.550423111355485 0 -15.550423111355485 -298.87511608749628 0 0 0 0 -239.2726401357213 260.65119039553974 0 260.65119039553974 -192.70554564164195 0 0 0 0 -630.88402961634711 -284.22818099055485 0 -284.22818099055485 106.42488598019372 0 0 0 0 -206.22693110885302 -95.15566529779926 0 -95.15566529779926 -49.918171616905965 0 0 0 0 0.65748643740312218 1.2596210089989199 0 1.2596210089989199 -2.0710525408665355 0 0 0 0 -96.816241185530089 183.77040871673671 0 183.77040871673671 232.26371378411886 0 0 0 0 202.43855423515924 24.227008932099125 0 24.227008932099125 84.869747614124208 0 0 0 0 -68.865121418813942 117.27246880524763 0 117.27246880524763 78.223427893775806 0 0 0 0 -237.78361304133432 86.427379177403054 0 86.427379177403054 122.58510847231082 0 0 0 0 -28.559054361154267 16.880411259122411 0 16.880411259122411 -1.8698989729091409 0 0 0 0 -149.41198850705405 -44.093059854469175 0 -44.093059854469175 40.496204484061309 0 0 0 0 -101.28638732034597 -103.20121004623252 0 -103.20121004623252 105.38146774901907 0 0 0 0 -139.0492644005717 -6.4772033301487681 0 -6.4772033301487681 149.59052094713843 0 0 0 0 -305.90105259261327 88.297956496320694 0 88.297956496320694 185.58598301007441 0 0 0 0 -363.97621422293014 -6.6268756878962449 0 -6.6268756878962449 156.07002139441647 0 0 0 0 -200.51965894756722 -146.2922108935727 0 -146.2922108935727 231.94192099633801 0 0 0 0 2.715664752655524 1.9894071584477331 0 1.9894071584477331 50.501897931815918 0 0 0 0 -354.2448453666002 -42.957687566973618 0 -42.957687566973618 -30.594893033314293 0 0 0 0 -362.59552625249489 34.549042810351239 0 34.549042810351239 163.60945128385174 0 0 0 0 -225.07880640288931 142.73811459190802 0 142.73811459190802 221.92818283537235 0 0 0 0 -138.20226715634635 3.7911235836445485 0 3.7911235836445485 93.106950326087826 0 0 0 0 -208.92967120130197 -5.565952538714555 0 -5.565952538714555 40.422718092153445 0 0 0 0 -177.83203803656215 32.02225336313586 0 32.02225336313586 82.92766065077376 0 0 0 0 -12.296220408554444 6.2419174100943451 0 6.2419174100943451 23.743618392081551 0 0 0 0 -235.50698543862381 67.154496213436232 0 67.154496213436232 13.003260829116698 0 0 0 0 -192.73877119808458 43.171934715130192 0 43.171934715130192 25.074717079081438 0 0 0 0 -279.12671452146606 44.458219531577015 0 44.458219531577015 55.311056304413796 0 0 0 0 -495.45126027007063 -50.41755327134706 0 -50.41755327134706 386.6810475080074 0 0 0 0 467.77813924909424 -662.75057341678803 0 -662.75057341678803 -632.50757501516273 0 0 0 0 -904.17009071707434 295.42665489633691 0 295.42665489633691 231.53739205543388 0 0 0 0 -645.55756693903822 248.12334103468675 0 248.12334103468675 166.02669550688734 0 0 0 0 -1648.8190485111845 -134.04680597903825 0 -134.04680597903825 570.75572373175055 0 0 0 0 -344.60352832986973 -4.4012330741716141 0 -4.4012330741716141 87.758532966825442 0 0 0 0 -103.31744826057252 24.904483513943408 0 24.904483513943408 14.058921877405087 0 0 0 0 -326.95982456125785 138.46016827771564 0 138.46016827771564 -31.629762061476868 0 0 0 0 -221.7124556673225 25.603576706140302 0 25.603576706140302 31.510078621196953 0 0 0 0 -395.01528782473179 -9.7581601986430542 0 -9.7581601986430542 33.91042966797977 0 0 0 0 0.29157626556337846 -10.489909448207753 0 -10.489909448207753 9.4761706384558817 0 0 0 0 -291.70188810265972 -125.69180877467625 0 -125.69180877467625 43.685050549011066 0 0 0 0 -267.23396901762499 77.036068695919425 0 77.036068695919425 -21.233251079847832 0 0 0 0 -230.74890554841841 -52.97465997272775 0 -52.97465997272775 -88.679976777608317 0 0 0 0 -129.81846651825617 -24.842258827870864 0 -24.842258827870864 3.4249660635650798 0 0 0 0 -170.50024831076735 25.176050220667094 0 25.176050220667094 -4.4838803502607334 0 0 0 0 -242.43811716864002 -44.850338283895326 0 -44.850338283895326 31.471703787017759 0 0 0 0 -113.15106038981685 -69.702275836043327 0 -69.702275836043327 66.820009199913329 0 0 0 0 -132.5082731640432 -4.7620620908337514 0 -4.7620620908337514 34.593682036575956 0 0 0 0 -210.46826121666163 -19.641509755053562 0 -19.641509755053562 74.939209508926069 0 0 0 0 -8.4481150517240167 -77.080591995014402 0 -77.080591995014402 58.637468270267618 0 0 0 0 -71.924079608317697 -38.930992429104663 0 -38.930992429104663 75.757065916819101 0 0 0 0 10.356360071309609 -45.875463782414954 0 -45.875463782414954 29.902695709446562 0 0 0 0 -88.122536033974029 4.5980967724171933 0 4.5980967724171933 8.8093367637097799 0 0 0 0 -31.527101821535325 -16.642691545285743 0 -16.642691545285743 15.204060630832828 0 0 0 0 -82.791196843740181 -35.907976548446641 0 -35.907976548446641 97.404197545585703 0 0 0 0 -74.381064229630283 -37.244816127402373 0 -37.244816127402373 130.09105885589452 0 0 0 0 -24.085066393956367 -132.63178409311354 0 -132.63178409311354 170.23709015991335 0 0 0 0 53.043194623518502 -193.95500303379526 0 -193.95500303379526 156.26861272396309 0 0 0 0 91.679764000204159 -76.995032668693966 0 -76.995032668693966 55.863106305932888 0 0 0 0 -163.5409331623232 -98.081465015818139 0 -98.081465015818139 589.91587942493788 0 0 0 0 -623.01965492131421 150.04362538094028 0 150.04362538094028 518.29694148953695 0 0 0 0 -454.51277394013596 200.94484070569069 0 200.94484070569069 162.11760746457367 0 0 0 0 -660.05936708264926 11.995694002653181 0 11.995694002653181 161.24053186127276 0 0 0 0 -227.82509586446758 -548.92356466856188 0 -548.92356466856188 -355.44498483501229 0 0 0 0 1.0139713000050534 0.27177596485748268 0 0.27177596485748268 3.2902553389289864 0 0 0 0 -456.31432523035619 135.22943174186639 0 135.22943174186639 -108.07521589600947 0 0 0 0 -1564.8797938770149 -17.250188571521903 0 -17.250188571521903 -81.620163484105433 0 0 0 0 -898.7084776951242 -841.75008138104658 0 -841.75008138104658 -358.73796958179264 0 0 0 0 -828.7885163235751 -176.28350839244467 0 -176.28350839244467 -162.27447939862031 0 0 0 0 -2769.2404143639724 -229.7887179842719 0 -229.7887179842719 306.97603797354714 0 0 0 0 10.686106858833227 -48.714523934846511 0 -48.714523934846511 79.609702479226144 0 0 0 0 234.37361398137 -188.92035413116264 0 -188.92035413116264 45.863292576974345 0 0 0 0 11.648442594009794 -94.213651256808319 0 -94.213651256808319 90.385947832026432 0 0 0 0 162.8139422913373 -38.938418991242543 0 -38.938418991242543 40.99455071211014 0 0 0 0 -2.3242695059488625 6.9371068420812492 0 6.9371068420812492 12.552049312365376 0 0 0 0 36.273682291073783 -66.168907279819905 0 -66.168907279819905 59.461082140858707 0 0 0 0 341.30011399847717 267.81564333156848 0 267.81564333156848 199.81575369093707 0 0 0 0 331.73782595850935 336.50739187763384 0 336.50739187763384 -2.9197183857040727 0 0 0 0 -5.5130826199177818 -3.8487904762786513 0 -3.8487904762786513 -2.305569724984025 0 0 0 0 -1260.9819388929172 520.6716424390479 0 520.6716424390479 -238.16818910873644 0 0 0 0 -194.04233506169112 -1251.5888150791391 0 -1251.5888150791391 -984.68428525682702 0 0 0 0 -1990.6215706126823 -1367.9344903108231 0 -1367.9344903108231 1268.9891770363392 0 0 0 0 -959.19821372815932 35.467342909737454 0 35.467342909737454 161.62593628113109 0 0 0 0 -202.88797865292145 243.36780067270229 0 243.36780067270229 -170.24201062281281 0 0 0 0 -16.879644277727607 -5.5196699182435651 0 -5.5196699182435651 1.3044606313595715 0 0 0 0 58.556486256202334 68.437473280741415 0 68.437473280741415 -92.429091226447667 0 0 0 0 -130.61963469663897 -9.466573895400586 0 -9.466573895400586 -68.432505888183186 0 0 0 0 1.3315575012529735 -32.750659109344269 0 -32.750659109344269 76.264884627904848 0 0 0 0 -35.223709067184245 -4.8406851802810706 0 -4.8406851802810706 62.144690296925091 0 0 0 0 -30.40342622430984 4.185729582780553 0 4.185729582780553 14.573158534045987 0 0 0 0 1.8520951900572982 85.240967661244213 0 85.240967661244213 138.18475602104081 0 0 0 0 -35.228402364489739 -2.6787516229005632 0 -2.6787516229005632 128.28812798502895 0 0 0 0 -38.34340271660767 -32.887559603213049 0 -32.887559603213049 99.129649087368307 0 0 0 0 -52.184608388382912 -19.813251494370434 0 -19.813251494370434 87.399490936775692 0 0 0 0 -107.82723878166871 -40.235600179996254 0 -40.235600179996254 57.807594997215347 0 0 0 0 -93.298281751329341 -18.890023718609086 0 -18.890023718609086 89.062046922765148 0 0 0 0 -86.159174529595475 -57.690597082490967 0 -57.690597082490967 85.812806213194563 0 0 0 0 -41.3739037048108 -59.343351052653134 0 -59.343351052653134 84.6150107680769 0 0 0 0 -885.80339232720144 336.44645973598671 0 336.44645973598671 180.67915662725051 0 0 0 0 -1371.1597568166326 -177.06932584483019 0 -177.06932584483019 50.394814640700787 0 0 0 0 -1078.9722120570295 195.70514797871627 0 195.70514797871627 128.39296243896791 0 0 0 0 -39.796371029805641 -22.162931703241213 0 -22.162931703241213 1.9306071922512587 0 0 0 0 -116.73110441804295 -5.0595230192152734 0 -5.0595230192152734 129.13310382790951 0 0 0 0 -8.6184981482524616 11.255644350082775 0 11.255644350082775 40.048582195119671 0 0 0 0 -70.046914249163819 121.36586041628107 0 121.36586041628107 96.382477990602411 0 0 0 0 -62.481231399404351 -28.196243867609155 0 -28.196243867609155 118.29624019718096 0 0 0 0 -27.710662629025023 -13.350008562195612 0 -13.350008562195612 -4.9595191240192769 0 0 0 0 -55.690480669361477 -139.11782978148091 0 -139.11782978148091 479.89993287612378 0 0 0 0 55.936257543857209 301.55537232850747 0 301.55537232850747 296.44640628242587 0 0 0 0 -562.72365602490027 230.38350994199482 0 230.38350994199482 -39.115035753186476 0 0 0 0 -347.11319575036759 172.52805266589371 0 172.52805266589371 -23.723996233300568 0 0 0 0 -561.92590660772112 316.46815947343384 0 316.46815947343384 -216.21209038102461 0 0 0 0 -753.84515840889071 96.020550799804369 0 96.020550799804369 295.2263620419817 0 0 0 0 -924.94021681195591 403.75486174961043 0 403.75486174961043 298.24069002048634 0 0 0 0 -801.18638148919854 781.30362523923577 0 781.30362523923577 -672.55170233314675 0 0 0 0 -2083.7164123092516 1238.3514595222989 0 1238.3514595222989 -514.66880722499263 0 0 0 0 -10.654027210592119 -5.170986549701766 0 -5.170986549701766 -2.1644212721206522 0 0 0 0 -744.03892943699611 -1205.3172775512303 0 -1205.3172775512303 1287.7945571587152 0 0 0 0 776.4034395119379 -340.91029408192753 0 -340.91029408192753 -318.84473642261582 0 0 0 0 -681.0720732035843 -733.84250783611697 0 -733.84250783611697 -363.15239523879973 0 0 0 0 -767.29114675431629 -34.368957205510924 0 -34.368957205510924 68.845556322425182 0 0 0 0 -1811.7223054511414 -280.87880616390157 0 -280.87880616390157 126.78709955400336 0 0 0 0 -956.05861538108729 -14.515776594943418 0 -14.515776594943418 78.006073813185367 0 0 0 0 -308.30490851843206 -173.48493292106855 0 -173.48493292106855 -111.20259448218883 0 0 0 0 -210.31589051836636 8.7406178053179246 0 8.7406178053179246 -166.20956798890916 0 0 0 0 -686.78549095481867 -279.11540098328953 0 -279.11540098328953 -207.84736089961189 0 0 0 0 19.219872529734857 36.43744793848964 0 36.43744793848964 -162.51938517665781 0 0 0 0 -112.78021168379928 2.9865273291516132 0 2.9865273291516132 18.625918821084269 0 0 0 0 -36.233502730399778 126.96908002784357 0 126.96908002784357 -37.88317106485556 0 0 0 0 2.9506902206893115 6.8103739864812951 0 6.8103739864812951 22.335000657503766 0 0 0 0 3.7735567847994389 78.431549330023927 0 78.431549330023927 -84.788525715108335 0 0 0 0 -35.613748039351776 65.821890284037181 0 65.821890284037181 7.018977273787641 0 0 0 0 -205.43319989917654 -11.638106447759355 0 -11.638106447759355 -83.521650746608429 0 0 0 0 -19.037673587590689 46.226133979914266 0 46.226133979914266 -148.17198854391336 0 0 0 0 -74.512990935305425 107.13594141140743 0 107.13594141140743 -14.536905546873641 0 0 0 0 -268.55312359031814 -62.184291163476701 0 -62.184291163476701 44.817111771412556 0 0 0 0 -907.67765845984104 -116.31056322218751 0 -116.31056322218751 -13.212805636217468 0 0 0 0 -1365.1171399162995 -157.49182151248056 0 -157.49182151248056 -6.3195152840104356 0 0 0 0 -1363.5319702672132 -167.13354531021616 0 -167.13354531021616 11.771994697156742 0 0 0 0 -1376.1642011927115 -163.13550010119855 0 -163.13550010119855 16.999962447959888 0 0 0 0 2.4875408185793049 -0.44727800712439603 0 -0.44727800712439603 4.6714583480545908 0 0 0 0 -133.17192587812488 38.181272221747442 0 38.181272221747442 29.22147050017249 0 0 0 0 -729.95079823077685 40.313361564514707 0 40.313361564514707 -22.811811713741918 0 0 0 0 -840.62039159501728 -241.53905431375097 0 -241.53905431375097 208.96863773626319 0 0 0 0 -911.64162093538471 -106.78412323982093 0 -106.78412323982093 -13.562163776612124 0 0 0 0 -920.67859013498673 -112.18407676980542 0 -112.18407676980542 -10.198050353889812 0 0 0 0 -24.751588615683648 13.881214147816905 0 13.881214147816905 3.2802155155232526 0 0 0 0 -79.814342779114213 -77.878500772102768 0 -77.878500772102768 -67.578949895667847 0 0 0 0 -897.62582809754531 -199.52494733601998 0 -199.52494733601998 483.66642451848384 0 0 0 0 -324.87307010534278 -127.67858245220759 0 -127.67858245220759 181.18106932750948 0 0 0 0 -128.70723450999827 31.425110607455387 0 31.425110607455387 22.942527925001386 0 0 0 0 10.846778024802916 293.75418430017817 0 293.75418430017817 485.53412626125646 0 0 0 0 -41.847708651034516 38.531482043100766 0 38.531482043100766 2.2192947586275835 0 0 0 0 -304.0030283560809 -84.23385742688447 0 -84.23385742688447 -8.4467699631422875 0 0 0 0 -554.90179471629381 -234.07590494558008 0 -234.07590494558008 -94.85584412116259 0 0 0 0 -597.24676844952774 86.456899922907724 0 86.456899922907724 -190.23858671799189 0 0 0 0 -964.24426737021713 78.518319008229128 0 78.518319008229128 114.43653127975085 0 0 0 0 -565.14886594119162 -102.41052448793425 0 -102.41052448793425 320.47527240099384 0 0 0 0 -376.83424023738189 -22.285454087163998 0 -22.285454087163998 112.32123043870986 0 0 0 0 -130.47436880772054 32.766089048417285 0 32.766089048417285 34.58797172104957 0 0 0 0 -638.58447477653317 -329.76524678366241 0 -329.76524678366241 234.59627845742216 0 0 0 0 -72.136793626757779 -44.077483819965408 0 -44.077483819965408 46.107109270780271 0 0 0 0 -294.49202693696861 -50.057819061807095 0 -50.057819061807095 32.74049724598126 0 0 0 0 -55.514015152604543 -75.965876785586318 0 -75.965876785586318 35.401219256234981 0 0 0 0 -27.132238274425582 -15.856177763816667 0 -15.856177763816667 -1.0104271186549809 0 0 0 0 -928.64378910814048 -223.20747948304233 0 -223.20747948304233 670.18791939772382 0 0 0 0 -89.426500799710539 151.83772207381719 0 151.83772207381719 392.82288511515435 0 0 0 0 -107.76926793397632 -19.27687305372784 0 -19.27687305372784 16.32170557693399 0 0 0 0 535.1603019310387 -887.81638180233494 0 -887.81638180233494 -99.626610771527339 0 0 0 0 -1526.9014935142695 1824.4811820265095 0 1824.4811820265095 195.15064067891581 0 0 0 0 -14.607618140078557 57.795826263356503 0 57.795826263356503 -48.510701534181862 0 0 0 0 -732.3128653130625 -497.46364637326406 0 -497.46364637326406 -399.39543705869437 0 0 0 0 -381.18317060043046 -149.29048219195465 0 -149.29048219195465 184.47780398598843 0 0 0 0 -968.42487367393915 430.19515582994063 0 430.19515582994063 -217.95450362587871 0 0 0 0 -2672.6209267284703 1010.7041795690575 0 1010.7041795690575 1110.7042535893343 0 0 0 0 -565.47562333768656 -1597.2106656872693 0 -1597.2106656872693 -726.03648204634283 0 0 0 0 -4.5806877737416016 -0.44960618232764471 0 -0.44960618232764471 0.73963789509718936 0 0 0 0 -1199.8388195021907 1076.7839377991186 0 1076.7839377991186 -1023.9497392460544 0 0 0 0 218.78272672612366 25.040524290097892 0 25.040524290097892 -439.30303700991317 0 0 0 0 -11.720489560760456 3.2996741433948511 0 3.2996741433948511 -0.98703031577668199 0 0 0 0 -107.33866139084186 -18.416021269374305 0 -18.416021269374305 6.9362208969096812 0 0 0 0 -290.48784303393768 139.29532033110445 0 139.29532033110445 -963.48655556695667 0 0 0 0 -698.6345954915887 -36.986349924631213 0 -36.986349924631213 -380.12190056129475 0 0 0 0 -791.87251384656702 225.61517471748812 0 225.61517471748812 387.79289971798062 0 0 0 0 -399.7498758511374 428.22867268023725 0 428.22867268023725 -191.66097319596156 0 0 0 0 -141.86082224956772 104.29501076167583 0 104.29501076167583 -47.981568243421862 0 0 0 0 -144.90175541158533 23.082475965061349 0 23.082475965061349 -69.67003713106169 0 0 0 0 -198.92878964915872 75.710846028865134 0 75.710846028865134 -118.21981506995917 0 0 0 0 -208.87506056127313 50.069885964622358 0 50.069885964622358 6.3351384432023679 0 0 0 0 -92.481476068420932 18.921824697352704 0 18.921824697352704 8.3709057921897401 0 0 0 0 -98.005420243935077 65.553448819195978 0 65.553448819195978 -13.798532723856994 0 0 0 0 -99.651904122976703 32.396039136050405 0 32.396039136050405 25.758998932230313 0 0 0 0 -53.969134893225259 14.929039520241776 0 14.929039520241776 8.6344284774824942 0 0 0 0 -63.460878879981465 21.913524868314653 0 21.913524868314653 14.07324717639483 0 0 0 0 -80.260059939700284 -0.41701799279914553 0 -0.41701799279914553 15.553513771212721 0 0 0 0 -153.53746968950145 -47.556931816755423 0 -47.556931816755423 32.021275460765537 0 0 0 0 -116.50022426854412 -14.363037653384708 0 -14.363037653384708 40.004706969826657 0 0 0 0 -10.76945652027814 -1.7709742632902277 0 -1.7709742632902277 6.8226625621834422 0 0 0 0 -80.736019071003568 15.124654028280126 0 15.124654028280126 8.9988240152480188 0 0 0 0 -81.312535688943171 6.6174118810681648 0 6.6174118810681648 30.976650211022388 0 0 0 0 -55.759625902865082 9.6204570175987101 0 9.6204570175987101 13.578763970974251 0 0 0 0 -19.346008894302599 18.388375291494754 0 18.388375291494754 3.4741053214782696 0 0 0 0 -39.330443198497505 6.3206913534604041 0 6.3206913534604041 6.8327072565138423 0 0 0 0 -24.355149289573262 1.9237793949668287 0 1.9237793949668287 1.8674810234722341 0 0 0 0 -18.173405488916558 11.446360006378827 0 11.446360006378827 -1.197752070813725 0 0 0 0 -79.894126017181406 77.091362060531083 0 77.091362060531083 71.240868795407096 0 0 0 0 -2.8534598300532252 -3.9001343436454263 0 -3.9001343436454263 -1.4391993255284339 0 0 0 0 -311.9364327401272 -172.5215128825987 0 -172.5215128825987 170.95121744753214 0 0 0 0 -463.88580228821957 440.78376168122895 0 440.78376168122895 -514.2221104774826 0 0 0 0 -52.3886832416174 14.791202774657904 0 14.791202774657904 -98.616619173717027 0 0 0 0 -456.35147181341017 224.410583116015 0 224.410583116015 195.38696062505755 0 0 0 0 -95.20096413257869 34.771570645984994 0 34.771570645984994 -8.0516159805165017 0 0 0 0 -3.2163491112587508 213.42845253413702 0 213.42845253413702 -85.40011719520578 0 0 0 0 -161.01376306312159 5.0904490122289872 0 5.0904490122289872 -17.182185830473088 0 0 0 0 -132.33853048670426 43.77931184937944 0 43.77931184937944 -6.8269617540065184 0 0 0 0 -153.70157966358238 19.879101283631201 0 19.879101283631201 67.133550219064603 0 0 0 0 -246.34982687278534 390.42161242714974 0 390.42161242714974 1.9479504673281554 0 0 0 0 -99.124372039349169 10.277257537116522 0 10.277257537116522 1.6169933583816247 0 0 0 0 -11.913310276700969 8.3571655616150977 0 8.3571655616150977 -3.2044136570216031 0 0 0 0 -98.621762074169141 32.001865959421259 0 32.001865959421259 8.7675004819104281 0 0 0 0 -131.26885916158062 31.778883018190534 0 31.778883018190534 76.409296070061046 0 0 0 0 -95.455936940081301 15.371285072909814 0 15.371285072909814 102.54102874000273 0 0 0 0 -65.432301851410443 32.066272913020043 0 32.066272913020043 14.610822732288234 0 0 0 0 -74.475137449958396 -3.9306629515507669 0 -3.9306629515507669 11.597347194221506 0 0 0 0 -177.79424826259492 -31.534557706212581 0 -31.534557706212581 124.85361292575931 0 0 0 0 -97.3488207180053 -20.921413190937528 0 -20.921413190937528 -14.527581540476604 0 0 0 0 -32.572342012736044 -50.544470953116615 0 -50.544470953116615 -7.0221334743309853 0 0 0 0 -52.268105656066815 16.78310615945637 0 16.78310615945637 -5.0107798400944681 0 0 0 0 -27.115295103536482 -101.01430240933473 0 -101.01430240933473 -248.66139180687424 0 0 0 0 -125.43451485527112 9.0937609815882752 0 9.0937609815882752 174.86162709607527 0 0 0 0 -7.2242685031123983 34.905822035481833 0 34.905822035481833 6.6233075059335533 0 0 0 0 -7.6789764035393091 23.524456374361307 0 23.524456374361307 -23.038458533384073 0 0 0 0 -281.81680248955672 -578.81490648803992 0 -578.81490648803992 233.83198180645149 0 0 0 0 -79.438399606884417 34.037019280039928 0 34.037019280039928 -12.936248842554395 0 0 0 0 -69.933336673000582 33.517614736313881 0 33.517614736313881 -12.197708406746084 0 0 0 0 109.56122571524611 396.90900975923648 0 396.90900975923648 -489.97795746725933 0 0 0 0 -149.39551236616535 73.170174702205003 0 73.170174702205003 36.200367430744905 0 0 0 0 -202.84478059520393 -185.32107402669317 0 -185.32107402669317 259.73391645649281 0 0 0 0 -117.76363657187903 58.158402830176556 0 58.158402830176556 6.7202732690529672 0 0 0 0 -75.586902240025665 69.114483497134643 0 69.114483497134643 61.647381251137631 0 0 0 0 -79.893523608150645 150.94076217115071 0 150.94076217115071 -8.334766420406595 0 0 0 0 -242.96185849036874 204.4646803145406 0 204.4646803145406 -25.807842479938699 0 0 0 0 -45.50641179377817 117.65883697982827 0 117.65883697982827 -102.48776400317365 0 0 0 0 -51.77368030262005 96.509445643907384 0 96.509445643907384 -149.36734574338334 0 0 0 0 -148.27590784568019 139.30472060267675 0 139.30472060267675 -217.87799026113225 0 0 0 0 56.294894039548581 -238.32450197002663 0 -238.32450197002663 -898.39887460517275 0 0 0 0 21.023196109206765 -22.532062779804619 0 -22.532062779804619 -105.30397420850468 0 0 0 0 -34.105375752671762 -126.68434517802825 0 -126.68434517802825 -238.00617814811812 0 0 0 0 -92.275256250783968 -331.59395114113431 0 -331.59395114113431 -197.72431490384997 0 0 0 0 -171.28600603453788 -280.01197509029953 0 -280.01197509029953 14.946009865783708 0 0 0 0 -156.51805388102866 -211.55572650285922 0 -211.55572650285922 -21.12594379341499 0 0 0 0 -33.016268064652792 -0.1489364973018823 0 -0.1489364973018823 -0.039691388266448246 0 0 0 0 -115.90392651535672 -136.04122236999956 0 -136.04122236999956 9.3290793430487611 0 0 0 0 0.053734636481749476 -9.1341752424687002 0 -9.1341752424687002 -3.0709479058814395 0 0 0 0 -83.223065078771469 -84.023199464654681 0 -84.023199464654681 -135.73659538749598 0 0 0 0 -42.391584536841094 -2.3807308584746742 0 -2.3807308584746742 0.63547765678066748 0 0 0 0 50.199916414569088 -36.338335280439424 0 -36.338335280439424 11.690660702093737 0 0 0 0 -34.118216883660494 7.1071226157640641 0 7.1071226157640641 -0.018717759979285375 0 0 0 0 -269.96661247400471 -334.7047482937005 0 -334.7047482937005 45.219283448510396 0 0 0 0 -195.22432231566813 2.2630903259223487 0 2.2630903259223487 551.82364958898324 0 0 0 0 -132.65097699572675 -181.99352484109295 0 -181.99352484109295 -56.864447343117718 0 0 0 0 -93.965808343156482 -99.68170788541579 0 -99.68170788541579 -2.1182684390569193 0 0 0 0 -247.29441524902279 -355.29648093001288 0 -355.29648093001288 5.1847567615932917 0 0 0 0 -190.23638881425723 -394.15271027171457 0 -394.15271027171457 -231.01789546803593 0 0 0 0 -211.35279323501857 -250.95341197322978 0 -250.95341197322978 -181.52974973201799 0 0 0 0 -6.5787140984133776 -0.70235048655331767 0 -0.70235048655331767 -0.066918608091384613 0 0 0 0 -190.74843493843287 -687.37175148065216 0 -687.37175148065216 -1216.0861371585979 0 0 0 0 -843.2274900625896 -804.72899680146293 0 -804.72899680146293 -1228.4336665232736 0 0 0 0 -65.924054166296173 -265.87765533708716 0 -265.87765533708716 -566.8800443127152 0 0 0 0 -54.559414679653855 31.271357892734613 0 31.271357892734613 346.25809990320386 0 0 0 0 -17.370189292197502 -1.9802527555470526 0 -1.9802527555470526 1.7670876784605447 0 0 0 0 -22.430978320272516 -10.331228968807409 0 -10.331228968807409 210.48216316091384 0 0 0 0 -35.631792792397846 -7.0438620265422287 0 -7.0438620265422287 215.99318593369208 0 0 0 0 -23.490859198928774 -23.152347276103683 0 -23.152347276103683 237.35174562069733 0 0 0 0 -25.440681020066233 -3.3064821618185682 0 -3.3064821618185682 2.5015710816765129 0 0 0 0 -233.37792143909655 -129.4689479240842 0 -129.4689479240842 -77.822718732219073 0 0 0 0 -3.7527310754987475 1.864949569291678 0 1.864949569291678 2.8387678158108685 0 0 0 0 2.1247062690836174 -488.12191118722058 0 -488.12191118722058 158.90272536996599 0 0 0 0 -128.69591439870374 -291.54159579082807 0 -291.54159579082807 -60.272316519474771 0 0 0 0 -73.418981749657178 -241.39045132466345 0 -241.39045132466345 -75.822444595003617 0 0 0 0 -445.20956538659084 -29.080404057559463 0 -29.080404057559463 13.89938207688374 0 0 0 0 -992.66706671102293 38.906905122094031 0 38.906905122094031 46.724481748743983 0 0 0 0 -1080.7014980298482 -219.92243729422262 0 -219.92243729422262 214.60857579245567 0 0 0 0 -1186.393002679004 -291.96168717731416 0 -291.96168717731416 267.12325318737521 0 0 0 0 -213.5253960302407 -411.04472672235215 0 -411.04472672235215 16.777418014153227 0 0 0 0 -1373.6888705757774 -249.12099359221611 0 -249.12099359221611 191.70508442194478 0 0 0 0 -1094.3511404770361 -113.8170468656208 0 -113.8170468656208 188.23174238002139 0 0 0 0 -1721.1453637576869 252.17840539311146 0 252.17840539311146 80.907436161673104 0 0 0 0 -2087.04540706837 265.86098050894725 0 265.86098050894725 105.39389301266056 0 0 0 0 -1750.8638239342945 891.54268614840748 0 891.54268614840748 -1071.2726830891443 0 0 0 0 -1172.1636822744513 38.670933852219605 0 38.670933852219605 -241.75390251503632 0 0 0 0 -1166.0370729149727 78.439401866899061 0 78.439401866899061 -58.50067469946589 0 0 0 0 -1273.3344626645376 11.290429370015772 0 11.290429370015772 186.66490592813807 0 0 0 0 -1291.9132580523019 44.974973342821613 0 44.974973342821613 240.70981273860889 0 0 0 0 -1401.3002112801896 55.751916277276905 0 55.751916277276905 244.20023926691965 0 0 0 0 -1362.0129007848172 -176.08383706635868 0 -176.08383706635868 155.42832096764141 0 0 0 0 -770.24583559973587 189.65774702886881 0 189.65774702886881 30.876413061178027 0 0 0 0 -788.15462610431132 -64.87111946222285 0 -64.87111946222285 114.6482733620951 0 0 0 0 -1269.8870438091035 71.481655918964179 0 71.481655918964179 114.596678021142 0 0 0 0 -705.30781974964339 209.05151602723117 0 209.05151602723117 -21.292169469041255 0 0 0 0 356.03174612715156 -90.566636221763474 0 -90.566636221763474 -756.28584833030254 0 0 0 0 -13.399449934056463 -4.4771158586924393 0 -4.4771158586924393 -1.3065016579825786 0 0 0 0 -967.524263763622 -49.011631792891421 0 -49.011631792891421 2.1941674665540631 0 0 0 0 62.130083083817226 -38.119217601737546 0 -38.119217601737546 -135.23345942062406 0 0 0 0 -236.79898296063948 141.83568204275525 0 141.83568204275525 -57.45541441833484 0 0 0 0 -343.87020402309281 -4.1391299408969644 0 -4.1391299408969644 -13.964452346360758 0 0 0 0 -25.915260715592776 15.992671890588799 0 15.992671890588799 -4.6110149663265929 0 0 0 0 -277.96703148485904 126.53097871389582 0 126.53097871389582 -51.240319250814764 0 0 0 0 -687.17925474015692 -838.82985117590079 0 -838.82985117590079 72.299712998856194 0 0 0 0 -172.05906752922223 723.7541768291926 0 723.7541768291926 1298.6750564525883 0 0 0 0 -1148.0194012639395 -591.72042828490612 0 -591.72042828490612 863.05157746342866 0 0 0 0 -830.13889003665486 -73.995134124037577 0 -73.995134124037577 191.52554777040314 0 0 0 0 -2130.1499930804775 596.52413324643203 0 596.52413324643203 -1643.4151553754755 0 0 0 0 -529.91306622683464 -561.31207328005257 0 -561.31207328005257 -1230.8976377213312 0 0 0 0 846.17359598526673 1681.4987987859131 0 1681.4987987859131 -659.60350138896433 0 0 0 0 463.63733128922104 1342.8065739350095 0 1342.8065739350095 -687.56475769137387 0 0 0 0 558.06720820089322 1937.5176530239937 0 1937.5176530239937 -228.08884247692549 0 0 0 0 10.685336758950143 1549.3566933064976 0 1549.3566933064976 -230.45530978651595 0 0 0 0 -614.98354573850429 -286.21062332677889 0 -286.21062332677889 -4.4079183383892087 0 0 0 0 -1847.4947668919103 -542.88307532430326 0 -542.88307532430326 -56.936674905162135 0 0 0 0 -11.170380642163199 8.4115239184372577 0 8.4115239184372577 -5.2256761598570094 0 0 0 0 -1823.7293324579459 397.70007602414984 0 397.70007602414984 -86.422427260300537 0 0 0 0 -996.98097951472664 61.231045291869123 0 61.231045291869123 49.765250303125868 0 0 0 0 -484.91739209725347 -651.3066112447068 0 -651.3066112447068 -641.28499947603814 0 0 0 0 -1625.0140517499512 141.61058375469065 0 141.61058375469065 202.34112526552053 0 0 0 0 -687.4488635451271 321.26502659203106 0 321.26502659203106 -993.71374577906317 0 0 0 0 -507.6631688718353 -159.09627277334766 0 -159.09627277334766 -184.8502506883915 0 0 0 0 -383.22512269272602 92.887241035609577 0 92.887241035609577 -336.89135342953159 0 0 0 0 223.03995350813238 -64.591667726636956 0 -64.591667726636956 90.572178321818001 0 0 0 0 -561.65847461160229 4.8791766601276549 0 4.8791766601276549 184.74874900320216 0 0 0 0 -413.32846273525956 -89.961766287163528 0 -89.961766287163528 417.65700869185366 0 0 0 0 -522.21970536083973 -314.22558954636452 0 -314.22558954636452 179.59071714201045 0 0 0 0 -594.85526662391248 -214.85003188281667 0 -214.85003188281667 127.03527292879426 0 0 0 0 -399.65986870418783 -326.64365460313093 0 -326.64365460313093 187.81563918859183 0 0 0 0 -458.30206003458261 245.74352255366125 0 245.74352255366125 833.37407450503724 0 0 0 0 213.9625972235026 -2.4824629301392633 0 -2.4824629301392633 118.04858213817806 0 0 0 0 -290.84557346580914 33.557742542470351 0 33.557742542470351 1101.790802629459 0 0 0 0 453.22523045520393 -325.25436832218475 0 -325.25436832218475 552.84928909965492 0 0 0 0 720.47432761160599 691.52218790272673 0 691.52218790272673 444.0926542182176 0 0 0 0 142.33141101807814 448.41884121269709 0 448.41884121269709 492.95871291300597 0 0 0 0 8.5722919417061387 -1.0638823699256985 0 -1.0638823699256985 -4.4015051877046707 0 0 0 0 -966.17603183076926 -266.64794477548821 0 -266.64794477548821 -43.603284928957237 0 0 0 0 -994.96218779730361 17.132553880564046 0 17.132553880564046 216.60708432598767 0 0 0 0 -1210.4264239973384 -211.6308130789389 0 -211.6308130789389 167.21432600968183 0 0 0 0 -627.66539877896139 -229.99306717966101 0 -229.99306717966101 -51.738316810391552 0 0 0 0 -1117.5235714273667 -496.20141292900735 0 -496.20141292900735 -74.86875306530419 0 0 0 0 -81.320915053456702 -1.7115711378683045 0 -1.7115711378683045 -143.00012665727718 0 0 0 0 -10.238015191139002 23.517499846011763 0 23.517499846011763 -21.145835139371922 0 0 0 0 -8.5072605175300868 10.266977772172329 0 10.266977772172329 -9.6961080172923459 0 0 0 0 -2218.6925849769805 -571.21475159962029 0 -571.21475159962029 -275.09715396364845 0 0 0 0 807.62612836622247 1139.9209814021042 0 1139.9209814021042 -569.48425333416708 0 0 0 0 -559.91380509935152 -354.64923669271775 0 -354.64923669271775 -251.83322560270608 0 0 0 0 -1158.3347050248856 -659.48581090944208 0 -659.48581090944208 -366.18197131653687 0 0 0 0 -1881.0214914484404 -438.7820118256941 0 -438.7820118256941 110.88630970437589 0 0 0 0 -2487.0618106397478 431.70249743575914 0 431.70249743575914 -842.37707072607009 0 0 0 0 -1757.7994826521299 69.570167337631574 0 69.570167337631574 282.69683150582478 0 0 0 0 -1958.9745864892764 -294.29936675506906 0 -294.29936675506906 97.221274237319449 0 0 0 0 -1183.1352467275269 83.618011084848149 0 83.618011084848149 135.21456831876912 0 0 0 0 -1295.3122915644653 334.98852440418477 0 334.98852440418477 230.09016037562651 0 0 0 0 -1415.0836803957113 -153.88150897294236 0 -153.88150897294236 168.49213981790581 0 0 0 0 -1014.558800818942 250.30390656538975 0 250.30390656538975 -37.525164030103042 0 0 0 0 -723.698133726175 69.29143918949012 0 69.29143918949012 -167.05349777818765 0 0 0 0 -651.56929247362268 33.834405841834268 0 33.834405841834268 -95.789219798394242 0 0 0 0 -725.42677938530528 -42.944916499528517 0 -42.944916499528517 52.636990080231044 0 0 0 0 -902.53035878745573 83.995300874493751 0 83.995300874493751 185.77194131753095 0 0 0 0 -900.57227407422715 70.125215226401224 0 70.125215226401224 7.9723057688333938 0 0 0 0 -1.7990875405885163 23.026082845585165 0 23.026082845585165 86.518104523444435 0 0 0 0 -6.5872652172305663 24.691325138736445 0 24.691325138736445 -24.819774768970721 0 0 0 0 95.799772975103338 -17.259433362606003 0 -17.259433362606003 -58.910688628686785 0 0 0 0 206.69566886958182 30.233475742053855 0 30.233475742053855 -219.13344192246439 0 0 0 0 -1.6969616572902042 27.229502502095229 0 27.229502502095229 -30.138446057587295 0 0 0 0 -159.53830100164305 203.67514403487169 0 203.67514403487169 -174.88743213221449 0 0 0 0 -4.0628897630517145 -26.688796950827975 0 -26.688796950827975 -203.70700666814869 0 0 0 0 0.21657006540459989 0.020503110335113206 0 0.020503110335113206 -0.7175581110067446 0 0 0 0 -333.48205668758783 251.55030722041909 0 251.55030722041909 2.9169427391789213 0 0 0 0 -308.71972153537172 -248.13966301711662 0 -248.13966301711662 172.30582075924258 0 0 0 0 19.054284739083641 57.606357563013717 0 57.606357563013717 162.32394354403732 0 0 0 0 -21.688277415396897 9.5957767738270832 0 9.5957767738270832 110.57986878047177 0 0 0 0 -30.913704641506911 82.795545092689508 0 82.795545092689508 199.58166423362036 0 0 0 0 -26.65588938542794 21.410987464841924 0 21.410987464841924 163.82497743935801 0 0 0 0 -33.803960068779361 20.40105967400109 0 20.40105967400109 267.76981338603764 0 0 0 0 14.475867033831491 -61.756082302970754 0 -61.756082302970754 126.35085150763553 0 0 0 0 -161.05509357022584 295.9305534037976 0 295.9305534037976 -5.4004761701107782 0 0 0 0 -1159.6760054641561 574.87554031030049 0 574.87554031030049 271.14170677041375 0 0 0 0 -491.8568700895778 4.547828420042606 0 4.547828420042606 244.59234176919927 0 0 0 0 -236.26646837929229 197.55875023589442 0 197.55875023589442 9.8123722300529153 0 0 0 0 45.558458504737246 214.2282754037069 0 214.2282754037069 47.039345861328229 0 0 0 0 -1041.7760500168476 210.91276058705228 0 210.91276058705228 283.74887680511529 0 0 0 0 -411.64063582091603 609.70065153491578 0 609.70065153491578 -116.36401179958125 0 0 0 0 -427.40270201975432 -208.55485289609442 0 -208.55485289609442 376.25900978195659 0 0 0 0 -6.7536979964956174 1.8901599423005244 0 1.8901599423005244 -0.078625439008594533 0 0 0 0 -220.14837633865136 200.05067254419737 0 200.05067254419737 570.40914407704076 0 0 0 0 -12.847069258503112 2.8534056451990271 0 2.8534056451990271 0.31771250779907945 0 0 0 0 -24.963174597368607 143.63488693777344 0 143.63488693777344 355.29382221582182 0 0 0 0 2.5732288626174977 111.01550632061458 0 111.01550632061458 179.21684557175695 0 0 0 0 65.544688489368582 -34.50584634816596 0 -34.50584634816596 -1.6363541867294771 0 0 0 0 -460.03715558507065 -347.65264371900594 0 -347.65264371900594 258.33070651740127 0 0 0 0 -679.57700345934836 -201.33715847479561 0 -201.33715847479561 9.3550411074393196 0 0 0 0 -677.56401400769403 -160.3662066289528 0 -160.3662066289528 129.03937338109245 0 0 0 0 -155.14776440562264 268.613485974985 0 268.613485974985 60.032438009238149 0 0 0 0 -6.1765635465127318 0.72543854852377443 0 0.72543854852377443 0.24980583350112884 0 0 0 0 -518.94741530830697 -251.13589168237195 0 -251.13589168237195 108.26557267522094 0 0 0 0 -546.89764757976877 -310.29871537104873 0 -310.29871537104873 -3.1364349647137715 0 0 0 0 -620.22959164359941 -216.54380106967665 0 -216.54380106967665 -96.255510096601938 0 0 0 0 -134.02141535618375 -351.95968017891028 0 -351.95968017891028 -116.71977574574385 0 0 0 0 -810.0853673603076 -576.76912514560968 0 -576.76912514560968 276.95910859344531 0 0 0 0 -740.8380624070503 -261.27065434277392 0 -261.27065434277392 143.06067217485952 0 0 0 0 -1077.7115798317186 -189.86500798805719 0 -189.86500798805719 136.34931642055335 0 0 0 0 -8.7444634004038893 -3.1419285459535118 0 -3.1419285459535118 0.057272519203440453 0 0 0 0 142.7045756096777 -887.3319534812349 0 -887.3319534812349 361.04842592749355 0 0 0 0 -1340.2657200331864 -153.72161415169234 0 -153.72161415169234 258.01852997059359 0 0 0 0 -1259.8168305416716 682.13994076082827 0 682.13994076082827 -221.17602788991917 0 0 0 0 -711.76782403911557 -221.64278746970649 0 -221.64278746970649 301.96271313557463 0 0 0 0 -68.153353355079503 24.338506136872695 0 24.338506136872695 394.73766547178548 0 0 0 0 -33.539668448893281 -261.50489955608782 0 -261.50489955608782 603.83018537001772 0 0 0 0 -20.620200050862472 -8.1307103855490581 0 -8.1307103855490581 -0.32308812166459333 0 0 0 0 -92.95633810543859 78.53147482433269 0 78.53147482433269 212.76237548033896 0 0 0 0 -169.49473354438123 7.641611192255823 0 7.641611192255823 320.7106051644987 0 0 0 0 -53.292211237679908 -83.205205010278178 0 -83.205205010278178 352.96649463291578 0 0 0 0 -26.927710663958145 -10.702684638211649 0 -10.702684638211649 -0.3151385223876062 0 0 0 0 160.13384539001981 -135.78657821500656 0 -135.78657821500656 70.949625496648878 0 0 0 0 -47.847146957174118 -221.2875389277433 0 -221.2875389277433 749.74944457185529 0 0 0 0 -0.86157424821838546 -6.3171250778558061 0 -6.3171250778558061 0.69729861540160343 0 0 0 0 178.76979166770116 -322.39597752550117 0 -322.39597752550117 -85.749809115033713 0 0 0 0 -493.5364709802916 222.66090206558147 0 222.66090206558147 45.575464262577952 0 0 0 0 -482.24374883096243 -45.002001738792387 0 -45.002001738792387 99.47688823774115 0 0 0 0 -227.93435771417148 214.03251823530627 0 214.03251823530627 361.45474063004076 0 0 0 0 -448.35582662007209 6.574083021970182 0 6.574083021970182 243.15760751647758 0 0 0 0 -448.94388051290207 114.34481844772745 0 114.34481844772745 124.7292102083029 0 0 0 0 -289.59208457542445 96.638204426029688 0 96.638204426029688 120.79862159034383 0 0 0 0 -104.44096233005166 -276.87660789517577 0 -276.87660789517577 409.76518400915319 0 0 0 0 -473.32781831013176 84.210682178053958 0 84.210682178053958 154.2209078490323 0 0 0 0 -524.25514110906761 179.29024173525909 0 179.29024173525909 121.89560385693949 0 0 0 0 -617.91500357772884 122.46500298189494 0 122.46500298189494 211.50330617905092 0 0 0 0 -566.13100903277518 148.12639208808105 0 148.12639208808105 150.20075913257824 0 0 0 0 -730.14260352464748 217.08503145883788 0 217.08503145883788 192.42549812527341 0 0 0 0 -807.26737464360315 78.750467991053711 0 78.750467991053711 230.73462506069154 0 0 0 0 -593.62945928766896 64.35409112428988 0 64.35409112428988 203.20770860283119 0 0 0 0 -644.3319646063087 133.46282380759294 0 133.46282380759294 114.74791281424768 0 0 0 0 -643.46081518209758 137.49044277958728 0 137.49044277958728 104.03447564381167 0 0 0 0 -611.62795808434475 153.56897139767716 0 153.56897139767716 306.52406285329653 0 0 0 0 -637.16166057551163 186.75825907094804 0 186.75825907094804 191.19051055902037 0 0 0 0 -585.60531317679488 163.52114328029347 0 163.52114328029347 91.154396456880932 0 0 0 0 -625.20822179368497 138.0894120360972 0 138.0894120360972 77.607033746504385 0 0 0 0 -603.10033172678959 196.32003921367323 0 196.32003921367323 -30.095682508854225 0 0 0 0 -607.04009420339844 107.40110114523486 0 107.40110114523486 -19.978169734727999 0 0 0 0 -613.1532862004309 179.25235185415636 0 179.25235185415636 40.060631874803221 0 0 0 0 -556.21101650644914 162.12263724738386 0 162.12263724738386 -181.27253581443802 0 0 0 0 -593.34841180424883 34.09681645505043 0 34.09681645505043 -194.96266688549258 0 0 0 0 -592.07586805127858 127.58590627851544 0 127.58590627851544 54.693040709433262 0 0 0 0 -593.68015902381171 78.890316154755993 0 78.890316154755993 51.107131464454142 0 0 0 0 -596.33900061416716 131.25822900138701 0 131.25822900138701 -23.742463628906989 0 0 0 0 -564.57490071370194 65.082355143993482 0 65.082355143993482 -74.58353810553308 0 0 0 0 -592.09633235468664 98.611767371303358 0 98.611767371303358 -103.31541972802734 0 0 0 0 -528.72488828195947 86.076319455918565 0 86.076319455918565 -119.37732976843836 0 0 0 0 -552.75697734894538 107.4492027794513 0 107.4492027794513 -184.63826658624748 0 0 0 0 -573.77224438862868 96.657350465960917 0 96.657350465960917 -117.53653193688979 0 0 0 0 -702.92482097910306 8.3519824878003419 0 8.3519824878003419 -102.24800030800907 0 0 0 0 -559.50451573720648 87.528886422459436 0 87.528886422459436 -131.99789250847607 0 0 0 0 -690.49147274985262 -190.32202457710719 0 -190.32202457710719 -203.01373669088935 0 0 0 0 -564.55332020117112 -20.772730269007297 0 -20.772730269007297 -222.41182784671764 0 0 0 0 -653.29049937028867 121.2597131103521 0 121.2597131103521 154.49868136069199 0 0 0 0 -495.47869100212483 63.205129815953114 0 63.205129815953114 -267.01495896350207 0 0 0 0 -634.6873336645167 -122.64403249700354 0 -122.64403249700354 -368.17679864925594 0 0 0 0 -634.02626095756932 -193.84938672525277 0 -193.84938672525277 -314.54707984663764 0 0 0 0 -614.05393238918805 -369.82408188709269 0 -369.82408188709269 -620.69964163472468 0 0 0 0 -520.825878400938 -69.474354325957961 0 -69.474354325957961 -763.37660182279433 0 0 0 0 -634.51880137059925 -272.86142976984956 0 -272.86142976984956 -427.84579148486227 0 0 0 0 -691.40628777823986 -396.57672233703579 0 -396.57672233703579 -411.08615097006441 0 0 0 0 -10.950616691907818 -2.2583748915016457 0 -2.2583748915016457 -1.0876593320610883 0 0 0 0 -386.72453574029714 150.82548088163458 0 150.82548088163458 -131.80752812231913 0 0 0 0 -658.94806534366467 -359.03543998466967 0 -359.03543998466967 -84.34181602870558 0 0 0 0 -124.35590051874533 -543.79699307187275 0 -543.79699307187275 -562.67088081861675 0 0 0 0 -761.2248127766278 207.57607222648812 0 207.57607222648812 -54.445210915288044 0 0 0 0 -575.64893591327473 297.00718841300932 0 297.00718841300932 -420.30232122951475 0 0 0 0 -586.24476133473752 85.647665554835726 0 85.647665554835726 -80.319925828334817 0 0 0 0 -26.172458968205319 -31.770322610823769 0 -31.770322610823769 54.304184817263376 0 0 0 0 -154.99461599852657 -256.76388468717005 0 -256.76388468717005 -113.77928608873572 0 0 0 0 -0.58413330263462626 -2.0033435454204493 0 -2.0033435454204493 -1.3841511327872986 0 0 0 0 -683.9178316582038 106.49149021027597 0 106.49149021027597 183.13446734816898 0 0 0 0 -593.07018336778856 71.801927865074504 0 71.801927865074504 -53.004688662685112 0 0 0 0 -657.3903555534489 -165.87451495732694 0 -165.87451495732694 27.100998612587773 0 0 0 0 -675.31762313710954 -105.11699583332786 0 -105.11699583332786 148.49755635417205 0 0 0 0 -632.82943224808696 -49.612379104702086 0 -49.612379104702086 108.24677195696131 0 0 0 0 -669.69576537838202 77.583955235010166 0 77.583955235010166 100.37820995033508 0 0 0 0 -67.896922049490968 -19.889857004167425 0 -19.889857004167425 43.509946258790478 0 0 0 0 -85.58668117932757 -91.986582955840504 0 -91.986582955840504 93.591485061040657 0 0 0 0 36.723393049775041 -65.297067095769762 0 -65.297067095769762 22.052350992506035 0 0 0 0 9.3274417607572957 -16.554572074395892 0 -16.554572074395892 4.5476538063320859 0 0 0 0 -60.239679616679794 -45.864776382620008 0 -45.864776382620008 29.558117158971957 0 0 0 0 172.7194452032478 -199.40446195047343 0 -199.40446195047343 -89.075566615571006 0 0 0 0 -105.29744109508465 -24.062090070523823 0 -24.062090070523823 23.817520159757578 0 0 0 0 -140.04782751366292 -21.995620678809473 0 -21.995620678809473 23.694801599156563 0 0 0 0 -520.94892258392247 347.67363230651608 0 347.67363230651608 -24.418382055984694 0 0 0 0 -420.6667517588553 146.51275598178836 0 146.51275598178836 -36.879397878533609 0 0 0 0 -575.78647117622745 156.26203099893632 0 156.26203099893632 -36.937612223977339 0 0 0 0 17.990841229124158 -10.550659708019854 0 -10.550659708019854 1.0094728232631596 0 0 0 0 -609.4411303552655 122.57591376203891 0 122.57591376203891 -63.51411518994064 0 0 0 0 -336.48223547756334 110.64772654714943 0 110.64772654714943 -26.23817028141093 0 0 0 0 -141.79792050155083 -16.851685061822536 0 -16.851685061822536 10.622908373701648 0 0 0 0 -24.67766480418716 -39.115398745768118 0 -39.115398745768118 27.000150400717466 0 0 0 0 -45.934988235283313 -7.0444842444919686 0 -7.0444842444919686 15.896840946210903 0 0 0 0 -284.37946419774744 31.442257412113122 0 31.442257412113122 21.023876390188889 0 0 0 0 -27.503799296595446 -39.384176088582322 0 -39.384176088582322 15.564648945355033 0 0 0 0 -26.892730279625209 -20.332453183253371 0 -20.332453183253371 0.5433242393597979 0 0 0 0 -237.57807183152181 8.9203209267629973 0 8.9203209267629973 -4.3935732621121133 0 0 0 0 -63.265926173590849 -21.35551881727902 0 -21.35551881727902 25.880686242715143 0 0 0 0 -26.742038157099159 -17.668047356617535 0 -17.668047356617535 2.0360946248147229 0 0 0 0 -71.362224809532847 0.47299314487162647 0 0.47299314487162647 -11.826623902508238 0 0 0 0 -114.90162417848956 24.781554755169964 0 24.781554755169964 -28.570621715265588 0 0 0 0 -61.374043011681358 -38.057385459239704 0 -38.057385459239704 19.693898551777416 0 0 0 0 -261.08249101271667 -12.253650867737178 0 -12.253650867737178 -0.20319923967690556 0 0 0 0 -449.25912949962947 56.04611924877463 0 56.04611924877463 87.998761906346772 0 0 0 0 -354.84585611993185 -1.8875952554444666 0 -1.8875952554444666 29.518616722147272 0 0 0 0 -578.51603829291048 68.113429418666783 0 68.113429418666783 105.2120859226834 0 0 0 0 -409.11181372967951 -56.445995080900502 0 -56.445995080900502 148.11809658629863 0 0 0 0 -642.85792296422505 -67.840829737912372 0 -67.840829737912372 210.76575138398948 0 0 0 0 -523.44910205086944 7.3348078733943112 0 7.3348078733943112 167.45967996158265 0 0 0 0 -423.17800487207376 -164.78269019314621 0 -164.78269019314621 236.69646278649634 0 0 0 0 -157.0749136698264 -41.602850378959374 0 -41.602850378959374 132.76025754836655 0 0 0 0 -24.676279547039844 -28.694551140735918 0 -28.694551140735918 -11.132477676914725 0 0 0 0 -176.66879963122301 0.30991455818366376 0 0.30991455818366376 -37.438671821211756 0 0 0 0 137.34191125291471 -198.58570492271051 0 -198.58570492271051 115.57673587756653 0 0 0 0 -19.435753184626133 -3.1523021610161273 0 -3.1523021610161273 0.42585054493571306 0 0 0 0 0.10861499426869159 -125.36616499258889 0 -125.36616499258889 64.297944522026228 0 0 0 0 766.93014157982543 -147.43804383107818 0 -147.43804383107818 93.826482974901865 0 0 0 0 -175.7956469658875 83.866121369388566 0 83.866121369388566 -14.390562743064947 0 0 0 0 -147.78892259955336 -60.632960752681086 0 -60.632960752681086 73.435393963152904 0 0 0 0 -34.290823436700251 9.6889281249395651 0 9.6889281249395651 -43.306888752901713 0 0 0 0 -353.36330521911623 96.707716324326611 0 96.707716324326611 -191.05608425977334 0 0 0 0 -24.222395382457762 -118.36574989196174 0 -118.36574989196174 -36.173155291620787 0 0 0 0 -181.43879455928982 -105.81867222396431 0 -105.81867222396431 163.35529451544426 0 0 0 0 33.791894962188962 326.30091811767636 0 326.30091811767636 203.70284843756872 0 0 0 0 -655.97878600795229 110.32743955338128 0 110.32743955338128 248.01538849619556 0 0 0 0 -647.83234398950299 51.565337380562596 0 51.565337380562596 200.62495241868419 0 0 0 0 -1144.9306207217014 -76.744105791192396 0 -76.744105791192396 416.47144089686435 0 0 0 0 -1099.1494807205163 512.57192627201175 0 512.57192627201175 346.823677145293 0 0 0 0 -2973.595388304333 1553.4094294124841 0 1553.4094294124841 1709.6959280657989 0 0 0 0 802.05781604985532 1081.2317027024885 0 1081.2317027024885 314.71099443952755 0 0 0 0 -2634.2794323114504 -1406.8974840377618 0 -1406.8974840377618 -362.71864471069284 0 0 0 0 -1396.7609052726984 -303.83864075113206 0 -303.83864075113206 598.12874703865327 0 0 0 0 -171.92762108050132 -66.646688155208381 0 -66.646688155208381 72.782681492561636 0 0 0 0 -2515.7369583356194 -2838.8089698712824 0 -2838.8089698712824 -1093.505228168623 0 0 0 0 -21.483861329675904 -3.8286426300609335 0 -3.8286426300609335 -1.550638942228695 0 0 0 0 -487.88644079287587 -7.0800423952532583 0 -7.0800423952532583 66.793388175174186 0 0 0 0 -1089.7991829149105 -1046.5279856575103 0 -1046.5279856575103 -1005.400157220475 0 0 0 0 1150.9649447835691 1420.9424223430024 0 1420.9424223430024 -2493.2202317034426 0 0 0 0 -473.44273467481526 54.263834494058756 0 54.263834494058756 -32.639726260113093 0 0 0 0 -225.8994834685509 14.75672896460992 0 14.75672896460992 -49.213486530078853 0 0 0 0 -21.890279376469568 -24.668460163225461 0 -24.668460163225461 -7.5767824116935678 0 0 0 0 -2.5424083936383246 0.086360824923300328 0 0.086360824923300328 -23.347904257655671 0 0 0 0 335.12440114296498 -224.02323127664232 0 -224.02323127664232 47.507175081023888 0 0 0 0 -567.53353091979352 70.01914087379555 0 70.01914087379555 53.829689058848089 0 0 0 0 -580.28367048973246 145.38283505789661 0 145.38283505789661 -107.95483613805482 0 0 0 0 -543.63153426029839 36.108509344014237 0 36.108509344014237 26.79774357077622 0 0 0 0 -229.44847051559736 -65.12944284324476 0 -65.12944284324476 -0.28077806988039811 0 0 0 0 -622.73573945636235 -109.39722789167718 0 -109.39722789167718 55.674523458459589 0 0 0 0 -534.21254424133622 57.251956365542355 0 57.251956365542355 72.19573500073966 0 0 0 0 -705.94242892459738 43.917515090604866 0 43.917515090604866 175.33469765004247 0 0 0 0 -574.03138759705928 -280.4138278257285 0 -280.4138278257285 82.882611165870912 0 0 0 0 -224.14881815225431 -100.28243107965136 0 -100.28243107965136 -38.761944043508265 0 0 0 0 -216.24837790905394 -147.42594859461951 0 -147.42594859461951 127.4842214658504 0 0 0 0 -45.704488711451972 -326.9287666878181 0 -326.9287666878181 83.026127592414923 0 0 0 0 -264.6124635950664 -72.605709944972659 0 -72.605709944972659 132.75680023177392 0 0 0 0 335.82103159254967 -203.22300865739729 0 -203.22300865739729 -123.34722597629298 0 0 0 0 -324.69062655055154 -164.50256004445851 0 -164.50256004445851 13.940534186032892 0 0 0 0 -365.25022685565352 -5.0959492690808474 0 -5.0959492690808474 -368.97437703972969 0 0 0 0 -757.4130866171912 -427.09675769924343 0 -427.09675769924343 -134.01097975651101 0 0 0 0 -876.02982899886263 69.518205906326557 0 69.518205906326557 -13.209091522125163 0 0 0 0 -505.29116708778429 32.615116699558712 0 32.615116699558712 -10.182191579033542 0 0 0 0 0.14639980080152348 -0.57832496966615388 0 -0.57832496966615388 1.8325416084117911 0 0 0 0 -73.94265917113637 -2.1320356462492782 0 -2.1320356462492782 -69.221079998558707 0 0 0 0 -110.4759899029342 -57.633152403490385 0 -57.633152403490385 -126.55754221848065 0 0 0 0 -309.87525318761726 -10.705648632639054 0 -10.705648632639054 52.413151601578647 0 0 0 0 2.1037124550445769 -1.3801961391213964 0 -1.3801961391213964 5.3863788608371905 0 0 0 0 -64.882734130550148 23.010398254424217 0 23.010398254424217 -32.778781630805952 0 0 0 0 -428.48169237472894 -233.2454449741972 0 -233.2454449741972 -50.818687006689288 0 0 0 0 -340.55236038892735 -99.836247246075345 0 -99.836247246075345 -3.8067476214055205 0 0 0 0 -332.9523646074299 -26.161373107241161 0 -26.161373107241161 46.29091966131864 0 0 0 0 -908.32973639323063 173.26628525230444 0 173.26628525230444 -167.4277664233523 0 0 0 0 -794.52499884091321 568.26987510333493 0 568.26987510333493 181.31946934461848 0 0 0 0 -954.39397410146876 232.89351112270106 0 232.89351112270106 -430.29527353308367 0 0 0 0 -858.45334216058563 -7.6148485953435738 0 -7.6148485953435738 20.182987951804535 0 0 0 0 -981.85816897650875 186.01624051379622 0 186.01624051379622 -25.011139888383696 0 0 0 0 -740.59121280247882 209.50357416642191 0 209.50357416642191 -108.8232242563281 0 0 0 0 -13.918256143311055 -12.159572811345845 0 -12.159572811345845 -14.889839188406008 0 0 0 0 529.5279068726278 -232.85835301910492 0 -232.85835301910492 59.058117273840253 0 0 0 0 -11.53745740872683 -2.5409571468292178 0 -2.5409571468292178 1.4135730741307064 0 0 0 0 -205.0442186746624 -110.5129158878317 0 -110.5129158878317 172.99049605963228 0 0 0 0 476.83914795839797 -157.38079633856103 0 -157.38079633856103 51.584141865983838 0 0 0 0 463.90269088636728 -170.3001339389275 0 -170.3001339389275 68.259406098274667 0 0 0 0 403.09626379704855 -73.66074895446036 0 -73.66074895446036 -40.684313668014511 0 0 0 0 373.88974064646857 -250.61807735928232 0 -250.61807735928232 148.78370800073753 0 0 0 0 230.10331534340048 -89.352957953205078 0 -89.352957953205078 106.12767683486163 0 0 0 0 217.77847309725018 -108.55884482147576 0 -108.55884482147576 81.689436458160344 0 0 0 0 31.006803730938536 -22.204044110294944 0 -22.204044110294944 44.544861408080578 0 0 0 0 318.09112261216819 -144.65163301147004 0 -144.65163301147004 60.256354311175528 0 0 0 0 201.87235214264237 60.372817809688058 0 60.372817809688058 -3.0452528392693239 0 0 0 0 196.40961949312339 -208.97742602698963 0 -208.97742602698963 25.735177840426331 0 0 0 0 259.22170863371144 -81.919649487105744 0 -81.919649487105744 -5.3070545071568631 0 0 0 0 -166.9315445645309 53.477820622249283 0 53.477820622249283 -365.64543944748584 0 0 0 0 -2043.4430722736204 734.35464287963987 0 734.35464287963987 277.33971536680656 0 0 0 0 493.472731515335 -376.40885223473424 0 -376.40885223473424 -61.659412574175803 0 0 0 0 171.24129017534267 -171.83560699924783 0 -171.83560699924783 -11.496278080589036 0 0 0 0 -5.0845748972806657 -5.3458362904993457 0 -5.3458362904993457 -3.5945248253303426 0 0 0 0 453.43152424557456 -149.11906716177145 0 -149.11906716177145 31.66310186805822 0 0 0 0 554.5238075710206 -80.414970976011318 0 -80.414970976011318 -19.19983762308766 0 0 0 0 -988.7010486289546 504.90763284552668 0 504.90763284552668 -756.50722062279601 0 0 0 0 422.16350102310537 29.328719042830926 0 29.328719042830926 42.644955647352617 0 0 0 0 -1080.259112957352 430.89391388554213 0 430.89391388554213 -11.686917847433506 0 0 0 0 -895.50352903701332 431.2476049178058 0 431.2476049178058 -381.38618749398665 0 0 0 0 -963.63324024538088 -558.11619143854114 0 -558.11619143854114 217.01110859029723 0 0 0 0 -2112.4862880019609 -597.45951219586095 0 -597.45951219586095 932.50059911557946 0 0 0 0 -2267.6378404282395 36.428950167841322 0 36.428950167841322 748.5958664423415 0 0 0 0 -253.80805426774532 8.0349229216262756 0 8.0349229216262756 -34.333203873585262 0 0 0 0 -879.5747096416369 574.93515762275092 0 574.93515762275092 -373.11884268100675 0 0 0 0 -117.99808840505003 -188.14729881734729 0 -188.14729881734729 4.398405004205415 0 0 0 0 -397.85922590842029 -485.67546410896648 0 -485.67546410896648 41.391338593573892 0 0 0 0 234.72819623030171 -484.12759203346286 0 -484.12759203346286 22.819580545765348 0 0 0 0 127.7880808021593 -210.71909307510487 0 -210.71909307510487 -46.289827113005231 0 0 0 0 64.417903108968801 -102.2802856684666 0 -102.2802856684666 -1.3261143776944664 0 0 0 0 116.57428731182198 -44.890844521727104 0 -44.890844521727104 -19.768726819293988 0 0 0 0 -51.220443625852475 -50.798159162505243 0 -50.798159162505243 -14.553466962584935 0 0 0 0 -49.834599557138631 -154.45399076390549 0 -154.45399076390549 21.037496674902286 0 0 0 0 -45.054940381209448 -38.404784905199904 0 -38.404784905199904 1.8756062860984457 0 0 0 0 -263.94599940738902 45.432120914385905 0 45.432120914385905 23.40784603638167 0 0 0 0 -325.17631973707296 -79.109884604545186 0 -79.109884604545186 69.412674864938708 0 0 0 0 -241.24529194457637 -152.90895838963888 0 -152.90895838963888 -79.935226631168916 0 0 0 0 -144.98544390917596 6.5801137514172297 0 6.5801137514172297 21.599907054482173 0 0 0 0 -208.04480623383608 -87.456144748434326 0 -87.456144748434326 -26.118812972500564 0 0 0 0 -81.319155854172124 -11.944422778827713 0 -11.944422778827713 2.0620597869048396 0 0 0 0 -20.839943249406222 -2.5016337403812168 0 -2.5016337403812168 9.371098008928012 0 0 0 0 -88.634441081295336 9.6934394217842055 0 9.6934394217842055 -1.0779950095175082 0 0 0 0 -136.58856008085547 6.9723864853267514 0 6.9723864853267514 61.899427059182926 0 0 0 0 -47.887482550028153 -44.585399904402948 0 -44.585399904402948 -50.967946000551819 0 0 0 0 -104.21784558572926 73.155921442199201 0 73.155921442199201 -66.019359554875336 0 0 0 0 -117.74792635136055 32.580870603579342 0 32.580870603579342 -22.546277616900625 0 0 0 0 -21.052932569131372 97.388755481872977 0 97.388755481872977 17.616893833308495 0 0 0 0 -237.58127904553112 34.643302500181562 0 34.643302500181562 66.342195072181312 0 0 0 0 -164.28486602599423 -55.096220282386298 0 -55.096220282386298 97.443010883040188 0 0 0 0 -26.224546838377066 -1.8886420179137744 0 -1.8886420179137744 4.7634514812625497 0 0 0 0 -28.180664637147856 203.80131473931988 0 203.80131473931988 165.59197285308596 0 0 0 0 -257.35803648221963 -270.50948491389363 0 -270.50948491389363 614.25365224521011 0 0 0 0 0.38122300906330508 -1.5807105954495668 0 -1.5807105954495668 2.0654956887284825 0 0 0 0 -64.613276524310095 -78.486942887850205 0 -78.486942887850205 257.56423686448761 0 0 0 0 -85.467423646983661 27.371795709244907 0 27.371795709244907 24.878958105867696 0 0 0 0 -103.62285618017631 0.92720241028291639 0 0.92720241028291639 -28.322179461158157 0 0 0 0 -109.94078308583812 -20.685894992770955 0 -20.685894992770955 54.850104299712257 0 0 0 0 -249.89689157184773 -9.383519819828507 0 -9.383519819828507 67.923805787408128 0 0 0 0 -101.4154603420408 -11.219041194589172 0 -11.219041194589172 6.3683629033546536 0 0 0 0 -94.208931823495774 -10.035954184267911 0 -10.035954184267911 2.7373859831271332 0 0 0 0 -75.55021665507229 -45.362090740537042 0 -45.362090740537042 -50.636313564188185 0 0 0 0 -132.02409382094373 -64.341903117371658 0 -64.341903117371658 62.382592993859362 0 0 0 0 -185.08696444525776 -9.2327944328176272 0 -9.2327944328176272 210.44416803791501 0 0 0 0 -164.07640814869046 -23.304361649997418 0 -23.304361649997418 201.18650460249137 0 0 0 0 -186.24362837414628 -165.9797793719888 0 -165.9797793719888 574.42854566293317 0 0 0 0 -102.61216765020981 -74.959845313331698 0 -74.959845313331698 168.39646447539417 0 0 0 0 -219.45596022162863 -308.73277635698105 0 -308.73277635698105 778.97172613807516 0 0 0 0 -277.67512152753625 -194.34401154110628 0 -194.34401154110628 566.34900886896867 0 0 0 0 -276.62600290295086 -179.5567767249654 0 -179.5567767249654 733.26136953809782 0 0 0 0 -204.96797807705298 -179.00202756674844 0 -179.00202756674844 681.9305106549441 0 0 0 0 -212.91027479049626 -5.536093384659921 0 -5.536093384659921 678.62474674761961 0 0 0 0 -187.88503053030945 -196.01198415955878 0 -196.01198415955878 660.32763818590047 0 0 0 0 -34.132672425464989 -77.11105242982967 0 -77.11105242982967 741.5303260262308 0 0 0 0 -225.71982031371044 -84.131893405948858 0 -84.131893405948858 908.84282884084678 0 0 0 0 -134.20728247399529 -11.247181104785341 0 -11.247181104785341 794.14612897939924 0 0 0 0 -35.658390963933925 -192.81230212593209 0 -192.81230212593209 872.06100317418895 0 0 0 0 -12.461124510962691 -282.99305983384147 0 -282.99305983384147 766.15979336002056 0 0 0 0 -97.118092456646991 -134.67168901215518 0 -134.67168901215518 818.04031728106111 0 0 0 0 -124.57195706714265 -187.82161251869093 0 -187.82161251869093 722.70985454926529 0 0 0 0 -217.89025247305108 -152.97517402825542 0 -152.97517402825542 722.05956887000139 0 0 0 0 -204.56808852547692 -148.32740282050554 0 -148.32740282050554 612.0196414401662 0 0 0 0 -133.31759443130431 -229.24213192145135 0 -229.24213192145135 703.89201499188107 0 0 0 0 -105.11054877748393 -172.17963892616035 0 -172.17963892616035 635.97407219377965 0 0 0 0 -7.3106596827710746 -278.75411004592024 0 -278.75411004592024 553.48276812387462 0 0 0 0 -23.978982801130769 -214.46890617874794 0 -214.46890617874794 392.75446805734009 0 0 0 0 -179.71669604496128 -213.36116915655384 0 -213.36116915655384 605.53564066715353 0 0 0 0 -242.75366177040996 -117.91068449754584 0 -117.91068449754584 488.48329164424285 0 0 0 0 6.9064927659707536 0.82285474681941295 0 0.82285474681941295 4.0767311513250899 0 0 0 0 128.84872247918975 112.64048180201644 0 112.64048180201644 -213.23911382611186 0 0 0 0 68.598877572905621 -257.01108141985901 0 -257.01108141985901 669.540101274888 0 0 0 0 56.845590425637056 -323.0710443073138 0 -323.0710443073138 681.11271746584407 0 0 0 0 61.929719839416975 -225.73834340128596 0 -225.73834340128596 422.33950833066956 0 0 0 0 -63.555347909238591 -16.343220829015578 0 -16.343220829015578 3.1930379743789246 0 0 0 0 -409.85500273854268 271.05065328208684 0 271.05065328208684 527.5972734617701 0 0 0 0 462.25014697191364 279.57691295816164 0 279.57691295816164 98.502994434930031 0 0 0 0 179.09948210816947 -191.57412711174891 0 -191.57412711174891 215.68743505883612 0 0 0 0 705.1308179981479 -264.2933964504864 0 -264.2933964504864 14.797974518978322 0 0 0 0 -494.44780948308471 284.94233078164319 0 284.94233078164319 257.55499230468502 0 0 0 0 -355.52305576737854 444.52619522999379 0 444.52619522999379 -433.97851131133041 0 0 0 0 -49.131713416854026 -16.110142915081802 0 -16.110142915081802 1.1395830007780674 0 0 0 0 -189.55933016268682 27.767280401652101 0 27.767280401652101 251.57870456363247 0 0 0 0 155.38593922301152 -710.23039555065589 0 -710.23039555065589 819.33675403610846 0 0 0 0 -63.069102405992453 -143.09024997134225 0 -143.09024997134225 292.82371202295963 0 0 0 0 249.68041608615022 -390.61278858358816 0 -390.61278858358816 1000.5562162942479 0 0 0 0 -39.224499540701927 -25.521862469368486 0 -25.521862469368486 -3.2432360145628962 0 0 0 0 -321.61904702373431 -64.024426508080182 0 -64.024426508080182 476.10751369604748 0 0 0 0 -293.36239458228738 -122.91007103753577 0 -122.91007103753577 592.61339867210688 0 0 0 0 -387.48596872365124 -174.21454367722004 0 -174.21454367722004 712.86442086288434 0 0 0 0 -286.26948069393984 -156.56744720403526 0 -156.56744720403526 577.60989668219622 0 0 0 0 -287.23881781757518 -153.34338644342881 0 -153.34338644342881 610.72066749214173 0 0 0 0 -241.14954600090277 -215.57521907689488 0 -215.57521907689488 682.96525691265253 0 0 0 0 -234.2717323695415 -188.98901224729667 0 -188.98901224729667 554.26993020745203 0 0 0 0 -1223.5075468598448 801.9198714291598 0 801.9198714291598 -508.54561979780601 0 0 0 0 -1226.3561263837219 1132.9749180495774 0 1132.9749180495774 -193.4983076587111 0 0 0 0 -1153.7436394084216 956.54813066921542 0 956.54813066921542 -360.61095953562653 0 0 0 0 -789.50146784796561 1464.2634997386072 0 1464.2634997386072 -411.488833430574 0 0 0 0 -794.92909925113781 1212.6347455262146 0 1212.6347455262146 -4.6421148311591196 0 0 0 0 -61.604257259065548 -15.306024193859592 0 -15.306024193859592 2.8232355878319018 0 0 0 0 -134.00361899587733 -286.24750380004662 0 -286.24750380004662 497.31705747530953 0 0 0 0 -1216.4981715169997 1246.7295634074276 0 1246.7295634074276 -1604.0016360425157 0 0 0 0 -2907.7812367202496 1154.3019301199506 0 1154.3019301199506 -366.52785632937139 0 0 0 0 -1788.2534019937957 659.49056889268718 0 659.49056889268718 -56.794122066891759 0 0 0 0 -936.27800488469802 354.63773036227167 0 354.63773036227167 -676.8674648169432 0 0 0 0 -1295.7883743452257 295.60254289054137 0 295.60254289054137 -28.26969164507409 0 0 0 0 -846.16229994104651 -229.2929967077132 0 -229.2929967077132 19.439905302111129 0 0 0 0 -703.56720702258463 89.70467986233416 0 89.70467986233416 -130.20912448228773 0 0 0 0 -691.79335569265095 -443.38128050839805 0 -443.38128050839805 552.2647517062112 0 0 0 0 -43.876793086895134 -10.446681973709342 0 -10.446681973709342 5.6722938253036972 0 0 0 0 -162.41389680084831 -243.64254671275739 0 -243.64254671275739 -227.77364061473781 0 0 0 0 -1160.3541037965588 900.18344093818996 0 900.18344093818996 -585.87842942456882 0 0 0 0 -869.0586111260418 219.8787836359852 0 219.8787836359852 239.20508190615328 0 0 0 0 -704.63049130709078 738.2635467755623 0 738.2635467755623 -220.32171256535003 0 0 0 0 -978.22906074776256 1043.861498453688 0 1043.861498453688 -920.89027572184204 0 0 0 0 71.505072648513305 -284.37117576010041 0 -284.37117576010041 1185.1718821469353 0 0 0 0 91.947613619537151 -546.36117766083134 0 -546.36117766083134 1217.155246674597 0 0 0 0 214.26012677377366 -440.95707171138861 0 -440.95707171138861 880.07267421908091 0 0 0 0 77.508925551246648 -344.27993731412153 0 -344.27993731412153 996.63248963397564 0 0 0 0 -96.078186776423536 -213.72704513323788 0 -213.72704513323788 991.57522820251006 0 0 0 0 -74.0970373013879 -165.36119326847393 0 -165.36119326847393 738.49343614212739 0 0 0 0 -124.26623994749389 -128.05438472719652 0 -128.05438472719652 1020.9425750435939 0 0 0 0 286.38556280259945 -331.28699472636526 0 -331.28699472636526 1021.0629119677542 0 0 0 0 95.494020938670019 -864.70168795208315 0 -864.70168795208315 2099.9449542684433 0 0 0 0 42.333555123859696 -362.32500313860442 0 -362.32500313860442 1122.0681405785908 0 0 0 0 -674.47957294355729 -259.36833138904694 0 -259.36833138904694 1748.4985112101949 0 0 0 0 -18.086845154861209 -2.2136685343899245 0 -2.2136685343899245 4.6440999482165175 0 0 0 0 -822.95068970548164 1572.0707250513869 0 1572.0707250513869 -874.25752611244388 0 0 0 0 -825.11549740512248 1737.192684263249 0 1737.192684263249 -228.5251180298801 0 0 0 0 -825.12290807064267 1734.9718831696216 0 1734.9718831696216 -292.22474594822779 0 0 0 0 -831.32906007660313 1327.1922892943358 0 1327.1922892943358 -72.061655769615754 0 0 0 0 -833.25961654671664 1258.6134620336652 0 1258.6134620336652 -636.29887502944621 0 0 0 0 -890.23618608951074 1273.9268045593799 0 1273.9268045593799 -482.04381214875048 0 0 0 0 -13.689602595685095 10.182246705576446 0 10.182246705576446 -5.4398714138805957 0 0 0 0 758.14469185764074 2418.9073136625661 0 2418.9073136625661 -264.63187152333194 0 0 0 0 -584.79151998508587 1889.8879485581147 0 1889.8879485581147 572.0913139527056 0 0 0 0 -286.88433979117326 1487.1379644820599 0 1487.1379644820599 -366.92339526778869 0 0 0 0 -2388.9562329655964 -1434.4130525965343 0 -1434.4130525965343 -736.77169808211931 0 0 0 0 1938.1207597233297 -331.33422829359006 0 -331.33422829359006 -1146.5441491492602 0 0 0 0 -1195.9045323478094 -553.33310513844663 0 -553.33310513844663 -438.55343111373941 0 0 0 0 -1411.2483436987932 -506.90892629538234 0 -506.90892629538234 -296.58121432992994 0 0 0 0 -1270.153402429567 -430.43258425981094 0 -430.43258425981094 -282.23739212513465 0 0 0 0 -1086.8690167079958 -455.52713762183521 0 -455.52713762183521 -415.89839590556403 0 0 0 0 -34.992306357204711 22.048643154292101 0 22.048643154292101 -1.6656052923773501 0 0 0 0 -74.53942828451909 116.32584525132734 0 116.32584525132734 1623.8294095513832 0 0 0 0 -1047.6463867228376 -607.10088080304843 0 -607.10088080304843 -381.20960675400784 0 0 0 0 -892.54761215771157 -581.6844870620771 0 -581.6844870620771 -418.15254015677783 0 0 0 0 -734.10554645289722 -406.91415878757834 0 -406.91415878757834 -255.17907945378283 0 0 0 0 -856.77430796269891 -301.67071869525353 0 -301.67071869525353 -273.97526780991734 0 0 0 0 -989.47307741697477 -272.53536966950787 0 -272.53536966950787 -176.5422500751265 0 0 0 0 -136.25131686533132 69.414887243024168 0 69.414887243024168 732.13472496884231 0 0 0 0 -13.186384920278215 89.008153285523804 0 89.008153285523804 208.76373335289645 0 0 0 0 -96.846563969149429 83.225592075282293 0 83.225592075282293 985.1682046923122 0 0 0 0 38.977210310767987 317.78405896325057 0 317.78405896325057 64.125024600243705 0 0 0 0 -731.3701470290116 -440.27899931520187 0 -440.27899931520187 -272.57142082937571 0 0 0 0 -44.140543586044132 22.781959290155307 0 22.781959290155307 -1.2730274446297543 0 0 0 0 -31.662697551484598 -192.01667327526638 0 -192.01667327526638 -46.012229949073571 0 0 0 0 -81.325950869457301 56.761679695267958 0 56.761679695267958 -31.121646984009203 0 0 0 0 -31.654793567009619 -51.352795689720551 0 -51.352795689720551 127.19939318711431 0 0 0 0 -22.684917197217146 64.207606923538606 0 64.207606923538606 -198.09793267083296 0 0 0 0 -84.995622937562985 -28.437985889902848 0 -28.437985889902848 33.629747277615934 0 0 0 0 -74.515757538632045 -6.3889227159185129 0 -6.3889227159185129 1.1538392247682676 0 0 0 0 -17.398142030205129 -3.3799684225234117 0 -3.3799684225234117 6.143920870877345 0 0 0 0 -7.5147243023341179 12.447862091205607 0 12.447862091205607 2.3736372022766172 0 0 0 0 -531.72795232835233 -637.2671948799134 0 -637.2671948799134 -712.10005422627 0 0 0 0 -303.46346444329947 -246.34882221479438 0 -246.34882221479438 -296.53855250877314 0 0 0 0 -899.07034865564856 -441.91492742717855 0 -441.91492742717855 -242.85810451243378 0 0 0 0 -698.53643111432302 -402.69708362879646 0 -402.69708362879646 -313.99107963911956 0 0 0 0 -735.35409833685662 -267.81960437238831 0 -267.81960437238831 -381.97701323790898 0 0 0 0 -978.66398691393806 -381.82454843585947 0 -381.82454843585947 -218.73560456712869 0 0 0 0 -675.37156404126472 -401.87166417287699 0 -401.87166417287699 -400.73698536246957 0 0 0 0 -734.79245669309239 -370.85516571313383 0 -370.85516571313383 -162.84972691380972 0 0 0 0 -717.36098903727679 -256.76243017223624 0 -256.76243017223624 40.62149993291132 0 0 0 0 -671.04283015266492 -295.29764298010832 0 -295.29764298010832 -63.9343203796343 0 0 0 0 -586.14900428916735 -373.85579851172042 0 -373.85579851172042 -218.57470626838841 0 0 0 0 -748.08692212418737 -237.16412871191278 0 -237.16412871191278 -99.952156583407486 0 0 0 0 -659.85098349024202 -263.57608562762471 0 -263.57608562762471 12.571319287955703 0 0 0 0 -370.06241368623841 -313.31657002943302 0 -313.31657002943302 -167.4985217931262 0 0 0 0 -620.31623538619033 -426.48465402281181 0 -426.48465402281181 -215.8190398118204 0 0 0 0 -327.78936993336038 -149.64554355287055 0 -149.64554355287055 -9.5656159241621026 0 0 0 0 -744.09874344760101 -257.28468049951016 0 -257.28468049951016 -68.679519335000805 0 0 0 0 -548.83527385044454 -207.27088063451356 0 -207.27088063451356 -182.97218031586181 0 0 0 0 -697.61047809389754 -353.26422876547718 0 -353.26422876547718 -100.48899034861279 0 0 0 0 -695.80576964109969 -432.13405204362243 0 -432.13405204362243 -246.23945350059989 0 0 0 0 -674.53835317437506 -329.08237694539662 0 -329.08237694539662 121.22235070077477 0 0 0 0 -671.33368366187005 -284.64088717367031 0 -284.64088717367031 -115.37943520727958 0 0 0 0 -401.71466705517196 -252.98707015115087 0 -252.98707015115087 -76.809791008618731 0 0 0 0 -480.68424746110395 -115.52274971766815 0 -115.52274971766815 46.688339321806779 0 0 0 0 -226.52773120417623 -88.903505741842309 0 -88.903505741842309 -114.72610059411727 0 0 0 0 -680.58326189053696 -10.7679052366002 0 -10.7679052366002 -122.00824795397193 0 0 0 0 -213.61078973367057 169.20866315298144 0 169.20866315298144 -197.40421098699881 0 0 0 0 -72.037755851308248 -52.293417383355063 0 -52.293417383355063 123.94344711093709 0 0 0 0 -325.75913280523378 203.91284746611871 0 203.91284746611871 -58.011404563809265 0 0 0 0 66.58193906262909 293.3873175887037 0 293.3873175887037 -179.48880065189405 0 0 0 0 -512.46354954027993 291.48062920234815 0 291.48062920234815 -83.187527018950277 0 0 0 0 -517.19190659446372 337.68598117477092 0 337.68598117477092 -163.83359784250206 0 0 0 0 -362.16062945796421 425.2118430047376 0 425.2118430047376 -169.16003676758697 0 0 0 0 -370.80205970916495 289.00470864753584 0 289.00470864753584 -232.39205090751602 0 0 0 0 -426.89167278429159 288.83345735398052 0 288.83345735398052 -161.81374432988437 0 0 0 0 -504.25741954572459 238.78467185122736 0 238.78467185122736 -118.595844488078 0 0 0 0 -468.99335404200519 230.30084397740848 0 230.30084397740848 -144.08074637224854 0 0 0 0 -442.61857567293555 176.3886349519189 0 176.3886349519189 -164.05714232255468 0 0 0 0 -385.8088329985394 154.49430961250528 0 154.49430961250528 -171.35307619394371 0 0 0 0 -378.65672029530833 68.118602618255863 0 68.118602618255863 -192.45341153295954 0 0 0 0 -391.10056231541421 222.9753764772131 0 222.9753764772131 -295.72285558915792 0 0 0 0 -373.33335769145015 202.08484007424977 0 202.08484007424977 -271.89277405834355 0 0 0 0 -269.05797202802569 109.84915754788835 0 109.84915754788835 -374.76627989404324 0 0 0 0 -405.11838517301476 190.84467692966996 0 190.84467692966996 -304.29937227503433 0 0 0 0 -638.09661921006591 411.96534190859529 0 411.96534190859529 -413.43094544448661 0 0 0 0 -971.99118127084512 -11.158620485683059 0 -11.158620485683059 -264.86641252538357 0 0 0 0 -1258.798052069455 83.192928744069491 0 83.192928744069491 -242.19577531194591 0 0 0 0 -764.77653489923023 90.463682547976532 0 90.463682547976532 -216.80362819810034 0 0 0 0 -457.29248266117702 25.9683844629335 0 25.9683844629335 -227.25061096626905 0 0 0 0 -524.82160944269526 253.31603993015415 0 253.31603993015415 -219.98052348427836 0 0 0 0 -374.25584181352781 260.54568034847944 0 260.54568034847944 -326.845198882369 0 0 0 0 -253.3853009317354 177.69405949452084 0 177.69405949452084 -2.2812558661096602 0 0 0 0 -173.66016247879907 117.66306647303063 0 117.66306647303063 42.248971181514662 0 0 0 0 -155.14685202025362 99.091544582528172 0 99.091544582528172 -96.775235970616521 0 0 0 0 -507.3487815020726 62.709609583915345 0 62.709609583915345 -0.58854101231653999 0 0 0 0 -137.92376527032957 173.19296090623675 0 173.19296090623675 18.791964830243529 0 0 0 0 15.485293838850339 -45.435452165686918 0 -45.435452165686918 -11.79404947871511 0 0 0 0 -518.75540289412947 29.321656352808532 0 29.321656352808532 -84.164281501329242 0 0 0 0 12.039560261847328 135.73241116564748 0 135.73241116564748 -57.365908162359389 0 0 0 0 -15.408742049843864 27.831123241167425 0 27.831123241167425 -31.4252652418728 0 0 0 0 -638.52375196514731 123.22635284571334 0 123.22635284571334 1.3831545969514991 0 0 0 0 -720.57913465528145 3.8219083740877977 0 3.8219083740877977 -17.558034339353071 0 0 0 0 -586.51038768550825 12.767775750860892 0 12.767775750860892 -67.968579491258424 0 0 0 0 -589.30947296664999 15.784733732138193 0 15.784733732138193 -40.695072646597509 0 0 0 0 -572.45883393862641 42.949688290435006 0 42.949688290435006 -61.791422624885854 0 0 0 0 -738.47585695992757 53.653197057310081 0 53.653197057310081 -25.768685926218495 0 0 0 0 -612.13803809120918 -36.551701571012472 0 -36.551701571012472 -22.900798566260164 0 0 0 0 -1151.1623448549622 219.29356720456099 0 219.29356720456099 34.837866311904691 0 0 0 0 -631.2897902549239 281.53977256496455 0 281.53977256496455 42.220581400129504 0 0 0 0 -775.33840919603449 161.49004541884358 0 161.49004541884358 -14.753580404178138 0 0 0 0 -552.67803917970377 166.12322407036936 0 166.12322407036936 -17.376447248125942 0 0 0 0 -539.88338820866602 179.21130550307589 0 179.21130550307589 -85.897519869626194 0 0 0 0 -517.04772762799621 109.34746675139695 0 109.34746675139695 -51.781305710212109 0 0 0 0 -475.12631140159465 137.85092692489343 0 137.85092692489343 -92.445046290180926 0 0 0 0 -445.83673628642373 118.89657310976534 0 118.89657310976534 -83.464884341337893 0 0 0 0 -470.90825638430942 106.3577301434434 0 106.3577301434434 -88.539879792793727 0 0 0 0 -440.45772210754512 52.085595802105672 0 52.085595802105672 -69.825831641685909 0 0 0 0 -453.35463404822076 79.986954057170806 0 79.986954057170806 -51.13612246183402 0 0 0 0 -482.83890220609192 67.832567234110229 0 67.832567234110229 -23.695820197499415 0 0 0 0 -455.42757712013008 29.438846092085441 0 29.438846092085441 0.54224556670851598 0 0 0 0 -471.38930559181131 7.4774081359598767 0 7.4774081359598767 -0.44321013392072928 0 0 0 0 -455.35826871349309 43.072288133357688 0 43.072288133357688 -25.874916948843747 0 0 0 0 -498.47058295543775 34.318482138731724 0 34.318482138731724 -62.678937977118039 0 0 0 0 -506.28644421322406 101.23922763388418 0 101.23922763388418 -54.029478707754606 0 0 0 0 -539.11727761342991 66.32047983837947 0 66.32047983837947 -22.452593806431196 0 0 0 0 -617.14161411305759 88.631260646720875 0 88.631260646720875 -53.482906807927066 0 0 0 0 -571.30711647688349 35.949049098072919 0 35.949049098072919 -102.24009579496851 0 0 0 0 -594.33817563681259 71.716695286715549 0 71.716695286715549 -77.248293222148277 0 0 0 0 -764.13938147611407 -96.485334003624303 0 -96.485334003624303 13.584494731538143 0 0 0 0 3.5742546938903459 0.61175436391915383 0 0.61175436391915383 -12.03395745268547 0 0 0 0 -145.68924830689139 69.222885636858649 0 69.222885636858649 23.612192481800776 0 0 0 0 -545.46826369567407 -86.441300730701187 0 -86.441300730701187 -13.594631146672327 0 0 0 0 -392.28668265055876 -6.4214922024098087 0 -6.4214922024098087 -46.833577409961435 0 0 0 0 -10.896179947215147 -20.945720832040088 0 -20.945720832040088 -20.411121029509996 0 0 0 0 -251.2677911066578 51.368103974590909 0 51.368103974590909 20.649285076306569 0 0 0 0 -212.30026363229263 -12.478650493121677 0 -12.478650493121677 -37.820466783334268 0 0 0 0 -22.934265479872703 4.2649886296030068 0 4.2649886296030068 19.337025433968311 0 0 0 0 -31.620986962860783 4.6572831254729437 0 4.6572831254729437 0.8637461352511635 0 0 0 0 -263.86166863767721 109.95657550434866 0 109.95657550434866 43.795223442299886 0 0 0 0 -207.44133150369817 73.66547331184924 0 73.66547331184924 24.741579633547005 0 0 0 0 -95.079063239611401 30.113932761601991 0 30.113932761601991 -3.7743912716182102 0 0 0 0 -297.26151963653137 -132.40776103407995 0 -132.40776103407995 -40.918662399408731 0 0 0 0 49.11594085595425 52.415381933170465 0 52.415381933170465 -133.96479192363677 0 0 0 0 2.3704699749188451 -0.49621295504809382 0 -0.49621295504809382 4.9283331851531624 0 0 0 0 -328.24497947524287 115.25555650668412 0 115.25555650668412 66.725049267205804 0 0 0 0 -76.437742599300691 80.914879811568881 0 80.914879811568881 -68.971503318020495 0 0 0 0 4.6106033502474286 -25.155801049745158 0 -25.155801049745158 -18.720244379957865 0 0 0 0 -296.7961007421527 -13.004508748338594 0 -13.004508748338594 -24.454323872562099 0 0 0 0 -503.23862532409476 -4.4877183490434618 0 -4.4877183490434618 71.583817235646165 0 0 0 0 -701.96959130983305 1.8422026095912543 0 1.8422026095912543 122.00295763338272 0 0 0 0 -18.319620462218687 -21.299878061316278 0 -21.299878061316278 -17.08122689622855 0 0 0 0 -156.13710618623918 -13.423355236714997 0 -13.423355236714997 -101.07361308029613 0 0 0 0 -286.15313060548488 -35.571393334904315 0 -35.571393334904315 8.9447832950027077 0 0 0 0 -411.92219159951856 97.739578823240208 0 97.739578823240208 -73.06829026174637 0 0 0 0 -400.62895672683408 40.213172839897197 0 40.213172839897197 -1.1758830765684252 0 0 0 0 -405.21234953899784 24.986685095025905 0 24.986685095025905 -20.960700443507449 0 0 0 0 -482.96378959484537 17.23220458682863 0 17.23220458682863 -11.347330048363801 0 0 0 0 -451.90093434279788 51.985921747755128 0 51.985921747755128 10.790806210985465 0 0 0 0 -468.94548207861544 54.276393065842967 0 54.276393065842967 -18.240249958307686 0 0 0 0 -469.10739965648008 -7.6968727018138452 0 -7.6968727018138452 24.076272821144812 0 0 0 0 -585.60675620043003 -9.8080458049416848 0 -9.8080458049416848 24.082741069374606 0 0 0 0 -504.51947213507447 39.089751238324425 0 39.089751238324425 10.8603439267448 0 0 0 0 -508.5572201271857 43.038691582393767 0 43.038691582393767 18.911377209184138 0 0 0 0 -377.60406204988885 89.481179224719654 0 89.481179224719654 -347.03253938290027 0 0 0 0 -777.71225404238612 123.7039630132922 0 123.7039630132922 -0.86450299407874809 0 0 0 0 -716.47861246947662 -94.750644606227866 0 -94.750644606227866 -62.204289078906186 0 0 0 0 -117.4563057606433 -16.78165428686804 0 -16.78165428686804 10.004890599610816 0 0 0 0 -390.84441313313437 -340.55098933688896 0 -340.55098933688896 -60.253972649561547 0 0 0 0 -255.09748056643002 -31.4104956941419 0 -31.4104956941419 17.36528474926854 0 0 0 0 -288.60159005086552 -27.257209766748247 0 -27.257209766748247 23.382439977959621 0 0 0 0 -300.08944432073895 -65.379942289196606 0 -65.379942289196606 -98.585810959227615 0 0 0 0 -111.43968052281389 -22.057939975372747 0 -22.057939975372747 10.287000812249426 0 0 0 0 -462.0813689176357 -224.64472276564936 0 -224.64472276564936 15.564516934917265 0 0 0 0 -14.661283087381214 36.862117184216451 0 36.862117184216451 -42.798326973503826 0 0 0 0 -146.23436961286279 83.767246403848731 0 83.767246403848731 -3.9302065064621274 0 0 0 0 -292.01822651871407 -39.542998096783776 0 -39.542998096783776 49.744132748666743 0 0 0 0 -556.73568563090521 -150.21262992654491 0 -150.21262992654491 94.273017083000695 0 0 0 0 -547.42725352998605 -149.83001920531498 0 -149.83001920531498 -30.007978659255173 0 0 0 0 -0.23890964640086937 -0.91929862335146595 0 -0.91929862335146595 -4.90341574474526 0 0 0 0 184.75124081066497 59.861885646130702 0 59.861885646130702 -192.53976224647602 0 0 0 0 -604.01596503077599 -21.440690060644329 0 -21.440690060644329 136.77206425872669 0 0 0 0 -276.68340948148398 -39.114090578782225 0 -39.114090578782225 67.548964269240059 0 0 0 0 -709.07283315333916 -123.7150728309372 0 -123.7150728309372 38.312900470542218 0 0 0 0 -426.42708816195591 440.39292247395662 0 440.39292247395662 -23.286988655072832 0 0 0 0 -207.05805732315275 -225.34198244671984 0 -225.34198244671984 36.800273364611257 0 0 0 0 -360.65836289100116 115.09886747004714 0 115.09886747004714 -204.57358531783439 0 0 0 0 -355.66761327602217 68.640077160074497 0 68.640077160074497 227.11235413670556 0 0 0 0 7.0364960350243564 -174.57252369080697 0 -174.57252369080697 -2.4875712327902875 0 0 0 0 -8.8268142799287084 -6.8672735100173554 0 -6.8672735100173554 -2.0852703603165139 0 0 0 0 -153.07043293976494 225.99124967616535 0 225.99124967616535 -352.10598366735394 0 0 0 0 74.016461285575133 0.02902274311054498 0 0.02902274311054498 -393.70846787388655 0 0 0 0 -2226.3909810910154 1182.0500875404396 0 1182.0500875404396 -65.59998612479373 0 0 0 0 -1966.2553761117779 -292.98912333111002 0 -292.98912333111002 -406.66629669274789 0 0 0 0 -1059.0922981521389 655.87981045513652 0 655.87981045513652 -435.18048817912131 0 0 0 0 -2927.5027472816882 -526.73754625792481 0 -526.73754625792481 444.46825343275486 0 0 0 0 -329.98936461536869 166.27146692977567 0 166.27146692977567 -449.08126394580404 0 0 0 0 -284.12977444229637 229.77827358362265 0 229.77827358362265 -378.01012585140234 0 0 0 0 -178.22105252711117 -6.2916956591907365 0 -6.2916956591907365 -264.61821626533037 0 0 0 0 -286.43820591454096 -10.401853808014494 0 -10.401853808014494 -188.23978183364488 0 0 0 0 -426.45500377181543 35.998763846095699 0 35.998763846095699 -61.126650152997172 0 0 0 0 -321.44271302418701 22.766258659209825 0 22.766258659209825 -162.47316165221855 0 0 0 0 -407.03823492488164 -82.279392730818017 0 -82.279392730818017 -29.355396595794446 0 0 0 0 -265.7425546473969 -45.925160581527052 0 -45.925160581527052 -174.64559620310683 0 0 0 0 -443.32122270803666 -14.434653582154169 0 -14.434653582154169 -67.715271369335824 0 0 0 0 -339.2556504082022 -71.223732157459381 0 -71.223732157459381 -29.290771475081783 0 0 0 0 -475.33131843723413 -166.36186438239656 0 -166.36186438239656 38.590514968742355 0 0 0 0 -83.333279550397492 17.824551002609041 0 17.824551002609041 40.605550117033999 0 0 0 0 -36.489495235968207 -163.45223173519298 0 -163.45223173519298 -119.40552666814165 0 0 0 0 -330.88320682398989 -105.09929884763915 0 -105.09929884763915 101.60717741282315 0 0 0 0 -97.648214458237817 -250.70269271455072 0 -250.70269271455072 412.33685513519958 0 0 0 0 -17.018889900073887 11.936205495496919 0 11.936205495496919 10.136266958571401 0 0 0 0 -104.61186799763527 2.7185594968732971 0 2.7185594968732971 49.521943274146793 0 0 0 0 -81.847896340771598 21.906034780383607 0 21.906034780383607 11.191293411785853 0 0 0 0 -68.467191900383114 18.232584113583471 0 18.232584113583471 -64.388437304560284 0 0 0 0 -89.139021244048308 60.742190445435881 0 60.742190445435881 23.108988247866364 0 0 0 0 -76.843526159422808 22.851772621925196 0 22.851772621925196 19.219769802543933 0 0 0 0 -101.97334283543387 51.335426833785334 0 51.335426833785334 78.141838968614138 0 0 0 0 -181.60603253415138 -184.55822204528795 0 -184.55822204528795 -178.11284371223701 0 0 0 0 -199.86751664953317 30.465290010003628 0 30.465290010003628 53.541700518043399 0 0 0 0 -730.48137463363366 -138.77415017777412 0 -138.77415017777412 62.770869242200206 0 0 0 0 -29.434307757911572 11.160818598087225 0 11.160818598087225 5.6084556339494842 0 0 0 0 -698.5660544768532 364.42204701185329 0 364.42204701185329 -228.03102687532373 0 0 0 0 -310.7621691107488 356.56766552533145 0 356.56766552533145 -324.99658139593794 0 0 0 0 -85.648887124240815 45.123351716994648 0 45.123351716994648 -17.196648610706575 0 0 0 0 -98.851603158342186 85.531429405964445 0 85.531429405964445 24.18294719590391 0 0 0 0 -52.83898399514446 17.660144737383618 0 17.660144737383618 38.382506283684442 0 0 0 0 -77.523432077359757 62.743338991241856 0 62.743338991241856 23.581201998581708 0 0 0 0 -104.91301182282041 73.565893434568693 0 73.565893434568693 40.759625358943296 0 0 0 0 -124.47234402059257 128.60313163252118 0 128.60313163252118 -105.23979186245924 0 0 0 0 -201.73038583726157 86.185761153979684 0 86.185761153979684 133.02276895863565 0 0 0 0 -155.30987267588353 64.021651316089617 0 64.021651316089617 116.74807698749385 0 0 0 0 -179.26790085816901 77.669794690043659 0 77.669794690043659 154.71043985679808 0 0 0 0 -120.77453870775935 78.335621556254978 0 78.335621556254978 41.172712075829622 0 0 0 0 -104.62008694386479 -23.517083569798842 0 -23.517083569798842 132.97976596513081 0 0 0 0 -166.16759639996235 -39.644047254462436 0 -39.644047254462436 248.62855074246329 0 0 0 0 -1078.3508002142044 -1065.5134614384474 0 -1065.5134614384474 -164.53673206730571 0 0 0 0 -89.429554419816881 -25.639076199403398 0 -25.639076199403398 0.22291296192546728 0 0 0 0 8.5487577543535735 -37.650822578725865 0 -37.650822578725865 69.846228709497836 0 0 0 0 -190.36316128711042 85.176141973137192 0 85.176141973137192 232.57684155166572 0 0 0 0 -366.06563770022694 -140.06049636413877 0 -140.06049636413877 104.89697439794099 0 0 0 0 -128.96073761186562 202.51908697404542 0 202.51908697404542 -256.03696099213698 0 0 0 0 -175.16498601553758 38.296498760316581 0 38.296498760316581 -17.676314071171873 0 0 0 0 -315.64688177075004 244.71080816923859 0 244.71080816923859 -87.242177363481005 0 0 0 0 -114.31536206236342 13.853974394141062 0 13.853974394141062 -359.28582041536947 0 0 0 0 -377.54042936961014 201.67985998750532 0 201.67985998750532 -28.28033696313787 0 0 0 0 -16.564686656203492 0.44333008245230587 0 0.44333008245230587 -3.7659578642018099 0 0 0 0 -19.1969001769478 3.1224561841677456 0 3.1224561841677456 0.087384379894531961 0 0 0 0 -104.60508637161729 17.77159076502852 0 17.77159076502852 -55.539993962041081 0 0 0 0 -259.94363987409452 226.06571137906485 0 226.06571137906485 -977.15577211093296 0 0 0 0 -59.953809964892287 -18.871464384703046 0 -18.871464384703046 23.602645209894021 0 0 0 0 -159.35323638268164 -82.260652523647963 0 -82.260652523647963 384.58876193331895 0 0 0 0 -2014.7562908304026 2027.5037899953127 0 2027.5037899953127 604.66709362030656 0 0 0 0 -24.32331441171246 -6.131974830787847 0 -6.131974830787847 4.4000491140929974 0 0 0 0 -7.5039380605026054 -79.585222935786646 0 -79.585222935786646 137.75331546637358 0 0 0 0 -138.73222234637069 51.332739701232185 0 51.332739701232185 -33.427005770376695 0 0 0 0 -361.1895381362192 219.60086162000516 0 219.60086162000516 -317.88511779128567 0 0 0 0 -604.43361954241118 877.298621428974 0 877.298621428974 -402.15465255983781 0 0 0 0 -24.869168497055142 9.1014931210449532 0 9.1014931210449532 14.033610762670738 0 0 0 0 -44.695295977576137 6.6743475015693328 0 6.6743475015693328 5.0773614443562387 0 0 0 0 -72.502834128739778 19.156956717986759 0 19.156956717986759 6.6092352280120394 0 0 0 0 -42.87212020168954 17.842008709803849 0 17.842008709803849 5.3426750651142356 0 0 0 0 -57.271932684092462 11.574989667009561 0 11.574989667009561 22.254900179073957 0 0 0 0 -62.177551658252924 25.498211114052538 0 25.498211114052538 4.3580273606585251 0 0 0 0 -71.788317706537782 8.1801748983921243 0 8.1801748983921243 16.187485135030329 0 0 0 0 -38.958709324582742 9.7738248148114053 0 9.7738248148114053 17.934533969762015 0 0 0 0 -22.377178060007282 29.318049212033657 0 29.318049212033657 12.961469009260782 0 0 0 0 -30.558364620874585 5.1620563077275818 0 5.1620563077275818 11.390712332631614 0 0 0 0 -25.237150716217002 147.4825649202225 0 147.4825649202225 136.75318779982456 0 0 0 0 68.671172195066902 138.97721305302721 0 138.97721305302721 33.281087335633657 0 0 0 0 -19.490231365562067 36.388676168750919 0 36.388676168750919 76.125290198782039 0 0 0 0 -87.675007294252282 141.8232423625924 0 141.8232423625924 -69.460615589419973 0 0 0 0 -19.233473548176121 -2.1706629576184469 0 -2.1706629576184469 15.818702614633228 0 0 0 0 -34.836322018320573 18.919188828109064 0 18.919188828109064 10.804844996218044 0 0 0 0 -6.0085051659912523 12.206265835236096 0 12.206265835236096 28.034464774921069 0 0 0 0 -33.668232483141765 11.498630254504405 0 11.498630254504405 142.67637704914159 0 0 0 0 71.404132267052773 -26.436577283715621 0 -26.436577283715621 -18.182783093159728 0 0 0 0 -0.33620902358961757 104.4392740215286 0 104.4392740215286 -77.728539657774547 0 0 0 0 -526.64692076749634 339.05962211281428 0 339.05962211281428 -180.77382450262792 0 0 0 0 -339.45965821048594 29.526877303454768 0 29.526877303454768 7.3078489553593329 0 0 0 0 -308.86787773504329 76.603462013313703 0 76.603462013313703 -93.458376147976225 0 0 0 0 -5.1153477325798846 -1.0740922683230991 0 -1.0740922683230991 0.061476428747868628 0 0 0 0 -75.642809247023251 -1.780076460946816 0 -1.780076460946816 2.7670026473938378 0 0 0 0 -748.56957169214729 154.30975282800364 0 154.30975282800364 68.827773150666644 0 0 0 0 -13.371567513528419 -21.594342978303686 0 -21.594342978303686 5.7812292262177767 0 0 0 0 -19.199760282483901 -5.1780452967159647 0 -5.1780452967159647 -1.3873567996560157 0 0 0 0 -809.69646399468184 524.19662455121602 0 524.19662455121602 -116.2730770692806 0 0 0 0 -103.18047677652066 8.524841198707918 0 8.524841198707918 -3.6993097756494535 0 0 0 0 798.61366603280476 644.90902525850925 0 644.90902525850925 -2862.7744273773528 0 0 0 0 -33.407007181271219 -17.302214451940571 0 -17.302214451940571 2.8962234351032121 0 0 0 0 -0.1284719645008181 -1.1846990024474451 0 -1.1846990024474451 2.9374764471933648 0 0 0 0 -70.616252632233227 -1004.165962559285 0 -1004.165962559285 719.64495006807272 0 0 0 0 -465.61651591394912 -92.363277173478238 0 -92.363277173478238 137.5877079492416 0 0 0 0 -908.56215102832357 204.11741004099085 0 204.11741004099085 91.458594497662787 0 0 0 0 -62.101427198738747 -242.53886364344942 0 -242.53886364344942 -34.049281664961427 0 0 0 0 22.123639791299865 -226.35242864451473 0 -226.35242864451473 -82.796187056136887 0 0 0 0 -0.49183974408494446 -0.88205845904299451 0 -0.88205845904299451 -6.3622837261008103 0 0 0 0 -714.21071239913385 6.3023093157060046 0 6.3023093157060046 -6.7598187999092261 0 0 0 0 -0.10885234595926119 -1.9195348285329104 0 -1.9195348285329104 -3.789356270751794 0 0 0 0 -43.409663669786823 -143.59078691790228 0 -143.59078691790228 -91.331062397318419 0 0 0 0 -149.35874378873996 32.456564474049628 0 32.456564474049628 205.45453883147547 0 0 0 0 -180.42753185272159 195.89769688064189 0 195.89769688064189 -410.72560206153139 0 0 0 0 -40.030065877952438 -211.2960117134794 0 -211.2960117134794 -13.18356638687078 0 0 0 0 -22.268522868433138 -277.29962409261952 0 -277.29962409261952 -64.562011237065349 0 0 0 0 -638.29690236928036 -242.58606130098977 0 -242.58606130098977 -123.64197436014365 0 0 0 0 -616.15929740781939 195.42371365739427 0 195.42371365739427 -193.0309611836505 0 0 0 0 -810.80687428502279 -135.46437016333584 0 -135.46437016333584 2.9685470754357084 0 0 0 0 -394.03765002821456 99.850265459910588 0 99.850265459910588 75.758441037427474 0 0 0 0 -235.07549237415333 137.63597168964884 0 137.63597168964884 -358.3071802053164 0 0 0 0 -677.89878027170926 -276.2874049067841 0 -276.2874049067841 -25.70166432613405 0 0 0 0 -3.9056017327188437 36.697493065717623 0 36.697493065717623 -40.100274885123611 0 0 0 0 -48.361862686011591 81.238837971009161 0 81.238837971009161 -46.806892497150329 0 0 0 0 -245.98808480716252 213.73299576305089 0 213.73299576305089 -55.918607697502239 0 0 0 0 -808.55325026613536 -456.17686068561534 0 -456.17686068561534 -190.30684555672633 0 0 0 0 -3.9682631756319608 2.4016781791085435 0 2.4016781791085435 -4.3385991686554348 0 0 0 0 -601.87627289749798 -569.83325154853992 0 -569.83325154853992 -392.72065772337737 0 0 0 0 -579.6757970560684 -209.05611432999513 0 -209.05611432999513 -66.444974014706531 0 0 0 0 -463.79337654401297 -428.39043028234778 0 -428.39043028234778 -304.46031231783854 0 0 0 0 -442.82227148134552 -210.88514960460452 0 -210.88514960460452 -117.67892012051016 0 0 0 0 -426.36934854616993 -216.248475500106 0 -216.248475500106 -62.131558583663889 0 0 0 0 -73.690774869224697 11.849541010028588 0 11.849541010028588 11.763456596091601 0 0 0 0 -504.44247306027682 -212.89027326265204 0 -212.89027326265204 -425.53971528942657 0 0 0 0 -0.72838068373033593 0.48614340393178423 0 0.48614340393178423 -0.38059010661103088 0 0 0 0 -90.687658337468747 -164.52184999265592 0 -164.52184999265592 -240.37634361782693 0 0 0 0 -31.025520752744882 -13.949623893389258 0 -13.949623893389258 0.93948677043778872 0 0 0 0 -83.844572489295388 0.83748897764462527 0 0.83748897764462527 4.1682034903024032 0 0 0 0 -9.4133184312572666 -8.2959336034695497 0 -8.2959336034695497 9.6591664644035689 0 0 0 0 31.973397592526453 -84.239380079142848 0 -84.239380079142848 15.265757752678837 0 0 0 0 -206.97868481685146 35.175314741318289 0 35.175314741318289 41.669682511906103 0 0 0 0 -104.04855622804462 94.177164106044984 0 94.177164106044984 -0.95593829720758094 0 0 0 0 21.840700756827573 -27.769774852900809 0 -27.769774852900809 -52.417100561407096 0 0 0 0 -17.219976776139617 17.766861553677131 0 17.766861553677131 -7.6287534378314952 0 0 0 0 -218.5692403067751 -117.96780934168828 0 -117.96780934168828 -13.977677512847549 0 0 0 0 -485.30670115945395 -58.215967344385149 0 -58.215967344385149 16.774351283387489 0 0 0 0 -442.78483370885806 23.962313747814278 0 23.962313747814278 74.363093008688338 0 0 0 0 -808.82158132501354 -19.926620394479869 0 -19.926620394479869 99.356844768263727 0 0 0 0 -515.90019810791273 -183.94455419663723 0 -183.94455419663723 7.8916422017377954 0 0 0 0 -5.6833238869237412 34.923451070667497 0 34.923451070667497 -31.081521282809792 0 0 0 0 -482.58951979033009 -8.4999434994829244 0 -8.4999434994829244 -45.047483987871985 0 0 0 0 -559.90274350512482 -141.1143074842405 0 -141.1143074842405 -33.288364763049231 0 0 0 0 -217.93019352835836 69.189563253479719 0 69.189563253479719 108.76002270516801 0 0 0 0 -219.32151594074821 50.558577430972946 0 50.558577430972946 -2.9609578639065148 0 0 0 0 -303.45169290493504 61.215648923976005 0 61.215648923976005 90.266416591950474 0 0 0 0 -224.82104187849745 -7.9638695003968678 0 -7.9638695003968678 26.624786213284096 0 0 0 0 -62.312724214716582 -92.661307014813246 0 -92.661307014813246 4.8181476193767594 0 0 0 0 -326.31867042199156 -16.004765492411025 0 -16.004765492411025 64.244264172819385 0 0 0 0 -235.10984728570475 -47.716249157501807 0 -47.716249157501807 156.10081458585501 0 0 0 0 -625.21255865918101 -12.340772636294219 0 -12.340772636294219 -6.146722442583652 0 0 0 0 -133.755325782824 45.935968590682933 0 45.935968590682933 -66.503636770568846 0 0 0 0 -0.95262224431606501 1.5379032776910222 0 1.5379032776910222 -15.762942509357341 0 0 0 0 -599.10052272587745 52.816008785515237 0 52.816008785515237 -24.007616147076988 0 0 0 0 101.23969730134945 103.73861624916998 0 103.73861624916998 -182.67527692768635 0 0 0 0 -329.66282151428459 71.263870619844056 0 71.263870619844056 -54.671397513831835 0 0 0 0 -89.919098292561102 318.32996632701588 0 318.32996632701588 -120.73041291991103 0 0 0 0 -500.61011753237108 335.12936136006465 0 335.12936136006465 -79.756199255429237 0 0 0 0 -133.16161792413732 110.74595120884305 0 110.74595120884305 -124.10765671780246 0 0 0 0 -144.62431948833546 -2.9448815252826535 0 -2.9448815252826535 -120.79045779748412 0 0 0 0 -422.05076681258106 -24.701386144371099 0 -24.701386144371099 -24.280253512251875 0 0 0 0 -26.12855190044456 5.469832071831533 0 5.469832071831533 -20.629452296776119 0 0 0 0 -243.23237523705848 28.225910308470247 0 28.225910308470247 -9.5150042756213224 0 0 0 0 -234.87125390156143 59.256176329834489 0 59.256176329834489 27.0438435791948 0 0 0 0 -284.43906256923128 -21.099492130030967 0 -21.099492130030967 -13.783796708245063 0 0 0 0 -276.14012647820346 23.173876369699428 0 23.173876369699428 74.100713647701923 0 0 0 0 -180.74785932368104 -35.577838298124334 0 -35.577838298124334 -18.626670300760452 0 0 0 0 -534.50396255104351 -65.126336693392432 0 -65.126336693392432 -39.184752532097662 0 0 0 0 -577.96956853883421 15.470276182073462 0 15.470276182073462 -5.8684877057112317 0 0 0 0 -270.28699877618055 12.767632321686506 0 12.767632321686506 -3.8258650832394778 0 0 0 0 -133.7941597328238 33.341301358479882 0 33.341301358479882 -28.460531952641759 0 0 0 0 2.0642752381492619 2.8751466295547559 0 2.8751466295547559 -19.952557905292842 0 0 0 0 -248.25305243692128 -47.375286055519609 0 -47.375286055519609 49.164639211073336 0 0 0 0 -298.46495099931053 -11.480565770693829 0 -11.480565770693829 6.2791219781647669 0 0 0 0 -211.36945644795742 49.43164107533994 0 49.43164107533994 -15.926447833287966 0 0 0 0 -273.1598770595956 17.746108530353013 0 17.746108530353013 4.5518925608448626 0 0 0 0 -790.49073805562875 -153.62648832606612 0 -153.62648832606612 -58.323703623652136 0 0 0 0 -2.5679314658494192 34.779726826330837 0 34.779726826330837 -20.932467724206639 0 0 0 0 -2.7422390617792871 3.7456527432359863 0 3.7456527432359863 -5.2405793937295302 0 0 0 0 -16.578110684989952 665.31675063945431 0 665.31675063945431 196.92151195508507 0 0 0 0 -1766.6829578479519 -578.37578365250465 0 -578.37578365250465 400.37274543594776 0 0 0 0 -598.7326812097017 -379.25529288517419 0 -379.25529288517419 -1205.3250569718912 0 0 0 0 -526.71831486506562 626.83996834950085 0 626.83996834950085 241.26990587399496 0 0 0 0 -209.64373560647073 159.36566963997529 0 159.36566963997529 144.3257983790877 0 0 0 0 270.62168461906367 76.501571397866883 0 76.501571397866883 158.42031419885336 0 0 0 0 -9.8158268235019932 437.39804178396889 0 437.39804178396889 -39.609509148926008 0 0 0 0 -11.675443652522375 10.180009871248558 0 10.180009871248558 -9.598150708033014 0 0 0 0 -29.348563147854293 189.05418326350258 0 189.05418326350258 313.38059143727344 0 0 0 0 -88.360676036274526 236.06256783922458 0 236.06256783922458 -59.950320810430185 0 0 0 0 -385.44965504442189 91.497136057921011 0 91.497136057921011 -102.71877353988111 0 0 0 0 -57.892964935312847 -11.856536046427955 0 -11.856536046427955 -2.3681985859337988 0 0 0 0 -213.17016557725583 604.44504585124196 0 604.44504585124196 -630.36446563414484 0 0 0 0 -210.58981660755853 368.09140398755028 0 368.09140398755028 -98.972834290656465 0 0 0 0 -452.29039688479679 340.46950549731537 0 340.46950549731537 -56.811299329815938 0 0 0 0 -427.41471549721246 58.125003758736284 0 58.125003758736284 -303.14212337207573 0 0 0 0 -614.02556768841168 373.99550780397203 0 373.99550780397203 155.51462933525045 0 0 0 0 -929.84300881170202 371.93372784692292 0 371.93372784692292 176.79167462165969 0 0 0 0 -596.9364437849672 1.7110475094087292 0 1.7110475094087292 498.3057768818544 0 0 0 0 -28.961120277759619 125.79771838610031 0 125.79771838610031 219.99680490811443 0 0 0 0 -22.619305002112711 -8.1566531833086984 0 -8.1566531833086984 7.3400253285824597 0 0 0 0 -207.59934906310809 -8.7311378175400023 0 -8.7311378175400023 121.17195766988971 0 0 0 0 -265.84276573851821 130.38183620478412 0 130.38183620478412 -330.30455830803294 0 0 0 0 -242.25373955855321 4.3541992745776952 0 4.3541992745776952 108.96878529911555 0 0 0 0 -98.441320274282504 -18.410017008853607 0 -18.410017008853607 -1.8966549273592914 0 0 0 0 -156.54434951645089 -38.104696065136523 0 -38.104696065136523 -23.264918115062756 0 0 0 0 -533.10473220187123 -20.138303981989566 0 -20.138303981989566 50.982747512099877 0 0 0 0 -116.55063461110694 23.112154693048069 0 23.112154693048069 19.071572876026039 0 0 0 0 -74.694729527685553 49.272578769613546 0 49.272578769613546 -23.647131556377076 0 0 0 0 -214.21984275714203 -16.728546695407658 0 -16.728546695407658 -30.227863810657709 0 0 0 0 -112.56797984962137 15.56291357007396 0 15.56291357007396 8.0567636505924227 0 0 0 0 -244.62419931057957 118.38364702418221 0 118.38364702418221 90.994658652503858 0 0 0 0 -86.775241820833543 19.905095414134323 0 19.905095414134323 23.345486360794865 0 0 0 0 -82.957504787330691 40.933875424123826 0 40.933875424123826 22.751066941747361 0 0 0 0 86.28355219187506 17.521996591511652 0 17.521996591511652 -78.812715696881241 0 0 0 0 -434.83396116765289 1.1647849863425108 0 1.1647849863425108 -3.2398718370204733 0 0 0 0 -28.600505535837783 30.997811918579657 0 30.997811918579657 -7.1312824107097637 0 0 0 0 -217.02292036866038 -87.592406577442489 0 -87.592406577442489 -93.778475308015913 0 0 0 0 -124.89674738027627 23.060809041989671 0 23.060809041989671 5.4189308480729199 0 0 0 0 -81.768141696928069 35.389500190827675 0 35.389500190827675 5.4234307748774881 0 0 0 0 -53.606500642548781 25.248084486709558 0 25.248084486709558 28.210237697479897 0 0 0 0 -77.280377919681371 42.81928287077389 0 42.81928287077389 7.9346067771494848 0 0 0 0 -141.63633968771529 13.990052653316596 0 13.990052653316596 16.12768161567622 0 0 0 0 -418.28992815555102 303.58777169396558 0 303.58777169396558 617.63153339928385 0 0 0 0 -830.51913795001019 -155.41946227068433 0 -155.41946227068433 118.2775987972535 0 0 0 0 -0.43069589840076716 -4.8568686607939497 0 -4.8568686607939497 -7.0570628087335701 0 0 0 0 -65.553781862534379 -25.669775998191852 0 -25.669775998191852 -6.0122032686344937 0 0 0 0 -311.91796705604793 397.894372549222 0 397.894372549222 132.57099994030364 0 0 0 0 -502.44073574020149 30.195961371167414 0 30.195961371167414 517.51190973397752 0 0 0 0 141.98575175130827 -84.320350128085465 0 -84.320350128085465 -59.908001087685193 0 0 0 0 -272.86429157270277 29.29683694054043 0 29.29683694054043 71.771870016412322 0 0 0 0 63.747439133891021 -219.02441168414543 0 -219.02441168414543 350.48530935761573 0 0 0 0 -103.07647699619156 -10.62112554402745 0 -10.62112554402745 135.63226108307208 0 0 0 0 1.048333749327071 1.4035634377937072 0 1.4035634377937072 10.800788255683337 0 0 0 0 -299.62525395536795 -63.663400092627853 0 -63.663400092627853 -305.64821551895056 0 0 0 0 356.4282658529919 271.32596989198464 0 271.32596989198464 -164.31273440833729 0 0 0 0 -587.88033244002145 -416.46773910904767 0 -416.46773910904767 174.26835102250425 0 0 0 0 -3.8773866372549897 -4.680573146860155 0 -4.680573146860155 -19.339418054676351 0 0 0 0 -60.549218343607208 -491.41729159470788 0 -491.41729159470788 -133.65795150562553 0 0 0 0 -56.67145183908724 0.2308924891173092 0 0.2308924891173092 -58.466970070907792 0 0 0 0 -11.352552573859015 9.2031956684631382 0 9.2031956684631382 -24.698319930393943 0 0 0 0 -109.11164744742564 -14.131644218891324 0 -14.131644218891324 -55.121633850753824 0 0 0 0 -120.9795964313671 -27.238344378811234 0 -27.238344378811234 -44.796387059010158 0 0 0 0 -147.73941357287549 -37.616868842226381 0 -37.616868842226381 154.49684332351626 0 0 0 0 -6.0587096536662557 -2.7168401085527307 0 -2.7168401085527307 -1.8991817046562192 0 0 0 0 -176.00952035384398 -70.69882994987347 0 -70.69882994987347 -26.555224950627235 0 0 0 0 0.27305613675187601 -0.3465281941183278 0 -0.3465281941183278 -5.3435246898283228 0 0 0 0 -160.24487301638146 -20.792018006033345 0 -20.792018006033345 -15.598946062918913 0 0 0 0 -142.54909885412781 -22.357132609306063 0 -22.357132609306063 -16.737309863193104 0 0 0 0 -119.83871108083986 -47.805427881684409 0 -47.805427881684409 -26.867266099959579 0 0 0 0 -217.9705180193705 93.725537005729166 0 93.725537005729166 366.78465525668526 0 0 0 0 -76.050385395119719 13.815809694633359 0 13.815809694633359 -1.1645041531600562 0 0 0 0 -92.463437098331269 -66.081179467466768 0 -66.081179467466768 126.1834177394494 0 0 0 0 -2.7324682991369116 -11.824862100698795 0 -11.824862100698795 -1.4130990030100374 0 0 0 0 -101.52201463782694 -16.793474983060491 0 -16.793474983060491 -18.38760176681626 0 0 0 0 -135.72687051232788 -22.448690303985586 0 -22.448690303985586 8.5071879031212916 0 0 0 0 -91.722537052584812 -59.949250877962186 0 -59.949250877962186 4.7346723295999311 0 0 0 0 -106.88162287809246 -26.606240324146256 0 -26.606240324146256 -43.894975460287242 0 0 0 0 -158.91327167685085 -31.983552063106799 0 -31.983552063106799 -1.3539808548264318 0 0 0 0 -6.6562193894968829 5.8499755240079878 0 5.8499755240079878 -8.0009510501883199 0 0 0 0 -17.813345800728712 25.16671603765252 0 25.16671603765252 -232.53642017713537 0 0 0 0 -142.71303674922092 -45.419081110499974 0 -45.419081110499974 -28.715770454660742 0 0 0 0 -207.19552398088126 -38.950169297122216 0 -38.950169297122216 -5.8132508040794164 0 0 0 0 -145.40092401574657 -7.2268164615353498 0 -7.2268164615353498 1.644349584521251 0 0 0 0 -1.5443666718174711 0.46314029600695505 0 0.46314029600695505 -0.17867490734608182 0 0 0 0 -74.176750895472651 15.091962481144947 0 15.091962481144947 5.1442687567903249 0 0 0 0 -18.091568926827819 7.3400297024603844 0 7.3400297024603844 7.2996616316992329 0 0 0 0 -84.44298024915588 -2.8895102787710414 0 -2.8895102787710414 24.633286575788588 0 0 0 0 -40.550066965697624 2.3982925465971903 0 2.3982925465971903 1.7894738317936572 0 0 0 0 -7.8725610509371649 -9.5201594395899889 0 -9.5201594395899889 1.8860773129031596 0 0 0 0 -37.247665074275574 13.012907974876498 0 13.012907974876498 -10.680595290012661 0 0 0 0 0.62822870218364812 -16.619320493152713 0 -16.619320493152713 0.35968992012167877 0 0 0 0 -97.675718251935905 -32.448699337080143 0 -32.448699337080143 4.3541449756048678 0 0 0 0 -98.20424760007154 -44.519605396887982 0 -44.519605396887982 -8.7081951024747468 0 0 0 0 -57.705620757566066 -39.021461283209419 0 -39.021461283209419 -27.593921027990291 0 0 0 0 -11.54315534091802 -36.317115279187732 0 -36.317115279187732 -58.209755328256279 0 0 0 0 -18.532778525290581 -6.0849536996979054 0 -6.0849536996979054 0.40813411162242375 0 0 0 0 -29.571533184505824 -16.438378065382267 0 -16.438378065382267 -2.0960486960875642 0 0 0 0 -31.028847395733465 -15.231659933062019 0 -15.231659933062019 -2.9403861345342648 0 0 0 0 -29.319862718993704 -24.712467275605306 0 -24.712467275605306 -6.6434691682955407 0 0 0 0 -34.967214148098719 -7.3968324734677253 0 -7.3968324734677253 4.6166633534642187 0 0 0 0 -15.484763268373541 -8.9782113762363593 0 -8.9782113762363593 1.8742983458673477 0 0 0 0 -424.71965686219482 610.31927123842911 0 610.31927123842911 -555.44160533015383 0 0 0 0 -599.31385571337887 558.90681728609241 0 558.90681728609241 -259.93604242446622 0 0 0 0 -14.958578139191559 -5.8261100683757974 0 -5.8261100683757974 1.7436101207438224 0 0 0 0 -414.31970504256606 13.105024779180127 0 13.105024779180127 5.058736456402471 0 0 0 0 -14.824282615155809 -11.800053374697441 0 -11.800053374697441 -10.940667830677423 0 0 0 0 -32.047459813155001 -20.258177283650184 0 -20.258177283650184 24.885778208705119 0 0 0 0 3.3650252176260551 -4.8958638333852917 0 -4.8958638333852917 -7.6320833996994937 0 0 0 0 -80.383248502897914 40.824402353176538 0 40.824402353176538 3.0551577426007839 0 0 0 0 21.843805886324844 5.8315283015144814 0 5.8315283015144814 -110.60880068648135 0 0 0 0 -220.19820554030593 -23.355169493298149 0 -23.355169493298149 -24.846695777833133 0 0 0 0 26.972282176408044 -166.07239304178978 0 -166.07239304178978 -131.31646754707219 0 0 0 0 -662.20720294361672 81.540870888816869 0 81.540870888816869 -318.84241872399565 0 0 0 0 -4.890927556093402 -4.6148669991238833 0 -4.6148669991238833 -5.0097435223810383 0 0 0 0 -201.11968632337812 -293.42668797921431 0 -293.42668797921431 -200.26276159965096 0 0 0 0 121.59471899001073 -88.90750945948345 0 -88.90750945948345 -526.95014444017261 0 0 0 0 -108.53663878703082 -446.01363324705386 0 -446.01363324705386 -380.03776526606202 0 0 0 0 -576.14001621620264 78.622955762846686 0 78.622955762846686 753.29010604525865 0 0 0 0 719.34805111246897 149.2785909190743 0 149.2785909190743 -4.088485816514094 0 0 0 0 -69.949309753940469 11.086711845243997 0 11.086711845243997 1.857473565581766 0 0 0 0 435.499865502803 -531.5030527795077 0 -531.5030527795077 -185.4474773068664 0 0 0 0 87.170531195530202 -58.198329656622718 0 -58.198329656622718 -120.72081346570781 0 0 0 0 56.066757283821062 -106.40027313474138 0 -106.40027313474138 -34.791984971109969 0 0 0 0 -138.90487046888302 -135.55824685467076 0 -135.55824685467076 43.287419733622301 0 0 0 0 -6.1865771834709449 114.80329431058635 0 114.80329431058635 -113.87361009287633 0 0 0 0 -197.77068667975254 13.561140424786572 0 13.561140424786572 16.758271420825622 0 0 0 0 -16.022500071843467 4.3108222226017574 0 4.3108222226017574 1.9660132079102404 0 0 0 0 -51.994398884591646 51.166495207462503 0 51.166495207462503 31.05586746204699 0 0 0 0 -440.4040808796417 -263.19716324147885 0 -263.19716324147885 -99.997458132781503 0 0 0 0 -49.704032666253624 -83.474485774964705 0 -83.474485774964705 -192.54388753543026 0 0 0 0 -622.11181480999221 -461.134091730215 0 -461.134091730215 -230.61706104527002 0 0 0 0 -617.49564080612618 -358.23924574770899 0 -358.23924574770899 -101.39092715005245 0 0 0 0 -144.28743452411072 -402.77939524249905 0 -402.77939524249905 -332.45088816575299 0 0 0 0 -509.98974285185977 -487.60899692569365 0 -487.60899692569365 -242.73308973681196 0 0 0 0 -887.98761702138108 -540.57082796211353 0 -540.57082796211353 -312.0329337007206 0 0 0 0 -545.94182136998279 -404.15809190079744 0 -404.15809190079744 -435.77062862669845 0 0 0 0 -892.97615085399593 -458.45222443741295 0 -458.45222443741295 -174.78176087079191 0 0 0 0 -1275.7422466595308 -509.68684108983325 0 -509.68684108983325 -126.70820441994692 0 0 0 0 -1276.5860928677721 -538.58981071569906 0 -538.58981071569906 -104.42569348763755 0 0 0 0 -1006.8419892179809 -527.51159790544807 0 -527.51159790544807 -150.92762439915168 0 0 0 0 -1677.276871089327 -569.54445076300703 0 -569.54445076300703 -108.80626559578741 0 0 0 0 -1690.6020780952913 -638.28722146407563 0 -638.28722146407563 -129.32600859125523 0 0 0 0 -1179.0779801721656 -574.08586717000435 0 -574.08586717000435 -255.55914167937044 0 0 0 0 -1185.4853186144173 -627.94624297888549 0 -627.94624297888549 -394.75758698845493 0 0 0 0 -874.46419930954289 -1058.7325656484736 0 -1058.7325656484736 -781.69696992050012 0 0 0 0 -485.28545702449628 -525.6994587458239 0 -525.6994587458239 -702.12027943176599 0 0 0 0 -1074.2885500673437 -690.42316851105898 0 -690.42316851105898 -596.28788196967798 0 0 0 0 -1857.9029303388943 -1053.5584332913199 0 -1053.5584332913199 -544.31376494177312 0 0 0 0 -1736.963943843788 -709.37779623975985 0 -709.37779623975985 -341.33044457824508 0 0 0 0 -1609.5042629133022 -885.3794490310197 0 -885.3794490310197 -696.16753890816653 0 0 0 0 -1514.0605929591402 -769.4554212071107 0 -769.4554212071107 -590.35619792493799 0 0 0 0 -1300.8272134024592 -1180.604266990289 0 -1180.604266990289 -773.91516514946125 0 0 0 0 7.0391112470709629 7.3644895402174058 0 7.3644895402174058 -7.4414833412922361 0 0 0 0 -86.463701036152997 -20.42137762606464 0 -20.42137762606464 18.514381538431735 0 0 0 0 -312.3999697319814 -524.16836972494968 0 -524.16836972494968 1009.3309409603182 0 0 0 0 -596.65209566574777 -325.39398797210924 0 -325.39398797210924 -303.57510744937827 0 0 0 0 -944.31133552113897 616.50461625081005 0 616.50461625081005 1401.3361125121585 0 0 0 0 -47.419665525135031 12.798347914330193 0 12.798347914330193 -2.9328271212123722 0 0 0 0 -24.627649922927844 5.0719541649150273 0 5.0719541649150273 0.85056906035452329 0 0 0 0 -80.347252854873659 646.55864478568151 0 646.55864478568151 778.24053685521039 0 0 0 0 -1384.6438835084555 82.231412775374167 0 82.231412775374167 834.11874194371626 0 0 0 0 -628.14043314056471 -288.21378005755423 0 -288.21378005755423 -346.41875872050878 0 0 0 0 -1660.3621228589982 231.96862139788936 0 231.96862139788936 -393.39943704515281 0 0 0 0 -2179.3058808489513 76.43419239062041 0 76.43419239062041 -37.569716254272862 0 0 0 0 -1956.5097196408824 -69.912017874887169 0 -69.912017874887169 -70.223737739383068 0 0 0 0 -2167.2540581288922 -417.6700399748097 0 -417.6700399748097 58.569619991119907 0 0 0 0 -2066.3894130589506 307.28719143028479 0 307.28719143028479 -775.23009913653505 0 0 0 0 -2765.1710201097158 -703.24403470470224 0 -703.24403470470224 -89.319325568571458 0 0 0 0 -2888.9696701174544 129.58747725250851 0 129.58747725250851 -106.85621464680958 0 0 0 0 -2017.7053488148231 165.92839124474085 0 165.92839124474085 -382.68415329645541 0 0 0 0 -1802.2766548453274 163.70541538997804 0 163.70541538997804 -762.49528159238844 0 0 0 0 -1896.3236980629372 -287.94145057379933 0 -287.94145057379933 -2451.8984959102258 0 0 0 0 -3788.6044994798358 908.16964437404636 0 908.16964437404636 -983.07370591993185 0 0 0 0 -4045.3132952885644 -1478.3336414383107 0 -1478.3336414383107 -833.3135885162161 0 0 0 0 -4135.5101694552941 -425.07794828203021 0 -425.07794828203021 -958.61114017853879 0 0 0 0 -1381.5823006209466 107.26495283977874 0 107.26495283977874 -900.54760591417232 0 0 0 0 -2277.1130370427563 -532.23912115734913 0 -532.23912115734913 -1024.9704290551938 0 0 0 0 -1774.9357440630047 -780.7533711939152 0 -780.7533711939152 -982.90031716333215 0 0 0 0 -35.559216039910098 132.87420338245704 0 132.87420338245704 -1151.746431017739 0 0 0 0 -515.97265331160452 -307.78644418610702 0 -307.78644418610702 -473.62809259028063 0 0 0 0 -779.86172976740636 443.26908954140674 0 443.26908954140674 -809.18672007719783 0 0 0 0 407.8211511943955 -367.34436360140239 0 -367.34436360140239 -589.86953161674205 0 0 0 0 -1649.8529344628478 -1807.7378850666382 0 -1807.7378850666382 -2090.6071278707914 0 0 0 0 -1902.5171415755904 1442.5765965634675 0 1442.5765965634675 -1157.8313143283399 0 0 0 0 244.11225952488167 844.76496468178664 0 844.76496468178664 -1264.8080665643402 0 0 0 0 -28.563195489010951 9.4649539262904625 0 9.4649539262904625 -4.4282207811351082 0 0 0 0 -2146.8248506174932 960.03258697345848 0 960.03258697345848 -720.88096565600142 0 0 0 0 -399.32778377219802 866.67938675406458 0 866.67938675406458 -1136.5055651485113 0 0 0 0 -530.78544696149766 580.90695684537741 0 580.90695684537741 -865.86810116959293 0 0 0 0 -493.01555246058706 525.60630692695815 0 525.60630692695815 -785.55478335494888 0 0 0 0 -771.43806774303084 876.27127026768562 0 876.27127026768562 -567.39040650548657 0 0 0 0 -947.49122692502715 961.48652201307948 0 961.48652201307948 -588.51571301729541 0 0 0 0 -1009.7215514147538 906.05069922657981 0 906.05069922657981 -594.53181683042544 0 0 0 0 -907.88435064627083 729.84984792490116 0 729.84984792490116 -745.49028478419677 0 0 0 0 -748.39371756086621 701.35655665683112 0 701.35655665683112 -435.33836370199288 0 0 0 0 -793.38462871523734 803.21068480721135 0 803.21068480721135 -253.97083492468676 0 0 0 0 -949.221139578578 1022.1363809407478 0 1022.1363809407478 -426.30389869892321 0 0 0 0 -752.17522956666198 983.9832727049577 0 983.9832727049577 -496.14408738926545 0 0 0 0 -1922.6589995399409 -612.66962784969894 0 -612.66962784969894 -408.30687811127586 0 0 0 0 -910.76384054591108 17.182080399511278 0 17.182080399511278 -937.8767964605297 0 0 0 0 -1513.9872212215523 190.5169364277485 0 190.5169364277485 -373.06446538614102 0 0 0 0 -284.94198685320589 145.47429814421955 0 145.47429814421955 -372.20061894488572 0 0 0 0 237.91437756869345 -403.57709125510263 0 -403.57709125510263 -394.8573143016057 0 0 0 0 -636.77987108529487 257.66770677502558 0 257.66770677502558 492.72950599514957 0 0 0 0 -66.684532534216714 -604.69803065442431 0 -604.69803065442431 1002.5333115844387 0 0 0 0 -150.19205977573165 336.38807658396468 0 336.38807658396468 149.82894241515783 0 0 0 0 -38.689304218367113 -13.768144678162752 0 -13.768144678162752 -2.0489091699549977 0 0 0 0 -206.61139456197998 360.96917574099541 0 360.96917574099541 59.999061893177384 0 0 0 0 -550.57796116334794 790.92112121355444 0 790.92112121355444 -498.57626445331937 0 0 0 0 -962.65550791949499 970.80104624254398 0 970.80104624254398 -412.16642985303031 0 0 0 0 -619.93358280836037 728.4507012753586 0 728.4507012753586 -160.35334064606218 0 0 0 0 -223.48938106615242 264.42787962921625 0 264.42787962921625 79.644958718109081 0 0 0 0 16.604177152501506 159.65264974728717 0 159.65264974728717 -47.676006681536137 0 0 0 0 -192.65088041751005 -5.9923419143525507 0 -5.9923419143525507 874.91428460058887 0 0 0 0 -385.72662700666115 417.14720099011896 0 417.14720099011896 83.181334657523166 0 0 0 0 -301.55413252839935 412.88258851446403 0 412.88258851446403 -601.66843948092423 0 0 0 0 -1042.5495267079168 687.12316657914914 0 687.12316657914914 -139.34668872630778 0 0 0 0 -1312.851565566807 150.5688496008338 0 150.5688496008338 -1017.5342118358044 0 0 0 0 -961.97858619244698 1109.5480623635617 0 1109.5480623635617 -927.32999073554674 0 0 0 0 -1782.6560749447344 948.07414727602327 0 948.07414727602327 -362.47283861604251 0 0 0 0 -1646.7737643905602 204.61682079451816 0 204.61682079451816 332.61215389133326 0 0 0 0 -23.562776786619693 -2.4506653533369089 0 -2.4506653533369089 2.1366033796080348 0 0 0 0 -2132.5319123759618 2588.2766400598366 0 2588.2766400598366 -2034.6012467273104 0 0 0 0 42.196922018389159 209.20163726285483 0 209.20163726285483 -67.305001978550081 0 0 0 0 -308.84910421753739 -489.877711395875 0 -489.877711395875 689.15925859758545 0 0 0 0 -91.771468335049576 214.76947866214664 0 214.76947866214664 274.46033196653894 0 0 0 0 -105.26248509291327 63.252486344778276 0 63.252486344778276 -44.192813704722539 0 0 0 0 17.529660509671885 113.19646334741887 0 113.19646334741887 -181.61551565915556 0 0 0 0 -223.65013603630723 97.182601121830771 0 97.182601121830771 -107.07815645452615 0 0 0 0 -28.521267183168675 207.23623207278888 0 207.23623207278888 -107.02106207650837 0 0 0 0 -39.67425795039162 83.573483630641476 0 83.573483630641476 -173.18839742104677 0 0 0 0 -20.021072897554404 -38.901996401650592 0 -38.901996401650592 -211.86575044267067 0 0 0 0 -275.05902588894605 368.8237804977183 0 368.8237804977183 -444.16362656256342 0 0 0 0 -31.516921328449328 -14.132900184532041 0 -14.132900184532041 1.0949882062217124 0 0 0 0 -43.312179688551623 -6.429274158956872 0 -6.429274158956872 -3.8154633618003118 0 0 0 0 -52.4313177452932 62.59316255772535 0 62.59316255772535 -100.09607066969932 0 0 0 0 -24.890845378818909 -12.050887938930984 0 -12.050887938930984 4.3992104641216656 0 0 0 0 -43.172245921086869 -8.4492360681541641 0 -8.4492360681541641 -0.7603960099215783 0 0 0 0 -37.059076871038997 -10.574659335867409 0 -10.574659335867409 -1.1880435984426185 0 0 0 0 -38.593880299109685 -13.046745513067556 0 -13.046745513067556 2.3051107327815084 0 0 0 0 -25.616719831973199 -15.811724913829252 0 -15.811724913829252 -1.9834128718565056 0 0 0 0 -108.5686686306035 -63.737401945472982 0 -63.737401945472982 -60.890191757467448 0 0 0 0 -1216.268836645846 449.2795190056147 0 449.2795190056147 -214.49547556026675 0 0 0 0 -7.6843629861861018 0.72053822219343999 0 0.72053822219343999 -5.4033523993775017 0 0 0 0 -814.89509830592579 737.51052692896815 0 737.51052692896815 -367.57727937415353 0 0 0 0 -975.01520458366758 812.88778947812045 0 812.88778947812045 -389.03478670954212 0 0 0 0 -898.37571283330908 803.67871973606816 0 803.67871973606816 -413.96047396391896 0 0 0 0 -5203.4074524478201 -865.44940324697791 0 -865.44940324697791 -1451.1629525144858 0 0 0 0 -4503.1697279881519 50.890899800051898 0 50.890899800051898 -407.79573349028908 0 0 0 0 -5984.3695277878651 1908.3594738555084 0 1908.3594738555084 -697.41827651416691 0 0 0 0 -2492.7879909070834 1326.5932594138476 0 1326.5932594138476 -601.15743281560526 0 0 0 0 -69.542393470823299 -308.39454464309529 0 -308.39454464309529 515.70987790267168 0 0 0 0 -593.87475639885633 24.286350957620016 0 24.286350957620016 614.18345485010923 0 0 0 0 -351.15620801257961 416.16331406482959 0 416.16331406482959 81.449660692509497 0 0 0 0 -27.015994439736588 -14.679686572855346 0 -14.679686572855346 -8.9203105858432785 0 0 0 0 -181.73686386231202 -1545.9360046313063 0 -1545.9360046313063 -670.62581384102805 0 0 0 0 -2019.3944089415781 -1081.3602429336058 0 -1081.3602429336058 -251.14300081908874 0 0 0 0 -4442.7101478161858 -1771.5764484257243 0 -1771.5764484257243 -210.75333927251737 0 0 0 0 -405.85580356026912 -65.144844611304507 0 -65.144844611304507 -574.30063854797618 0 0 0 0 -1279.086558971354 -347.17782978465607 0 -347.17782978465607 -421.48357962230739 0 0 0 0 -1498.8329991653136 -213.79093760173765 0 -213.79093760173765 -359.86685400839804 0 0 0 0 -1344.3644050760126 -108.69380545306923 0 -108.69380545306923 -345.51042550557554 0 0 0 0 -1284.1744230033128 -392.06679567766946 0 -392.06679567766946 -482.89440063340373 0 0 0 0 -2771.2281674593287 -609.87062542802232 0 -609.87062542802232 224.26865111874793 0 0 0 0 -2832.1653315828485 -112.04972267362595 0 -112.04972267362595 -56.260157390818335 0 0 0 0 -4151.2403603727871 -1151.8560278142056 0 -1151.8560278142056 211.05575401203129 0 0 0 0 -3825.621072975202 -108.32362752825139 0 -108.32362752825139 -74.001842978793675 0 0 0 0 -5235.7728055126336 349.14667302672962 0 349.14667302672962 90.064132893590596 0 0 0 0 -4498.427414458909 -328.29374961767132 0 -328.29374961767132 -1766.4522370695479 0 0 0 0 -4500.2559001470199 -349.54624494323627 0 -349.54624494323627 501.74985824281907 0 0 0 0 -3321.3528465154195 196.03488254233764 0 196.03488254233764 750.77973496017728 0 0 0 0 -3659.3978191089655 -722.13471574985624 0 -722.13471574985624 689.13771667315007 0 0 0 0 -1149.2262087402646 -1009.1641595513752 0 -1009.1641595513752 522.4650754743011 0 0 0 0 -4499.2074007016136 663.48335811613947 0 663.48335811613947 897.47097923429158 0 0 0 0 -3510.3929956180673 -18.218777241237035 0 -18.218777241237035 905.27142399147567 0 0 0 0 -3228.592847425235 691.44922451526963 0 691.44922451526963 454.59298915435488 0 0 0 0 -2426.3038839169585 821.78996597736671 0 821.78996597736671 164.38644391816433 0 0 0 0 -3234.8393055266379 856.60676879615892 0 856.60676879615892 324.09785172728516 0 0 0 0 -2993.2096171612893 -142.70191150791823 0 -142.70191150791823 -141.52980112356636 0 0 0 0 -3369.2569256353922 879.46710022842854 0 879.46710022842854 390.0420276251586 0 0 0 0 -2655.696432397292 -286.48825981864906 0 -286.48825981864906 -357.45479458088539 0 0 0 0 -27.769006101940658 -21.838579202388601 0 -21.838579202388601 -11.663747544175068 0 0 0 0 -2734.0066407595964 308.19140584243235 0 308.19140584243235 -1184.2038684469844 0 0 0 0 -4499.5357742515444 1851.3800964805603 0 1851.3800964805603 -403.28280092686407 0 0 0 0 -3355.6777368151925 776.36843398346423 0 776.36843398346423 408.11260289341237 0 0 0 0 -36.936252118936622 -14.191585723135743 0 -14.191585723135743 25.888027012687218 0 0 0 0 -30.13304339626302 -338.30277985383287 0 -338.30277985383287 743.71493593750893 0 0 0 0 -39.015995357633074 73.743633126771329 0 73.743633126771329 74.4918686921892 0 0 0 0 -159.96521744649544 -84.960329732763967 0 -84.960329732763967 879.3602457834254 0 0 0 0 -312.3910475746261 49.315095165932689 0 49.315095165932689 958.1431649333681 0 0 0 0 -2918.763950552277 -751.50631850283958 0 -751.50631850283958 -484.93594590137036 0 0 0 0 -4633.0310803432421 -91.712545963122466 0 -91.712545963122466 268.95487962373591 0 0 0 0 -3897.8911128740874 -1600.2405033078105 0 -1600.2405033078105 -1195.8788716310446 0 0 0 0 -11.622895809301777 8.8866146784890176 0 8.8866146784890176 -5.7834331796404506 0 0 0 0 -6363.3578846002274 2525.711156230645 0 2525.711156230645 -506.94803330793252 0 0 0 0 924.35397014117814 1887.3041253131728 0 1887.3041253131728 564.4437342746146 0 0 0 0 -7960.3411952992865 -1921.3702891626233 0 -1921.3702891626233 374.33778697359003 0 0 0 0 -7682.1497062690041 3028.5610765240285 0 3028.5610765240285 478.74063285989541 0 0 0 0 -2305.3546873049636 2470.1605736302108 0 2470.1605736302108 737.64463477363438 0 0 0 0 -1719.6623668075608 -445.74517774827956 0 -445.74517774827956 750.56902865243876 0 0 0 0 -566.3991325203333 78.995928114414596 0 78.995928114414596 967.2463413226601 0 0 0 0 -582.95975436648541 -403.96611626456377 0 -403.96611626456377 773.13217868460742 0 0 0 0 -1238.8420743807192 -828.22515977964133 0 -828.22515977964133 430.58686496456028 0 0 0 0 -1752.2953544071975 460.06289091450071 0 460.06289091450071 -328.56423201764221 0 0 0 0 -483.5050506962034 59.537934792014596 0 59.537934792014596 -639.61884202151919 0 0 0 0 -6895.1723947235932 1850.6477911865488 0 1850.6477911865488 1289.3997542133266 0 0 0 0 -18.857306368787569 -12.064389835382837 0 -12.064389835382837 -4.0567041781267417 0 0 0 0 -3664.6353070584764 -1190.1976503318067 0 -1190.1976503318067 -267.42235391900999 0 0 0 0 -3427.865741818794 -605.05767283451291 0 -605.05767283451291 226.67650427447165 0 0 0 0 -3066.4158077802531 605.78495782512528 0 605.78495782512528 -639.57469338874841 0 0 0 0 -1648.596787118101 495.97782441938455 0 495.97782441938455 -25.989684881928724 0 0 0 0 -2063.1553131116043 -310.13199728381869 0 -310.13199728381869 -135.43718407098436 0 0 0 0 -794.90852399908181 -176.57037445476988 0 -176.57037445476988 -429.53025857340572 0 0 0 0 413.34232710797005 -720.74279180061353 0 -720.74279180061353 -373.85801084922582 0 0 0 0 46.929853240091688 399.02226941433503 0 399.02226941433503 -179.11637882954165 0 0 0 0 -20.492435681794106 -20.855804515702722 0 -20.855804515702722 -2.2394743064980189 0 0 0 0 -5.6664213239257535 -7.7812567897153242 0 -7.7812567897153242 -0.63694151156126122 0 0 0 0 1871.281126771255 -3049.0230156058205 0 -3049.0230156058205 814.37406652428353 0 0 0 0 -502.62732022087312 -272.87135069694227 0 -272.87135069694227 -185.78981927669804 0 0 0 0 -210.45708673422632 63.882165666503987 0 63.882165666503987 -81.867680321347279 0 0 0 0 -439.44418626151491 -416.79528363536497 0 -416.79528363536497 -442.26184272803118 0 0 0 0 2735.7583969845177 -175.12377437103569 0 -175.12377437103569 -300.24742494628026 0 0 0 0 -192.09728600809103 104.94427667149949 0 104.94427667149949 -55.999516529927973 0 0 0 0 310.88279915103158 111.60721958982182 0 111.60721958982182 1106.562654555858 0 0 0 0 -254.84722027300813 -580.73344772569521 0 -580.73344772569521 260.72481333593078 0 0 0 0 661.25187100488802 -1386.5199021004701 0 -1386.5199021004701 775.5123045255707 0 0 0 0 295.53611230070965 -213.69758676950664 0 -213.69758676950664 128.74687795545242 0 0 0 0 -31.299132396650347 -24.790810258087198 0 -24.790810258087198 7.6396144643675683 0 0 0 0 -182.00927808204324 56.900440863736492 0 56.900440863736492 33.737456282990934 0 0 0 0 -181.71072817110598 66.30235674300576 0 66.30235674300576 -21.430923656554114 0 0 0 0 -210.12216333433935 16.877989858669025 0 16.877989858669025 27.918300420845242 0 0 0 0 -212.77813847440962 36.665990455530675 0 36.665990455530675 80.264263446593304 0 0 0 0 -330.05690682117165 47.665347930939788 0 47.665347930939788 80.432409432482928 0 0 0 0 -78.464110538629939 -32.179652791257467 0 -32.179652791257467 23.947261211990622 0 0 0 0 -77.866926653491419 -34.864061430264655 0 -34.864061430264655 23.162284377585365 0 0 0 0 -291.65415323708658 -101.40274647216597 0 -101.40274647216597 54.992461832752042 0 0 0 0 -189.72888164112919 41.838659590134512 0 41.838659590134512 262.53172560052576 0 0 0 0 -14.232275074250992 -8.5984491879945022 0 -8.5984491879945022 -3.6797306904943801 0 0 0 0 -94.732605794533811 -128.01170967901203 0 -128.01170967901203 239.61263880393994 0 0 0 0 -66.632797911511261 -27.577023993410648 0 -27.577023993410648 27.208124601170766 0 0 0 0 -213.37475113424557 35.759834185640756 0 35.759834185640756 129.74674337243232 0 0 0 0 -136.34422426242782 52.290210151143242 0 52.290210151143242 78.306462816050953 0 0 0 0 -215.69920169637044 61.506263005149322 0 61.506263005149322 85.83827876910118 0 0 0 0 -163.41614826815203 104.05658277311393 0 104.05658277311393 -20.745396885728724 0 0 0 0 55.788401800753491 83.918785918318235 0 83.918785918318235 57.105851527744335 0 0 0 0 -207.91967846144144 -71.255921368147256 0 -71.255921368147256 -27.605267325116188 0 0 0 0 -174.20819149229919 -21.891777177838037 0 -21.891777177838037 -103.43044299883218 0 0 0 0 -340.00999665039774 -164.22286416481577 0 -164.22286416481577 -187.05263879092928 0 0 0 0 -210.11180189057632 39.804678839988469 0 39.804678839988469 -59.478885829119292 0 0 0 0 -303.9750268132284 79.774812206033261 0 79.774812206033261 -71.345819488006612 0 0 0 0 -209.83307040976547 63.618910582986388 0 63.618910582986388 -124.13266732505747 0 0 0 0 3281.8733210885794 -2230.608208291716 0 -2230.608208291716 1243.8621861885035 0 0 0 0 -631.62115768960484 128.00331398568142 0 128.00331398568142 -48.166402389163117 0 0 0 0 -462.6918783823603 -227.36820669973869 0 -227.36820669973869 -97.710471387653399 0 0 0 0 -664.92802831291738 -314.35993519447891 0 -314.35993519447891 -114.70910072709064 0 0 0 0 -1106.2254620262543 -482.92490860942485 0 -482.92490860942485 -103.67948213993628 0 0 0 0 -121.41180699546749 -792.78828287757676 0 -792.78828287757676 -206.73135026718413 0 0 0 0 -357.19038911796633 -392.469928122836 0 -392.469928122836 -136.62574230943915 0 0 0 0 2131.5274425047219 -735.57968769479169 0 -735.57968769479169 -214.59380914241308 0 0 0 0 -18.75597041198095 -16.660630882704204 0 -16.660630882704204 1.605047810891481 0 0 0 0 -662.94501283722457 -3121.957270084773 0 -3121.957270084773 1099.5276239227571 0 0 0 0 48.357780482975159 27.677661624067724 0 27.677661624067724 -64.289583254431363 0 0 0 0 23.344679092153683 183.46855921910378 0 183.46855921910378 -110.20440786387508 0 0 0 0 -5.1258668058744457 -7.4932746567117761 0 -7.4932746567117761 -1.4913397889551643 0 0 0 0 4219.9576377243329 -855.50879139839697 0 -855.50879139839697 1645.1710591424646 0 0 0 0 -1186.5208158572632 85.838079662255041 0 85.838079662255041 -5.90251882025143 0 0 0 0 -261.66750701596538 139.53859969933796 0 139.53859969933796 41.02505200966641 0 0 0 0 -396.8769294014055 -113.70178597131542 0 -113.70178597131542 -31.42317125168654 0 0 0 0 -466.9783192457453 -295.44021374112742 0 -295.44021374112742 -379.36919343832858 0 0 0 0 -400.91205822829943 3.6473636541481937 0 3.6473636541481937 -322.73642009138791 0 0 0 0 -485.88602638068551 -85.765154871320192 0 -85.765154871320192 -495.43086694606825 0 0 0 0 -354.41771928567505 27.402309023138372 0 27.402309023138372 -541.84505076278606 0 0 0 0 -352.80014297795969 -334.50460011363566 0 -334.50460011363566 -386.26920149672219 0 0 0 0 -527.09002651670016 -72.622601671259417 0 -72.622601671259417 -262.53343707040813 0 0 0 0 -353.53040397268342 153.05247029793145 0 153.05247029793145 -409.9864677716298 0 0 0 0 -239.63556629295272 174.75462645792368 0 174.75462645792368 -151.21489675554062 0 0 0 0 -426.02253181997912 -28.556891856370498 0 -28.556891856370498 -100.06160690245179 0 0 0 0 -394.05171078819694 160.45351773998027 0 160.45351773998027 -48.100902371098982 0 0 0 0 -182.04105958477157 74.126896748391573 0 74.126896748391573 -55.355004037101935 0 0 0 0 -286.80667160858138 200.7643979338709 0 200.7643979338709 10.736204117530406 0 0 0 0 -287.09180679651456 209.00755102607633 0 209.00755102607633 -95.631628355272369 0 0 0 0 -446.13460008040238 182.43132864573408 0 182.43132864573408 99.3812584164491 0 0 0 0 -466.86615712805883 296.96482282112817 0 296.96482282112817 -88.26810675246179 0 0 0 0 -349.32743562454925 213.49678930434038 0 213.49678930434038 108.62784494391281 0 0 0 0 -20.331121408598303 -2.8003619035743164 0 -2.8003619035743164 8.3247317037490554 0 0 0 0 -539.02402475848066 98.167242530189469 0 98.167242530189469 316.53010500111304 0 0 0 0 -666.8270595175627 376.88988327585048 0 376.88988327585048 74.741151852023904 0 0 0 0 -81.340225825797461 -34.091925971874844 0 -34.091925971874844 52.018127577412088 0 0 0 0 -44.15925098275693 -105.6547183361613 0 -105.6547183361613 164.8233112099814 0 0 0 0 -85.155234718175961 12.369337767596789 0 12.369337767596789 56.667859114866587 0 0 0 0 -81.795373641145488 -11.924822085397409 0 -11.924822085397409 103.29956388368373 0 0 0 0 -133.60207214553884 31.775499738941789 0 31.775499738941789 192.63166791466301 0 0 0 0 -104.88105020371631 72.783785412623502 0 72.783785412623502 -25.994756028438132 0 0 0 0 -500.04152418022522 -154.04879133238995 0 -154.04879133238995 464.62918179986809 0 0 0 0 -349.67580920860746 -660.85837397708497 0 -660.85837397708497 326.69580225520122 0 0 0 0 185.99114934693819 -300.56063086751033 0 -300.56063086751033 475.78472443807232 0 0 0 0 178.78620253526424 -247.33612691234498 0 -247.33612691234498 -401.596867247869 0 0 0 0 128.40753298531854 -217.53982763734041 0 -217.53982763734041 1015.2394094598782 0 0 0 0 259.58442147922869 -874.47855607178235 0 -874.47855607178235 756.59858584550284 0 0 0 0 653.24221421055518 -863.35403340289872 0 -863.35403340289872 559.34993826676146 0 0 0 0 -36.410913422453774 -12.000909702742518 0 -12.000909702742518 19.578231608543035 0 0 0 0 -71.917127566946661 -25.750495101212767 0 -25.750495101212767 10.015550495920351 0 0 0 0 493.39309720154961 -424.3756503642262 0 -424.3756503642262 1046.7622029288996 0 0 0 0 -9.8649127862494197 -28.882285750482534 0 -28.882285750482534 9.7768264239956846 0 0 0 0 513.49183387275662 -361.23706704996039 0 -361.23706704996039 -67.88610387626386 0 0 0 0 -54.270069384758244 -460.22356748212587 0 -460.22356748212587 672.57285427658326 0 0 0 0 61.981093291844445 -245.19511046324806 0 -245.19511046324806 736.62032393820914 0 0 0 0 -185.76615364145073 -460.87922469004525 0 -460.87922469004525 734.41235104055431 0 0 0 0 207.95483621205858 -571.90037062870169 0 -571.90037062870169 464.28914995228797 0 0 0 0 538.5194670160563 -450.06705117941601 0 -450.06705117941601 452.01126174297133 0 0 0 0 -416.48034105796114 -489.67591361314305 0 -489.67591361314305 495.34239051427585 0 0 0 0 -222.93521085734642 -268.81112387357507 0 -268.81112387357507 613.26921339519686 0 0 0 0 -51.354015491637256 -465.26275522264859 0 -465.26275522264859 572.33814670854213 0 0 0 0 -749.77549710510084 -294.23645079302219 0 -294.23645079302219 759.51025254104263 0 0 0 0 -725.92018174013901 -21.676669348428732 0 -21.676669348428732 894.63930285308652 0 0 0 0 -464.53084930947671 93.149224136948646 0 93.149224136948646 739.21774162543443 0 0 0 0 969.86760227333423 343.42678527183557 0 343.42678527183557 172.4601019768528 0 0 0 0 -532.48056869587845 101.40666064059155 0 101.40666064059155 1082.6462645284014 0 0 0 0 323.96055075987897 1459.757364148918 0 1459.757364148918 -898.60546202583691 0 0 0 0 -1018.9465921734572 1480.1769418683402 0 1480.1769418683402 -247.37348693923059 0 0 0 0 -877.14510180016669 -815.03091408425007 0 -815.03091408425007 -689.71287340532035 0 0 0 0 -1922.4041460999479 -1.6767470378724738 0 -1.6767470378724738 778.10751977658936 0 0 0 0 -1105.1210042583953 974.94917766034814 0 974.94917766034814 -1005.305920541843 0 0 0 0 -2179.0011229806892 217.88046736892949 0 217.88046736892949 123.69881971894961 0 0 0 0 569.18041021518729 756.4563229187379 0 756.4563229187379 -895.2118276488236 0 0 0 0 -1504.401486177836 -596.55654133596693 0 -596.55654133596693 -219.42949609850211 0 0 0 0 -18.644723646647549 11.040650430937371 0 11.040650430937371 -6.9157327997761167 0 0 0 0 -144.1238547433386 -247.48701482341471 0 -247.48701482341471 -273.47608523749432 0 0 0 0 -1022.7229274812908 15.536302551758951 0 15.536302551758951 -52.537148206664682 0 0 0 0 -964.85620871763604 121.5508605083316 0 121.5508605083316 130.34287079535076 0 0 0 0 -829.45726359582113 515.98551258935083 0 515.98551258935083 -152.86492785265037 0 0 0 0 -281.80573234378335 426.30868601065572 0 426.30868601065572 -21.888526468622786 0 0 0 0 -513.35644813563522 142.36298335711962 0 142.36298335711962 -190.69162978125007 0 0 0 0 -8.1200671672104363 -58.007959881642705 0 -58.007959881642705 97.489264062577263 0 0 0 0 593.86437962630862 389.1984496678736 0 389.1984496678736 386.85956117974592 0 0 0 0 -386.44002830809222 20.886823197124912 0 20.886823197124912 -373.79753233003242 0 0 0 0 407.23178455579182 146.42399685991182 0 146.42399685991182 -361.76485333299911 0 0 0 0 -483.33132028686032 -70.715323965259131 0 -70.715323965259131 -100.80830229381023 0 0 0 0 -205.35444937300508 -160.52517573040234 0 -160.52517573040234 -196.01238096265021 0 0 0 0 -521.03958597555538 -134.88684467248106 0 -134.88684467248106 -196.77965501956365 0 0 0 0 -443.22387163722851 -4.2795526175626719 0 -4.2795526175626719 -171.82503682312625 0 0 0 0 -1060.8525720255425 366.23571052923762 0 366.23571052923762 -90.702589498472719 0 0 0 0 -1314.1718042314269 -74.614250449799783 0 -74.614250449799783 34.980559221842498 0 0 0 0 -515.1116595028584 -433.83826751447003 0 -433.83826751447003 1.5817038057616628 0 0 0 0 35.502042533086836 -414.14980288244959 0 -414.14980288244959 1.8944627895100439 0 0 0 0 -8.3713193228826555 -3.9058542155358689 0 -3.9058542155358689 -1.6547389368671279 0 0 0 0 -1681.1265156738475 107.66166538625677 0 107.66166538625677 61.132406386164462 0 0 0 0 -969.45193567532624 305.18937669937173 0 305.18937669937173 76.421369398279182 0 0 0 0 -1470.4216940231381 722.70838373892866 0 722.70838373892866 109.79220815993307 0 0 0 0 -594.9498418076646 743.14837645658736 0 743.14837645658736 -61.268708146856625 0 0 0 0 -491.5647414967616 -91.493666718710898 0 -91.493666718710898 -41.658127678471374 0 0 0 0 -62.147033042958356 75.616543812439318 0 75.616543812439318 -144.10689700996568 0 0 0 0 -1017.56542010876 250.17059068701002 0 250.17059068701002 88.624534477227883 0 0 0 0 -838.74375133638478 202.15339175032744 0 202.15339175032744 -97.351111728560909 0 0 0 0 -834.0544336260873 195.92077945234621 0 195.92077945234621 -457.80289394109667 0 0 0 0 -0.80368811624168757 0.70258732311298289 0 0.70258732311298289 -0.33873996288931418 0 0 0 0 -85.224001652372863 222.25630527991004 0 222.25630527991004 -248.01027520845727 0 0 0 0 -738.98240224896472 259.49987805117519 0 259.49987805117519 -96.368618946642727 0 0 0 0 -681.67507801195188 85.349434321207369 0 85.349434321207369 -91.345507408466517 0 0 0 0 -878.13093889369338 219.17284074465883 0 219.17284074465883 7.3643779295874765 0 0 0 0 -1108.7797081057424 248.99708752716725 0 248.99708752716725 70.228737705482615 0 0 0 0 -874.84141270815508 204.78257907643339 0 204.78257907643339 -118.50514912530161 0 0 0 0 -419.19372622151241 -66.151848450796706 0 -66.151848450796706 -47.311041470920927 0 0 0 0 -27.793346939486582 -33.272321338253619 0 -33.272321338253619 -204.11358297395947 0 0 0 0 -212.55893684248258 -59.988397168434034 0 -59.988397168434034 -153.12507815352785 0 0 0 0 -181.712504212981 -92.486117156424342 0 -92.486117156424342 -208.38891952186367 0 0 0 0 -317.30784283827234 67.042166556980277 0 67.042166556980277 -250.88853081230098 0 0 0 0 -88.21240273470903 -39.515928817087115 0 -39.515928817087115 -224.40111802474098 0 0 0 0 -112.48207207250186 -69.793230108256566 0 -69.793230108256566 -92.334198801427988 0 0 0 0 -84.967574803449679 46.554376518979325 0 46.554376518979325 42.069647529437702 0 0 0 0 -121.76700461932251 -143.45446410872151 0 -143.45446410872151 -169.09286073952632 0 0 0 0 -47.857780107942745 -14.769420808590837 0 -14.769420808590837 -118.11254559300423 0 0 0 0 -99.296708989165381 -157.71329215653026 0 -157.71329215653026 -168.56364190967884 0 0 0 0 -105.58789683266514 -43.062150054500364 0 -43.062150054500364 43.986202244594097 0 0 0 0 34.708181568894361 13.849438160955458 0 13.849438160955458 26.512891368508008 0 0 0 0 -67.809316010932889 34.070101018547007 0 34.070101018547007 93.157912024890265 0 0 0 0 -1.7759042688194597 0.84789811959067585 0 0.84789811959067585 0.88509366936941913 0 0 0 0 -10.239260710080998 -37.478879459700352 0 -37.478879459700352 40.488684459124556 0 0 0 0 -46.094683727649681 49.147640736662765 0 49.147640736662765 13.977704721999942 0 0 0 0 -62.548442430652358 81.618485882388086 0 81.618485882388086 -8.5839309906830437 0 0 0 0 1.0545950421110319 48.315771881135618 0 48.315771881135618 36.038390274463609 0 0 0 0 -2.9414888543379689 -0.22276482584128132 0 -0.22276482584128132 0.28228867460708829 0 0 0 0 -708.54645603189783 -189.65152131707896 0 -189.65152131707896 -111.63436210441785 0 0 0 0 -491.61528937081493 6.4902076922284522 0 6.4902076922284522 43.354774018949691 0 0 0 0 -805.52245076216605 -2.3050707935928187 0 -2.3050707935928187 68.38029930906913 0 0 0 0 5.5661835195028289 -128.93028661486042 0 -128.93028661486042 -202.95958310399499 0 0 0 0 -1.6596606589068017 -1.8383301875552274 0 -1.8383301875552274 -2.332630316468947 0 0 0 0 -535.88851556337431 -218.2698846546229 0 -218.2698846546229 -115.38053785007861 0 0 0 0 -510.63422930804336 133.627021028591 0 133.627021028591 -7.6920635153037438 0 0 0 0 -34.207543104700562 -219.42163275856933 0 -219.42163275856933 -244.79270540220546 0 0 0 0 -321.77941309857852 5.922578829652398 0 5.922578829652398 -55.964723582110338 0 0 0 0 -384.77495476297554 111.33093694540777 0 111.33093694540777 -231.68212442455541 0 0 0 0 -491.84351821136988 97.667949848088938 0 97.667949848088938 55.263370152887781 0 0 0 0 -283.72096784943608 177.52230666260871 0 177.52230666260871 -2.9353710027671269 0 0 0 0 -173.69768183905921 -55.377270471046501 0 -55.377270471046501 -81.970292930007531 0 0 0 0 -152.68872831795488 99.573684850791579 0 99.573684850791579 -44.29260374041553 0 0 0 0 -264.65278377840696 5.8594176566639362 0 5.8594176566639362 -121.78434152378145 0 0 0 0 -538.40726476858458 73.280308964711409 0 73.280308964711409 267.52196384480976 0 0 0 0 -83.884724548875454 38.362184832919155 0 38.362184832919155 -12.566529703252389 0 0 0 0 -274.70592771079282 138.26248920448378 0 138.26248920448378 -47.967815413719393 0 0 0 0 -324.3084669133641 13.91458660087892 0 13.91458660087892 53.398282501259928 0 0 0 0 -358.62980495512022 -186.88754875510344 0 -186.88754875510344 27.28649659488201 0 0 0 0 -323.08505896390125 -239.07872234138631 0 -239.07872234138631 103.26228701742798 0 0 0 0 -396.28253868363572 -235.39325189271585 0 -235.39325189271585 479.15556021451539 0 0 0 0 -251.79633291072332 -185.12220343436434 0 -185.12220343436434 -40.397926409976662 0 0 0 0 -72.506393050946116 32.560947934939513 0 32.560947934939513 -13.401841203422704 0 0 0 0 -224.78398326287606 312.93936790568057 0 312.93936790568057 749.63990412240764 0 0 0 0 -52.226268199221323 26.032873408401443 0 26.032873408401443 -11.195719347183967 0 0 0 0 -247.66856847638792 53.365276368951754 0 53.365276368951754 28.508775801354432 0 0 0 0 -477.4912388446628 953.64661606428081 0 953.64661606428081 1396.1028766372015 0 0 0 0 -528.96002467201833 839.46507548691898 0 839.46507548691898 35.655974089374013 0 0 0 0 -266.17803445953541 179.96329537699739 0 179.96329537699739 -396.73131518871833 0 0 0 0 631.82581414345714 170.41996227211985 0 170.41996227211985 404.26694979920421 0 0 0 0 26.914264723036467 -104.41174227593092 0 -104.41174227593092 81.499702554445321 0 0 0 0 108.91481625731649 693.17073343699826 0 693.17073343699826 485.98221444232331 0 0 0 0 -865.95321083207455 102.46885628285236 0 102.46885628285236 394.95879946667014 0 0 0 0 -421.04166409709887 186.47747368810326 0 186.47747368810326 -428.95651967040703 0 0 0 0 -634.98698442825116 -331.71147157534983 0 -331.71147157534983 11.508425818834212 0 0 0 0 -852.04963286714701 -156.11698632566447 0 -156.11698632566447 -675.46387582879368 0 0 0 0 -1386.1237623258376 786.28139851067101 0 786.28139851067101 -667.16610061355277 0 0 0 0 -1058.6264550891829 675.76690584785297 0 675.76690584785297 -1296.1771354080438 0 0 0 0 -2321.0651798855924 575.75304889633003 0 575.75304889633003 -267.85738809956251 0 0 0 0 -669.50943293506134 150.20489461807983 0 150.20489461807983 -673.86734855984719 0 0 0 0 -832.73007512357435 -28.947948632146876 0 -28.947948632146876 -417.12588697949536 0 0 0 0 -950.19557298147538 1195.404941260017 0 1195.404941260017 -287.42623131551227 0 0 0 0 0.86501094954907387 3.0386559560592019 0 3.0386559560592019 -4.8767264935829076 0 0 0 0 480.66026671191776 1030.4254434328686 0 1030.4254434328686 53.105573703064692 0 0 0 0 991.62864415244405 1489.2265176212904 0 1489.2265176212904 -357.62122610489519 0 0 0 0 -2.5655192803166198 2.5345194309819021 0 2.5345194309819021 -6.3453640319226166 0 0 0 0 -2461.84267851597 -352.88819814998391 0 -352.88819814998391 -2.8550856438685059 0 0 0 0 -340.16823656978977 -289.96730120407688 0 -289.96730120407688 -35.14778924249822 0 0 0 0 -1584.9325128384517 -478.0113576388303 0 -478.0113576388303 -148.29715212378005 0 0 0 0 -1077.3569204442538 -365.92542886595766 0 -365.92542886595766 -124.20329001277787 0 0 0 0 -1326.2658873847599 394.58686774825571 0 394.58686774825571 -370.94559418974416 0 0 0 0 -804.78984074783511 176.886969504018 0 176.886969504018 -292.45976282797619 0 0 0 0 -1315.6528400779134 136.41853322492614 0 136.41853322492614 -267.41946224536332 0 0 0 0 -1647.9435407816964 178.28337836180822 0 178.28337836180822 -113.32659244863066 0 0 0 0 -1212.4903752185564 -0.024575344977392888 0 -0.024575344977392888 -89.763114124149979 0 0 0 0 -1116.3759326527115 302.6451218877034 0 302.6451218877034 -160.12574724432125 0 0 0 0 -825.04573039495881 162.19988614532758 0 162.19988614532758 -97.308360981857277 0 0 0 0 -840.17969279035242 217.84083582393987 0 217.84083582393987 -76.788385643443689 0 0 0 0 -564.05993270160252 170.19802462399639 0 170.19802462399639 -233.89154136467369 0 0 0 0 -458.05988933697881 65.101746345555057 0 65.101746345555057 -407.28777055979663 0 0 0 0 -793.86974731912187 245.49911673749875 0 245.49911673749875 -238.02742713627026 0 0 0 0 -556.40828478456206 118.99323538966507 0 118.99323538966507 -75.412858727298499 0 0 0 0 -18.983853072573396 -42.548337997376926 0 -42.548337997376926 -174.36289213891087 0 0 0 0 -254.23933468164614 12.882772193415349 0 12.882772193415349 -269.00316796062953 0 0 0 0 -236.83248182660463 94.59539249103085 0 94.59539249103085 -105.63900447403876 0 0 0 0 -323.50149228158079 -168.88917483455049 0 -168.88917483455049 25.319272515882631 0 0 0 0 -372.40542307981741 -199.43731442825424 0 -199.43731442825424 -205.87839289390945 0 0 0 0 -341.27616489569846 -116.13959917737554 0 -116.13959917737554 -50.782960714694369 0 0 0 0 -350.99648116405842 -86.270810869469358 0 -86.270810869469358 -450.68833504786016 0 0 0 0 -571.60335684837628 98.390519355094739 0 98.390519355094739 -418.1370564107475 0 0 0 0 -683.83843419839968 105.83484338457188 0 105.83484338457188 -324.81546625319515 0 0 0 0 -452.27796524838413 99.245195991384435 0 99.245195991384435 -217.65170282148324 0 0 0 0 -731.36194481050552 116.51866083156438 0 116.51866083156438 12.540622282379445 0 0 0 0 -581.4045548061913 75.14059715540543 0 75.14059715540543 -97.987699063791297 0 0 0 0 -580.73095478304458 60.075340574678194 0 60.075340574678194 5.1319213103170114 0 0 0 0 -308.83502467697167 159.64541622116556 0 159.64541622116556 -113.20511803659792 0 0 0 0 -383.54321472948504 75.77312736262229 0 75.77312736262229 -173.45703647099799 0 0 0 0 -436.3744275424433 162.13927692396101 0 162.13927692396101 -66.976932775823116 0 0 0 0 -404.88909476934987 216.46356923042873 0 216.46356923042873 -38.513921459933044 0 0 0 0 -542.22226889785816 139.86034560406051 0 139.86034560406051 -48.400171630627483 0 0 0 0 -412.26231087545966 186.10175463602513 0 186.10175463602513 68.195371826345763 0 0 0 0 -413.9672490507437 38.987473953298377 0 38.987473953298377 148.87464945632337 0 0 0 0 -394.42524320063967 51.09161517722498 0 51.09161517722498 -18.751342370213024 0 0 0 0 -484.90696155358455 179.6005534979663 0 179.6005534979663 -138.81212056895811 0 0 0 0 -652.45771283527574 139.85930261218141 0 139.85930261218141 5.9885185385837758 0 0 0 0 -563.79008734962008 199.17872585359157 0 199.17872585359157 -35.131292061884778 0 0 0 0 -705.04516437343773 119.74338607659001 0 119.74338607659001 12.914316826145978 0 0 0 0 -763.8558534158401 165.33560317504225 0 165.33560317504225 27.592379751619774 0 0 0 0 -691.60080631099663 209.23695152468918 0 209.23695152468918 -87.862331057761367 0 0 0 0 -851.37613612139103 141.94962275893022 0 141.94962275893022 29.184070318412523 0 0 0 0 -934.17564280166698 226.21299243806652 0 226.21299243806652 -41.934744607865468 0 0 0 0 -1103.1087349663285 108.22885712860716 0 108.22885712860716 -7.5263877168117688 0 0 0 0 -1032.2241509756313 36.766097218043342 0 36.766097218043342 62.255115669209317 0 0 0 0 -868.72306603171455 60.500845715845117 0 60.500845715845117 61.792838870068181 0 0 0 0 -6.9529940355725337 9.9498215315745711 0 9.9498215315745711 -12.991891207318334 0 0 0 0 -68.095511239841471 162.42966550599658 0 162.42966550599658 -22.515390296013578 0 0 0 0 -727.92751422264178 -142.93990852126865 0 -142.93990852126865 -1.2745259423545576 0 0 0 0 -723.87196626454534 -125.87334493711637 0 -125.87334493711637 -70.813134415757304 0 0 0 0 -930.42882810629817 -84.2731941161137 0 -84.2731941161137 65.451759592485359 0 0 0 0 -566.10474748911065 -198.1038072375685 0 -198.1038072375685 -29.117547618247045 0 0 0 0 -774.08534652484195 17.718998529986038 0 17.718998529986038 52.164484545377491 0 0 0 0 -654.68879273338189 -15.49490727774787 0 -15.49490727774787 52.262452574357667 0 0 0 0 -775.13604030528586 28.524425795191291 0 28.524425795191291 65.974807255024643 0 0 0 0 -881.67640167331956 69.896639782535203 0 69.896639782535203 65.740581212206962 0 0 0 0 -736.68926588430838 43.677481995962438 0 43.677481995962438 69.529587179218652 0 0 0 0 -890.70355257404208 -40.323145118030652 0 -40.323145118030652 56.563868925813949 0 0 0 0 -717.21290155509269 4.3299452377950729 0 4.3299452377950729 67.985130070151172 0 0 0 0 -517.4877688952547 58.204438421043506 0 58.204438421043506 -33.940025217841594 0 0 0 0 -1323.9767539687018 301.61113347877108 0 301.61113347877108 -52.668584894405512 0 0 0 0 -769.98033453485004 192.151612270442 0 192.151612270442 -69.033080970704759 0 0 0 0 -670.40207850828665 -92.573019608648792 0 -92.573019608648792 -106.80228367752761 0 0 0 0 -647.82151995840832 14.409162899049988 0 14.409162899049988 -69.122326724820596 0 0 0 0 -548.19852380564771 8.8212893224099389 0 8.8212893224099389 36.072292490600375 0 0 0 0 -548.14998591205949 10.627957535839414 0 10.627957535839414 -74.720946249333792 0 0 0 0 -663.6627597799561 -33.302630288096225 0 -33.302630288096225 12.506020312931469 0 0 0 0 -570.2826803068383 -38.339121070364854 0 -38.339121070364854 -23.888088292513885 0 0 0 0 -565.04548588208854 -10.019045673537221 0 -10.019045673537221 -26.41888321622173 0 0 0 0 -710.35573530811416 27.052053700927786 0 27.052053700927786 -2.6604987468854233 0 0 0 0 -448.83827437362561 -10.265934602471134 0 -10.265934602471134 -210.4492157785603 0 0 0 0 -541.92050075592624 -11.831731704711387 0 -11.831731704711387 -35.931908001924967 0 0 0 0 -449.74481182809177 10.224451894701815 0 10.224451894701815 -67.037195267243987 0 0 0 0 -544.84572266370014 4.4071873846928611 0 4.4071873846928611 -44.877140138763934 0 0 0 0 -445.21967364673765 -17.28419099677285 0 -17.28419099677285 -41.338246209071258 0 0 0 0 -454.86322727212246 -12.002923357596046 0 -12.002923357596046 11.36401711711369 0 0 0 0 -305.63305401441175 25.453679213893338 0 25.453679213893338 -55.797996713963585 0 0 0 0 -332.84504912101875 8.2107750753120854 0 8.2107750753120854 -21.839345136786505 0 0 0 0 -458.32958499137021 4.4688691772926177 0 4.4688691772926177 55.487947638621335 0 0 0 0 -456.01409169796534 3.5659381025398034 0 3.5659381025398034 -36.989525611345925 0 0 0 0 -555.75205969187482 -32.389730413554389 0 -32.389730413554389 12.004415299255925 0 0 0 0 -352.9513476117063 23.31945158311828 0 23.31945158311828 -5.2322604999553732 0 0 0 0 -404.81612388367648 59.894328411452079 0 59.894328411452079 25.435980551654211 0 0 0 0 -346.21831681342519 5.8704070088624576 0 5.8704070088624576 30.513036543532507 0 0 0 0 -295.20275084871537 60.318010657314517 0 60.318010657314517 22.078669017020729 0 0 0 0 -362.80175404982583 6.1498023145122716 0 6.1498023145122716 11.216333179043431 0 0 0 0 -345.00413874504011 58.535408512472713 0 58.535408512472713 3.422546544797342 0 0 0 0 -452.04059068587958 -3.1382970656341058 0 -3.1382970656341058 -26.424052677532018 0 0 0 0 -474.89619930504341 84.900441822444918 0 84.900441822444918 -15.697010886186035 0 0 0 0 -437.00180109553912 59.976424075237446 0 59.976424075237446 19.753423511471283 0 0 0 0 -400.59547171539816 15.455386601030114 0 15.455386601030114 27.053070131598361 0 0 0 0 -629.04945185353972 -14.936179559459561 0 -14.936179559459561 -36.518672839454666 0 0 0 0 -571.37380884669255 55.741857833919312 0 55.741857833919312 52.803801903964995 0 0 0 0 -589.09949907506007 123.39771288583927 0 123.39771288583927 -104.84174960452765 0 0 0 0 -426.025212185079 517.42983790372818 0 517.42983790372818 536.81818766258584 0 0 0 0 -1204.7084655831804 -480.94558269868685 0 -480.94558269868685 -33.337192007400517 0 0 0 0 191.00602412975786 944.91252345091016 0 944.91252345091016 513.10195690567161 0 0 0 0 -22.250722870351758 -3.6221239946798196 0 -3.6221239946798196 10.155763422360696 0 0 0 0 -460.61663910521384 -97.796783005114776 0 -97.796783005114776 -44.480865731600716 0 0 0 0 -486.86834171685405 35.359361423016708 0 35.359361423016708 41.65451221483454 0 0 0 0 -601.94540713454626 69.836890528137701 0 69.836890528137701 55.373333145382276 0 0 0 0 -396.1169965587942 -28.706929227468208 0 -28.706929227468208 37.933355640978334 0 0 0 0 -279.9359687758697 58.607064846292133 0 58.607064846292133 -38.119285405617347 0 0 0 0 -108.24268951592575 -1.8435161945275951 0 -1.8435161945275951 7.8677103164718964 0 0 0 0 -584.33480116792634 -195.48248250913116 0 -195.48248250913116 -21.392987871643072 0 0 0 0 -473.31107768065704 13.837506863103044 0 13.837506863103044 31.457105839022915 0 0 0 0 -651.63682091480587 -104.5751109629914 0 -104.5751109629914 -128.0509627146198 0 0 0 0 -112.62489920774271 1.3813026821473855 0 1.3813026821473855 9.8394610712904829 0 0 0 0 -614.25607091275015 -288.37840938196359 0 -288.37840938196359 104.08292728598599 0 0 0 0 -591.8506026367686 -151.24997244608858 0 -151.24997244608858 -6.4512247695378164 0 0 0 0 -267.4089555929022 62.888486545585238 0 62.888486545585238 -35.43622820105216 0 0 0 0 -375.36841149952306 207.2386322654142 0 207.2386322654142 -7.1072910202633466 0 0 0 0 -73.008045772345213 40.389761900698659 0 40.389761900698659 -13.723887332040242 0 0 0 0 -75.342717862955283 39.125251628043117 0 39.125251628043117 11.712861589622792 0 0 0 0 -617.70018310434534 -241.87135498035946 0 -241.87135498035946 17.943675583059417 0 0 0 0 -764.86788438498479 -257.01574413185017 0 -257.01574413185017 16.431822242369662 0 0 0 0 -91.691512256881197 28.940600838670093 0 28.940600838670093 107.70724177026204 0 0 0 0 -92.542371172354493 48.20385937592647 0 48.20385937592647 1.432855391348161 0 0 0 0 -60.864494102848766 61.347504206816382 0 61.347504206816382 -12.726121772144324 0 0 0 0 -184.31277155492353 -11.196939855828077 0 -11.196939855828077 230.89593741941331 0 0 0 0 -298.78902442020626 -111.85845795239948 0 -111.85845795239948 204.04371465642544 0 0 0 0 -217.65598390447121 -191.86613049134576 0 -191.86613049134576 268.9282482032504 0 0 0 0 -230.12118540379015 155.78499026196914 0 155.78499026196914 930.9144456491249 0 0 0 0 -492.98889506331216 -588.61375168752602 0 -588.61375168752602 958.69232673412989 0 0 0 0 -758.70206119316936 -1142.5043285921483 0 -1142.5043285921483 218.3247359101515 0 0 0 0 -146.96932054666468 -451.82389642315775 0 -451.82389642315775 228.43309585853058 0 0 0 0 48.016726651258068 -510.110260836409 0 -510.110260836409 -5.5332878305375743 0 0 0 0 -325.88804702958259 -678.41406034688544 0 -678.41406034688544 -45.07888331445065 0 0 0 0 -39.794102083615144 259.96437858676654 0 259.96437858676654 -25.297447324385757 0 0 0 0 -314.34872536035255 22.528978044882024 0 22.528978044882024 1711.1141442150683 0 0 0 0 -5.2132958359741934 19.982333115453425 0 19.982333115453425 1.114807579961953 0 0 0 0 -765.43350958125666 1189.1120491574966 0 1189.1120491574966 403.34393081765847 0 0 0 0 -231.3527562316267 -223.01598193284553 0 -223.01598193284553 -822.34335079792982 0 0 0 0 -1557.6681232051924 -315.64913245766849 0 -315.64913245766849 -156.04412789534399 0 0 0 0 -776.37434307541116 -156.64153103273338 0 -156.64153103273338 -190.74089954412739 0 0 0 0 165.69141051740007 -372.78468284116298 0 -372.78468284116298 -176.1304194543809 0 0 0 0 -1619.3130135704814 273.07793867097462 0 273.07793867097462 36.310374030599633 0 0 0 0 -6.474382102868951 -9.3069588434739288 0 -9.3069588434739288 -13.687998780608183 0 0 0 0 -35.351884805586451 -702.16015091175541 0 -702.16015091175541 -374.08820643486433 0 0 0 0 159.12113025552787 -150.25281750126851 0 -150.25281750126851 107.98264246498002 0 0 0 0 2.3266135290514285 -226.23403968846264 0 -226.23403968846264 42.759872506525426 0 0 0 0 11.203764610299004 -372.025031783337 0 -372.025031783337 -5.6391731666917622 0 0 0 0 -25.529984376233188 -326.31639951469879 0 -326.31639951469879 -37.309920904457613 0 0 0 0 380.48890085392486 -231.84086472008494 0 -231.84086472008494 159.27243302108945 0 0 0 0 -31.853511652407178 -302.29326641661828 0 -302.29326641661828 219.36035684548642 0 0 0 0 -9.0337878629215993 -71.877593497782073 0 -71.877593497782073 93.652874485834218 0 0 0 0 -91.475097647155053 -135.35840576667761 0 -135.35840576667761 46.33309755733535 0 0 0 0 -277.20817673837155 -76.431796763639795 0 -76.431796763639795 -45.743846642804783 0 0 0 0 -269.92514698892774 -44.783158457910758 0 -44.783158457910758 11.90532672185509 0 0 0 0 -92.402040597895393 -224.40108563488411 0 -224.40108563488411 -40.258788391312919 0 0 0 0 -313.42670924480626 -141.94417757000429 0 -141.94417757000429 -27.470737708228626 0 0 0 0 -514.13462673257891 46.000568111287976 0 46.000568111287976 -65.509721003169034 0 0 0 0 -309.09466394165065 -153.78524338769284 0 -153.78524338769284 -77.07744826641283 0 0 0 0 -139.07504303252063 -381.58274422092836 0 -381.58274422092836 13.224312999405811 0 0 0 0 -94.818582482854254 -317.21597008781373 0 -317.21597008781373 0.90722442373044032 0 0 0 0 -165.9431037302711 -274.832612800079 0 -274.832612800079 30.930851476899534 0 0 0 0 -217.69919283453783 -219.10100691337539 0 -219.10100691337539 66.279858494936889 0 0 0 0 -186.80369735358181 -209.83161774442988 0 -209.83161774442988 -94.701101051012301 0 0 0 0 -187.81152807793114 -233.06004486914162 0 -233.06004486914162 46.194517894911769 0 0 0 0 -175.10497427712835 -41.7393469232386 0 -41.7393469232386 74.159210510253445 0 0 0 0 -204.53915339398372 -114.90034047680717 0 -114.90034047680717 -80.943690640574914 0 0 0 0 -274.48788114889066 -69.570032154025739 0 -69.570032154025739 10.089012003531025 0 0 0 0 -298.30699761449796 -139.68105448110214 0 -139.68105448110214 -177.96451471341243 0 0 0 0 -459.3987667508045 -9.5521238367355181 0 -9.5521238367355181 -79.387954507295021 0 0 0 0 -585.09668543302541 -124.62793349194044 0 -124.62793349194044 -119.2968055646179 0 0 0 0 -690.11306171421529 138.29822969051952 0 138.29822969051952 -152.02134731388287 0 0 0 0 -779.99764124489229 -212.73831053057324 0 -212.73831053057324 -50.592142725562553 0 0 0 0 -577.48028492034791 -9.843850791866771 0 -9.843850791866771 -116.48837456425278 0 0 0 0 -494.2987584375951 -141.30533469638021 0 -141.30533469638021 -75.208349864714819 0 0 0 0 -275.94027788218227 -54.667983258204572 0 -54.667983258204572 -125.93489009577928 0 0 0 0 -791.23786800619564 -167.28059883576907 0 -167.28059883576907 -36.052872336388646 0 0 0 0 -500.31300330930389 -209.66645901409049 0 -209.66645901409049 -141.10183731919255 0 0 0 0 -496.65021704864921 -147.86359942983324 0 -147.86359942983324 -67.373046274825356 0 0 0 0 -701.61652815734851 -175.74850333360007 0 -175.74850333360007 -13.046514350219468 0 0 0 0 -365.80016778460413 -240.13491996087191 0 -240.13491996087191 -2.9668015089412165 0 0 0 0 -198.6569504532963 -87.273164810201024 0 -87.273164810201024 -69.476867137604813 0 0 0 0 -211.91797594355012 -41.092066496069037 0 -41.092066496069037 -2.0987219778553481 0 0 0 0 -77.40709378369138 0.99132394156322334 0 0.99132394156322334 -52.247805072904612 0 0 0 0 -143.13390928770968 11.575024388282145 0 11.575024388282145 -51.201087378344823 0 0 0 0 -152.58416268837573 -0.35701778328939326 0 -0.35701778328939326 20.596285675163472 0 0 0 0 -172.69528937912037 20.745237543620988 0 20.745237543620988 -24.661834909784375 0 0 0 0 -265.04724520085438 -79.802887965149267 0 -79.802887965149267 -67.946205522857554 0 0 0 0 141.36693047368317 -181.68139082235029 0 -181.68139082235029 -23.95096299221143 0 0 0 0 -58.753432055753365 -91.071544044885513 0 -91.071544044885513 -27.978405487969781 0 0 0 0 -23.103256603935733 -120.21526537422301 0 -120.21526537422301 -79.410137563366789 0 0 0 0 -191.13977933225397 -204.20781822366484 0 -204.20781822366484 -25.436436845940079 0 0 0 0 -36.362255036066927 -347.63038783353477 0 -347.63038783353477 49.972989482151434 0 0 0 0 -190.19931331460248 -235.40618124197749 0 -235.40618124197749 -53.641612910531421 0 0 0 0 -579.75278256323509 -384.88819196689235 0 -384.88819196689235 63.898974566746347 0 0 0 0 -649.71923868704471 -255.92481503830641 0 -255.92481503830641 11.606027918696782 0 0 0 0 -549.47724921070039 -199.92758011950991 0 -199.92758011950991 13.380378553376431 0 0 0 0 -739.510241057229 138.19613851579982 0 138.19613851579982 -628.75180510303949 0 0 0 0 -1095.4095743872749 -110.17254427689863 0 -110.17254427689863 75.283697678496708 0 0 0 0 -913.1418714512256 -264.33059493887049 0 -264.33059493887049 -84.805102061220168 0 0 0 0 -699.65829057707469 -218.31341089780034 0 -218.31341089780034 -615.49521736579163 0 0 0 0 139.714941371858 -51.553087891577889 0 -51.553087891577889 -202.25098215830621 0 0 0 0 -873.62666624375561 112.05306179059082 0 112.05306179059082 207.55913377705201 0 0 0 0 -1162.7340347774002 403.20042640030687 0 403.20042640030687 -28.103490371313455 0 0 0 0 1.0020067237773134 1.3121823776698633 0 1.3121823776698633 -1.9805292891029929 0 0 0 0 0.82531061426684005 -2.5750364632247624 0 -2.5750364632247624 -6.4707189852672169 0 0 0 0 -1114.6319131872442 -32.989802369629615 0 -32.989802369629615 56.593689806653856 0 0 0 0 16.336310120357666 6.0693829519236715 0 6.0693829519236715 139.25564976531768 0 0 0 0 158.22671983045439 -20.009278957313654 0 -20.009278957313654 -5.6590639752130301 0 0 0 0 -45.849735271223835 66.644159908659049 0 66.644159908659049 18.902350164549716 0 0 0 0 69.692195895098848 -94.484267003887908 0 -94.484267003887908 42.025169121198815 0 0 0 0 0.17067740112969432 0.39738103868225494 0 0.39738103868225494 -1.4617755076801089 0 0 0 0 -4.6302833746974272 -7.8186108069143572 0 -7.8186108069143572 -12.824738812487061 0 0 0 0 -88.264160573315166 -16.613049729098748 0 -16.613049729098748 133.11027170181842 0 0 0 0 61.140111703025923 -12.083464919224184 0 -12.083464919224184 -41.347505546849789 0 0 0 0 -592.55703665077999 239.29106155213367 0 239.29106155213367 62.810254095773416 0 0 0 0 -619.05067249840067 332.9869806254992 0 332.9869806254992 -262.28062888889144 0 0 0 0 -615.57664809063863 -6.2605924328136098 0 -6.2605924328136098 -44.961186636652201 0 0 0 0 -506.33648397591605 120.47612710428075 0 120.47612710428075 -96.92742328379245 0 0 0 0 -508.09397234041899 162.52626354099266 0 162.52626354099266 58.480269881260028 0 0 0 0 -160.40525707542656 187.5241051989417 0 187.5241051989417 50.042649639519368 0 0 0 0 -489.10436396523437 103.26039850783854 0 103.26039850783854 -5.6732931715614541 0 0 0 0 -488.52319374037324 132.59248693023346 0 132.59248693023346 290.59206513522986 0 0 0 0 4.0346814489239478 -43.190587215442065 0 -43.190587215442065 27.854580697769052 0 0 0 0 -301.24103987455237 -19.964533442629545 0 -19.964533442629545 59.14350132693653 0 0 0 0 -6.0541221451837259 -3.2596098437660572 0 -3.2596098437660572 3.5296019880174327 0 0 0 0 -483.09945067075205 -374.34481602653705 0 -374.34481602653705 -166.42952392212828 0 0 0 0 -20.748399486404878 3.2345450236363735 0 3.2345450236363735 6.3975057204361434 0 0 0 0 -94.004712189875136 26.80869582604555 0 26.80869582604555 22.416993834429377 0 0 0 0 -119.8738465704937 250.66120781904192 0 250.66120781904192 -316.95428842935962 0 0 0 0 -118.1954940780488 51.191095689657232 0 51.191095689657232 30.410123182113011 0 0 0 0 -184.35352849003539 76.328687074761547 0 76.328687074761547 35.775422204962751 0 0 0 0 -30.366925150291024 -11.045392789482335 0 -11.045392789482335 5.4140399283390863 0 0 0 0 -200.80193368344771 -289.63450937860398 0 -289.63450937860398 794.57719013711358 0 0 0 0 -773.81875559806213 496.47063832646381 0 496.47063832646381 441.81296597531855 0 0 0 0 -202.20993176573029 -1145.3436498616461 0 -1145.3436498616461 -205.20681129004515 0 0 0 0 -790.07816851300231 -196.92856804421581 0 -196.92856804421581 768.99890178476198 0 0 0 0 24.594904342149675 358.24966748770566 0 358.24966748770566 386.78735928401875 0 0 0 0 -13.979341924252367 -300.67740883338229 0 -300.67740883338229 476.60549612560135 0 0 0 0 -11.575805456739928 -5.1951477880680557 0 -5.1951477880680557 7.4985608216280255 0 0 0 0 -162.54075471037504 -50.148159391450463 0 -50.148159391450463 437.43131427918479 0 0 0 0 780.63046040912559 251.36701064945828 0 251.36701064945828 11.929065960553999 0 0 0 0 723.99565939262538 -108.97839914381257 0 -108.97839914381257 -1356.695298392322 0 0 0 0 -101.3805641872932 11.816310223115579 0 11.816310223115579 208.05834784675199 0 0 0 0 -46.226949816089473 -123.83298678189567 0 -123.83298678189567 240.26635760578574 0 0 0 0 -90.55552803997125 -166.69882323966158 0 -166.69882323966158 249.30525484955297 0 0 0 0 -26.088810705490417 -27.238645272163446 0 -27.238645272163446 -36.204290897196032 0 0 0 0 -21.887419815524481 -116.8428207173165 0 -116.8428207173165 36.11361319869502 0 0 0 0 -500.11365927150518 -11.055451186066307 0 -11.055451186066307 -48.838013700851661 0 0 0 0 -38.560425246119465 3.3539925600344436 0 3.3539925600344436 14.188966799993409 0 0 0 0 -58.66646800622766 -10.401864050976656 0 -10.401864050976656 -3.0309794734457682 0 0 0 0 38.466238781002176 -451.90660423716326 0 -451.90660423716326 -17.813216363321317 0 0 0 0 -47.369543013096717 -25.981925789899435 0 -25.981925789899435 0.82601739075281699 0 0 0 0 42.758988582805614 -382.34089276513987 0 -382.34089276513987 1030.9805272358572 0 0 0 0 -66.004167661156316 -8.5108473953732755 0 -8.5108473953732755 -2.3237372200019308 0 0 0 0 -140.04097855677128 -51.185341440656202 0 -51.185341440656202 49.749909250107521 0 0 0 0 -43.296183160651111 -14.505464377898573 0 -14.505464377898573 0.5226975941453702 0 0 0 0 -60.104808922066425 7.7026592439225441 0 7.7026592439225441 2.6002805012415067 0 0 0 0 -74.021417247661248 3.7331098233148623 0 3.7331098233148623 -16.021474146668879 0 0 0 0 -319.18262720541497 38.899286702142717 0 38.899286702142717 -58.704996040071308 0 0 0 0 -20.806769716950765 7.6688729424456525 0 7.6688729424456525 -21.845231165182003 0 0 0 0 -11.445235296641242 4.3826002027062323 0 4.3826002027062323 -1.9025699286969253 0 0 0 0 -111.98751183853437 -55.57668757438887 0 -55.57668757438887 17.086815083161127 0 0 0 0 4.7939770485722875 498.03779901962434 0 498.03779901962434 834.28644002291185 0 0 0 0 112.13556300792129 -9.3964391080728547 0 -9.3964391080728547 374.18768399433975 0 0 0 0 -224.89984666795135 35.333119723572054 0 35.333119723572054 94.281852762842391 0 0 0 0 -16.727286455111717 -0.70368560578655259 0 -0.70368560578655259 6.9666038713938718 0 0 0 0 -336.32406531961749 -29.079364225955686 0 -29.079364225955686 490.14580206822393 0 0 0 0 -328.05251339440838 137.2099626188583 0 137.2099626188583 798.90380975314702 0 0 0 0 -312.3741602081991 -236.81937975636902 0 -236.81937975636902 761.79435684079044 0 0 0 0 -1.1244754246908997 -343.11389099035387 0 -343.11389099035387 407.01389816847404 0 0 0 0 -314.76987662549391 -268.96915866153284 0 -268.96915866153284 426.73990075412621 0 0 0 0 -114.11103580478084 -205.98092011972858 0 -205.98092011972858 241.43661525592415 0 0 0 0 26.628040585263079 -239.36713945404517 0 -239.36713945404517 287.87663988097484 0 0 0 0 -81.364736127218706 -57.886826440533035 0 -57.886826440533035 -2.0996374196649867 0 0 0 0 -118.34625894126657 -52.288631939026345 0 -52.288631939026345 45.36242734661937 0 0 0 0 -105.48345678489022 -61.527984828716626 0 -61.527984828716626 23.879892751454463 0 0 0 0 -135.80897553671093 -63.921660361686008 0 -63.921660361686008 46.728313027916329 0 0 0 0 -121.27826316315986 -34.43938122862528 0 -34.43938122862528 106.07915361833147 0 0 0 0 -166.29177802619688 20.734103581987711 0 20.734103581987711 62.790243177485536 0 0 0 0 -323.19695317443984 9.0535708955576411 0 9.0535708955576411 172.6393828870896 0 0 0 0 197.03464771800282 -226.30800660728983 0 -226.30800660728983 -1.8703827969638951 0 0 0 0 -79.872973612039473 -55.727814963142734 0 -55.727814963142734 -6.7095436198135268 0 0 0 0 -84.357244680235453 -81.822166707487668 0 -81.822166707487668 80.307364947926544 0 0 0 0 -70.453423135906633 -162.76215570526801 0 -162.76215570526801 175.18597370871066 0 0 0 0 -796.4092607401617 -128.06824640996888 0 -128.06824640996888 92.205923317991619 0 0 0 0 -48.109648255017284 -26.458552089224483 0 -26.458552089224483 29.347731886952399 0 0 0 0 -66.529001191569478 -28.798625442310822 0 -28.798625442310822 43.67411749767416 0 0 0 0 -446.6359813825693 -98.126982410084565 0 -98.126982410084565 23.024527101544663 0 0 0 0 -115.55874629493155 -34.553217053081426 0 -34.553217053081426 48.793884319456993 0 0 0 0 -77.421050236367591 -6.6363411375850774 0 -6.6363411375850774 29.65428215250904 0 0 0 0 -74.630726678739848 -19.586921300193126 0 -19.586921300193126 58.954167162924932 0 0 0 0 -70.649740840206505 -31.504836224271457 0 -31.504836224271457 47.693465901246327 0 0 0 0 -50.397719048517644 -26.492714764665493 0 -26.492714764665493 8.1615168476796889 0 0 0 0 -626.02111338896066 92.699372409973876 0 92.699372409973876 175.91060509846466 0 0 0 0 -108.70630914319679 -13.990755824191057 0 -13.990755824191057 14.403537540369596 0 0 0 0 -101.91943869568979 -16.742352345442573 0 -16.742352345442573 4.8515016230377963 0 0 0 0 -299.53763295885437 34.198036464762481 0 34.198036464762481 64.892355453346454 0 0 0 0 -368.25486615329646 161.54588453120596 0 161.54588453120596 225.16310224846529 0 0 0 0 -20.117597420917107 4.3718441164831106 0 4.3718441164831106 11.414800138721365 0 0 0 0 -282.1605168915321 -435.3449999001889 0 -435.3449999001889 611.33424826078658 0 0 0 0 -323.21627259235538 197.30639981460422 0 197.30639981460422 195.79299521299299 0 0 0 0 255.17844195613725 -795.32478330311915 0 -795.32478330311915 389.92441151306139 0 0 0 0 -359.92639425522066 164.87520096250591 0 164.87520096250591 -17.22234989368917 0 0 0 0 -0.7468885795287008 -0.9712073877585965 0 -0.9712073877585965 -0.82246341786982846 0 0 0 0 -886.56116762433521 397.25490228746412 0 397.25490228746412 -83.110400061881023 0 0 0 0 -525.74478284437646 -287.90057801930448 0 -287.90057801930448 202.60120088383712 0 0 0 0 -426.59745053408551 -301.83569104521962 0 -301.83569104521962 -0.42704880965538905 0 0 0 0 -1051.676505453368 -114.72230790541539 0 -114.72230790541539 276.56691464345295 0 0 0 0 -520.59521660143218 -354.93748717167421 0 -354.93748717167421 -25.54242282037012 0 0 0 0 -768.60043478887746 89.020747811930846 0 89.020747811930846 -1.0883298403032313 0 0 0 0 -1503.5157042421051 7.4050571727545957 0 7.4050571727545957 104.55541453831938 0 0 0 0 -864.70633737949174 -149.07150515483715 0 -149.07150515483715 -63.350975369649859 0 0 0 0 -921.82154035874919 -213.9334861130194 0 -213.9334861130194 -74.649564998683218 0 0 0 0 -1408.9106026156223 -158.41442965285705 0 -158.41442965285705 -50.937422012861134 0 0 0 0 -174.34127014024125 -212.6341954425825 0 -212.6341954425825 -16.665092626423302 0 0 0 0 -248.1924835687314 -181.36225001922753 0 -181.36225001922753 5.7314500841607696 0 0 0 0 -111.66546041199763 -196.45003607680201 0 -196.45003607680201 -251.09314261477527 0 0 0 0 -553.33931216936617 -436.00014165907407 0 -436.00014165907407 -126.11237515457924 0 0 0 0 -174.08018915478897 -24.507354325297911 0 -24.507354325297911 23.459599791980054 0 0 0 0 -125.14941696316237 -14.685691362635225 0 -14.685691362635225 7.014164457717925 0 0 0 0 -7.4330168491287623 -45.865741270055651 0 -45.865741270055651 -7.2301698480459891 0 0 0 0 -23.319060167734278 -61.353092077220481 0 -61.353092077220481 84.404485661156542 0 0 0 0 -11.305027091856658 -2.0886405253189793 0 -2.0886405253189793 14.266203913371257 0 0 0 0 -66.960497565247351 -72.161435619174881 0 -72.161435619174881 83.862306956453381 0 0 0 0 -33.879313413635828 -3.409884464568222 0 -3.409884464568222 144.2797923685448 0 0 0 0 -12.546061039844062 -23.1975383085055 0 -23.1975383085055 38.437365982730626 0 0 0 0 0.67296712810849613 -3.4210133117693218 0 -3.4210133117693218 -5.2075537551919435 0 0 0 0 -13.345699481125706 -20.517714189444959 0 -20.517714189444959 20.744041617192117 0 0 0 0 -47.142271312070079 -67.008831005550746 0 -67.008831005550746 125.94653511648175 0 0 0 0 -23.797170421108603 -75.426793365157209 0 -75.426793365157209 69.009720187568746 0 0 0 0 -52.245730033580912 -44.985689112561886 0 -44.985689112561886 71.928406542729135 0 0 0 0 -42.340449678173172 -92.32710509574008 0 -92.32710509574008 -20.522314843886079 0 0 0 0 -21.443685135760461 -70.784279801831417 0 -70.784279801831417 36.358886873460506 0 0 0 0 -51.213023296179017 -39.901524849836278 0 -39.901524849836278 9.7403007894713483 0 0 0 0 -102.5594140585672 -41.598757238921962 0 -41.598757238921962 59.78797173005114 0 0 0 0 -91.859690934514219 -4.4110145100532918 0 -4.4110145100532918 28.502093663400046 0 0 0 0 -302.09528681354277 -73.531495732147846 0 -73.531495732147846 38.131346674813358 0 0 0 0 -23.589862207814804 -78.731112096951847 0 -78.731112096951847 5.8450393826440177 0 0 0 0 -31.102715594785678 -18.399178481542222 0 -18.399178481542222 41.041385344364613 0 0 0 0 -95.016226706218731 9.1329428138260482 0 9.1329428138260482 32.837857209760386 0 0 0 0 -0.15979052314446562 -25.36825011574799 0 -25.36825011574799 18.567741834520415 0 0 0 0 -45.184004689191511 -31.21657093147309 0 -31.21657093147309 68.543804948055367 0 0 0 0 -11.264635079341588 -2.7165733758553046 0 -2.7165733758553046 76.372594201751326 0 0 0 0 -19.725910076784203 -23.637094242041712 0 -23.637094242041712 24.654149741058063 0 0 0 0 4.5333935868329718 -21.00672709399646 0 -21.00672709399646 83.707946847453968 0 0 0 0 -37.883727632266528 -40.463608468051461 0 -40.463608468051461 34.316472484651513 0 0 0 0 -28.974304414718063 -14.473450903495177 0 -14.473450903495177 27.987324761603304 0 0 0 0 -13.198351914533418 -17.693823744607279 0 -17.693823744607279 -7.9986404019920379 0 0 0 0 -31.686985049885152 -72.650357870659491 0 -72.650357870659491 4.9798748466891993 0 0 0 0 -8.6699053064645568 3.6888236569690953 0 3.6888236569690953 11.64339174180494 0 0 0 0 -32.350599298465568 -73.52753464643331 0 -73.52753464643331 43.825280543758709 0 0 0 0 -20.921693889888971 -6.2539601854890847 0 -6.2539601854890847 38.731868361259203 0 0 0 0 2.8083637508098036 -19.985902733591502 0 -19.985902733591502 23.870306549884845 0 0 0 0 -61.406383570611069 -22.673459035983797 0 -22.673459035983797 3.9402584047311393 0 0 0 0 -30.816514020923933 -51.381222522112694 0 -51.381222522112694 26.690354277714505 0 0 0 0 -68.877956554984848 -24.100622356105305 0 -24.100622356105305 16.829994056410214 0 0 0 0 -69.745624287970713 -23.466220374358272 0 -23.466220374358272 50.597887154230193 0 0 0 0 46.793140727473656 -43.78927996403354 0 -43.78927996403354 34.834449110396235 0 0 0 0 49.467722526394937 -112.33180955029229 0 -112.33180955029229 122.97911836766343 0 0 0 0 -17.938772582201636 -28.497217756818372 0 -28.497217756818372 54.972855727404749 0 0 0 0 10.930632098454225 -29.920793681186296 0 -29.920793681186296 18.258509040213539 0 0 0 0 -46.569790020177606 -20.617341281802055 0 -20.617341281802055 31.671503135219609 0 0 0 0 -8.2781537852461042 10.308918476725921 0 10.308918476725921 56.3096279029578 0 0 0 0 -30.757837046563509 -43.431117496004845 0 -43.431117496004845 75.378799760509537 0 0 0 0 -42.459274226872367 -14.752467897595125 0 -14.752467897595125 34.29725451370723 0 0 0 0 -73.04783762129955 -8.0812489695576915 0 -8.0812489695576915 47.03827943601982 0 0 0 0 -42.75130281712336 0.34662111439820364 0 0.34662111439820364 20.342563803654684 0 0 0 0 -42.076165157348441 -1.6396226008495205 0 -1.6396226008495205 -14.080627643763819 0 0 0 0 -72.300936874526087 -16.241649090281499 0 -16.241649090281499 -19.512749540682307 0 0 0 0 -71.376073612251275 6.2101220281502663 0 6.2101220281502663 3.5917391750099341 0 0 0 0 -73.513649475178681 -0.80471631534357257 0 -0.80471631534357257 23.09549720333667 0 0 0 0 0.87000782724499004 -10.224104758300655 0 -10.224104758300655 -45.524234407277163 0 0 0 0 -31.551917948396294 -28.379384652615499 0 -28.379384652615499 25.959536371601985 0 0 0 0 -41.04358910562587 10.444309479520825 0 10.444309479520825 21.507922343487223 0 0 0 0 -26.302158200781392 27.398465562702427 0 27.398465562702427 8.3589710678891862 0 0 0 0 -94.575371970662673 5.3207428907917347 0 5.3207428907917347 -0.36455506254333159 0 0 0 0 -91.041893998888554 7.8412351773879436 0 7.8412351773879436 0.92956961701020191 0 0 0 0 -85.80892089830013 7.2225526006491236 0 7.2225526006491236 -3.8854691739197733 0 0 0 0 -84.540235674372525 -1.725547871546496 0 -1.725547871546496 -0.76985295111876439 0 0 0 0 -87.539244101077202 0.71930228476912816 0 0.71930228476912816 5.7651441466023243 0 0 0 0 -84.17504650587216 -5.2184189934323513 0 -5.2184189934323513 13.386638718416179 0 0 0 0 -85.839218158289441 0.61912760622772112 0 0.61912760622772112 5.0639739541320523 0 0 0 0 -73.046482353767828 -7.3874137203016881 0 -7.3874137203016881 15.937143710061719 0 0 0 0 -85.77234385428892 -1.1534151705172917 0 -1.1534151705172917 23.543193598984544 0 0 0 0 -86.592289433508995 -16.849688737191173 0 -16.849688737191173 34.377103227201587 0 0 0 0 -83.257218827639008 -17.186876576141003 0 -17.186876576141003 -5.3926854164747056 0 0 0 0 -7.7405584383422621 -2.9022383537341625 0 -2.9022383537341625 5.8199332106904365 0 0 0 0 -83.750846112568979 0.40879027073879115 0 0.40879027073879115 3.9666804313951616 0 0 0 0 -115.56222588881792 32.804359182607868 0 32.804359182607868 45.618828445840336 0 0 0 0 -28.507839736031642 21.683450506320533 0 21.683450506320533 13.060541663027017 0 0 0 0 331.65135748701141 -504.50811392682681 0 -504.50811392682681 -297.0560673759727 0 0 0 0 -959.20701300504152 -304.3232486946996 0 -304.3232486946996 139.13439114744978 0 0 0 0 -979.15183294043163 -507.49419318475691 0 -507.49419318475691 48.407123286869137 0 0 0 0 -1267.431896914597 -375.83373938489922 0 -375.83373938489922 104.46907164174513 0 0 0 0 -722.56015864678193 -156.9147405877477 0 -156.9147405877477 -66.131627937385929 0 0 0 0 -0.043517231709486737 -0.75011452559306235 0 -0.75011452559306235 1.5383233493041315 0 0 0 0 -114.0229718121991 -95.302714969334716 0 -95.302714969334716 -2.4137582115228611 0 0 0 0 -1113.1426611375609 -35.210721389961215 0 -35.210721389961215 108.40526205432161 0 0 0 0 -1408.3335190804937 -306.47777421883848 0 -306.47777421883848 67.535000831175239 0 0 0 0 -1119.0029589250917 -429.88296438188922 0 -429.88296438188922 55.3960780478792 0 0 0 0 -26.055023722015179 8.0594627871123663 0 8.0594627871123663 26.855867146826135 0 0 0 0 -84.972089884118759 53.558635865337919 0 53.558635865337919 27.520999675266012 0 0 0 0 -101.08087254752172 -46.241726073827522 0 -46.241726073827522 15.107864170802713 0 0 0 0 -101.21146978095931 -27.01797408175662 0 -27.01797408175662 33.618255095554559 0 0 0 0 7.4640578957551043 -9.2597346819492259 0 -9.2597346819492259 72.80864713481833 0 0 0 0 -104.38359791447874 -41.781808706190077 0 -41.781808706190077 -1.5805699615494859 0 0 0 0 29.618499269050517 12.517316849031602 0 12.517316849031602 8.1319607147529496 0 0 0 0 -4.0803387975972782 -0.099160503464851502 0 -0.099160503464851502 0.32917437573222585 0 0 0 0 -1366.274758532265 -305.30395250289894 0 -305.30395250289894 -354.84299739620747 0 0 0 0 -1291.242171344391 -463.08127621002836 0 -463.08127621002836 -219.04885230318177 0 0 0 0 -1483.1629170402302 -269.4457298454231 0 -269.4457298454231 297.25866846164672 0 0 0 0 -296.5018702026282 152.5818541160445 0 152.5818541160445 76.58456194368091 0 0 0 0 -893.57362071324314 -527.60712597292331 0 -527.60712597292331 -357.62717456398627 0 0 0 0 -1185.6113589692395 -127.35637807742751 0 -127.35637807742751 -190.55750070219347 0 0 0 0 -1469.5798007521516 -274.96088413909865 0 -274.96088413909865 -132.20673837206937 0 0 0 0 -2155.6030531756478 -387.05442697820354 0 -387.05442697820354 197.26191950435623 0 0 0 0 -1371.1221766410745 -309.33213546826119 0 -309.33213546826119 -120.82392515226957 0 0 0 0 -1838.0782854811114 -330.73825638049732 0 -330.73825638049732 -6.6240167365294838 0 0 0 0 -2617.2224420051739 -722.50647441695526 0 -722.50647441695526 524.87701773625622 0 0 0 0 -2555.6545586159627 -311.49557274956987 0 -311.49557274956987 215.09206175192992 0 0 0 0 -2357.761947453022 -676.65406640157346 0 -676.65406640157346 259.7522724093044 0 0 0 0 -2348.0488284000216 -817.62773522928876 0 -817.62773522928876 65.253907731805157 0 0 0 0 -1438.5766539838669 -564.85336349568513 0 -564.85336349568513 50.273763525369304 0 0 0 0 -1865.0201408063076 -608.28096945048856 0 -608.28096945048856 174.35615001552537 0 0 0 0 -1969.8374454176228 -521.8281268055498 0 -521.8281268055498 173.95260179981855 0 0 0 0 -1674.3670292280804 -718.60862455209281 0 -718.60862455209281 150.45265867541457 0 0 0 0 -1232.462955900075 -473.38505406478555 0 -473.38505406478555 54.393161757231539 0 0 0 0 -1740.9320491124963 -543.85944642872903 0 -543.85944642872903 158.82725679396782 0 0 0 0 -1009.8262334604078 -873.46009253122043 0 -873.46009253122043 141.61957354873448 0 0 0 0 -1828.6946999910433 -659.47168888693841 0 -659.47168888693841 227.66772201211836 0 0 0 0 -425.45443798865017 -1433.5350518111422 0 -1433.5350518111422 44.325324617513218 0 0 0 0 -2188.9142969330132 -399.95827338643591 0 -399.95827338643591 135.68700914391775 0 0 0 0 -1855.1426885900291 -687.22900743368825 0 -687.22900743368825 227.73359883295731 0 0 0 0 -1922.9625950936606 -728.40157978011803 0 -728.40157978011803 75.180984764428786 0 0 0 0 -1778.3431111124455 -929.18613430176003 0 -929.18613430176003 -547.90905827828624 0 0 0 0 -1795.843041993081 -379.71897925381819 0 -379.71897925381819 -307.64893504333168 0 0 0 0 -2488.3842666935961 -885.91405913316112 0 -885.91405913316112 33.92414733791918 0 0 0 0 -1028.0722280948175 -1154.0313577191059 0 -1154.0313577191059 -770.91889408628049 0 0 0 0 -1523.0384767623327 -947.34481924258546 0 -947.34481924258546 -615.91739385133985 0 0 0 0 -659.69512135939294 -341.39150095941159 0 -341.39150095941159 -1014.8039402909867 0 0 0 0 -4.0320106542962719 2.5814556348729099 0 2.5814556348729099 9.8263882954195658 0 0 0 0 -2227.3615102749973 490.34086029173886 0 490.34086029173886 -805.9890308798108 0 0 0 0 -10.0489890644768 6.2872621624221239 0 6.2872621624221239 -3.7154576814394833 0 0 0 0 -2213.9853379428096 -1344.362044977574 0 -1344.362044977574 573.76750339162265 0 0 0 0 -2805.1371550118201 -13.151552075845302 0 -13.151552075845302 174.48090014614814 0 0 0 0 -1952.9810732380283 49.56861441097908 0 49.56861441097908 -1029.069764260186 0 0 0 0 -3236.2088493734773 -1980.4561712141326 0 -1980.4561712141326 -245.29503001588057 0 0 0 0 -2725.4061340344633 -1863.2715281174872 0 -1863.2715281174872 -315.43699970066075 0 0 0 0 -2044.1227851567091 -1709.0534595439351 0 -1709.0534595439351 -854.4326061679435 0 0 0 0 -2542.4310717298213 -1397.4633917699416 0 -1397.4633917699416 -291.19169475594572 0 0 0 0 -3110.571133423 -1470.8830568375379 0 -1470.8830568375379 -178.99397863451293 0 0 0 0 -2468.7529192170305 -1102.423117836873 0 -1102.423117836873 19.436718034655996 0 0 0 0 -4500.7713408306809 -1505.7851680115818 0 -1505.7851680115818 540.78129060486162 0 0 0 0 -3317.4634143143157 -848.2273790046288 0 -848.2273790046288 789.77745302029894 0 0 0 0 -2816.9582103870562 -844.27367785421575 0 -844.27367785421575 464.92232864513915 0 0 0 0 -3070.65512351496 -1193.8942068095237 0 -1193.8942068095237 242.79422808181289 0 0 0 0 -3393.5155224076734 -589.00108150512847 0 -589.00108150512847 537.70632334708898 0 0 0 0 -3163.8706416756959 -1043.0150960579738 0 -1043.0150960579738 1427.3548640790136 0 0 0 0 -2649.2322109902889 142.2847829753855 0 142.2847829753855 1037.497639096079 0 0 0 0 -4498.8662264590967 -628.58096306798564 0 -628.58096306798564 961.75776011960545 0 0 0 0 -1484.9404752720075 -27.754743587257394 0 -27.754743587257394 1052.912425681533 0 0 0 0 -346.68368556484347 -959.21595891315314 0 -959.21595891315314 744.65448376734503 0 0 0 0 -4494.4682229157543 1596.361237044368 0 1596.361237044368 878.98099019002041 0 0 0 0 -12.400360375840279 -2.0670812362547082 0 -2.0670812362547082 2.1734829243261835 0 0 0 0 -2912.2108890174786 1078.4136797224314 0 1078.4136797224314 610.59198340302441 0 0 0 0 -1693.4743617116837 -1343.1015602598131 0 -1343.1015602598131 1488.256424887865 0 0 0 0 -3999.2248293551893 1288.4170179864946 0 1288.4170179864946 574.52617901177064 0 0 0 0 -11.163405030044004 -2.62393216359024 0 -2.62393216359024 1.6520225547610963 0 0 0 0 -2642.505382999796 -65.87902119070236 0 -65.87902119070236 218.00684952135225 0 0 0 0 -2504.4698693512109 -321.2298909900162 0 -321.2298909900162 209.9519191200821 0 0 0 0 -4074.5106103764492 126.27712958081894 0 126.27712958081894 677.78914109114703 0 0 0 0 -1824.3039859769342 -6.281552432862668 0 -6.281552432862668 48.40730321047613 0 0 0 0 -2272.7472437214237 259.00834884419203 0 259.00834884419203 315.03910282537345 0 0 0 0 -1544.8334023521966 -115.78732932718958 0 -115.78732932718958 35.071327706465013 0 0 0 0 -1330.0225681839438 504.80442722662877 0 504.80442722662877 306.97206522090983 0 0 0 0 -2143.5861176126564 -2.7717022699619065 0 -2.7717022699619065 337.03976327574912 0 0 0 0 -2732.1010314962041 236.05893897095302 0 236.05893897095302 684.84246218770079 0 0 0 0 -2332.4743681334003 451.84005821672872 0 451.84005821672872 576.9449422650132 0 0 0 0 -3653.6713904337885 603.34333421978511 0 603.34333421978511 859.63960273130715 0 0 0 0 -2797.0055254346662 676.23444676531733 0 676.23444676531733 847.72892332241236 0 0 0 0 -2025.0028175788029 547.34639729771629 0 547.34639729771629 307.34667045192839 0 0 0 0 -2858.503823051431 481.95188185716165 0 481.95188185716165 657.30282884549342 0 0 0 0 -609.85620540976561 676.72131865604808 0 676.72131865604808 -11.305331428009936 0 0 0 0 -2017.9297280581304 270.61720314106822 0 270.61720314106822 519.88749870350978 0 0 0 0 -5.1975212089183742 -11.060520335646107 0 -11.060520335646107 -4.1012359425300948 0 0 0 0 -1659.0004299446373 239.33392186278041 0 239.33392186278041 -78.848142726391529 0 0 0 0 -69.924910949199756 -36.754040096572837 0 -36.754040096572837 -14.722658866046912 0 0 0 0 -1516.8604626361048 544.57696840739129 0 544.57696840739129 -444.00694947029854 0 0 0 0 -2591.0037652630126 928.2990857550019 0 928.2990857550019 52.789272008856642 0 0 0 0 -4358.6765458222944 989.08661958109599 0 989.08661958109599 282.33442479108214 0 0 0 0 -2733.6653213910131 552.54582218751159 0 552.54582218751159 195.18191603202558 0 0 0 0 -4285.0485657761092 -498.0775081781714 0 -498.0775081781714 96.777173230535055 0 0 0 0 -4490.3228896693035 -59.317988179384308 0 -59.317988179384308 628.3667342151532 0 0 0 0 -3488.9579294568757 -546.11657582982275 0 -546.11657582982275 735.4169491449735 0 0 0 0 -2682.7911974769959 885.10704280412881 0 885.10704280412881 441.63272770271544 0 0 0 0 -2453.0600828125171 1715.2737662272698 0 1715.2737662272698 -643.48463163567578 0 0 0 0 -3147.7414043452736 1770.8092089152958 0 1770.8092089152958 -625.56045395111448 0 0 0 0 -4500.7653800526023 1368.4759659115714 0 1368.4759659115714 -157.3135904650901 0 0 0 0 -2689.5179130952383 890.0562969341388 0 890.0562969341388 -693.04675934994066 0 0 0 0 -694.22561461089208 -600.89501404651969 0 -600.89501404651969 -71.48552140068216 0 0 0 0 -11.370839427238536 -1.7489588507167042 0 -1.7489588507167042 -0.12582607270004553 0 0 0 0 -2356.9042624142749 171.8429278216463 0 171.8429278216463 225.62660921925135 0 0 0 0 -2307.3770035249763 898.84720781865269 0 898.84720781865269 -1012.9667179361383 0 0 0 0 -1742.9868420765015 -492.44517711805088 0 -492.44517711805088 -839.39078282861374 0 0 0 0 -920.06826740605175 116.12395708433905 0 116.12395708433905 -660.20755274980843 0 0 0 0 -1790.9679289203486 -516.79301865911702 0 -516.79301865911702 -153.74718057805831 0 0 0 0 -925.9561060559281 382.72765093608893 0 382.72765093608893 390.13770574775208 0 0 0 0 -17.221459589442361 -2.969942789634473 0 -2.969942789634473 -0.68099781101397761 0 0 0 0 -1968.9922394068781 -1097.4349118376729 0 -1097.4349118376729 475.34514360448156 0 0 0 0 -761.1421475483221 -1005.0613892414995 0 -1005.0613892414995 -1489.5194375690248 0 0 0 0 -37.588408128547599 357.39543577948166 0 357.39543577948166 -1014.4949037190963 0 0 0 0 -634.13749644682684 939.80798382403714 0 939.80798382403714 1391.0778632446345 0 0 0 0 536.66080755250005 5.3001306778818957 0 5.3001306778818957 -1048.6862088654989 0 0 0 0 -1678.0985344732435 1640.1329164936005 0 1640.1329164936005 -2060.1594084941626 0 0 0 0 -4491.0124529320528 3245.0055878216226 0 3245.0055878216226 -1174.2158095210511 0 0 0 0 -457.06726441775754 2581.9120137136424 0 2581.9120137136424 -2958.6463955549871 0 0 0 0 -4463.5234567947336 734.36032467031316 0 734.36032467031316 863.59999098621859 0 0 0 0 -12.952415380904938 11.34312057008313 0 11.34312057008313 -7.901208760563053 0 0 0 0 -52.587692017266818 -18.578444737877703 0 -18.578444737877703 303.7205767877399 0 0 0 0 -10.47012414451163 6.5926264918616511 0 6.5926264918616511 -4.4992165283759933 0 0 0 0 -4494.805812828231 -821.80003444040381 0 -821.80003444040381 209.19622198173576 0 0 0 0 -27.915278646664774 18.425331647154678 0 18.425331647154678 -9.0016467679064824 0 0 0 0 117.05577833961433 517.04816392839859 0 517.04816392839859 545.29649556442826 0 0 0 0 4.8603576994501054 108.99949336414089 0 108.99949336414089 102.18351075320932 0 0 0 0 -562.27846454259998 -154.09753090004574 0 -154.09753090004574 193.31980570033238 0 0 0 0 -30.750622538933158 10.976995317526061 0 10.976995317526061 -17.617482130484351 0 0 0 0 -4494.4139575885929 481.83514340456242 0 481.83514340456242 688.96297730018659 0 0 0 0 -67.566525170972454 310.00129976586175 0 310.00129976586175 -992.31229073743884 0 0 0 0 -2405.1049538313528 -650.62648304247807 0 -650.62648304247807 203.24863270829246 0 0 0 0 -2156.875528928198 1442.462926213329 0 1442.462926213329 -506.59794614563646 0 0 0 0 -943.57780132850894 -2857.0163362155999 0 -2857.0163362155999 -4639.2127229263833 0 0 0 0 -20.766331496172114 -6.9964035634725672 0 -6.9964035634725672 -4.5979601129199894 0 0 0 0 -67.56652517089438 -19.003496907619628 0 -19.003496907619628 -43.115945839177812 0 0 0 0 -770.5451856781292 -1107.5647325228465 0 -1107.5647325228465 -1341.4747649364801 0 0 0 0 -51.175534672689679 -2.7669673094672405 0 -2.7669673094672405 -11.001800439718401 0 0 0 0 -1482.0786801027425 -1075.9147252955399 0 -1075.9147252955399 -877.52934781830049 0 0 0 0 -970.53653432785359 -1133.4637699614457 0 -1133.4637699614457 -1203.6836334559032 0 0 0 0 -4492.6931084794787 -2844.1048671136964 0 -2844.1048671136964 -859.47402747070112 0 0 0 0 34.540402233076748 -12.985029292113722 0 -12.985029292113722 25.213678422220255 0 0 0 0 -48.16869408467926 18.549271678536456 0 18.549271678536456 14.382803168257588 0 0 0 0 -1222.7548420340754 -1254.6354007266473 0 -1254.6354007266473 -806.37018687432828 0 0 0 0 -184.90526606755157 318.77830941110551 0 318.77830941110551 -251.43970737670861 0 0 0 0 -1117.9796528668376 -270.05492511272587 0 -270.05492511272587 240.92252647796704 0 0 0 0 -1314.8242949576088 -816.62773933686299 0 -816.62773933686299 -245.96800862008809 0 0 0 0 -37.580423038740747 11.044491738960829 0 11.044491738960829 -16.633447054071695 0 0 0 0 -376.34235831054684 -201.79775746362219 0 -201.79775746362219 -691.95660575953525 0 0 0 0 -908.2425872402091 -32.609990261085386 0 -32.609990261085386 79.07762965194803 0 0 0 0 -1032.3124503840227 -227.23823152421483 0 -227.23823152421483 154.06107253900882 0 0 0 0 -100.32457095159688 -9.4438277783017135 0 -9.4438277783017135 1.0742382497538707 0 0 0 0 -31.016792020941566 -8.7430970055802959 0 -8.7430970055802959 10.006334446757412 0 0 0 0 1951.2162059077527 1220.3819715358318 0 1220.3819715358318 -444.04509986693256 0 0 0 0 -1021.5583541511037 1184.591542210911 0 1184.591542210911 2113.8797533391835 0 0 0 0 208.14664854751027 895.42466400324906 0 895.42466400324906 -290.49678387399717 0 0 0 0 -2487.5957227091712 60.732889426563588 0 60.732889426563588 2013.8566850152413 0 0 0 0 -329.45975704641023 370.02350936634866 0 370.02350936634866 358.81844483148689 0 0 0 0 255.53082194903982 652.05422572389728 0 652.05422572389728 299.25980549149915 0 0 0 0 -13.673321244748195 7.8179237780556434 0 7.8179237780556434 -3.2726336997804224 0 0 0 0 -1694.00678767504 -64.499955912571295 0 -64.499955912571295 942.62274495033807 0 0 0 0 -524.7840535363357 -333.53832559677721 0 -333.53832559677721 -582.22470171673615 0 0 0 0 -176.67887839645846 72.198636029810814 0 72.198636029810814 -539.54877348768241 0 0 0 0 -1619.0031186433371 44.196679625944682 0 44.196679625944682 -187.94823165780963 0 0 0 0 105.60069773242867 315.84384114005275 0 315.84384114005275 -832.17729985088226 0 0 0 0 193.83224886137759 -172.14805736633298 0 -172.14805736633298 -1172.567281117424 0 0 0 0 218.94960985524813 -54.278065294010048 0 -54.278065294010048 -628.35413495013199 0 0 0 0 -19.659655292416574 -4.3245570627302641 0 -4.3245570627302641 22.137151634725797 0 0 0 0 161.06526701847906 79.878233608200389 0 79.878233608200389 -550.48759110635297 0 0 0 0 -289.01125395387498 -541.94295265695985 0 -541.94295265695985 1064.1218520116554 0 0 0 0 559.88467478309758 -158.85631046143334 0 -158.85631046143334 -34.446076645057815 0 0 0 0 -956.4682034329453 36.027332809498603 0 36.027332809498603 937.42801733296358 0 0 0 0 -9.208456659084618 -5.5453920712976128 0 -5.5453920712976128 -0.79770025054267413 0 0 0 0 -1613.8146532178798 -907.85785317448722 0 -907.85785317448722 597.49870342337636 0 0 0 0 -689.06445447320584 -90.872117048207883 0 -90.872117048207883 -495.71632328991677 0 0 0 0 -692.83808945619967 -103.54428651945727 0 -103.54428651945727 177.04491732520182 0 0 0 0 42.64703539362381 406.24598245630767 0 406.24598245630767 507.66994177865763 0 0 0 0 -1047.0139712353184 -20.478558661363284 0 -20.478558661363284 929.66391070098007 0 0 0 0 -759.89935770933516 -527.86532384561212 0 -527.86532384561212 685.50319980477082 0 0 0 0 -373.50431297841715 -296.39105243430936 0 -296.39105243430936 805.51515475269593 0 0 0 0 -235.39366059447639 -277.2517781990573 0 -277.2517781990573 664.35184483753005 0 0 0 0 -90.698146896137132 -19.895578716816807 0 -19.895578716816807 4.9070881457604365 0 0 0 0 -90.211613242936437 -4.6523074257643202 0 -4.6523074257643202 -19.457107460236287 0 0 0 0 -25.880292231813655 -7.7151534450516408 0 -7.7151534450516408 161.49760772469739 0 0 0 0 -1.5449369783858629 -5.8228298695390173 0 -5.8228298695390173 1.343277664528957 0 0 0 0 152.21173514002294 -142.35053482787788 0 -142.35053482787788 682.16998664696007 0 0 0 0 -91.427454188255069 -18.569181803098502 0 -18.569181803098502 -30.609753256379918 0 0 0 0 -95.621459035372027 -2.9750028369031156 0 -2.9750028369031156 -10.139595927692426 0 0 0 0 -95.679779884212621 -9.3147965278665197 0 -9.3147965278665197 -9.4069743927539093 0 0 0 0 -90.924577369340113 -1.6263368664808695 0 -1.6263368664808695 -12.392589304582543 0 0 0 0 -93.734876417467603 3.2198565323383264 0 3.2198565323383264 1.5951896452261281 0 0 0 0 -56.688938513583707 -60.41551908290694 0 -60.41551908290694 -68.063391433012839 0 0 0 0 -77.719747486793494 -3.946452454890732 0 -3.946452454890732 -31.429142771339684 0 0 0 0 -69.952152040365036 5.1299434982688581 0 5.1299434982688581 -19.112379295668688 0 0 0 0 -67.53690218970587 -11.877726476250245 0 -11.877726476250245 -63.265464908184185 0 0 0 0 -91.273882938954046 -24.794165981238653 0 -24.794165981238653 0.44728421072075641 0 0 0 0 382.77443653627415 -39.023322251289756 0 -39.023322251289756 93.211455976096659 0 0 0 0 -94.401603505817292 -23.639941666041931 0 -23.639941666041931 1.2797657211246305 0 0 0 0 82.032266782814986 -111.89039760749074 0 -111.89039760749074 235.12706310354031 0 0 0 0 -686.7513390553504 26.952337616748878 0 26.952337616748878 359.45752153780342 0 0 0 0 -2.8860121844018636 -6.2163906981609243 0 -6.2163906981609243 1.3776287060784289 0 0 0 0 -19.539892867344378 -12.383503845226457 0 -12.383503845226457 -3.6296236070537837 0 0 0 0 -170.70762901288253 -548.52561840633325 0 -548.52561840633325 426.07053876975328 0 0 0 0 -6.7540212723688455 -131.29624464782 0 -131.29624464782 448.96398648447916 0 0 0 0 45.561682188650593 -136.6052706665763 0 -136.6052706665763 399.03354814250952 0 0 0 0 -21.682025578666867 -11.001579558458143 0 -11.001579558458143 -2.0504732769712328 0 0 0 0 -122.11329059583659 -102.24609518178409 0 -102.24609518178409 702.01280449261208 0 0 0 0 65.10389785663574 14.964552530343553 0 14.964552530343553 367.06544029497991 0 0 0 0 119.64685128629935 -849.23729631115339 0 -849.23729631115339 -639.92048630362933 0 0 0 0 -653.05192766539403 258.72592441555526 0 258.72592441555526 463.10027786584078 0 0 0 0 -17.64867883748434 -7.6013844822348009 0 -7.6013844822348009 -3.0430684092392362 0 0 0 0 511.67874282052799 -246.61103235063456 0 -246.61103235063456 -1350.4385537851431 0 0 0 0 -3.3171067185903667 113.67105696166664 0 113.67105696166664 -199.89864879231163 0 0 0 0 -58.735297750171071 -6.2394403522536237 0 -6.2394403522536237 -0.32999014776785235 0 0 0 0 -251.33763791738602 55.813542587618485 0 55.813542587618485 319.76593790743027 0 0 0 0 67.630974216372124 -88.414390341395119 0 -88.414390341395119 -48.051771528415429 0 0 0 0 -50.684538798661379 1.5739691511564615 0 1.5739691511564615 21.111481336520228 0 0 0 0 -53.634792826058401 -35.225228311346541 0 -35.225228311346541 120.62583769925777 0 0 0 0 -27.029596413907711 -50.519041761814606 0 -50.519041761814606 40.065329369739516 0 0 0 0 -334.62493911158526 261.61154972799159 0 261.61154972799159 125.04396004839236 0 0 0 0 -166.05200894804693 -649.77030265928079 0 -649.77030265928079 -687.9672028119212 0 0 0 0 -213.62807628908195 -285.66548287111664 0 -285.66548287111664 -68.695864802653887 0 0 0 0 -44.200530289323353 -5.5527050572408738 0 -5.5527050572408738 0.21222329765124667 0 0 0 0 -67.724991820272407 -28.374069281213451 0 -28.374069281213451 -574.23115623000467 0 0 0 0 -38.380731176861445 -192.88826088454607 0 -192.88826088454607 -576.88970890847509 0 0 0 0 18.403234330718988 -226.94181243542181 0 -226.94181243542181 -379.95922312471157 0 0 0 0 -63.247304336000525 -50.037489565271926 0 -50.037489565271926 284.51782205875634 0 0 0 0 -0.14793379361799452 -157.83311417108609 0 -157.83311417108609 106.59549460086259 0 0 0 0 43.022515379241668 -70.347913412452954 0 -70.347913412452954 -165.49492042177826 0 0 0 0 -9.9710042209626408 74.413162598611279 0 74.413162598611279 -143.47573670795782 0 0 0 0 -132.2582449412148 255.00980554693518 0 255.00980554693518 -211.08933533948772 0 0 0 0 -63.979627256587264 24.200544822362701 0 24.200544822362701 115.620985216772 0 0 0 0 -56.273380068596452 116.86904202660008 0 116.86904202660008 40.045188790074235 0 0 0 0 -61.155200666893506 37.758726862021746 0 37.758726862021746 8.6608219919384553 0 0 0 0 -48.66061996294971 17.603375200167108 0 17.603375200167108 28.975150811713085 0 0 0 0 -0.46490238839760423 31.096095926064891 0 31.096095926064891 9.0835528099330389 0 0 0 0 77.620270778803388 70.725244681202639 0 70.725244681202639 56.343759792997389 0 0 0 0 5.0023573562211823 42.059551050157097 0 42.059551050157097 45.532763444898592 0 0 0 0 24.995199521101313 38.54373826228948 0 38.54373826228948 83.961361722929723 0 0 0 0 -36.106065209018197 -39.688793989558519 0 -39.688793989558519 5.654367453987561 0 0 0 0 -39.824414489415375 10.900404668165692 0 10.900404668165692 29.597246939240886 0 0 0 0 -29.139484722907582 -7.7805719341153292 0 -7.7805719341153292 -37.70776954990788 0 0 0 0 1.4472509040788282 -60.790816783171294 0 -60.790816783171294 37.214811155523307 0 0 0 0 -268.87589845943148 -3.4919924106861799 0 -3.4919924106861799 83.226477006925052 0 0 0 0 -199.95877802584437 -46.783363060011652 0 -46.783363060011652 50.28590868203537 0 0 0 0 -174.99066739331465 31.595241201170211 0 31.595241201170211 95.702884449351586 0 0 0 0 -100.76521950080496 22.322284504308755 0 22.322284504308755 59.188717614393681 0 0 0 0 -97.886316487332806 15.393591174940411 0 15.393591174940411 65.306056267858366 0 0 0 0 -2.9453613769292133 99.590058720677916 0 99.590058720677916 139.94214809635741 0 0 0 0 -310.82517441343225 -66.598184439159013 0 -66.598184439159013 32.286852050836387 0 0 0 0 107.62386069328932 120.09725771512967 0 120.09725771512967 82.805411390880181 0 0 0 0 -0.39071420120103539 0.13052044970567067 0 0.13052044970567067 0.47392390742387391 0 0 0 0 -136.92366110780858 65.288420497628522 0 65.288420497628522 14.245691254709982 0 0 0 0 -139.93807609053329 -52.093810133641455 0 -52.093810133641455 -56.681264576787726 0 0 0 0 -239.36112987343222 23.703896211562096 0 23.703896211562096 -2.2271983262962749 0 0 0 0 -501.94895067691687 -184.06593003424541 0 -184.06593003424541 182.5536231078554 0 0 0 0 -463.92946534452494 54.694573149006828 0 54.694573149006828 124.66300861257332 0 0 0 0 -254.73831285022243 -21.047634700007961 0 -21.047634700007961 122.38779915859959 0 0 0 0 -169.14632494919351 -177.00336162043186 0 -177.00336162043186 110.78250430712251 0 0 0 0 -147.7099584660391 -148.89960396692982 0 -148.89960396692982 -40.844582862799143 0 0 0 0 0.84208523736450047 -0.4237006510624326 0 -0.4237006510624326 1.9730982984973195 0 0 0 0 -224.90316135747707 -101.71595213970249 0 -101.71595213970249 35.565938192183239 0 0 0 0 -206.33106145917554 -59.511572147735023 0 -59.511572147735023 79.088231309695402 0 0 0 0 -150.46420804977242 -19.417727279997507 0 -19.417727279997507 84.264406561555006 0 0 0 0 -159.00305129204571 -10.715330626679417 0 -10.715330626679417 73.868829460632696 0 0 0 0 -129.31881560081092 -21.515651730984246 0 -21.515651730984246 58.376152524790086 0 0 0 0 -163.90615912439534 -59.91239050567674 0 -59.91239050567674 19.680732716808507 0 0 0 0 -138.95147025250481 -72.934599778171105 0 -72.934599778171105 9.0119873549992917 0 0 0 0 -192.41638789582066 -45.52194638625042 0 -45.52194638625042 4.6198033315340581 0 0 0 0 -100.27733333939403 -25.580576940435655 0 -25.580576940435655 -0.92823504837717508 0 0 0 0 -610.42351726986817 -275.49051205399769 0 -275.49051205399769 396.34757842969589 0 0 0 0 -184.00620889582206 -61.526520256235926 0 -61.526520256235926 45.723729310222552 0 0 0 0 -7.1491263815753427 6.413991403282135 0 6.413991403282135 6.4348251868482329 0 0 0 0 67.379096469230717 -53.769834851697738 0 -53.769834851697738 -142.89952028860489 0 0 0 0 -100.13553859654075 -12.332057285127096 0 -12.332057285127096 10.985125041915182 0 0 0 0 -142.72806616299204 -44.592347934948521 0 -44.592347934948521 85.351596581784619 0 0 0 0 -46.7215906159837 -16.54267367493884 0 -16.54267367493884 19.346848299025687 0 0 0 0 -57.977464929019334 17.253340550965277 0 17.253340550965277 30.747180864148504 0 0 0 0 -105.71114196800045 22.022614736950345 0 22.022614736950345 62.210437876867218 0 0 0 0 -123.53311589741497 -16.805022727795404 0 -16.805022727795404 69.179479048738358 0 0 0 0 -108.70612317723862 26.509960587209207 0 26.509960587209207 61.227755771586089 0 0 0 0 -51.559646726348376 -2.8348478789570493 0 -2.8348478789570493 33.125546155810163 0 0 0 0 -77.545449161894794 -26.228657888046598 0 -26.228657888046598 59.459922828318213 0 0 0 0 -91.085666584025603 55.664865766833827 0 55.664865766833827 108.78617245989786 0 0 0 0 -66.554185062312399 0.57640001457067314 0 0.57640001457067314 7.8981680423346514 0 0 0 0 -6.5079157282905555 -7.9955240685850661 0 -7.9955240685850661 -3.3165887499914173 0 0 0 0 117.02840716905484 258.16837300322481 0 258.16837300322481 -449.02729170084558 0 0 0 0 39.755674791478668 -229.00495421720183 0 -229.00495421720183 -549.19262600114916 0 0 0 0 -766.97790130137582 -461.91549688127452 0 -461.91549688127452 -124.62784944501618 0 0 0 0 -57.970137244149498 -5.3674527116472515 0 -5.3674527116472515 6.7205197242711803 0 0 0 0 -552.97681423110771 40.553115383107297 0 40.553115383107297 422.38045533316199 0 0 0 0 -547.31754547847231 -733.12660408884824 0 -733.12660408884824 -269.24117256156387 0 0 0 0 -880.64492745952521 -207.58576355133491 0 -207.58576355133491 456.58960392286212 0 0 0 0 -640.96958320215344 -222.70001193746361 0 -222.70001193746361 356.09901354205277 0 0 0 0 94.805260121065658 20.441514071430333 0 20.441514071430333 98.938489823720488 0 0 0 0 -293.42123265450209 -178.03889295080921 0 -178.03889295080921 3.5678528450598606 0 0 0 0 -1.8648224092729038 -4.6617185919420887 0 -4.6617185919420887 0.85884519630034772 0 0 0 0 556.0765782922972 -17.282494092343313 0 -17.282494092343313 227.28202170444416 0 0 0 0 -575.03954446018906 74.759867908032447 0 74.759867908032447 340.27898138036539 0 0 0 0 -100.85257916425861 -26.126532320480635 0 -26.126532320480635 -1.1127924442594916 0 0 0 0 -464.66052456765829 54.299520606301485 0 54.299520606301485 59.264480159701634 0 0 0 0 -582.08206485227856 -144.70764341266772 0 -144.70764341266772 309.54956981272881 0 0 0 0 -518.24162674805848 -198.67506102301832 0 -198.67506102301832 207.49035447565893 0 0 0 0 -793.22941539207386 13.296978640971702 0 13.296978640971702 113.22233506119119 0 0 0 0 -328.83814547847942 -183.72986296049288 0 -183.72986296049288 27.697043552333525 0 0 0 0 -109.36667223081895 -57.769448021940434 0 -57.769448021940434 -32.027159852127696 0 0 0 0 -304.96291224333254 -122.32766973968319 0 -122.32766973968319 -45.969736013298643 0 0 0 0 -153.58645624519704 -125.06424107338228 0 -125.06424107338228 -79.152821448480154 0 0 0 0 -30.451941204701143 80.509752397823831 0 80.509752397823831 13.549334722211356 0 0 0 0 -76.036713000890316 21.259229524425145 0 21.259229524425145 25.036144097644627 0 0 0 0 -102.12417007180738 46.336173713807966 0 46.336173713807966 32.339549708821778 0 0 0 0 -75.197424928086548 38.399128382858095 0 38.399128382858095 33.502803049927479 0 0 0 0 -196.55886418309819 98.672936663717337 0 98.672936663717337 -110.42854209677171 0 0 0 0 -35.584056989689998 11.115070717632989 0 11.115070717632989 14.582937132534425 0 0 0 0 -17.584244441070609 4.3830447975403573 0 4.3830447975403573 1.5160782587052033 0 0 0 0 -688.95187054779853 -59.280890461955664 0 -59.280890461955664 141.33516315694669 0 0 0 0 -756.39742416876288 -73.840534948046297 0 -73.840534948046297 256.07022589634653 0 0 0 0 -83.505499664221134 -38.108513259828726 0 -38.108513259828726 -5.5587822442057586 0 0 0 0 -76.027686730238202 -124.06178660520618 0 -124.06178660520618 -11.607189618125631 0 0 0 0 -14.02106187487859 3.9281774082377581 0 3.9281774082377581 0.42919455210314439 0 0 0 0 -68.440808324441605 70.601089331747971 0 70.601089331747971 68.901226532718283 0 0 0 0 -603.12718137354204 -64.743446666424035 0 -64.743446666424035 11.869700642999533 0 0 0 0 -197.6374175727542 67.426575789334038 0 67.426575789334038 32.277776788994061 0 0 0 0 -59.304623917618841 -17.859410405448667 0 -17.859410405448667 2.9512710356144045 0 0 0 0 -73.228263921394046 -19.954209085974327 0 -19.954209085974327 -0.74032090431808317 0 0 0 0 -53.728182016173378 -13.185493086037695 0 -13.185493086037695 27.462836705690592 0 0 0 0 -50.786316982688732 -18.450486700075089 0 -18.450486700075089 23.447617250440089 0 0 0 0 -69.836837371062273 20.215229382229762 0 20.215229382229762 46.634593413221225 0 0 0 0 -92.809304979008147 2.4961098925066096 0 2.4961098925066096 32.668882103872129 0 0 0 0 -31.228304617427057 10.687318016743575 0 10.687318016743575 32.844937431533253 0 0 0 0 -48.545181480932882 3.3718092053743618 0 3.3718092053743618 4.3763034245849246 0 0 0 0 -127.46316321692575 47.385380111461245 0 47.385380111461245 -16.428777618119966 0 0 0 0 -25.192716617097886 9.657776474721711 0 9.657776474721711 8.0743753590266429 0 0 0 0 -39.853877076733625 40.187087965420005 0 40.187087965420005 36.233163385124953 0 0 0 0 -74.757143102528062 121.27641798083914 0 121.27641798083914 165.61723619325585 0 0 0 0 -34.54381269752048 30.361446161077311 0 30.361446161077311 72.538733393033908 0 0 0 0 -8.8554150644922629 15.786206784670867 0 15.786206784670867 -4.1875945199626585 0 0 0 0 -46.597169855933231 6.5135949990444288 0 6.5135949990444288 11.256087337210445 0 0 0 0 33.429231001762673 76.80678689231172 0 76.80678689231172 54.733470143042041 0 0 0 0 -36.838388510805089 -4.2419193227706273 0 -4.2419193227706273 -35.564729388341675 0 0 0 0 -14.12951545064746 -4.448850003845493 0 -4.448850003845493 5.9416909460443721 0 0 0 0 -21.643425658948161 6.952615541847976 0 6.952615541847976 5.4380631684058001 0 0 0 0 -25.004353658680799 10.775853376685845 0 10.775853376685845 7.8529344041962421 0 0 0 0 318.984207181682 290.87137621656348 0 290.87137621656348 -77.29411863484529 0 0 0 0 -399.05834594875341 -39.368773673085798 0 -39.368773673085798 123.46725625141153 0 0 0 0 -29.221203614273691 11.935476769436605 0 11.935476769436605 237.66313292269888 0 0 0 0 -608.62238020127552 -226.24826574984542 0 -226.24826574984542 152.05708813462979 0 0 0 0 -20.896013604018663 -1.4289177291210535 0 -1.4289177291210535 138.484308242314 0 0 0 0 -13.42728090047018 -6.116557030064115 0 -6.116557030064115 4.3266582702535032 0 0 0 0 -24.384433166109375 -91.596547376095714 0 -91.596547376095714 109.9095721554761 0 0 0 0 -50.621233383513754 -114.63862415177482 0 -114.63862415177482 295.12403722830777 0 0 0 0 -78.125062564791065 24.632833658768334 0 24.632833658768334 23.400950894112988 0 0 0 0 274.66551929693378 219.24488689206828 0 219.24488689206828 -138.31748441187528 0 0 0 0 327.23522653462715 56.948507158026587 0 56.948507158026587 -833.58719002643102 0 0 0 0 85.310758778185118 374.03445309164181 0 374.03445309164181 -153.92507593320943 0 0 0 0 -137.02015458673122 9.7557667350595239 0 9.7557667350595239 36.865323601562295 0 0 0 0 104.7297361370438 -335.22625009707394 0 -335.22625009707394 -184.0491259318178 0 0 0 0 -52.879763564879681 -41.064391050095921 0 -41.064391050095921 4.4771575839831446 0 0 0 0 -17.865304881200757 14.777467356254434 0 14.777467356254434 -11.995229918368377 0 0 0 0 -2660.4483363867621 -1879.2543511067515 0 -1879.2543511067515 -9.6566481195600318 0 0 0 0 -153.39853542316996 583.84134559552922 0 583.84134559552922 481.77727647220627 0 0 0 0 -479.59153647915809 -1588.6164331504588 0 -1588.6164331504588 348.77031640371933 0 0 0 0 11.721101118219082 -7.1627466240397553 0 -7.1627466240397553 5.3621285918228949 0 0 0 0 -2844.5642548452597 -2490.0903404091478 0 -2490.0903404091478 250.95054664962822 0 0 0 0 -1305.5581263090789 209.9866312890008 0 209.9866312890008 496.0019177834256 0 0 0 0 -4500.866022523187 2119.6135296866164 0 2119.6135296866164 931.08594429384937 0 0 0 0 -23.352517135019298 158.73523253130043 0 158.73523253130043 -125.7017353724932 0 0 0 0 1468.3539141595829 1728.7936830588574 0 1728.7936830588574 353.53073155203811 0 0 0 0 -987.37973564633285 -364.22286417289934 0 -364.22286417289934 -361.28890704642072 0 0 0 0 -1161.1216273702448 2708.4444089553981 0 2708.4444089553981 284.35054898418639 0 0 0 0 1050.1610023266112 -143.77494716788959 0 -143.77494716788959 2011.2398218994595 0 0 0 0 -1.8355349770539675 6.812042804148021 0 6.812042804148021 -14.713634366412016 0 0 0 0 -2498.6686112298412 -571.1797079275525 0 -571.1797079275525 18.014986049456638 0 0 0 0 -1167.859142413261 -555.34989250945773 0 -555.34989250945773 -311.98079484467962 0 0 0 0 -320.50081962996046 -326.07199785337434 0 -326.07199785337434 -294.17731368959176 0 0 0 0 -2058.7375105473184 -5.5469858432677484 0 -5.5469858432677484 5.8466337117761213 0 0 0 0 -1697.3649881435558 -1534.5377480364336 0 -1534.5377480364336 -669.59189602888364 0 0 0 0 -981.3860394024814 -942.44467589189435 0 -942.44467589189435 -804.03726682115166 0 0 0 0 -1099.7624661802838 -50.601242885271347 0 -50.601242885271347 -14.056284706823135 0 0 0 0 -538.30474488777691 -341.47319611554121 0 -341.47319611554121 -16.983818521492367 0 0 0 0 -83.660434491815977 212.32689088724692 0 212.32689088724692 0.22520138803884038 0 0 0 0 29.42909606122339 118.36800370215724 0 118.36800370215724 -158.62448553772629 0 0 0 0 -10.087556419523423 -3.4627529979957616 0 -3.4627529979957616 -0.48560782645105116 0 0 0 0 -465.97368556943911 -567.40453337777012 0 -567.40453337777012 -393.57145680870508 0 0 0 0 -1912.0867711539613 61.605372107124822 0 61.605372107124822 -167.86285853742538 0 0 0 0 -950.25775471660018 -748.48483778798391 0 -748.48483778798391 -446.07712939211444 0 0 0 0 -1010.1307538564861 -38.009692067522678 0 -38.009692067522678 -178.34448980406978 0 0 0 0 -54.144383758713332 39.473966650416898 0 39.473966650416898 -22.536587939407589 0 0 0 0 -848.44812937534152 397.58175445424831 0 397.58175445424831 -92.642641999167751 0 0 0 0 -1284.6211361804471 -474.94112743312388 0 -474.94112743312388 75.211660194817341 0 0 0 0 -91.570626961096423 -42.581787628461143 0 -42.581787628461143 -17.237066779006909 0 0 0 0 -39.439592711729347 -15.499588346221799 0 -15.499588346221799 20.742085032186878 0 0 0 0 -246.50364926030215 -202.34294376128236 0 -202.34294376128236 -162.68624010936765 0 0 0 0 -99.611414455517661 -24.843808488776631 0 -24.843808488776631 62.608871373601232 0 0 0 0 -212.49494066217449 86.875460870061033 0 86.875460870061033 112.81026010805454 0 0 0 0 -69.836761630418266 48.857662377126765 0 48.857662377126765 -27.151051201351407 0 0 0 0 -210.55559818090114 -90.791863753631787 0 -90.791863753631787 -141.29525384733518 0 0 0 0 -206.76624733699282 -684.33852486619389 0 -684.33852486619389 -668.58084477136117 0 0 0 0 -55.248514573439024 -464.06374636672763 0 -464.06374636672763 1055.9411301611995 0 0 0 0 1352.1402927812596 -86.58102088995588 0 -86.58102088995588 -447.03178040793227 0 0 0 0 -17.59614843360032 -458.40034647427819 0 -458.40034647427819 284.13412662876135 0 0 0 0 -48.940372003271477 230.35812123831693 0 230.35812123831693 900.72718500804331 0 0 0 0 9.6391782415812486 206.23901619636263 0 206.23901619636263 606.71161326846413 0 0 0 0 -33.367964499379013 -322.63681206788607 0 -322.63681206788607 41.973919040236069 0 0 0 0 -172.1062898809032 1.7077459025213102 0 1.7077459025213102 398.49444085293044 0 0 0 0 -26.267081315443647 -272.36436723802171 0 -272.36436723802171 161.03411693717135 0 0 0 0 -255.53689647011925 -216.29021097212626 0 -216.29021097212626 458.77202547150591 0 0 0 0 -8.3544487857288914 -364.51025166522368 0 -364.51025166522368 26.818396192564251 0 0 0 0 85.551821899978677 -334.77831152074941 0 -334.77831152074941 -190.77222756481387 0 0 0 0 -685.88976088076015 667.33337298627885 0 667.33337298627885 -602.28136958988398 0 0 0 0 245.87986800765066 -42.947680877126913 0 -42.947680877126913 -627.34399784901143 0 0 0 0 -974.15249197368394 12.300747615723594 0 12.300747615723594 -196.7046463371662 0 0 0 0 -1730.6350772725855 700.73134995894588 0 700.73134995894588 -109.1775058416606 0 0 0 0 -567.64343811885919 219.90242642842895 0 219.90242642842895 -355.2157132585719 0 0 0 0 -1247.9359526140761 -57.30281780606947 0 -57.30281780606947 37.691101265698308 0 0 0 0 -165.83749146593618 20.283657629236586 0 20.283657629236586 -142.98420269726296 0 0 0 0 -323.50365724955191 -113.48158882247799 0 -113.48158882247799 -23.552584849346204 0 0 0 0 -537.30827296381176 287.68507145647709 0 287.68507145647709 32.973059236265897 0 0 0 0 -96.127481808222853 -30.86229440288303 0 -30.86229440288303 2.3600129522249857 0 0 0 0 -210.60767976388888 170.60869076204722 0 170.60869076204722 -72.488079984264004 0 0 0 0 -293.27878224067535 79.472246545179587 0 79.472246545179587 -155.1309935763702 0 0 0 0 -535.54192475348827 -50.499956539389132 0 -50.499956539389132 -151.92760609978404 0 0 0 0 -457.75183037444003 -18.786441618187268 0 -18.786441618187268 -94.628964150649153 0 0 0 0 239.02854407911946 572.04065967438692 0 572.04065967438692 327.40848533608732 0 0 0 0 -100.27036424557247 -24.940940658141635 0 -24.940940658141635 -3.3838223424990845 0 0 0 0 -40.65047442255225 20.260580160073346 0 20.260580160073346 -46.008494734155299 0 0 0 0 -989.25728398428328 -261.67660861684499 0 -261.67660861684499 137.20729603370501 0 0 0 0 -1130.9240526801077 -158.8977418931579 0 -158.8977418931579 64.004822347694699 0 0 0 0 -486.13164375908673 -502.54730740803961 0 -502.54730740803961 -815.26809130105903 0 0 0 0 -111.60905673884554 -288.96903783590096 0 -288.96903783590096 39.9930448308005 0 0 0 0 -77.891287042536021 -29.025397964155317 0 -29.025397964155317 23.152424929177428 0 0 0 0 224.8115568144276 301.65157593185904 0 301.65157593185904 370.38473777288891 0 0 0 0 -0.084041549300309271 363.76228334047664 0 363.76228334047664 510.82893361731294 0 0 0 0 -94.772103055816586 0.45908019007160306 0 0.45908019007160306 7.5693320844761161 0 0 0 0 -83.365947258076631 -16.131410879836039 0 -16.131410879836039 4.4897867057824783 0 0 0 0 -86.943324105035856 -34.162577307029665 0 -34.162577307029665 -3.4411232974175476 0 0 0 0 -99.936124622944931 6.2225450069687369 0 6.2225450069687369 0.74830837824864171 0 0 0 0 66.1936932754179 131.29747742401742 0 131.29747742401742 189.50703667373455 0 0 0 0 -210.16940650169272 -96.123853088068245 0 -96.123853088068245 12.991705191901929 0 0 0 0 -436.07987206098915 -336.63575268559725 0 -336.63575268559725 -300.66260431221599 0 0 0 0 -18.208416259131184 -7.889128884849697 0 -7.889128884849697 3.7166008137210653 0 0 0 0 -134.94039972536848 -47.655822665408778 0 -47.655822665408778 -36.570833922545717 0 0 0 0 -985.5922319663805 75.687071245534753 0 75.687071245534753 15.380235663353233 0 0 0 0 -23.112695734795636 -2.7667882404495856 0 -2.7667882404495856 7.3004073061165862 0 0 0 0 -545.18625830077872 -22.91049177851437 0 -22.91049177851437 -229.32687674813496 0 0 0 0 -1007.8680451830678 -296.57042084970476 0 -296.57042084970476 -222.64688343293528 0 0 0 0 -812.22708030219655 -70.457942881173949 0 -70.457942881173949 -127.03345306822848 0 0 0 0 -746.47844757570419 -97.027316756417349 0 -97.027316756417349 -70.339592860957055 0 0 0 0 -597.03292099107057 -5.9346554422854751 0 -5.9346554422854751 -127.4047015483454 0 0 0 0 -615.28545994311025 -161.43659059550839 0 -161.43659059550839 -55.67634951148284 0 0 0 0 -617.90539732627803 -130.00010727281824 0 -130.00010727281824 -10.821220093415832 0 0 0 0 -755.89055480362731 -278.43747815642564 0 -278.43747815642564 -62.699834308590653 0 0 0 0 -556.63942292955471 -250.92591244910727 0 -250.92591244910727 -64.230400664117553 0 0 0 0 -510.51269393779512 -271.19365558884419 0 -271.19365558884419 79.374091769544521 0 0 0 0 -533.47561986821529 -198.95680351845476 0 -198.95680351845476 34.080722522763608 0 0 0 0 -535.03390099675744 -184.29834644334005 0 -184.29834644334005 24.707575804043699 0 0 0 0 -510.23506962379361 -73.608251377375495 0 -73.608251377375495 -52.936550035854452 0 0 0 0 -501.60032162684365 -172.20655910210235 0 -172.20655910210235 26.30125536903779 0 0 0 0 -379.56592918980459 -26.593290407780842 0 -26.593290407780842 -82.948569993988713 0 0 0 0 -418.6079334692331 -138.01781814422066 0 -138.01781814422066 -19.574667470515578 0 0 0 0 -293.58090017487336 -29.343608565402697 0 -29.343608565402697 -21.275382024803548 0 0 0 0 -294.2341725974693 -95.091563334516195 0 -95.091563334516195 -37.716221873875838 0 0 0 0 -285.10188879704219 -32.319695798307293 0 -32.319695798307293 -175.8924407538575 0 0 0 0 -290.15635251684944 16.456692676756177 0 16.456692676756177 -231.1496242540743 0 0 0 0 -456.56828970939387 -31.850994511451972 0 -31.850994511451972 -79.981774817228143 0 0 0 0 -471.17897751327837 -99.926660686990544 0 -99.926660686990544 -67.647790238363086 0 0 0 0 -235.14316258548934 -53.859196946364136 0 -53.859196946364136 6.8201311275961416 0 0 0 0 -299.08528978969844 -141.41230785050448 0 -141.41230785050448 2.3875133539622766 0 0 0 0 -190.38485297745501 -50.827483672505878 0 -50.827483672505878 -9.6244019378982557 0 0 0 0 -187.40329990445753 -59.470747380254124 0 -59.470747380254124 5.3834941494696977 0 0 0 0 -261.99061621558212 -102.27989024185877 0 -102.27989024185877 -5.4725323812190254 0 0 0 0 -191.80458183592418 -21.178829265207924 0 -21.178829265207924 -54.007167623793066 0 0 0 0 -341.28924564398767 -113.16060250504324 0 -113.16060250504324 -16.447207410978478 0 0 0 0 -355.19255251382128 -55.911489745742983 0 -55.911489745742983 -13.37264050119893 0 0 0 0 -392.23819136555539 -175.58878128118386 0 -175.58878128118386 12.139323612362659 0 0 0 0 -443.39805571074248 -187.08242014208281 0 -187.08242014208281 10.592991742173581 0 0 0 0 -416.53390032408061 -294.44742606168711 0 -294.44742606168711 9.5853096612727313 0 0 0 0 -413.87004710264955 -241.07985859347536 0 -241.07985859347536 -86.653712439467199 0 0 0 0 -430.56832556426525 -140.08795549484785 0 -140.08795549484785 -41.404359749588366 0 0 0 0 -294.29211884627875 -137.20901251988971 0 -137.20901251988971 -35.083262165759379 0 0 0 0 -293.07108105352381 -138.36558725999862 0 -138.36558725999862 -13.745475321679464 0 0 0 0 -400.13634641155659 -187.1436727331195 0 -187.1436727331195 20.227952879760323 0 0 0 0 -429.80423159597558 -265.62933218672725 0 -265.62933218672725 -19.608139659022299 0 0 0 0 -295.89982663124829 -149.54650843123068 0 -149.54650843123068 47.41945441612279 0 0 0 0 -150.77059637659113 -98.411913225450462 0 -98.411913225450462 -10.192487075561075 0 0 0 0 -182.00524550511909 -31.894021162821673 0 -31.894021162821673 38.93675654575236 0 0 0 0 -158.06012091969751 -42.213934845352469 0 -42.213934845352469 23.599658090330195 0 0 0 0 -175.15747450399249 -36.317353979545487 0 -36.317353979545487 21.746728524460195 0 0 0 0 -170.28900202887598 -66.438241774871585 0 -66.438241774871585 -3.3354042372193362 0 0 0 0 -134.74676448229002 152.78935646642185 0 152.78935646642185 301.41106772279545 0 0 0 0 48.30849194622715 97.545279282569481 0 97.545279282569481 125.6493494139051 0 0 0 0 -179.49568965220533 -62.802334954909838 0 -62.802334954909838 88.446919478713426 0 0 0 0 17.825879158073803 73.897522930043067 0 73.897522930043067 58.199644290978625 0 0 0 0 31.201098197261672 105.25764605798963 0 105.25764605798963 161.87562209049918 0 0 0 0 -48.233971407070044 11.50914864954413 0 11.50914864954413 -0.074149105985643948 0 0 0 0 -164.01905376625655 -18.027935485509644 0 -18.027935485509644 148.04085434521281 0 0 0 0 24.940010953372621 137.76364661243241 0 137.76364661243241 163.15640260590294 0 0 0 0 90.552080908732023 127.68166035446188 0 127.68166035446188 35.441916042992958 0 0 0 0 -10.060196824233572 38.531289887371003 0 38.531289887371003 69.755978111868586 0 0 0 0 3.7009778967449165 94.846068929567934 0 94.846068929567934 95.364829202545607 0 0 0 0 19.883241405565059 87.305402286307071 0 87.305402286307071 93.765080889982571 0 0 0 0 -37.177873785797317 7.1393016960285678 0 7.1393016960285678 1.1200573915041148 0 0 0 0 -94.013748938654317 -34.478765970282581 0 -34.478765970282581 -23.09809152294082 0 0 0 0 -259.93369462528062 -181.7644003974568 0 -181.7644003974568 -62.520621840012382 0 0 0 0 -273.01159117581847 -165.21761643367898 0 -165.21761643367898 -72.251817651061401 0 0 0 0 -351.24186982660103 -330.83667560917792 0 -330.83667560917792 -265.33369446303288 0 0 0 0 -688.1140532947029 -156.36919587721101 0 -156.36919587721101 -0.14911150512710566 0 0 0 0 19.531656295599532 52.843147344013353 0 52.843147344013353 44.039140398231126 0 0 0 0 -653.6994115695561 -414.60611124430625 0 -414.60611124430625 -41.176436251296536 0 0 0 0 -501.54295455462852 -614.29505412298431 0 -614.29505412298431 -824.25730214075782 0 0 0 0 -462.15010273912048 -472.82422341944664 0 -472.82422341944664 -354.7470346405708 0 0 0 0 -24.494693680027012 2.5889646651606029 0 2.5889646651606029 1.8112921853590791 0 0 0 0 -825.25392802755232 181.61463074101687 0 181.61463074101687 -410.68919219543585 0 0 0 0 -9.3876128974144422 -0.45382796760871713 0 -0.45382796760871713 0.60487664557812137 0 0 0 0 -1027.2527468939079 -1220.9814492323505 0 -1220.9814492323505 -1181.118846937535 0 0 0 0 -1854.2608185347162 -208.86908899890841 0 -208.86908899890841 -321.86921071549142 0 0 0 0 -402.61109383832081 -237.91531557433296 0 -237.91531557433296 -37.85478368582335 0 0 0 0 -599.53988249994291 30.325705926425798 0 30.325705926425798 -291.22733042408385 0 0 0 0 -1359.3107350113569 -495.75560719882179 0 -495.75560719882179 48.833003236218424 0 0 0 0 -582.67918450583238 -283.91905681356593 0 -283.91905681356593 32.518870977496533 0 0 0 0 -676.19253306140308 -229.40353751126713 0 -229.40353751126713 158.93158885493449 0 0 0 0 -376.95785708236508 -71.347710310359844 0 -71.347710310359844 284.15920474023471 0 0 0 0 -423.32514193264069 151.81271936367943 0 151.81271936367943 152.69110949345054 0 0 0 0 -894.68166686111363 -276.60585456868546 0 -276.60585456868546 236.95496093803786 0 0 0 0 -27.434168300154852 293.89424353019331 0 293.89424353019331 367.07296874129634 0 0 0 0 306.41080249173683 135.61867361528539 0 135.61867361528539 260.19289423189798 0 0 0 0 -295.72801512149454 -133.39541501789995 0 -133.39541501789995 280.80468573670942 0 0 0 0 -532.69149655205547 13.072273021133469 0 13.072273021133469 367.52230170525081 0 0 0 0 -286.43946894349938 31.833481552179364 0 31.833481552179364 254.96423653962296 0 0 0 0 53.041212522857677 71.886051428580913 0 71.886051428580913 71.966007929404441 0 0 0 0 -47.979888040717924 173.98280422872631 0 173.98280422872631 204.87965268919288 0 0 0 0 -11.213544118483128 5.0115510707048543 0 5.0115510707048543 1.0467067390843834 0 0 0 0 -248.84879992004426 -79.810888281870575 0 -79.810888281870575 55.56064721867142 0 0 0 0 -608.68491399125196 -230.21599479069778 0 -230.21599479069778 212.88970952584623 0 0 0 0 -388.44045065811952 -60.996165656628591 0 -60.996165656628591 292.54930184592376 0 0 0 0 -688.18280632294773 -245.17786367589702 0 -245.17786367589702 310.31131759846357 0 0 0 0 -598.58454687785706 -228.85596052533356 0 -228.85596052533356 130.39446332615626 0 0 0 0 -748.21469584943407 -340.42661859747301 0 -340.42661859747301 215.67987164888882 0 0 0 0 -465.90596656125126 -259.41178427790692 0 -259.41178427790692 81.094121022550098 0 0 0 0 -513.70610352726362 -221.31915752044142 0 -221.31915752044142 28.655580470257519 0 0 0 0 -607.29420647450024 -199.58058912760953 0 -199.58058912760953 56.1433134732074 0 0 0 0 -485.65369457085035 -296.85188844683944 0 -296.85188844683944 -136.66724304776926 0 0 0 0 -588.99185322455014 -232.18881931368219 0 -232.18881931368219 114.23183329534368 0 0 0 0 -706.84390930063091 -164.43929255133298 0 -164.43929255133298 91.965576138392635 0 0 0 0 -810.31303821274378 -447.40967003467375 0 -447.40967003467375 -115.15033231523557 0 0 0 0 -5.8827918789493197 1.8162587810677735 0 1.8162587810677735 1.1700849685219694 0 0 0 0 -547.50783646987111 -158.33101471340069 0 -158.33101471340069 -34.366898268185651 0 0 0 0 -837.6988609880209 -125.9405027378034 0 -125.9405027378034 -6.6986168103549062 0 0 0 0 -354.9535526212203 -135.77046105436523 0 -135.77046105436523 -238.80837236489242 0 0 0 0 -279.67922044121951 143.1898427479905 0 143.1898427479905 89.286558550892551 0 0 0 0 -193.60062047559768 -25.865947911271178 0 -25.865947911271178 35.973221054477108 0 0 0 0 16.125155880698003 49.607959310703791 0 49.607959310703791 29.753305601501779 0 0 0 0 -202.94316146600613 -57.173159333207877 0 -57.173159333207877 45.293164246812012 0 0 0 0 -3.9558268787814086 6.129172731362587 0 6.129172731362587 5.5437481027111453 0 0 0 0 -56.875480830465676 -7.6334482479514918 0 -7.6334482479514918 21.944097214306112 0 0 0 0 -130.11199808763922 60.991549181804658 0 60.991549181804658 -28.744344154275041 0 0 0 0 -165.82425670529483 -120.82801609270155 0 -120.82801609270155 0.15883429998575593 0 0 0 0 -289.95416781964013 -3.8927445901535975 0 -3.8927445901535975 13.184833678247742 0 0 0 0 -184.83854005881585 -155.40400353773657 0 -155.40400353773657 -127.37806866464871 0 0 0 0 -0.74613084706317068 -1.2532196642915068 0 -1.2532196642915068 8.8943680657869155 0 0 0 0 -100.1284638230718 -38.59590409821044 0 -38.59590409821044 24.205872728176473 0 0 0 0 -179.43960867880378 45.239440244560683 0 45.239440244560683 164.85463176478515 0 0 0 0 -234.49668454599305 -9.4672101623757499 0 -9.4672101623757499 117.56869789705888 0 0 0 0 -114.96915555193846 -12.466320772384506 0 -12.466320772384506 241.74570096837124 0 0 0 0 27.865508203394711 -70.13329401685769 0 -70.13329401685769 20.12340652221701 0 0 0 0 112.21682261470414 250.80584646931356 0 250.80584646931356 82.254536160968144 0 0 0 0 -59.748610250389902 5.7432401445448704 0 5.7432401445448704 186.10837234468272 0 0 0 0 -170.75701026871684 -82.345897540293663 0 -82.345897540293663 120.92618064840826 0 0 0 0 2.2200477579026483 -46.969682779960749 0 -46.969682779960749 81.487460405064667 0 0 0 0 3.0026522001611511 -17.918601223456477 0 -17.918601223456477 47.044462062711794 0 0 0 0 -55.236472522228723 -35.899036671555223 0 -35.899036671555223 98.664591592769284 0 0 0 0 -20.547414500293542 21.510179777939108 0 21.510179777939108 28.485842485446234 0 0 0 0 3.8627693749003811 37.9741890209134 0 37.9741890209134 33.311203599538203 0 0 0 0 15.307695535797393 46.151446101069268 0 46.151446101069268 15.331551996111102 0 0 0 0 -3.2614744010861614 65.042117754876017 0 65.042117754876017 65.268065980922984 0 0 0 0 -51.771776237772428 48.232513863673375 0 48.232513863673375 107.53037730326105 0 0 0 0 -18.057721277585699 44.512556050314018 0 44.512556050314018 22.150566878201658 0 0 0 0 -254.88805360542028 110.78127725446487 0 110.78127725446487 -39.031254531161863 0 0 0 0 -27.712188087639333 3.7682560511963317 0 3.7682560511963317 1.186050206811802 0 0 0 0 -332.16850897968834 -79.696455863355993 0 -79.696455863355993 -440.79020070191768 0 0 0 0 -208.74410914885812 100.31930024197663 0 100.31930024197663 306.88284593360368 0 0 0 0 -8.6592676320087776 201.20424452196994 0 201.20424452196994 255.75302121749155 0 0 0 0 -30.711546526749146 30.673662739435997 0 30.673662739435997 -22.353163264457116 0 0 0 0 108.4209581762625 156.46942759000791 0 156.46942759000791 -505.1196128042784 0 0 0 0 -280.94323306980368 -76.655855895913646 0 -76.655855895913646 142.66431556194766 0 0 0 0 -209.66085375483817 1233.294602767724 0 1233.294602767724 -1624.5323261566568 0 0 0 0 -3255.2664987843382 406.13753508342364 0 406.13753508342364 245.22412594700882 0 0 0 0 -10.056884389842025 11.178442360093612 0 11.178442360093612 -14.735901652313103 0 0 0 0 -3083.8710861185973 2258.2023431786429 0 2258.2023431786429 -443.12397895312006 0 0 0 0 -1739.1009124066259 1435.6891623273068 0 1435.6891623273068 -5.5514857967358466 0 0 0 0 -1359.3809608196898 1401.7374204388047 0 1401.7374204388047 -1028.0185757941692 0 0 0 0 -613.77627467070124 368.89422649138197 0 368.89422649138197 -6.2348940806297151 0 0 0 0 -291.08583979230025 70.678062744155341 0 70.678062744155341 -36.009672671173121 0 0 0 0 -295.1618244999554 95.92346780433013 0 95.92346780433013 -54.423495607908535 0 0 0 0 -58.835104352154303 -15.247313995863578 0 -15.247313995863578 -22.654665705087837 0 0 0 0 -117.57780887093395 72.61039884160482 0 72.61039884160482 -109.88628891952612 0 0 0 0 -284.44745577592403 19.507300085264887 0 19.507300085264887 87.357479694926496 0 0 0 0 -225.61182973021641 143.98280777580021 0 143.98280777580021 -154.92183967424626 0 0 0 0 -109.63302199859754 21.162895488041613 0 21.162895488041613 -257.98847381819314 0 0 0 0 -476.97328584076604 375.92925009540249 0 375.92925009540249 -305.93732256235035 0 0 0 0 -144.38410066321376 2.3222911816728811 0 2.3222911816728811 -375.50805205205381 0 0 0 0 -194.58851574829896 -55.965843403262625 0 -55.965843403262625 37.616307346403119 0 0 0 0 -124.83808305634739 -28.917987441155901 0 -28.917987441155901 45.738394365927888 0 0 0 0 -106.81227329936155 -66.589486394089136 0 -66.589486394089136 78.430936693185686 0 0 0 0 -73.708682186843362 -124.98357590128103 0 -124.98357590128103 63.011594894216614 0 0 0 0 -120.27537157259212 32.243686277790857 0 32.243686277790857 63.028721591945214 0 0 0 0 33.4709179526144 -69.945735958885592 0 -69.945735958885592 -17.666546610648766 0 0 0 0 153.89061027021671 603.61434077408376 0 603.61434077408376 421.62673254445008 0 0 0 0 5.0034015673087993 -10.195804993685329 0 -10.195804993685329 18.063848043197069 0 0 0 0 -9.2346056801502527 5.1751789029223403 0 5.1751789029223403 0.68344903423948011 0 0 0 0 -74.199601126165362 67.130794576442042 0 67.130794576442042 -120.2371466510757 0 0 0 0 32.166927030077204 627.88566525999022 0 627.88566525999022 659.93198028240636 0 0 0 0 -53.816142727446277 16.556455198408628 0 16.556455198408628 70.317028112201058 0 0 0 0 -256.73799640164361 378.09186760829016 0 378.09186760829016 647.64126461148408 0 0 0 0 -1175.9857112961763 149.62436005844677 0 149.62436005844677 -482.54917201986126 0 0 0 0 -366.71385705238208 -5.1226807694993113 0 -5.1226807694993113 361.27784290306562 0 0 0 0 -3108.5309642054781 858.5454313126437 0 858.5454313126437 717.18045911894581 0 0 0 0 -91.286271650518756 429.4715654280734 0 429.4715654280734 572.96239542683816 0 0 0 0 310.79279077937827 357.65311642662505 0 357.65311642662505 803.45411226833221 0 0 0 0 527.01330636115745 310.65904707458458 0 310.65904707458458 795.3774905932064 0 0 0 0 -136.3692624050891 360.5815213948249 0 360.5815213948249 1010.2309865190553 0 0 0 0 124.28396464456455 116.68420501874266 0 116.68420501874266 303.15798683908906 0 0 0 0 44.825818674114998 -114.32102669443884 0 -114.32102669443884 880.58188106028661 0 0 0 0 -328.26720476336777 323.57480997718289 0 323.57480997718289 717.38646625065007 0 0 0 0 -802.52917559631169 171.39822979791811 0 171.39822979791811 592.2184243286456 0 0 0 0 -736.69036688114284 -28.212275915011546 0 -28.212275915011546 851.6311745254892 0 0 0 0 -567.93125618458726 217.10706607362818 0 217.10706607362818 175.84691413311884 0 0 0 0 -462.03944176470395 -168.43929201645005 0 -168.43929201645005 490.36341148793895 0 0 0 0 -448.27432306617266 24.761333532299318 0 24.761333532299318 483.48587419296791 0 0 0 0 -209.85019373008981 -52.741390476830247 0 -52.741390476830247 155.85093177992121 0 0 0 0 -413.79968829359859 -11.160931818493964 0 -11.160931818493964 241.66146186110927 0 0 0 0 -192.62051154383516 -157.39776691419812 0 -157.39776691419812 212.93810653017908 0 0 0 0 -306.18920089188032 -141.53344923115208 0 -141.53344923115208 338.01928499500809 0 0 0 0 2377.5808183785994 1518.8042873021072 0 1518.8042873021072 1455.7144018645245 0 0 0 0 1707.6372261669021 1263.0324856017646 0 1263.0324856017646 1389.2080714047349 0 0 0 0 -1.4824901943421764 -0.32798121682191095 0 -0.32798121682191095 2.2790827502465474 0 0 0 0 449.9201219053939 959.48421634392753 0 959.48421634392753 1973.7573041395335 0 0 0 0 -494.15098668095015 -272.51074023896399 0 -272.51074023896399 307.01511573695871 0 0 0 0 -0.78993577721081465 0.35656812698118756 0 0.35656812698118756 0.83567902958692875 0 0 0 0 254.7292032672558 327.0198038884671 0 327.0198038884671 1340.3621008322455 0 0 0 0 -108.94716283850721 163.72585568092154 0 163.72585568092154 136.13171938471578 0 0 0 0 127.1138153259526 695.67194680987586 0 695.67194680987586 1185.7404341305096 0 0 0 0 -1209.5592728033371 868.49761240234477 0 868.49761240234477 635.70668109315898 0 0 0 0 -10.682089319132501 643.13353184314883 0 643.13353184314883 -287.64460760801239 0 0 0 0 -660.1852837089391 171.64180949691558 0 171.64180949691558 299.30892203961173 0 0 0 0 -764.10744105803587 433.54608535958664 0 433.54608535958664 -657.39081349764751 0 0 0 0 -19.707128961170611 3.3632674920774335 0 3.3632674920774335 0.5118510639016256 0 0 0 0 -2882.0636665505631 2627.0758877295834 0 2627.0758877295834 -699.87754199715096 0 0 0 0 -1489.0874575827838 1776.9376682109039 0 1776.9376682109039 -203.31476073458498 0 0 0 0 -2869.8368114279147 812.94866575222295 0 812.94866575222295 370.31390455659732 0 0 0 0 -1239.6393353387357 765.69351187738891 0 765.69351187738891 329.38556314430593 0 0 0 0 -2048.6100333635695 923.55837850440059 0 923.55837850440059 407.21612811922915 0 0 0 0 -922.08265439065144 672.63762646995167 0 672.63762646995167 -149.23137776434191 0 0 0 0 -2202.5394939774251 1714.4705359394425 0 1714.4705359394425 -55.42861455089286 0 0 0 0 -1030.0061741203535 169.59782288838142 0 169.59782288838142 321.06897759595131 0 0 0 0 -1108.0249166951253 343.30313814558673 0 343.30313814558673 -0.48120911035744057 0 0 0 0 -1022.563839609662 757.22270679518522 0 757.22270679518522 -597.2401290324749 0 0 0 0 -1446.5781536547001 563.86793939280176 0 563.86793939280176 1789.3978281815987 0 0 0 0 -43.567474053617104 0.19715772464413917 0 0.19715772464413917 1.9091083790297381 0 0 0 0 -1073.7155271718802 -19.094079598858286 0 -19.094079598858286 346.91227710055028 0 0 0 0 -24.113760532902177 -1.9184122046559118 0 -1.9184122046559118 0.3880937373659194 0 0 0 0 -4481.4272581526311 1797.7542121843144 0 1797.7542121843144 329.66450605950956 0 0 0 0 -1622.3246830916178 -2130.6952270647848 0 -2130.6952270647848 31.72243683159941 0 0 0 0 -4491.5425250337285 -1467.5727135456593 0 -1467.5727135456593 676.00582094895697 0 0 0 0 -1903.2815094702746 -906.04841548587876 0 -906.04841548587876 115.94648771248625 0 0 0 0 476.86987087439047 119.69537919273435 0 119.69537919273435 -1.4868835324580232 0 0 0 0 -2094.2608526546246 -690.68496975406845 0 -690.68496975406845 -126.87242025441958 0 0 0 0 -3292.1209907847224 -490.67717482914662 0 -490.67717482914662 75.588573200109792 0 0 0 0 -4499.9159962099729 147.56527960452377 0 147.56527960452377 72.230943651148152 0 0 0 0 -3633.5190172140719 310.10968163402538 0 310.10968163402538 93.486968854204719 0 0 0 0 -2016.8179918108508 370.65278715948597 0 370.65278715948597 -827.1545800669453 0 0 0 0 -2402.5569092508231 734.15608249424292 0 734.15608249424292 -589.23149442942088 0 0 0 0 -2423.7661155056412 361.84614538676374 0 361.84614538676374 -1608.1725885497788 0 0 0 0 -2752.3667534877313 1498.4244627040575 0 1498.4244627040575 -1085.4111425171152 0 0 0 0 -3020.3288099815545 750.41227246815663 0 750.41227246815663 -825.93456594462896 0 0 0 0 -2751.9451024311129 1233.8006336210037 0 1233.8006336210037 -189.55219664370742 0 0 0 0 -2356.4913592045632 1351.88116422181 0 1351.88116422181 -418.63472209979415 0 0 0 0 -2900.2279375688522 656.84876809822174 0 656.84876809822174 -273.52901652578555 0 0 0 0 -3060.7950998762972 936.54480547802154 0 936.54480547802154 -682.39711072978741 0 0 0 0 -3498.5886541936343 784.81479636419988 0 784.81479636419988 -212.04605236469672 0 0 0 0 -3637.4694918008026 1050.4780081212937 0 1050.4780081212937 -52.220223683306529 0 0 0 0 -4499.0413003418935 716.93857576847699 0 716.93857576847699 166.15808898392714 0 0 0 0 -3230.1524495255362 818.94030244170676 0 818.94030244170676 -240.09297374895178 0 0 0 0 -774.23909277342318 282.2688272985788 0 282.2688272985788 408.08773320179898 0 0 0 0 -511.45058430611971 -131.62033783196421 0 -131.62033783196421 1008.347367254749 0 0 0 0 -886.49974662211207 -260.60924702900604 0 -260.60924702900604 725.77184028189731 0 0 0 0 -520.92585994042747 143.70409177242072 0 143.70409177242072 -255.62834419861719 0 0 0 0 -100.86511734064112 -86.077811045181448 0 -86.077811045181448 2.0884662450562574 0 0 0 0 -100.71948641488507 -81.164945189054379 0 -81.164945189054379 -143.76924023389438 0 0 0 0 -93.916112844678537 -80.906722533990546 0 -80.906722533990546 -2.0086928154088017 0 0 0 0 -116.67113591253292 345.63538223434171 0 345.63538223434171 321.45926225261064 0 0 0 0 -65.182745697064092 159.34220369156992 0 159.34220369156992 583.96630960495895 0 0 0 0 -55.46607142801804 273.77441664885737 0 273.77441664885737 106.69020371342776 0 0 0 0 -169.38166999371606 304.02621354340954 0 304.02621354340954 -148.1873074088503 0 0 0 0 -93.533899809233844 96.558261262672204 0 96.558261262672204 21.100651426760578 0 0 0 0 46.596041173848789 360.93191402882712 0 360.93191402882712 39.589694102116482 0 0 0 0 -194.13945341901854 142.91964691587964 0 142.91964691587964 227.9290643245613 0 0 0 0 256.07111837793491 233.38615785787078 0 233.38615785787078 -96.064438881081514 0 0 0 0 -60.049411248717661 21.927105624398678 0 21.927105624398678 189.33365872245122 0 0 0 0 -56.771183501208725 36.448600930184625 0 36.448600930184625 84.567284475486304 0 0 0 0 -111.02678195663611 -24.414300152427131 0 -24.414300152427131 161.89068533666159 0 0 0 0 0.16979509920929559 -81.558344444685645 0 -81.558344444685645 99.485542351142271 0 0 0 0 1.2669626068346815 -1.411270855002158 0 -1.411270855002158 -3.6814704071179776 0 0 0 0 -8.1127743297806774 0.4816238026180315 0 0.4816238026180315 -4.1949359040148479 0 0 0 0 -43.508714928029804 -48.267527171692564 0 -48.267527171692564 -322.80248044776135 0 0 0 0 -760.25483732931025 753.93809411193888 0 753.93809411193888 -506.86848143760471 0 0 0 0 -12.09164823686433 -0.79922081774444109 0 -0.79922081774444109 -2.7597948199247675 0 0 0 0 -913.50786420908116 147.20373462409225 0 147.20373462409225 409.73546109637755 0 0 0 0 -255.83308229292743 489.99709360098632 0 489.99709360098632 -448.72694237363612 0 0 0 0 -1057.6621473665728 437.12520133911266 0 437.12520133911266 -161.92492328021399 0 0 0 0 -1436.4002396284559 -53.484463832933216 0 -53.484463832933216 657.22015104354432 0 0 0 0 -1311.8918195531951 853.68301222219998 0 853.68301222219998 -132.26284645695705 0 0 0 0 -1200.1020443735761 655.63063755581561 0 655.63063755581561 -292.77349153410523 0 0 0 0 -2566.6983689384069 1309.8066799681883 0 1309.8066799681883 -275.16107170818168 0 0 0 0 -2161.0576250058803 155.00864833237574 0 155.00864833237574 353.80294705481174 0 0 0 0 -2853.0636192545062 -941.14771963041494 0 -941.14771963041494 337.52374643006624 0 0 0 0 -2477.5421168316971 338.73676969609915 0 338.73676969609915 331.86055647082276 0 0 0 0 -2727.2651635788498 327.59546660355545 0 327.59546660355545 355.43323617650958 0 0 0 0 -1026.0227628352004 -1146.3430752859779 0 -1146.3430752859779 -429.68750602998307 0 0 0 0 -383.33536453536362 -646.67545207942703 0 -646.67545207942703 -358.26806928123915 0 0 0 0 -1326.7451161186473 -404.36571863096015 0 -404.36571863096015 504.16718844024581 0 0 0 0 -1703.4736701583606 -573.23662163632889 0 -573.23662163632889 645.70766918137679 0 0 0 0 -1471.3604142935073 78.892605538631869 0 78.892605538631869 357.91443220217684 0 0 0 0 -527.2254875610015 -249.04335642992771 0 -249.04335642992771 1074.347371755322 0 0 0 0 -78.72621227568834 13.522923104129987 0 13.522923104129987 3.4720851062317459 0 0 0 0 -482.90069138702529 -87.226676690504064 0 -87.226676690504064 558.77954772123474 0 0 0 0 -442.55339642081526 -518.78263527271793 0 -518.78263527271793 239.07462985875736 0 0 0 0 -586.11770466451162 80.130532817533549 0 80.130532817533549 215.81113135450323 0 0 0 0 46.416235549622797 -154.85085606500525 0 -154.85085606500525 273.58091010771932 0 0 0 0 -1146.7701344395828 -55.614705685537956 0 -55.614705685537956 234.85682954560889 0 0 0 0 -1010.6414299014286 -303.9972553357602 0 -303.9972553357602 212.26109879513388 0 0 0 0 -101.02094761295098 -94.871294004852203 0 -94.871294004852203 1.2880830940510077 0 0 0 0 -851.2670411346553 -181.14561906922654 0 -181.14561906922654 225.67242941595941 0 0 0 0 -1280.2561714326876 84.216315445126384 0 84.216315445126384 46.794412472547265 0 0 0 0 -1496.4860826802178 -249.98223351667366 0 -249.98223351667366 1236.6728691986627 0 0 0 0 -1041.8035718450683 -287.76875913758204 0 -287.76875913758204 571.35797421769894 0 0 0 0 -1267.7324442344252 -371.7341210900604 0 -371.7341210900604 729.98987045847298 0 0 0 0 -1118.0136923588943 -326.51077904244448 0 -326.51077904244448 -90.514060300092694 0 0 0 0 -101.01364308881546 -94.187323432973599 0 -94.187323432973599 1.5159208409184395 0 0 0 0 -100.97370982624358 -90.463463244254228 0 -90.463463244254228 1.7410529066217713 0 0 0 0 -978.8963088331584 -19.781124473860473 0 -19.781124473860473 -369.96901850909308 0 0 0 0 -1315.5508359105588 -190.4839403078031 0 -190.4839403078031 -8.5130663904055837 0 0 0 0 -1269.9337656107164 -315.11803947252065 0 -315.11803947252065 -3.4418750582226494 0 0 0 0 -1233.5522611105262 -279.9166188190411 0 -279.9166188190411 36.950063824433528 0 0 0 0 -1195.5472220530064 -348.83980492481896 0 -348.83980492481896 38.443360769433639 0 0 0 0 -1263.3888588040791 -275.4120831243381 0 -275.4120831243381 40.432165280210029 0 0 0 0 -973.94057881145272 -252.17802458075221 0 -252.17802458075221 -20.76049350728681 0 0 0 0 -1299.4421934272023 -11.088797696462962 0 -11.088797696462962 61.191895964810101 0 0 0 0 -974.27943739699549 -77.918348557110221 0 -77.918348557110221 -34.026299574743462 0 0 0 0 -1318.1577940918942 -102.05571633517502 0 -102.05571633517502 -26.225993163749081 0 0 0 0 -1444.9257318699092 -154.44949584015376 0 -154.44949584015376 83.092068859721621 0 0 0 0 -1270.9463935969975 -159.74987179536271 0 -159.74987179536271 35.277784147838247 0 0 0 0 -1450.0379152798237 -33.084643397050002 0 -33.084643397050002 87.380654256299749 0 0 0 0 -1586.6948183026179 -161.69037837640644 0 -161.69037837640644 108.43933218562415 0 0 0 0 -1575.5355013080659 16.606073155356512 0 16.606073155356512 32.686196240934805 0 0 0 0 -1456.6461768572917 -151.48523574101455 0 -151.48523574101455 84.292961848974301 0 0 0 0 -1430.7716343934535 -305.77163886756307 0 -305.77163886756307 98.356627790635685 0 0 0 0 -1588.5748842753437 -360.69599203775158 0 -360.69599203775158 111.62075885177182 0 0 0 0 -1806.27141546297 -318.19515433252838 0 -318.19515433252838 115.90091454852518 0 0 0 0 -1804.8634887769067 -86.028966974303643 0 -86.028966974303643 74.163763344276958 0 0 0 0 -1609.9881933202105 -125.90834694942316 0 -125.90834694942316 68.005734638609283 0 0 0 0 -1654.4762418839236 -61.925701144464256 0 -61.925701144464256 -10.749499982203361 0 0 0 0 -1793.8815786536725 141.10644705761706 0 141.10644705761706 -92.989831704267999 0 0 0 0 -1104.0501722328772 -302.23198440635497 0 -302.23198440635497 36.527056174807512 0 0 0 0 -842.24929182381311 -382.31877544150848 0 -382.31877544150848 -47.058236553959432 0 0 0 0 -849.54192192722985 -339.05463989708346 0 -339.05463989708346 -34.158501768954011 0 0 0 0 -1392.6082669852403 -289.38361963093303 0 -289.38361963093303 67.623124887262748 0 0 0 0 -1357.3608695055882 -422.63727338108856 0 -422.63727338108856 86.489577182775975 0 0 0 0 -1113.4420082194119 -435.65953606769654 0 -435.65953606769654 -17.670944422223329 0 0 0 0 -1589.53419486231 -362.44029149574817 0 -362.44029149574817 32.008675431901793 0 0 0 0 -1556.0212162361131 -567.31790806549725 0 -567.31790806549725 -3.6895034570370626 0 0 0 0 -1343.1592840370722 -411.3269554256276 0 -411.3269554256276 8.1177797075324634 0 0 0 0 -749.50831554605975 -445.22543053344452 0 -445.22543053344452 -118.78712957397147 0 0 0 0 -987.51448854568298 -456.87484066838806 0 -456.87484066838806 -66.044067114511563 0 0 0 0 -1105.1890789905701 -389.62891283757381 0 -389.62891283757381 0.55286882835935103 0 0 0 0 -747.82716275580151 -357.11856517408319 0 -357.11856517408319 -54.977799178363057 0 0 0 0 -397.84491898553097 -333.49695243049428 0 -333.49695243049428 -180.74561255059598 0 0 0 0 -267.34360990099958 -187.90403284239255 0 -187.90403284239255 -158.76969268106404 0 0 0 0 -274.24253575685725 -146.68269128835163 0 -146.68269128835163 -95.38774427100725 0 0 0 0 -272.37045173227671 -200.29806010634275 0 -200.29806010634275 78.120240769293559 0 0 0 0 -511.20183412502229 -272.68917078350023 0 -272.68917078350023 -92.729093777095841 0 0 0 0 -519.24953890242614 -259.52786564027338 0 -259.52786564027338 -47.657642505821059 0 0 0 0 -353.37890940177022 -58.088518123384347 0 -58.088518123384347 -112.8715937750494 0 0 0 0 -91.394656529751956 176.4622970207065 0 176.4622970207065 -121.3072066820896 0 0 0 0 -8.7951987378068566 0.31089688860313913 0 0.31089688860313913 3.6744773577388088 0 0 0 0 -103.96839911148709 -309.67621412359949 0 -309.67621412359949 -205.80269246226726 0 0 0 0 95.108344152351492 -145.67700433429491 0 -145.67700433429491 -141.27541898997151 0 0 0 0 -304.23270543810213 108.58994823188368 0 108.58994823188368 -97.003810704512944 0 0 0 0 -448.19743004626798 -35.035356876518563 0 -35.035356876518563 23.401631245302269 0 0 0 0 -184.30463504858199 87.304046397224738 0 87.304046397224738 -115.84620358747634 0 0 0 0 -652.56032567100192 -209.34857474741693 0 -209.34857474741693 -93.405433361308496 0 0 0 0 -570.58164075803506 -161.94273155387509 0 -161.94273155387509 -77.595610400250735 0 0 0 0 -989.56186842473653 -138.29503381306267 0 -138.29503381306267 8.8002988934022142 0 0 0 0 -555.45267713509384 -145.88454387121237 0 -145.88454387121237 -95.227754557903381 0 0 0 0 -449.03598179406254 -3.254838180421757 0 -3.254838180421757 -110.26975700258481 0 0 0 0 -403.77102520912013 95.72630501875301 0 95.72630501875301 -178.92930918837374 0 0 0 0 -886.45804730891541 -180.607099489147 0 -180.607099489147 -103.70218207625658 0 0 0 0 -673.7900307231248 -44.142088916318244 0 -44.142088916318244 -138.94718757454029 0 0 0 0 -21.683758619081345 -103.32993709140283 0 -103.32993709140283 -155.3327321129409 0 0 0 0 123.8776377332033 -59.498797539626139 0 -59.498797539626139 -146.92345601972193 0 0 0 0 -16.01140898438652 12.551432568438173 0 12.551432568438173 -32.436199108271573 0 0 0 0 -102.21743544838682 -90.145907985108352 0 -90.145907985108352 -194.09980707609793 0 0 0 0 -129.39169781896635 -24.23197380415877 0 -24.23197380415877 -185.0391580203941 0 0 0 0 -4.4875603459849387 -11.283473234428953 0 -11.283473234428953 -42.217310148380541 0 0 0 0 -148.16897549257556 13.753522093999891 0 13.753522093999891 -25.049436400247032 0 0 0 0 -116.44852893891948 -3.0142379762855853 0 -3.0142379762855853 -40.209769920082181 0 0 0 0 -117.29643130437034 -4.0553921023010844 0 -4.0553921023010844 -25.623182186180202 0 0 0 0 -13.827965610928914 26.757830520374256 0 26.757830520374256 -25.427013264630361 0 0 0 0 199.72334947787385 -74.863224870206523 0 -74.863224870206523 -100.59219633370958 0 0 0 0 -114.84179802270228 -8.9240326596418527 0 -8.9240326596418527 -31.90769053139411 0 0 0 0 -408.87511182004528 -21.093573027761522 0 -21.093573027761522 267.86077005490188 0 0 0 0 -379.52289744773589 151.44005379346527 0 151.44005379346527 -76.844112210204912 0 0 0 0 -252.85559644557361 -244.12367510391778 0 -244.12367510391778 123.93154805906306 0 0 0 0 100.73793439177825 407.30211516660984 0 407.30211516660984 -421.56758198208263 0 0 0 0 -294.32813194097253 156.35811107610243 0 156.35811107610243 -119.34846093101442 0 0 0 0 -133.67095130736561 9.0696997667655523 0 9.0696997667655523 -30.05908093793505 0 0 0 0 -127.96948926806363 -19.688506149750765 0 -19.688506149750765 -38.910259930884422 0 0 0 0 -21.774267924650502 26.756470064277451 0 26.756470064277451 -21.517351115379675 0 0 0 0 -41.888441416624119 -369.82209713704378 0 -369.82209713704378 33.631364410835886 0 0 0 0 -29.328079321550547 21.755033565968262 0 21.755033565968262 -4.2616034557038445 0 0 0 0 1236.6594580909004 405.51638169869057 0 405.51638169869057 -883.10676710439748 0 0 0 0 -6.6999996037011442 1.0925254782630418 0 1.0925254782630418 -16.600654547055456 0 0 0 0 -15.840970644345838 8.7647290467921408 0 8.7647290467921408 -25.646298953109579 0 0 0 0 -17.020599006202232 6.078805808734046 0 6.078805808734046 -17.849721288733718 0 0 0 0 -64.160673113896337 77.400691988854305 0 77.400691988854305 496.10402076886294 0 0 0 0 -20.330364818379167 612.04405186183249 0 612.04405186183249 -258.30299854756686 0 0 0 0 -106.76861616719543 6.4982364754425816 0 6.4982364754425816 -60.886484840854791 0 0 0 0 -7.3759333588962868 -13.016953450381948 0 -13.016953450381948 -32.697657698430952 0 0 0 0 -129.443039509144 -8.5231235083134038 0 -8.5231235083134038 -16.470871686989994 0 0 0 0 -1376.5629697271434 -73.745910524367446 0 -73.745910524367446 258.36622441738655 0 0 0 0 -511.33050441872183 1039.4209758906522 0 1039.4209758906522 -1316.3283549664047 0 0 0 0 -387.16548206222797 -923.56873836654904 0 -923.56873836654904 -290.53061846348646 0 0 0 0 -475.65389075783605 -507.42361782438729 0 -507.42361782438729 -51.591221626076731 0 0 0 0 -1277.3312856568664 726.5985273960722 0 726.5985273960722 -726.86231026995665 0 0 0 0 -19.999224723509116 -3.2463940185285409 0 -3.2463940185285409 -0.8760566208450733 0 0 0 0 -25.497958028696303 -60.23861706954267 0 -60.23861706954267 30.700298457020835 0 0 0 0 -222.1428594297322 -150.33900871144488 0 -150.33900871144488 -9.6924294566824756 0 0 0 0 -528.45945235240379 -138.69524540771368 0 -138.69524540771368 214.15538039243165 0 0 0 0 -527.66019216170389 -136.51504693682591 0 -136.51504693682591 57.160364357588605 0 0 0 0 -308.42721968741569 -54.632052097112251 0 -54.632052097112251 57.894325160616063 0 0 0 0 -535.94114349246956 -6.4977449692037226 0 -6.4977449692037226 48.336060953113929 0 0 0 0 -569.3591788000922 -1.6534010762909475 0 -1.6534010762909475 137.95923572053471 0 0 0 0 -15.579144881778589 4.8760011069057612 0 4.8760011069057612 -31.798513695900226 0 0 0 0 -27.478508691606592 19.082017394312757 0 19.082017394312757 -16.142875860293081 0 0 0 0 -161.94947974028764 -50.388184005455827 0 -50.388184005455827 -38.164365654007447 0 0 0 0 -97.869594383890217 -43.539280586618133 0 -43.539280586618133 -72.986445853695841 0 0 0 0 -234.27026948498678 -32.828846258067188 0 -32.828846258067188 -38.350706094723137 0 0 0 0 -145.48442942608563 11.115257050144663 0 11.115257050144663 -7.6381552310940606 0 0 0 0 -8.7817544526514411 11.771751792732204 0 11.771751792732204 -23.209765701577062 0 0 0 0 -9.5929255384316718 21.830772653061587 0 21.830772653061587 -18.138267134431814 0 0 0 0 -368.91942702852248 -54.0924136907106 0 -54.0924136907106 252.48527196811631 0 0 0 0 5.2930437577490821 -0.17305319320169588 0 -0.17305319320169588 39.164908916919956 0 0 0 0 1.6131988337380996 -2.5926656328458932 0 -2.5926656328458932 14.93195919613736 0 0 0 0 -351.40767115070776 -138.12431351416126 0 -138.12431351416126 287.92323757877602 0 0 0 0 -433.07826199809642 -215.98861820379921 0 -215.98861820379921 -402.27326652908505 0 0 0 0 -300.11233601947606 -98.956940014736119 0 -98.956940014736119 201.19880102233401 0 0 0 0 -211.58986147393443 -136.18771295039096 0 -136.18771295039096 -68.912299355530195 0 0 0 0 -145.07195498253714 75.160696942622053 0 75.160696942622053 -137.55745868141457 0 0 0 0 -25.444650098969763 -1.3558468082841273 0 -1.3558468082841273 38.616481716680809 0 0 0 0 -26.515276256074337 0.47423495915728608 0 0.47423495915728608 25.715612914305858 0 0 0 0 -256.50435461729649 136.16170873115743 0 136.16170873115743 71.622730875013076 0 0 0 0 -500.82037115814455 167.25731855313407 0 167.25731855313407 310.72651964654415 0 0 0 0 -238.38087088226166 147.49508348198833 0 147.49508348198833 3.5493798631541722 0 0 0 0 -172.27481810232712 -7.1076584538568568 0 -7.1076584538568568 34.144505850714268 0 0 0 0 -166.55789836692566 34.708175908214798 0 34.708175908214798 52.344724066294702 0 0 0 0 -131.39917878753477 45.786462771320203 0 45.786462771320203 89.069303886875332 0 0 0 0 -109.13457724991349 -38.317410359984706 0 -38.317410359984706 85.20543631729015 0 0 0 0 -164.49740507336537 -14.636202664846678 0 -14.636202664846678 273.27583197718468 0 0 0 0 -158.74680443335092 54.779218389251582 0 54.779218389251582 64.534359127038442 0 0 0 0 -160.72041912945133 2.7138863613017747 0 2.7138863613017747 -8.5460831701520874 0 0 0 0 -215.78856083723076 -15.128163084679727 0 -15.128163084679727 -23.342696406240066 0 0 0 0 -308.7278671262132 21.994242322753323 0 21.994242322753323 10.926106593753502 0 0 0 0 -136.59661419642362 25.800390617290759 0 25.800390617290759 -26.989522092102561 0 0 0 0 -112.2224470278743 -15.82776162090704 0 -15.82776162090704 -2.7762008678146231 0 0 0 0 -154.45118340931003 40.976057306621897 0 40.976057306621897 18.132047183893519 0 0 0 0 -129.71416761819091 -1.31025597557732 0 -1.31025597557732 37.904746537551546 0 0 0 0 -180.65080379898427 17.429728903423893 0 17.429728903423893 31.379201579492474 0 0 0 0 -18.330996718272448 -5.9608662494158295 0 -5.9608662494158295 34.516815417148329 0 0 0 0 -121.65847577618842 -14.969150942837359 0 -14.969150942837359 10.540712675278883 0 0 0 0 -162.97232166232425 -318.51544815578404 0 -318.51544815578404 729.06576218602277 0 0 0 0 -0.17148047298726254 -0.92162458347729626 0 -0.92162458347729626 4.8167405346658594 0 0 0 0 40.26266520506033 -352.58022624315061 0 -352.58022624315061 342.65022580230379 0 0 0 0 -312.11608602522756 236.82831435313324 0 236.82831435313324 -820.39982818464159 0 0 0 0 -498.74515989884821 -106.68688628083623 0 -106.68688628083623 465.61423806900711 0 0 0 0 451.20248278705549 -257.68251948825991 0 -257.68251948825991 -185.9848791755212 0 0 0 0 175.25071753103839 -152.72309896374213 0 -152.72309896374213 -32.608711018699069 0 0 0 0 -111.26440162317886 -143.90748077030503 0 -143.90748077030503 -32.874406306520541 0 0 0 0 -171.10800737694262 -130.88608787725053 0 -130.88608787725053 -169.62396465066377 0 0 0 0 -28.705739344880445 -9.0267354389688421 0 -9.0267354389688421 -1.8525801459622997 0 0 0 0 -63.034234586375533 36.61916674677741 0 36.61916674677741 -232.45879771089631 0 0 0 0 -102.45965748725575 372.62082359547958 0 372.62082359547958 237.89270910890747 0 0 0 0 -122.82278492893965 -23.788687397470994 0 -23.788687397470994 31.008261891593975 0 0 0 0 -97.994000430461028 -12.840397581464057 0 -12.840397581464057 5.1218432093836581 0 0 0 0 -125.79602674537455 -20.555048335192623 0 -20.555048335192623 -20.961566076799315 0 0 0 0 -14.718566542054759 0.49515717119993496 0 0.49515717119993496 -248.86992816804286 0 0 0 0 -26.209336997490027 -29.340857493870317 0 -29.340857493870317 -278.92881297336498 0 0 0 0 -64.261907992629858 34.481777598428835 0 34.481777598428835 -208.64594551963091 0 0 0 0 -162.71601027403085 -12.38669434388612 0 -12.38669434388612 -60.852177998400521 0 0 0 0 -169.03506433097209 39.809545863747985 0 39.809545863747985 9.0402548280012525 0 0 0 0 -99.894336358973987 -12.863503981132238 0 -12.863503981132238 -0.35228960881245042 0 0 0 0 -194.77374526798667 48.147367503063606 0 48.147367503063606 -174.24882885979423 0 0 0 0 -232.48826090229704 -19.327589618519141 0 -19.327589618519141 -85.814982630276063 0 0 0 0 -248.93492343016987 112.28171167738674 0 112.28171167738674 -166.35612643132117 0 0 0 0 -210.70966142056568 42.860706752714123 0 42.860706752714123 -173.59440777355303 0 0 0 0 -155.24339548281569 90.444642409825065 0 90.444642409825065 -238.65583848986353 0 0 0 0 -169.77818527572526 83.062014349005494 0 83.062014349005494 -164.87355819536697 0 0 0 0 -42.115530389375635 -60.93094234876753 0 -60.93094234876753 -46.639930915088826 0 0 0 0 52.874651249643648 -27.191528165546515 0 -27.191528165546515 -239.61490085761056 0 0 0 0 -0.98568724037741617 0.86261659496079801 0 0.86261659496079801 0.18952065090922687 0 0 0 0 -91.150813673164521 126.17833209777973 0 126.17833209777973 -150.01157137227347 0 0 0 0 -17.026603087040712 -92.431343287988511 0 -92.431343287988511 -125.8018333677519 0 0 0 0 2.1072954747796757 42.628881455061673 0 42.628881455061673 -33.223895478342797 0 0 0 0 -156.9148177124589 -24.455181723350506 0 -24.455181723350506 -140.65928172416352 0 0 0 0 -175.09825511451345 -35.126776633585905 0 -35.126776633585905 -14.189455897492508 0 0 0 0 -220.20020087165176 -67.166046244923564 0 -67.166046244923564 -136.90055446431688 0 0 0 0 -169.03905954246875 21.987598702889045 0 21.987598702889045 -199.94614498710871 0 0 0 0 -23.30665131835903 8.0271595861179321 0 8.0271595861179321 -29.620167354879463 0 0 0 0 -119.85020572978829 -5.1129284666351396 0 -5.1129284666351396 -14.55654051032252 0 0 0 0 -560.74921187039581 66.954702194158017 0 66.954702194158017 -68.645190592549625 0 0 0 0 -127.67073812514718 -25.248388304535183 0 -25.248388304535183 -35.690659937494274 0 0 0 0 -156.73636641124904 -2.1932615688385795 0 -2.1932615688385795 27.842078252650481 0 0 0 0 -178.78308574920811 -40.363573929852464 0 -40.363573929852464 -9.6916687640127748 0 0 0 0 130.74708123005985 203.72716732694016 0 203.72716732694016 184.84546293976018 0 0 0 0 -174.12327734028804 -21.116259596222108 0 -21.116259596222108 11.20475361437002 0 0 0 0 -23.482099611961871 -16.032267641030273 0 -16.032267641030273 23.685027019019707 0 0 0 0 -26.774904735406096 1.1100508548464632 0 1.1100508548464632 -78.421207108160445 0 0 0 0 -143.58951245000935 -37.870307219350252 0 -37.870307219350252 -44.327462094010571 0 0 0 0 -82.424351336368261 -17.091456415551754 0 -17.091456415551754 -18.815988023902236 0 0 0 0 -87.212819777621917 -22.830465188531662 0 -22.830465188531662 -57.437092110600133 0 0 0 0 -168.885681200627 -31.102331348504578 0 -31.102331348504578 -34.691438599933235 0 0 0 0 -62.570813794482547 4.6819694929022972 0 4.6819694929022972 -34.490101460605466 0 0 0 0 -26.869640385100752 -9.9958569449149195 0 -9.9958569449149195 -4.1250221258375461 0 0 0 0 -225.51623358298093 -115.95232420418324 0 -115.95232420418324 -83.745139035323518 0 0 0 0 -788.36828810909719 -28.314652650702783 0 -28.314652650702783 5.9493458597717108 0 0 0 0 -100.1385035225623 -12.651180558123423 0 -12.651180558123423 -3.9833320105360666 0 0 0 0 -499.14264504734456 -41.511904732982202 0 -41.511904732982202 -78.952262585589779 0 0 0 0 -100.14446410487028 -13.191745200989148 0 -13.191745200989148 0.45574785181594446 0 0 0 0 -322.43448186898604 82.988921792481733 0 82.988921792481733 -82.617189275437795 0 0 0 0 -511.99569728478673 36.650458886439537 0 36.650458886439537 -31.744773206824902 0 0 0 0 -447.26194276704337 -37.998200798050675 0 -37.998200798050675 17.74508422421512 0 0 0 0 -513.60313155972108 -15.088107936448068 0 -15.088107936448068 -63.621793676013567 0 0 0 0 -595.28786441050761 -73.175458369029002 0 -73.175458369029002 -67.192076399755024 0 0 0 0 -609.29598538101709 -104.95867411292875 0 -104.95867411292875 -19.20153085540187 0 0 0 0 -752.51562778405059 -140.99151963866393 0 -140.99151963866393 -27.363875029988776 0 0 0 0 -993.4448049762068 -75.89782167911153 0 -75.89782167911153 -7.4005090703794849 0 0 0 0 -687.85939369063999 64.35808035847981 0 64.35808035847981 -51.234270609304076 0 0 0 0 -785.45432524601347 -0.42060481512362458 0 -0.42060481512362458 -69.626401551700837 0 0 0 0 -487.08409375866177 115.46809993728402 0 115.46809993728402 -134.59949249349211 0 0 0 0 -486.26384647811938 76.044995970535638 0 76.044995970535638 -112.64611348882954 0 0 0 0 -510.53745684137539 169.19628666949029 0 169.19628666949029 -135.24990998227258 0 0 0 0 -472.64402549073566 305.34819865388181 0 305.34819865388181 -269.64726851548767 0 0 0 0 -950.54212084930623 135.35368648130407 0 135.35368648130407 -110.71440917753807 0 0 0 0 -442.13887281194911 145.97333459282527 0 145.97333459282527 -171.52071197592886 0 0 0 0 -826.90511215594597 55.432344712377471 0 55.432344712377471 -124.78621321845458 0 0 0 0 -875.418919985299 -53.146226409262454 0 -53.146226409262454 -187.23912984982871 0 0 0 0 -115.21037507675646 152.42116179425489 0 152.42116179425489 -21.19349775637653 0 0 0 0 -99.253147745039314 -315.2805428295128 0 -315.2805428295128 -13.776145920755752 0 0 0 0 -277.64259141630464 -56.705272381768054 0 -56.705272381768054 28.565373029328839 0 0 0 0 -4.2167802421551102 11.378086409348896 0 11.378086409348896 -16.386587662770637 0 0 0 0 591.98075162926398 350.73695394074366 0 350.73695394074366 106.77727634125768 0 0 0 0 -0.64259930992355407 3.6317089931001476 0 3.6317089931001476 19.88689429403577 0 0 0 0 123.49474703856686 232.89868701323212 0 232.89868701323212 157.54280409866442 0 0 0 0 316.13654647782096 94.853340722361281 0 94.853340722361281 55.805482597125319 0 0 0 0 178.6896467153274 165.93500154126923 0 165.93500154126923 395.88189595524636 0 0 0 0 341.14331542610307 94.30649811713738 0 94.30649811713738 339.0775526124994 0 0 0 0 104.74477724598546 276.21507712287757 0 276.21507712287757 356.63704749406497 0 0 0 0 273.16143065100914 218.52507788879848 0 218.52507788879848 276.90363902159879 0 0 0 0 -464.8933249283582 207.77296179857331 0 207.77296179857331 458.82150640007512 0 0 0 0 66.937187127536163 236.78528768578076 0 236.78528768578076 233.82974030582045 0 0 0 0 -1387.4141896299989 491.76832826759301 0 491.76832826759301 229.21051448008529 0 0 0 0 298.49612326838542 403.69363433730996 0 403.69363433730996 -287.33365906843619 0 0 0 0 -241.38145001103112 1167.7744534942149 0 1167.7744534942149 -340.55114851288909 0 0 0 0 100.2261293137708 762.29544215528131 0 762.29544215528131 -735.66880466568 0 0 0 0 -829.64215518793208 52.539791019426502 0 52.539791019426502 255.64963933527179 0 0 0 0 0.02527678212325668 -0.15837471253902891 0 -0.15837471253902891 5.6501758950153658 0 0 0 0 1238.2589129619373 817.86269169898378 0 817.86269169898378 93.434743609973339 0 0 0 0 -160.28616309857171 630.27483701495521 0 630.27483701495521 180.38494711159001 0 0 0 0 -333.16168916558672 972.40995395163395 0 972.40995395163395 430.92224605291267 0 0 0 0 212.21724487347092 393.22801299870889 0 393.22801299870889 -150.5828416963177 0 0 0 0 -2015.4700473520497 -48.835481684348451 0 -48.835481684348451 183.65290264931218 0 0 0 0 -2.5486431663873645 3.1677682393600435 0 3.1677682393600435 -6.1099968153950712 0 0 0 0 -1180.1268097750726 619.26914271648911 0 619.26914271648911 89.646381157957876 0 0 0 0 -15.554349143261788 414.06380579568577 0 414.06380579568577 5.3870755618245312 0 0 0 0 -540.98541907357867 634.61868350112763 0 634.61868350112763 46.871160666105879 0 0 0 0 -424.40190298698144 136.91814290126695 0 136.91814290126695 -224.96934265840468 0 0 0 0 -355.97288702942024 223.15656181696886 0 223.15656181696886 -151.72930629305483 0 0 0 0 127.38048009028716 92.464403607106306 0 92.464403607106306 -160.03937733160274 0 0 0 0 109.92492116801441 569.80468578731416 0 569.80468578731416 45.77607820741332 0 0 0 0 364.85959438585996 -43.034252708366012 0 -43.034252708366012 -12.136818454271634 0 0 0 0 -453.23487437595122 -420.19222898163127 0 -420.19222898163127 40.531459385982998 0 0 0 0 -1426.9510346536481 516.81966434950596 0 516.81966434950596 976.27021578262747 0 0 0 0 -1.3841156223458029 0.76672433382587712 0 0.76672433382587712 0.33928143683883327 0 0 0 0 -86.508089966052808 -82.891133765161385 0 -82.891133765161385 454.64188939793166 0 0 0 0 -50.620310060801842 6.9752515218971602 0 6.9752515218971602 -0.23874127497436337 0 0 0 0 -401.81244749060716 -144.0275640084169 0 -144.0275640084169 857.72173128971713 0 0 0 0 -92.951252447935985 276.63657121161486 0 276.63657121161486 198.35565023284471 0 0 0 0 18.979008102418447 479.47898721053775 0 479.47898721053775 647.57131746795676 0 0 0 0 -82.736685158490218 -338.90542295596771 0 -338.90542295596771 542.02617771976202 0 0 0 0 -379.63785999672837 -142.5629510360443 0 -142.5629510360443 419.88618716743122 0 0 0 0 -366.78876811533701 -501.15870583509513 0 -501.15870583509513 204.73757284985516 0 0 0 0 -56.80767742379976 -296.52004506867706 0 -296.52004506867706 32.46876195637347 0 0 0 0 -84.697526690153268 -230.64300544914329 0 -230.64300544914329 51.555214345682543 0 0 0 0 -550.42856979146018 -115.42378422712909 0 -115.42378422712909 236.26117107479149 0 0 0 0 -1092.9680858519714 69.850748815557381 0 69.850748815557381 199.42545510635591 0 0 0 0 -503.66507492786332 -562.6017045087051 0 -562.6017045087051 -170.97179299633848 0 0 0 0 -19.564182210566457 2.3986392295571015 0 2.3986392295571015 -0.7162066601922481 0 0 0 0 -1.5104437149491332 0.4103909897176834 0 0.4103909897176834 2.8780749602130307 0 0 0 0 -83.225295613621711 25.488300362036625 0 25.488300362036625 8.7753464111968924 0 0 0 0 -183.21840992477883 -46.856302909239048 0 -46.856302909239048 21.209013147562473 0 0 0 0 -1.2048170833112408 0.84295453049179514 0 0.84295453049179514 0.76295700177309911 0 0 0 0 -25.943863065047481 54.910969044514559 0 54.910969044514559 70.736449967732369 0 0 0 0 -173.8729706563463 -151.52259933632149 0 -151.52259933632149 60.68680313760342 0 0 0 0 14.563664953995612 92.362499700654098 0 92.362499700654098 227.78966534753459 0 0 0 0 61.294964389046072 -15.941885426348108 0 -15.941885426348108 122.2158310330683 0 0 0 0 -26.911336380399007 -70.112881933502877 0 -70.112881933502877 -78.882978620324138 0 0 0 0 20.843185044941492 -119.8030149934857 0 -119.8030149934857 -46.638340668234378 0 0 0 0 -33.925751993461745 -83.231892022092325 0 -83.231892022092325 -84.018009907735632 0 0 0 0 15.960861498004761 -14.274957092685653 0 -14.274957092685653 -27.115750854978614 0 0 0 0 -57.658681645843899 154.55381728164411 0 154.55381728164411 -251.29749523956889 0 0 0 0 -13.562852513801772 90.777313373532706 0 90.777313373532706 -35.594434861757691 0 0 0 0 76.104084970400436 -232.84413808864701 0 -232.84413808864701 207.79406338823355 0 0 0 0 -16.004255627543898 -69.088643470691181 0 -69.088643470691181 671.59741792430668 0 0 0 0 -344.02992809686111 432.05593075489651 0 432.05593075489651 1054.6670710339499 0 0 0 0 -63.070455761032292 16.357239645303522 0 16.357239645303522 -0.8356642529258238 0 0 0 0 -8.8644970367075189 -5.9830607513857359 0 -5.9830607513857359 6.7458929914193071 0 0 0 0 -158.85490664651843 -223.22581876094267 0 -223.22581876094267 139.34204781915196 0 0 0 0 -163.38552348857047 137.94390109700612 0 137.94390109700612 369.75758790226746 0 0 0 0 -345.43712034983037 228.51403184369565 0 228.51403184369565 935.98499223915633 0 0 0 0 222.95606517972192 222.40715847444199 0 222.40715847444199 242.03543291629512 0 0 0 0 -63.702963224961422 1.7227495642509894 0 1.7227495642509894 334.01750654774696 0 0 0 0 -1.644684702654672 8.0529700556139794 0 8.0529700556139794 0.61310447527642564 0 0 0 0 139.77260159068101 -24.434526743950755 0 -24.434526743950755 -30.264323119728033 0 0 0 0 48.784625975589734 156.02102188556364 0 156.02102188556364 430.54337752056927 0 0 0 0 12.418404081214248 -33.345091204587902 0 -33.345091204587902 355.93639305138277 0 0 0 0 25.634496186969045 442.38174475609856 0 442.38174475609856 510.44232619148306 0 0 0 0 -93.379701933998149 103.15171937135074 0 103.15171937135074 94.472838363880783 0 0 0 0 -64.138585754347048 14.123710176205705 0 14.123710176205705 1.0987298706343651 0 0 0 0 -419.15198261197656 273.96543325417588 0 273.96543325417588 294.27767200200884 0 0 0 0 352.88347559665272 20.981874195180808 0 20.981874195180808 -276.11714837124327 0 0 0 0 -56.082440234546652 16.13001126504065 0 16.13001126504065 -2.075571241598094 0 0 0 0 -2.0072164005250102 -1.3948188345352825 0 -1.3948188345352825 0.80690943483434152 0 0 0 0 -153.53937825118192 111.86584018552549 0 111.86584018552549 610.07692430461248 0 0 0 0 -65.574649040267104 197.46571839761509 0 197.46571839761509 160.0340501406663 0 0 0 0 -1.5843683914101518 0.75225439431648056 0 0.75225439431648056 2.7210155964350822 0 0 0 0 -85.751212579227285 199.99255196344075 0 199.99255196344075 410.99314230124855 0 0 0 0 18.296808963554213 178.00214347567817 0 178.00214347567817 95.879886614012321 0 0 0 0 -312.74652892909944 -5.549217172661141 0 -5.549217172661141 0.046105497738596762 0 0 0 0 73.633302812580951 95.119899861455963 0 95.119899861455963 115.14444068953821 0 0 0 0 50.596220302046277 240.0871878605941 0 240.0871878605941 316.50450485775434 0 0 0 0 138.56348277564393 215.14483681886321 0 215.14483681886321 115.69616283086287 0 0 0 0 111.19026577721525 309.96420639108186 0 309.96420639108186 -71.717711192466481 0 0 0 0 70.981430926651228 161.3932663690282 0 161.3932663690282 357.69909424653451 0 0 0 0 105.31111495563528 133.03464761813495 0 133.03464761813495 1.1170829429611899 0 0 0 0 69.155704281831277 23.92010918865072 0 23.92010918865072 -58.022134465723752 0 0 0 0 -66.483931787122856 109.73254379907765 0 109.73254379907765 -64.904767142977533 0 0 0 0 -104.19408661511261 148.76494770999176 0 148.76494770999176 257.19626206722836 0 0 0 0 -921.18202582541562 331.23789387569036 0 331.23789387569036 320.98008032615576 0 0 0 0 -111.49107931134495 423.95129197140454 0 423.95129197140454 -414.91318517215461 0 0 0 0 -407.52656337546068 -311.17289771700604 0 -311.17289771700604 -447.55384751539805 0 0 0 0 52.730630714882864 -6.7450978944637896 0 -6.7450978944637896 -44.103887628931943 0 0 0 0 65.143492749048164 15.367284493598769 0 15.367284493598769 -98.606598835721712 0 0 0 0 -155.27149078180082 35.316297891729569 0 35.316297891729569 0.037840243648586902 0 0 0 0 -109.89028728986159 31.117235403914499 0 31.117235403914499 186.36930869569494 0 0 0 0 -28.370424030988943 14.552622289168728 0 14.552622289168728 -38.431348891314279 0 0 0 0 -44.084137702717271 -39.689881134398249 0 -39.689881134398249 66.741223072715954 0 0 0 0 -107.94463766172703 35.60497293793162 0 35.60497293793162 287.78810901125598 0 0 0 0 -37.275080312617774 -6.5062036769593021 0 -6.5062036769593021 -0.6355426084467688 0 0 0 0 -276.6683421054222 -241.87821185421413 0 -241.87821185421413 223.89891876419858 0 0 0 0 -57.185103160591098 -286.40866589722248 0 -286.40866589722248 -160.14068125987524 0 0 0 0 -13.371401225082423 -3.1184263234932548 0 -3.1184263234932548 -0.78615483568602162 0 0 0 0 -189.54689623771992 -610.70788962072515 0 -610.70788962072515 -788.23323085810648 0 0 0 0 -928.74746264524583 -588.98794707842285 0 -588.98794707842285 142.68075437539065 0 0 0 0 -975.34850474503037 -93.752143321866413 0 -93.752143321866413 68.321217670277065 0 0 0 0 -425.30526906283922 316.83742755549486 0 316.83742755549486 -22.901177015496749 0 0 0 0 -349.43361289395034 111.20987839893306 0 111.20987839893306 13.000917192349931 0 0 0 0 -374.90571365649521 2.7761891740287199 0 2.7761891740287199 60.162909895317668 0 0 0 0 -290.80462719776551 -4.3689038824249877 0 -4.3689038824249877 -1.104966475197493 0 0 0 0 -22.622395595884882 -275.2945772524173 0 -275.2945772524173 -32.401699882080493 0 0 0 0 -652.75506116385804 -318.92475977409424 0 -318.92475977409424 48.673121321725219 0 0 0 0 -217.54405936892726 58.188151947140312 0 58.188151947140312 157.29006621578117 0 0 0 0 -61.421424357133219 37.936786344081213 0 37.936786344081213 2.6303797209124653 0 0 0 0 -646.94939151339349 -310.5737452960397 0 -310.5737452960397 -104.46438684121156 0 0 0 0 -1019.8737853460552 -41.286703794796949 0 -41.286703794796949 -112.59844861542719 0 0 0 0 -1705.5268739600724 -171.67245499925781 0 -171.67245499925781 28.042019860332942 0 0 0 0 -617.97875999691314 -456.16783935101978 0 -456.16783935101978 -34.860754046752163 0 0 0 0 -436.04125787832891 111.47094766501266 0 111.47094766501266 119.92795906521826 0 0 0 0 -842.46703546923527 -418.70248091111444 0 -418.70248091111444 7.0631177503564686 0 0 0 0 -1631.1511788138923 -423.35016203629243 0 -423.35016203629243 62.861232672323695 0 0 0 0 -1023.8445553770216 -192.0531475140543 0 -192.0531475140543 -0.76000415906378294 0 0 0 0 -1592.9815410649753 -305.2989389632944 0 -305.2989389632944 178.56806992288443 0 0 0 0 -14.881653708347585 -87.535059084649674 0 -87.535059084649674 200.62833874546206 0 0 0 0 -135.98044794864836 -69.170909311953054 0 -69.170909311953054 241.6393087874431 0 0 0 0 -56.374296007943428 -4.0014864726396873 0 -4.0014864726396873 2.4054739442671984 0 0 0 0 -2.4710435245968938 4.3064697341303777 0 4.3064697341303777 -0.49952290180275888 0 0 0 0 -341.43786671329872 -276.78213776782809 0 -276.78213776782809 -300.57304866675724 0 0 0 0 -550.19310780550586 -286.19830777992763 0 -286.19830777992763 152.41394918339245 0 0 0 0 -12.38282171750464 0.58563477950204401 0 0.58563477950204401 2.4074769470853052 0 0 0 0 139.4045893549046 115.98605036881941 0 115.98605036881941 13.998949726623607 0 0 0 0 134.10021109512309 246.32798929962348 0 246.32798929962348 126.08081313184266 0 0 0 0 206.11708902103419 7.4733251727191146 0 7.4733251727191146 -213.48247417548237 0 0 0 0 -20.443554546293143 30.07252670920721 0 30.07252670920721 2.802375392145664 0 0 0 0 -175.05816848673567 74.963511369118009 0 74.963511369118009 292.34907928626217 0 0 0 0 -121.81997136593418 351.50463553411646 0 351.50463553411646 -141.06890437958918 0 0 0 0 -731.78981192526408 586.15330946870608 0 586.15330946870608 -197.45226666867393 0 0 0 0 -13.135547300704957 33.140597949174662 0 33.140597949174662 -0.31049524122899896 0 0 0 0 608.34650228637474 312.90207238557036 0 312.90207238557036 -561.37304001640769 0 0 0 0 -22.919390451635991 129.15571283253689 0 129.15571283253689 251.73691439973118 0 0 0 0 -416.84704058995703 -276.21890185434268 0 -276.21890185434268 162.94792386146446 0 0 0 0 -582.17301303689601 -39.358903808374407 0 -39.358903808374407 -13.136505996787378 0 0 0 0 -1128.412760881416 -251.7705767202774 0 -251.7705767202774 44.377500359109945 0 0 0 0 -1176.7595009570923 -644.66919093651745 0 -644.66919093651745 -340.31382872748054 0 0 0 0 -795.29493752640701 -440.79504575142022 0 -440.79504575142022 -253.29750369152134 0 0 0 0 -178.08380252606003 -158.86243616474985 0 -158.86243616474985 -713.8374465689958 0 0 0 0 -224.99734047769743 -64.064724720984486 0 -64.064724720984486 105.2493226939423 0 0 0 0 155.14505819440819 243.33866805787875 0 243.33866805787875 -225.46596837402899 0 0 0 0 -34.386588875480811 166.39083030965048 0 166.39083030965048 44.544436780112846 0 0 0 0 -271.04574370670105 -933.80424192043665 0 -933.80424192043665 -686.94339064945598 0 0 0 0 -253.84632495357073 166.00708116633132 0 166.00708116633132 103.69109657319859 0 0 0 0 -82.337129182429635 981.07900432900158 0 981.07900432900158 -1385.5866648651827 0 0 0 0 -474.74886703806987 57.248529674631186 0 57.248529674631186 -209.31074283751514 0 0 0 0 -2010.9446313491644 2882.3728388688569 0 2882.3728388688569 -1828.4486713987676 0 0 0 0 -42.46084919933719 -25.061360417242071 0 -25.061360417242071 -16.948233809378351 0 0 0 0 -171.5252788397629 -9.7402540841985683 0 -9.7402540841985683 352.4923036459395 0 0 0 0 -18.967604486809975 26.975065695870683 0 26.975065695870683 5.7666182213736974 0 0 0 0 286.31456265449742 -16.841709061876827 0 -16.841709061876827 -62.917109597528906 0 0 0 0 15.229134591645561 -111.60259671006679 0 -111.60259671006679 45.890127898833271 0 0 0 0 -352.65580036048777 -345.28714957073134 0 -345.28714957073134 95.156862801949501 0 0 0 0 -56.041954492917284 -98.514917748571406 0 -98.514917748571406 257.83442085341449 0 0 0 0 -6.419172538924613 -19.402169334649443 0 -19.402169334649443 -187.37464447546245 0 0 0 0 -360.72837217868073 -620.02267309058789 0 -620.02267309058789 -1204.7593731915917 0 0 0 0 40.343061402367312 -167.70624221748676 0 -167.70624221748676 153.15132255142225 0 0 0 0 -353.58615459580324 -935.55408576586012 0 -935.55408576586012 -637.50232571121614 0 0 0 0 -1221.1929768855771 -1172.2243429418595 0 -1172.2243429418595 -589.32806898273111 0 0 0 0 -2168.4641798403027 -823.40981379215623 0 -823.40981379215623 -104.02845603181277 0 0 0 0 -1202.9197412237118 -1426.2528974219506 0 -1426.2528974219506 269.76158984413587 0 0 0 0 -733.13513564830646 1948.1997594843308 0 1948.1997594843308 -4684.5519435066562 0 0 0 0 -3039.217787315516 -2018.2360345402346 0 -2018.2360345402346 308.77990240094687 0 0 0 0 -1393.883022859729 616.49517870982675 0 616.49517870982675 1658.6031440382246 0 0 0 0 445.29761588749534 -1641.5541026888113 0 -1641.5541026888113 -664.04982887504343 0 0 0 0 -1776.4874763866828 1871.796623041761 0 1871.796623041761 923.86725713486499 0 0 0 0 -37.15365451265734 6.923554193919756 0 6.923554193919756 0.32689057730298554 0 0 0 0 -3563.6474296378292 -1842.2754171064098 0 -1842.2754171064098 -615.31496068469721 0 0 0 0 1347.0136308629008 116.77123489623125 0 116.77123489623125 -989.022740383376 0 0 0 0 -5669.3748165918805 938.90050895426589 0 938.90050895426589 493.93860117662643 0 0 0 0 -5368.2478303640237 759.60117518311063 0 759.60117518311063 604.32952668710277 0 0 0 0 -5404.1236437218031 557.30199190688063 0 557.30199190688063 -453.4709057954401 0 0 0 0 -19.536117130076661 -11.911140622103488 0 -11.911140622103488 -8.6421311939376011 0 0 0 0 -1913.0150485286722 -232.37419501436898 0 -232.37419501436898 -1389.6832472143292 0 0 0 0 -1346.7572256792628 295.66059734525697 0 295.66059734525697 -993.8192549811464 0 0 0 0 -2167.7709611211176 837.56382982951413 0 837.56382982951413 -1437.3367961312547 0 0 0 0 -3906.740923603862 353.67870069441562 0 353.67870069441562 174.06826777022434 0 0 0 0 -2944.9153261411702 -1283.213214485213 0 -1283.213214485213 -206.70642414616577 0 0 0 0 -2447.0175047114317 40.67309266382631 0 40.67309266382631 68.272880933234035 0 0 0 0 -2568.3735154937749 -516.50820467560743 0 -516.50820467560743 196.89751193675556 0 0 0 0 -2401.1849284652126 92.465780433423276 0 92.465780433423276 -11.556743651929651 0 0 0 0 -1870.8535462994478 -9.0396235870593955 0 -9.0396235870593955 -385.56874049190128 0 0 0 0 -1353.2035009408573 -338.67797114240761 0 -338.67797114240761 -930.39260907004336 0 0 0 0 -1735.0760484844286 -52.052127639062292 0 -52.052127639062292 -372.72410914263355 0 0 0 0 -1399.3010672115233 -580.17280517928543 0 -580.17280517928543 -36.242216852848742 0 0 0 0 -1561.6685759640022 -313.14464914262498 0 -313.14464914262498 -164.93499379892046 0 0 0 0 -1592.1608030692441 -333.13612810249072 0 -333.13612810249072 -136.36790251953062 0 0 0 0 -1505.4317788407861 -580.339668579011 0 -580.339668579011 -216.58071385776901 0 0 0 0 -2135.5686216885078 -201.99886624542637 0 -201.99886624542637 -87.182962681760756 0 0 0 0 -1718.6483676333883 -9.4077053162369353 0 -9.4077053162369353 -0.91633948363295559 0 0 0 0 -2120.835969487438 -133.32844078798618 0 -133.32844078798618 167.59368678766725 0 0 0 0 -2666.6340582345438 -285.63218513360385 0 -285.63218513360385 126.79500770073227 0 0 0 0 -2003.806698534434 -602.65981419701518 0 -602.65981419701518 -93.92620558092176 0 0 0 0 -1996.9362080190695 -630.15544475501315 0 -630.15544475501315 -221.03977967124564 0 0 0 0 -2225.1845995731928 59.387782549207316 0 59.387782549207316 134.66817613414531 0 0 0 0 -2182.6746160312468 -62.412580632838797 0 -62.412580632838797 100.53720760057661 0 0 0 0 -2361.4813940595632 -76.224071202788537 0 -76.224071202788537 192.38463148610981 0 0 0 0 -1728.9964096684125 -220.25743870903267 0 -220.25743870903267 122.7819525114835 0 0 0 0 -2863.9167728696921 -246.62803167145228 0 -246.62803167145228 162.49580989058975 0 0 0 0 -3514.6111987767363 -1334.2598036261372 0 -1334.2598036261372 -400.99454350917119 0 0 0 0 -10.663018446095549 3.3162605041846405 0 3.3162605041846405 0.67252180605198641 0 0 0 0 3.5644591287491494 35.502549512699481 0 35.502549512699481 -0.0050216040320830747 0 0 0 0 -48.527169888562639 -11.267488711188228 0 -11.267488711188228 9.7693714684834418 0 0 0 0 -35.779460641628248 45.419606513901584 0 45.419606513901584 4.7666132757721744 0 0 0 0 -102.85790029421332 12.853895067993079 0 12.853895067993079 -3.1324617806743245 0 0 0 0 -145.22113049581822 -30.050048105661382 0 -30.050048105661382 -4.1928759878382067 0 0 0 0 -71.606570060190279 22.341600299310361 0 22.341600299310361 -22.939318364990399 0 0 0 0 -140.40711056574946 27.604128528551801 0 27.604128528551801 -0.027702060785009482 0 0 0 0 -0.52627277321292354 0.24461076125896852 0 0.24461076125896852 -0.037632829277444574 0 0 0 0 -58.693403997138375 15.353422642245576 0 15.353422642245576 -11.39921730237689 0 0 0 0 -215.89164888380037 -3.2601537163848917 0 -3.2601537163848917 23.729164869641728 0 0 0 0 -82.845135017036228 14.658138736122703 0 14.658138736122703 -0.007025469282808991 0 0 0 0 -114.07674165611388 -12.867138001453707 0 -12.867138001453707 1.3369835485242767 0 0 0 0 -71.573108609285555 -13.485936744310209 0 -13.485936744310209 -6.4828170829023009 0 0 0 0 -161.0256251024839 -29.989828390128203 0 -29.989828390128203 2.2894601483217656 0 0 0 0 -216.14431481472275 -24.027969733565833 0 -24.027969733565833 2.7772151950295836 0 0 0 0 2.0157657565890474 0.64029511147091966 0 0.64029511147091966 -0.4421653976370199 0 0 0 0 -140.06811182838828 -2.0270078002340473 0 -2.0270078002340473 20.691553284253246 0 0 0 0 -166.40742798203428 -58.719351773015987 0 -58.719351773015987 18.722818607102049 0 0 0 0 -0.45291990435589469 0.22777901708434456 0 0.22777901708434456 -0.071548994362674034 0 0 0 0 -221.4798974331643 -30.433467818831492 0 -30.433467818831492 16.7782033986324 0 0 0 0 -79.817234635265777 28.244053339787879 0 28.244053339787879 -8.8132132594604968 0 0 0 0 -156.74920200425549 -2.371088723508386 0 -2.371088723508386 -4.4939287618200439 0 0 0 0 -120.74680616974365 -3.5500153516170485 0 -3.5500153516170485 2.9367363720002686 0 0 0 0 -1041.3121403176592 -266.57597121563663 0 -266.57597121563663 -192.63248512108771 0 0 0 0 -90.939189475982857 11.623461534172279 0 11.623461534172279 -8.1205544000206373 0 0 0 0 -68.386446115327999 -0.23724732931805192 0 -0.23724732931805192 -14.935452985213487 0 0 0 0 -29.106715897852808 16.145898034593813 0 16.145898034593813 -2.6832370768788625 0 0 0 0 -1046.6454741436464 -339.85392538099751 0 -339.85392538099751 -275.255550716985 0 0 0 0 -20.321890956990558 12.104339675143819 0 12.104339675143819 0.40151194679312452 0 0 0 0 -67.424505858958582 -15.179608729773776 0 -15.179608729773776 -3.6526461356402251 0 0 0 0 -113.32329086962272 -18.024681334123699 0 -18.024681334123699 12.048350662401447 0 0 0 0 -0.76850637682969847 -0.134196165568369 0 -0.134196165568369 -0.02103789801443735 0 0 0 0 -4.6171872594350134 -0.94070122251317745 0 -0.94070122251317745 -0.0042292982881167529 0 0 0 0 -10.285334250772394 -1.2096956844561579 0 -1.2096956844561579 0.68697333929131421 0 0 0 0 -1.1747006735836294 0.24712596555454525 0 0.24712596555454525 -0.23200721148040598 0 0 0 0 -291.40915828918514 -27.539860816241802 0 -27.539860816241802 21.879320670101919 0 0 0 0 -265.48644576134393 -112.83963925584408 0 -112.83963925584408 3.5442347838247628 0 0 0 0 -137.76237894457881 -34.123699656996038 0 -34.123699656996038 19.542748001813688 0 0 0 0 -51.307514471322065 -16.426114392990584 0 -16.426114392990584 -7.0076727820837448 0 0 0 0 -289.88103279414645 -69.508068249393048 0 -69.508068249393048 -24.158018762561412 0 0 0 0 -0.2505309008506913 -0.10386849838829448 0 -0.10386849838829448 0.20560200649071059 0 0 0 0 -162.7567595520959 19.764237780722564 0 19.764237780722564 17.34138018393746 0 0 0 0 -180.16690725748776 19.479272964063451 0 19.479272964063451 -0.2387782015140027 0 0 0 0 -166.10183813959884 3.1162205009551887 0 3.1162205009551887 6.4185496836372167 0 0 0 0 -139.68061218506773 15.49968057338732 0 15.49968057338732 0.068130221318062803 0 0 0 0 -161.19313648359093 18.49254366564405 0 18.49254366564405 12.214813375084901 0 0 0 0 -158.37455365195638 19.075451255493 0 19.075451255493 8.2898031733815891 0 0 0 0 -153.40887683792971 8.8209172801074942 0 8.8209172801074942 0.85275206039817419 0 0 0 0 -197.9118580850045 19.240747198677582 0 19.240747198677582 7.0021359625925328 0 0 0 0 -147.11542532374733 -1.5762721875342933 0 -1.5762721875342933 -12.424980863738604 0 0 0 0 -165.38092227179732 -3.0015654460570715 0 -3.0015654460570715 4.2788010906016609 0 0 0 0 -141.87577028425585 10.739844298057641 0 10.739844298057641 4.6956997339864159 0 0 0 0 -149.7028625048406 -0.79051445309275437 0 -0.79051445309275437 21.461138091636879 0 0 0 0 -126.51136661128839 15.251126471013308 0 15.251126471013308 7.3796693294647611 0 0 0 0 -108.47934164597245 -5.4608243345999412 0 -5.4608243345999412 -0.64318447746013696 0 0 0 0 -0.52747733949464504 -0.43570771412063891 0 -0.43570771412063891 0.89966682379717233 0 0 0 0 -156.00464306870708 -25.1976300208525 0 -25.1976300208525 -12.823042061092309 0 0 0 0 -0.811480247504484 -0.64622776176636876 0 -0.64622776176636876 -2.2553063285932984 0 0 0 0 -204.65598991203296 -19.095956911380455 0 -19.095956911380455 -7.0729901067902006 0 0 0 0 -105.66823777294485 34.300013535945936 0 34.300013535945936 -10.582528359951141 0 0 0 0 -0.09201624776162376 0.087234143230915606 0 0.087234143230915606 -0.70343458104678191 0 0 0 0 -226.37045743139697 -23.849299488795523 0 -23.849299488795523 14.499779214996749 0 0 0 0 -89.682901312742615 -11.987776938874731 0 -11.987776938874731 -44.990176851999365 0 0 0 0 1.4167723588252272 0.16873825755035909 0 0.16873825755035909 2.0471241830070399 0 0 0 0 -152.28686088346876 -4.0596158668273299 0 -4.0596158668273299 -2.3155434132469273 0 0 0 0 -152.66610606198083 3.9591123959277676 0 3.9591123959277676 1.6903378612040181 0 0 0 0 -147.44745469576446 -1.3575577513239239 0 -1.3575577513239239 3.8723619267439346 0 0 0 0 -135.2078695409582 1.6879340635675302 0 1.6879340635675302 -1.7565747707837573 0 0 0 0 -151.74374177758 4.2200622767822864 0 4.2200622767822864 -0.4244981294109067 0 0 0 0 -156.02244131056068 0.86543566182998433 0 0.86543566182998433 5.8623304056157366 0 0 0 0 -169.73607697364059 7.7675737591462166 0 7.7675737591462166 2.7891063576669382 0 0 0 0 -152.29127208280988 7.299347380962951 0 7.299347380962951 -8.2765284670604018 0 0 0 0 -149.21008037042338 -0.59770741312669173 0 -0.59770741312669173 1.3068360943856554 0 0 0 0 -137.52447961637517 3.8079358779854999 0 3.8079358779854999 -7.4724719461123144 0 0 0 0 -120.11240509658819 -14.438976250504602 0 -14.438976250504602 -4.0035560437920452 0 0 0 0 -141.6628962631803 0.56386226000546458 0 0.56386226000546458 -10.005051246090142 0 0 0 0 -148.47070804145187 -2.393723612809008 0 -2.393723612809008 0.40240867191437202 0 0 0 0 -142.58846233196709 -7.3651176858314757 0 -7.3651176858314757 -3.0776916045639191 0 0 0 0 -143.94336166843277 -12.318262434708801 0 -12.318262434708801 22.147300704255414 0 0 0 0 -99.94110839245883 -4.5736169152016632 0 -4.5736169152016632 3.7502817348758333 0 0 0 0 -88.923875566432145 -17.643404285027259 0 -17.643404285027259 -10.727282813706289 0 0 0 0 -100.09858032400371 -18.745315423899228 0 -18.745315423899228 38.803773015332808 0 0 0 0 -52.888029370488681 23.060917174764384 0 23.060917174764384 19.971420730603512 0 0 0 0 109.44133827486075 120.1283453278138 0 120.1283453278138 12.821065386803923 0 0 0 0 115.68165869967197 65.291306103332317 0 65.291306103332317 -796.62232075269912 0 0 0 0 -1.8723424639545101 24.414459146198656 0 24.414459146198656 3.8020035145690674 0 0 0 0 -75.900913114310242 -76.991384051011664 0 -76.991384051011664 -50.054426342459919 0 0 0 0 -341.14468050058349 73.71281494867435 0 73.71281494867435 167.69233829955738 0 0 0 0 -89.643231360343634 -89.045501000051445 0 -89.045501000051445 231.98181185853355 0 0 0 0 -282.30186292596045 268.20481865985221 0 268.20481865985221 -205.56971905165392 0 0 0 0 -620.63104838225991 68.477195905428744 0 68.477195905428744 237.61021814143623 0 0 0 0 -272.08637601038208 -377.84249562291006 0 -377.84249562291006 -355.64924135315709 0 0 0 0 -2.6141832526841426 3.4619975997537225 0 3.4619975997537225 -0.42789736350010887 0 0 0 0 -37.821688578372353 11.914884792950829 0 11.914884792950829 12.331160487565244 0 0 0 0 -73.533226764149731 47.890123281612432 0 47.890123281612432 22.117703934368365 0 0 0 0 -178.93747452555908 -0.79425210933118939 0 -0.79425210933118939 7.5312137857288537 0 0 0 0 -100.56107473744794 -4.1250505632387053 0 -4.1250505632387053 5.1919618651457737 0 0 0 0 -158.78635479591321 -13.440656747056956 0 -13.440656747056956 0.90945557976587832 0 0 0 0 -19.531868380551636 0.12777070339896568 0 0.12777070339896568 4.2408533772142896 0 0 0 0 -89.356724855781067 27.861580886879779 0 27.861580886879779 39.518828788646033 0 0 0 0 -99.091231735459587 15.782779603849065 0 15.782779603849065 26.69646872018734 0 0 0 0 -78.354722617441439 9.7458826871664428 0 9.7458826871664428 2.5828034109713371 0 0 0 0 -72.038060920420662 -3.8260097572285954 0 -3.8260097572285954 1.0205372822785868 0 0 0 0 -63.170043289497698 -9.9092053822967614 0 -9.9092053822967614 10.698732397093863 0 0 0 0 -67.613334365276387 -15.769461551818495 0 -15.769461551818495 24.443678333206208 0 0 0 0 -40.465299630137054 -0.89344656195390115 0 -0.89344656195390115 4.3578362041181933 0 0 0 0 -58.698552286892664 -18.846075024043785 0 -18.846075024043785 -1.4675252265378731 0 0 0 0 -61.733192560845055 -22.896794192204652 0 -22.896794192204652 15.72923660804372 0 0 0 0 -114.04011208544398 -4.6597392757149692 0 -4.6597392757149692 61.304712899998776 0 0 0 0 -71.918841603893213 -3.5855611586686562 0 -3.5855611586686562 0.57213754841969777 0 0 0 0 -62.608032562500739 -32.343081974474558 0 -32.343081974474558 -18.849378608453662 0 0 0 0 -100.99161783417367 -6.5166918472373254 0 -6.5166918472373254 73.288820146443868 0 0 0 0 -63.131118087709183 24.140192019032838 0 24.140192019032838 10.624622802693466 0 0 0 0 -935.25539183603541 -397.686569735381 0 -397.686569735381 -163.31826927152449 0 0 0 0 -996.47411606530659 -291.00201997738884 0 -291.00201997738884 -97.43991739855619 0 0 0 0 -1324.9520417767199 -463.58173292514994 0 -463.58173292514994 -266.17703257093865 0 0 0 0 -1307.5352004628803 -387.4883545326544 0 -387.4883545326544 -61.976963329263981 0 0 0 0 -1177.2462593140663 -490.6435360547016 0 -490.6435360547016 -298.04930967220082 0 0 0 0 -869.42867636684969 -436.69843185847992 0 -436.69843185847992 -255.33032136295344 0 0 0 0 -728.37534275067446 -253.47802599235968 0 -253.47802599235968 -185.77610420985411 0 0 0 0 -1128.3931345027377 -378.80452618924363 0 -378.80452618924363 -127.73899248393991 0 0 0 0 -7.240233498417723 0.43759092163426772 0 0.43759092163426772 0.83391389018197071 0 0 0 0 -124.92467237572419 -19.112186866979982 0 -19.112186866979982 -18.482108281158844 0 0 0 0 -15.783476594193736 -2.3126217770863775 0 -2.3126217770863775 -2.1918553749787137 0 0 0 0 -139.30474661196786 -14.387097591345505 0 -14.387097591345505 -2.1254406351390145 0 0 0 0 -8.3642241523523069 -0.68610819459857453 0 -0.68610819459857453 -11.963124464494587 0 0 0 0 -137.91923201609461 -20.428448926508111 0 -20.428448926508111 -6.0937990371846809 0 0 0 0 -174.46950445184484 -28.543699338774996 0 -28.543699338774996 8.5103846157982233 0 0 0 0 -35.209221768844543 15.272448623362919 0 15.272448623362919 4.8063675914844559 0 0 0 0 -165.38017770595616 -2.3389714650587905 0 -2.3389714650587905 9.6525492719378576 0 0 0 0 -178.02095836086664 -1.4907400904438575 0 -1.4907400904438575 10.953838944563742 0 0 0 0 -169.75593366536805 8.2396222579026919 0 8.2396222579026919 21.90116408010077 0 0 0 0 -196.13244576426223 32.521265917561372 0 32.521265917561372 7.1021981899256907 0 0 0 0 -208.04312731523532 41.878185931937907 0 41.878185931937907 3.8563937029705642 0 0 0 0 -167.31319645365875 -298.93523145652387 0 -298.93523145652387 -725.93989724448352 0 0 0 0 -154.69833391864086 35.878129234277068 0 35.878129234277068 -35.135809986498934 0 0 0 0 -141.45772620281059 25.1706046272446 0 25.1706046272446 -30.687996606742445 0 0 0 0 -165.26140609016875 20.929515535195364 0 20.929515535195364 0.93058762735472556 0 0 0 0 -192.45600743452087 48.10759720511863 0 48.10759720511863 -22.442168755447938 0 0 0 0 -106.00476403161883 -114.57004259759651 0 -114.57004259759651 30.069568310337672 0 0 0 0 -152.6694554874266 -40.367269246737834 0 -40.367269246737834 -15.12527896227914 0 0 0 0 -15.455691060497639 -21.047728118464448 0 -21.047728118464448 -18.630229700165998 0 0 0 0 -63.146746230465396 30.914021952841722 0 30.914021952841722 17.483374989865361 0 0 0 0 -129.08321054847329 35.577692270269466 0 35.577692270269466 -17.296111235033091 0 0 0 0 -1004.1919455365933 -425.85896641218898 0 -425.85896641218898 -76.401880076055477 0 0 0 0 -16.323713412686601 -3.8756747904314182 0 -3.8756747904314182 -10.49630691506858 0 0 0 0 -613.16950081006507 -284.11104987649924 0 -284.11104987649924 452.21248684434431 0 0 0 0 -996.36265580408508 -363.37256562724838 0 -363.37256562724838 -118.79265926167454 0 0 0 0 -64.068332406229729 30.293949636907797 0 30.293949636907797 14.137680880856596 0 0 0 0 -3.4260292298088757 14.558043174082048 0 14.558043174082048 -0.5807516065062186 0 0 0 0 -32.886696789716439 -9.8854148026028099 0 -9.8854148026028099 -5.0399902304226156 0 0 0 0 -1027.9597817126196 -363.12813870158283 0 -363.12813870158283 259.8885344846621 0 0 0 0 -116.56954918859992 10.400882507736533 0 10.400882507736533 -20.22470868693101 0 0 0 0 -188.40327701969363 192.55539198424788 0 192.55539198424788 -73.855558447189651 0 0 0 0 -98.102820896673961 -19.878872412619465 0 -19.878872412619465 -4.7386387299907824 0 0 0 0 -251.74988345947349 -55.057674244056216 0 -55.057674244056216 -31.326293019142156 0 0 0 0 -187.89375566324452 -59.674912464752879 0 -59.674912464752879 65.369361340448904 0 0 0 0 -181.18490095809102 -270.44157171005304 0 -270.44157171005304 -141.43891634008139 0 0 0 0 -150.03656606011646 -19.780756799509163 0 -19.780756799509163 -30.107047370995957 0 0 0 0 -1438.4532648095919 -202.31131961964047 0 -202.31131961964047 210.87138971293507 0 0 0 0 -131.22384818277351 -28.06026473046677 0 -28.06026473046677 -11.574821087586315 0 0 0 0 -54.875057077882445 -0.48706925895473319 0 -0.48706925895473319 -4.0528013025470617 0 0 0 0 -56.173665149050066 746.00304678946577 0 746.00304678946577 -790.70844562076195 0 0 0 0 -33.482487257378011 -31.568721781177885 0 -31.568721781177885 -20.657581972381188 0 0 0 0 -62.002246108814006 -35.008143516956807 0 -35.008143516956807 -45.028730533735832 0 0 0 0 -1206.8927452909993 -423.29822463874984 0 -423.29822463874984 410.1739021991566 0 0 0 0 -97.695712159541017 -23.609216517816208 0 -23.609216517816208 -3.7982886638469227 0 0 0 0 -873.48557286907453 -533.56663620115955 0 -533.56663620115955 110.63687310680371 0 0 0 0 -2100.8903085875063 -248.81771985521664 0 -248.81771985521664 761.59394730382473 0 0 0 0 -722.69454464358569 -332.6537307887794 0 -332.6537307887794 -94.916020743040917 0 0 0 0 -1226.6028665969352 0.28175464952710172 0 0.28175464952710172 366.88016474605161 0 0 0 0 -37.987632699267294 -11.728177966927735 0 -11.728177966927735 -2.0656639811095889 0 0 0 0 -843.93033027757349 -3935.0243028343257 0 -3935.0243028343257 -3264.7096035129807 0 0 0 0 -2880.4032788660124 45.120959434419547 0 45.120959434419547 812.26323256520436 0 0 0 0 -2282.8465164289446 -2814.8724024003668 0 -2814.8724024003668 -1486.0147216507085 0 0 0 0 -45.668088837135997 1.6783829869201341 0 1.6783829869201341 4.5140555430548712 0 0 0 0 -3471.5780002305401 455.63028388908299 0 455.63028388908299 549.70332640503602 0 0 0 0 -1740.4121929630055 1044.7340969368197 0 1044.7340969368197 -1318.7207654802407 0 0 0 0 -3150.2918918147825 -1315.4141012802072 0 -1315.4141012802072 -171.62119950645501 0 0 0 0 -1519.0575467656163 -972.25658553658104 0 -972.25658553658104 -2428.7271573702474 0 0 0 0 -794.6977248062758 1126.0209542445391 0 1126.0209542445391 1053.0158262963741 0 0 0 0 -2716.4649784016947 393.6265144932795 0 393.6265144932795 851.49369632216803 0 0 0 0 -1243.3550243650243 271.39532911259175 0 271.39532911259175 415.82623090752531 0 0 0 0 -1850.5603542514291 -385.35528581761719 0 -385.35528581761719 451.34536096059276 0 0 0 0 -1426.2276230097486 59.64408026068304 0 59.64408026068304 461.8147518178157 0 0 0 0 -1999.07863755375 143.01530427263515 0 143.01530427263515 774.9672916396521 0 0 0 0 -101.04110354624424 -96.749636127657197 0 -96.749636127657197 2.0247740796917144 0 0 0 0 -1409.2750422658792 -42.92002499674345 0 -42.92002499674345 -163.01353870172571 0 0 0 0 -101.06595269578287 -99.078961646010399 0 -99.078961646010399 -2.1165205264371183 0 0 0 0 -911.70696424750349 -263.81022076571026 0 -263.81022076571026 -146.14900515476882 0 0 0 0 -715.2177571549164 -42.419907325220265 0 -42.419907325220265 102.27154038359731 0 0 0 0 -1439.5777656869905 -376.69512931961981 0 -376.69512931961981 409.27802474055898 0 0 0 0 -1307.3553585992249 -446.53057131079481 0 -446.53057131079481 15.148055638692313 0 0 0 0 -1963.2199928227346 -965.87494560449704 0 -965.87494560449704 -62.411894502369933 0 0 0 0 -64.817363268710324 -314.46979596301026 0 -314.46979596301026 -557.86822404889062 0 0 0 0 -24.029731218751635 -10.901936595804401 0 -10.901936595804401 -66.542315073613779 0 0 0 0 -24.282529703603359 -0.039516649466349918 0 -0.039516649466349918 -69.055346263634419 0 0 0 0 -1.0643350893921308 12.985169608402899 0 12.985169608402899 -43.705811026146137 0 0 0 0 -284.57180222231909 -74.288434718306235 0 -74.288434718306235 -34.186482037201131 0 0 0 0 -255.45286125737039 124.05936186517374 0 124.05936186517374 2.9421272630529529 0 0 0 0 0.55173547320261385 5.4005727390743914 0 5.4005727390743914 -5.6998785239409173 0 0 0 0 -1007.1348965634534 -1082.1526619652473 0 -1082.1526619652473 -846.7311560588314 0 0 0 0 -1519.3166591910413 -1046.331149948136 0 -1046.331149948136 118.46168265517372 0 0 0 0 -187.12346864350548 20.481127203746553 0 20.481127203746553 -14.098582468621316 0 0 0 0 -305.49979280907519 415.28469065000667 0 415.28469065000667 -447.45684816545236 0 0 0 0 -23.632503060647153 4.6969644665284136 0 4.6969644665284136 -7.0533164893631728 0 0 0 0 -1747.8752989907516 1040.1980316813815 0 1040.1980316813815 -252.71645298738042 0 0 0 0 -230.97678953401191 -54.544161827201833 0 -54.544161827201833 -64.656620494519302 0 0 0 0 -20.845772187183428 0.45094447630782497 0 0.45094447630782497 -35.701985595583849 0 0 0 0 -230.05424059677171 -46.802297241346196 0 -46.802297241346196 -22.170629615631697 0 0 0 0 -286.27447713603033 -155.66256186234386 0 -155.66256186234386 -137.87213047708792 0 0 0 0 -45.243000543078111 8.2659238975436438 0 8.2659238975436438 -5.4364033959935654 0 0 0 0 -501.75647963234223 -272.99643690073117 0 -272.99643690073117 170.62482028358681 0 0 0 0 -5.894976874351002 1.0903801156171085 0 1.0903801156171085 -0.70359755967467663 0 0 0 0 -307.24551363312639 -171.33857972568148 0 -171.33857972568148 -35.516656853806126 0 0 0 0 -81.993583485222189 -35.648231648856154 0 -35.648231648856154 -81.038197655534589 0 0 0 0 -292.41454163890739 -146.67925460480319 0 -146.67925460480319 -32.272577455220016 0 0 0 0 -162.98422100924654 224.61723790477686 0 224.61723790477686 303.38533490461151 0 0 0 0 -65.570110051309086 29.670385185907449 0 29.670385185907449 20.811096119328091 0 0 0 0 -311.19485863676528 -114.80712020923011 0 -114.80712020923011 -128.5528268659782 0 0 0 0 -269.924633702336 -142.30489886497207 0 -142.30489886497207 -57.052899334308677 0 0 0 0 -408.63872658455512 -88.061010489553155 0 -88.061010489553155 -58.139312555220386 0 0 0 0 -169.39018511321046 -45.344084077672676 0 -45.344084077672676 -51.003290069026662 0 0 0 0 -19.353243957218268 20.566948472317833 0 20.566948472317833 4.2669057953843144 0 0 0 0 -23.620010608349432 0.89778449375950231 0 0.89778449375950231 7.6521199404324562 0 0 0 0 -11.500956593777289 11.288628009132019 0 11.288628009132019 9.4148121320780831 0 0 0 0 -243.92027211653476 -182.98358470273979 0 -182.98358470273979 -162.68235415377194 0 0 0 0 -187.89703226846905 -79.52961651327746 0 -79.52961651327746 -69.373054048371614 0 0 0 0 -228.45803638903453 -42.0642908417434 0 -42.0642908417434 -66.971286989202781 0 0 0 0 -103.41144068665744 -9.115252275825469 0 -9.115252275825469 20.994718903738431 0 0 0 0 -77.39925329620695 -15.064794703786937 0 -15.064794703786937 -0.87057006672055248 0 0 0 0 -34.344816696830094 -66.378652904829323 0 -66.378652904829323 48.703884018068379 0 0 0 0 -54.650642815204151 -18.496804234957917 0 -18.496804234957917 2.4356964416959457 0 0 0 0 -181.5383860984075 -140.09540933187805 0 -140.09540933187805 96.012944503481322 0 0 0 0 -78.692218871487853 -19.714013969646352 0 -19.714013969646352 -1.9506831091033492 0 0 0 0 10.603284966979118 -1.0773161368758792 0 -1.0773161368758792 -48.797728653826198 0 0 0 0 -19.064228224742692 5.2937806595364236 0 5.2937806595364236 -40.098920287152396 0 0 0 0 -13.34238471603021 11.862664638945716 0 11.862664638945716 -45.086788340513522 0 0 0 0 -63.180093693030358 20.502449333936283 0 20.502449333936283 -40.062159225140931 0 0 0 0 -79.844490284638596 -39.648769375267648 0 -39.648769375267648 10.296298342125283 0 0 0 0 -93.902809513674583 -25.349789746556098 0 -25.349789746556098 3.3830946857721074 0 0 0 0 -112.64342309475614 -22.003720422161564 0 -22.003720422161564 3.8833052658483211 0 0 0 0 -112.16406440186984 -15.216884776064944 0 -15.216884776064944 -31.601379529706946 0 0 0 0 -123.99175910600206 -14.921807068175596 0 -14.921807068175596 0.72202604241329027 0 0 0 0 -39.266783734769518 2.8847411175776614 0 2.8847411175776614 -4.3286580485525095 0 0 0 0 -32.68895349241879 1.1240556737763967 0 1.1240556737763967 -7.705228188707423 0 0 0 0 -180.14365007589367 -85.029191821268171 0 -85.029191821268171 -48.96878054784338 0 0 0 0 -174.2830794475376 -101.88610737886148 0 -101.88610737886148 -90.876281591143197 0 0 0 0 -118.77516385944182 -51.022616155092607 0 -51.022616155092607 -23.110829286300564 0 0 0 0 -91.589320288949239 -48.569682718729837 0 -48.569682718729837 17.954674691308163 0 0 0 0 -78.981776640275257 -12.962204701221893 0 -12.962204701221893 13.565886813184987 0 0 0 0 -100.18790282908904 -17.239823920446774 0 -17.239823920446774 0.38857654040988077 0 0 0 0 -182.7397089789556 -112.89591095323385 0 -112.89591095323385 16.197900293844214 0 0 0 0 -234.08848941684118 -92.478008587260206 0 -92.478008587260206 -60.887776386089627 0 0 0 0 -204.7160196205914 -58.572687453708795 0 -58.572687453708795 -33.97392241484863 0 0 0 0 -170.77237002379843 -86.082790726495887 0 -86.082790726495887 -56.516127308919977 0 0 0 0 -145.79430035594851 -57.289905995913841 0 -57.289905995913841 -62.36382727707587 0 0 0 0 -196.26973959305542 -68.65481241100133 0 -68.65481241100133 145.35944853643477 0 0 0 0 -100.62881265181056 -58.296230100226204 0 -58.296230100226204 12.61481704016459 0 0 0 0 -144.32141996965947 -206.5592681550952 0 -206.5592681550952 30.030484198813241 0 0 0 0 -250.09480382616312 -164.37574576635234 0 -164.37574576635234 174.33521465783997 0 0 0 0 -100.73033193071298 -67.825559891062539 0 -67.825559891062539 -11.339826202758459 0 0 0 0 -29.239340348111334 -34.613586678203774 0 -34.613586678203774 -15.162187597157782 0 0 0 0 -437.86356406149935 -98.931166172294979 0 -98.931166172294979 158.74932601795444 0 0 0 0 -293.6360568023083 -181.33295106498372 0 -181.33295106498372 22.988487807109777 0 0 0 0 -314.63503861786376 -64.508651577481942 0 -64.508651577481942 124.97070156590416 0 0 0 0 -242.81008903623479 -33.278489987362605 0 -33.278489987362605 122.93028199372202 0 0 0 0 -277.82769846034716 -87.919918539369974 0 -87.919918539369974 35.511572673236515 0 0 0 0 -319.65983027871334 -94.097649581973201 0 -94.097649581973201 -56.927984153735451 0 0 0 0 -448.4680090626789 -101.66270697101754 0 -101.66270697101754 70.737463074014158 0 0 0 0 -407.72924083940961 -152.89896925331414 0 -152.89896925331414 -59.016871159998118 0 0 0 0 -606.08629622693843 -271.92909777381647 0 -271.92909777381647 36.289871337885415 0 0 0 0 -19.170135382911951 -9.2063667201765753 0 -9.2063667201765753 -2.1472904383557285 0 0 0 0 -108.0640695636007 51.24249374028193 0 51.24249374028193 47.637246433541804 0 0 0 0 -141.99036835021616 16.486818215518724 0 16.486818215518724 82.076948307651037 0 0 0 0 -177.97406114541809 -40.065716108378183 0 -40.065716108378183 112.03332144263277 0 0 0 0 -47.66524249873936 -7.976230104511977 0 -7.976230104511977 54.694481252045627 0 0 0 0 -348.99933388073259 -44.824450217352933 0 -44.824450217352933 87.901073331391672 0 0 0 0 -192.29757035463444 -5.5315454565306936 0 -5.5315454565306936 29.181115309354936 0 0 0 0 -189.18800071776059 -133.54268645520688 0 -133.54268645520688 86.006448311612985 0 0 0 0 -38.248769030279618 96.448672008776157 0 96.448672008776157 61.10896957294608 0 0 0 0 -30.597758852177066 12.79384124328363 0 12.79384124328363 56.899381900283196 0 0 0 0 -205.45701051720516 -18.701617398806775 0 -18.701617398806775 99.131719796627294 0 0 0 0 28.793744702059485 87.413391123591282 0 87.413391123591282 20.782270287653319 0 0 0 0 -187.38167950777188 -45.914360381236747 0 -45.914360381236747 -31.282901892573136 0 0 0 0 -301.46527461438382 -158.15890915758246 0 -158.15890915758246 -62.968062022478989 0 0 0 0 -396.81467262758815 -64.467927431327553 0 -64.467927431327553 47.243186604873699 0 0 0 0 -120.95315375121936 -60.89716917379701 0 -60.89716917379701 45.053436592721482 0 0 0 0 -517.98015178569199 -206.96890561647677 0 -206.96890561647677 -102.87848642906101 0 0 0 0 -632.86578194739559 -137.53880882456542 0 -137.53880882456542 -5.9207774545993743 0 0 0 0 -516.19477050804562 -108.24984693588522 0 -108.24984693588522 11.719730711118245 0 0 0 0 -568.24125723080579 -206.02809010247529 0 -206.02809010247529 -28.180883494101181 0 0 0 0 -371.27267495643446 -140.83307741826093 0 -140.83307741826093 -105.59916618023999 0 0 0 0 -634.32128147854382 -281.59156597799483 0 -281.59156597799483 -148.56754748269668 0 0 0 0 -541.03410486435132 -207.00887004508104 0 -207.00887004508104 -196.51308242167033 0 0 0 0 -687.09933424728661 -157.50910050144375 0 -157.50910050144375 -90.076375019320949 0 0 0 0 -942.14322635572898 -169.28285451366355 0 -169.28285451366355 -37.476789480348089 0 0 0 0 -690.84882769148498 -256.72041947421849 0 -256.72041947421849 -39.500567613795283 0 0 0 0 -733.73275877201559 -239.11491099762043 0 -239.11491099762043 -104.50002316639439 0 0 0 0 -1252.6876614021335 -125.78893124190495 0 -125.78893124190495 64.719581910430861 0 0 0 0 -933.63625025533838 -143.74898544511416 0 -143.74898544511416 -102.38906453661821 0 0 0 0 -916.956833638018 -116.37559698135192 0 -116.37559698135192 -185.79900613932296 0 0 0 0 -960.17250845347007 -169.77422777842776 0 -169.77422777842776 -89.641673734484357 0 0 0 0 -1247.2824753729292 -51.392565685740919 0 -51.392565685740919 -23.003636128087237 0 0 0 0 -1125.9892365105552 16.926351458580029 0 16.926351458580029 -235.98819208596251 0 0 0 0 -1495.3077331645254 -19.805115229202784 0 -19.805115229202784 -9.8408969520714891 0 0 0 0 -1515.102830191463 140.94199518736059 0 140.94199518736059 -160.803060503712 0 0 0 0 -1465.912276039242 -52.708406168538204 0 -52.708406168538204 76.028116543418946 0 0 0 0 -1414.405171134531 24.75400212160821 0 24.75400212160821 10.081015429435865 0 0 0 0 -1243.0075633424885 -73.810041113742273 0 -73.810041113742273 60.436161266334238 0 0 0 0 -1446.3520704915791 -27.053710855268946 0 -27.053710855268946 95.451801388532658 0 0 0 0 -1437.0890211373589 -20.172718482737764 0 -20.172718482737764 87.693164445674483 0 0 0 0 -1431.3921571715036 -24.788892611202755 0 -24.788892611202755 76.636822070686321 0 0 0 0 -1504.9433658130865 -68.753077688128542 0 -68.753077688128542 70.666137061209156 0 0 0 0 -1483.8011088880667 22.672647979832618 0 22.672647979832618 94.512102850476367 0 0 0 0 -1306.6250011589327 -175.61894122936792 0 -175.61894122936792 129.89183900479111 0 0 0 0 -1337.8518488023692 -312.44447365735959 0 -312.44447365735959 118.68140181511262 0 0 0 0 -1497.7730177330668 -23.88154775825933 0 -23.88154775825933 93.150059471827262 0 0 0 0 -935.17086815358198 -172.92919996937235 0 -172.92919996937235 68.814403572767333 0 0 0 0 -764.18985977575358 -396.01670587324406 0 -396.01670587324406 203.41401053084792 0 0 0 0 -736.85990069097898 -165.20514024816566 0 -165.20514024816566 -0.88539670842510532 0 0 0 0 -1006.5071843813639 -318.62458006101406 0 -318.62458006101406 114.6149157820978 0 0 0 0 -1143.2002269747609 -111.55533130936328 0 -111.55533130936328 49.006191289514391 0 0 0 0 -58.406415020239365 1.2939379262782609 0 1.2939379262782609 16.185520090210275 0 0 0 0 -61.233305296358594 14.875218206843968 0 14.875218206843968 19.590741808915404 0 0 0 0 27.022146048428112 16.086963925296004 0 16.086963925296004 -25.930394769372697 0 0 0 0 -3.9549872103839903 -2.8813083622586504 0 -2.8813083622586504 5.3028361846922287 0 0 0 0 -674.48404857947753 201.94988077657263 0 201.94988077657263 341.54943118402298 0 0 0 0 -101.62049902173749 -38.924276577446676 0 -38.924276577446676 -157.85148484941601 0 0 0 0 -89.457468571785284 68.832521356383495 0 68.832521356383495 46.602097980709004 0 0 0 0 -58.876867535844212 87.92887101929955 0 87.92887101929955 15.52009016290549 0 0 0 0 -27.675945300004969 72.816578487199422 0 72.816578487199422 20.974119217551561 0 0 0 0 -758.85528761072783 -10.09481850116299 0 -10.09481850116299 -171.76186831521926 0 0 0 0 -57.437580592770246 26.592089113432849 0 26.592089113432849 71.1247367515316 0 0 0 0 -639.93062169101904 76.433376437090374 0 76.433376437090374 88.796621890285678 0 0 0 0 -1094.2570250344252 -193.95380791058415 0 -193.95380791058415 37.903051210538251 0 0 0 0 -958.94465040578507 453.69090087193399 0 453.69090087193399 -119.08642190099727 0 0 0 0 -0.85910457137779872 -0.89319328866600944 0 -0.89319328866600944 0.92490190368496727 0 0 0 0 -1.8870893054359748 0.87231805791481065 0 0.87231805791481065 -0.042259795640667619 0 0 0 0 -338.34911596732854 80.593146213802356 0 80.593146213802356 -27.997370665256312 0 0 0 0 -360.05213118421671 -60.20149435258827 0 -60.20149435258827 61.330998541413464 0 0 0 0 -17.607156715108445 24.802398945382919 0 24.802398945382919 18.75203600395945 0 0 0 0 38.80959055533458 23.587236276697695 0 23.587236276697695 -18.189145978347824 0 0 0 0 -46.081619539369058 15.978064592798091 0 15.978064592798091 32.413884800999313 0 0 0 0 -27.072546220685361 16.827954580789367 0 16.827954580789367 22.399886885841113 0 0 0 0 -59.313237827373257 9.5434829970309689 0 9.5434829970309689 8.8184894275521639 0 0 0 0 -75.937240772836958 21.657005774211484 0 21.657005774211484 38.439428667520474 0 0 0 0 -65.336770923308478 -2.0481979716646901 0 -2.0481979716646901 3.3616597013049478 0 0 0 0 -68.082187124877237 17.495002327404677 0 17.495002327404677 20.97789847130322 0 0 0 0 -80.249642948299879 -5.2222077179867483 0 -5.2222077179867483 58.715927818561681 0 0 0 0 -154.92799385065155 36.664326284531398 0 36.664326284531398 46.267323230712009 0 0 0 0 -38.722534359782003 28.813301625831627 0 28.813301625831627 30.032262406913333 0 0 0 0 -12.999227898284204 1.4008151962810445 0 1.4008151962810445 0.85317495614133065 0 0 0 0 -47.123078652517876 14.59708241268449 0 14.59708241268449 4.1028416556004217 0 0 0 0 -67.216090217465535 18.860279359081687 0 18.860279359081687 23.94961425662882 0 0 0 0 -45.857263062098355 -18.107191748558904 0 -18.107191748558904 47.67125113889233 0 0 0 0 -6.4226297576390392 1.6739929681738914 0 1.6739929681738914 0.10767640221425268 0 0 0 0 -69.584154144125932 -20.550730583986478 0 -20.550730583986478 -16.299885442934738 0 0 0 0 -7.6015890751337931 10.775952845582466 0 10.775952845582466 11.014724260157603 0 0 0 0 -138.50449369197304 -27.230356962886162 0 -27.230356962886162 28.207508200959637 0 0 0 0 -90.345107824369961 2.3366523811138329 0 2.3366523811138329 19.325191719856093 0 0 0 0 -60.583277584402822 8.0729483446583927 0 8.0729483446583927 -1.150058948015328 0 0 0 0 -87.083462943212453 3.0095529387282092 0 3.0095529387282092 14.335830166220831 0 0 0 0 -60.287163304637943 20.774634650205599 0 20.774634650205599 6.7962179077917426 0 0 0 0 -39.807050037141522 15.68276059945898 0 15.68276059945898 8.3080373981287092 0 0 0 0 -60.659435262600709 22.107674501801654 0 22.107674501801654 18.016999927797201 0 0 0 0 -67.08578775220667 32.537913131351885 0 32.537913131351885 -19.276035609290716 0 0 0 0 -15.24347420929071 10.007308047816949 0 10.007308047816949 8.6112575903927286 0 0 0 0 -142.64050985894573 40.243593310436609 0 40.243593310436609 29.303237694009514 0 0 0 0 -113.50793258043996 13.384472213467689 0 13.384472213467689 19.313068927366885 0 0 0 0 -90.456291864116793 56.021071191666607 0 56.021071191666607 39.787291547542537 0 0 0 0 -74.612107924013443 24.36110031849363 0 24.36110031849363 5.555941550179103 0 0 0 0 -61.765716930349299 37.444101255957548 0 37.444101255957548 4.9424107873117009 0 0 0 0 -88.813728984459885 -7.6034277651883713 0 -7.6034277651883713 12.501771074767476 0 0 0 0 -48.025944084760823 16.748318274433757 0 16.748318274433757 5.1913337465104199 0 0 0 0 -6.1950137056771268 0.58616797033860024 0 0.58616797033860024 1.1559578703667981 0 0 0 0 -75.296780343125647 -1.86933646125118 0 -1.86933646125118 47.121007423596893 0 0 0 0 -73.701812698527647 -11.350658127438464 0 -11.350658127438464 61.016649657755806 0 0 0 0 -66.898897857701741 6.794421785968666 0 6.794421785968666 22.398749064645017 0 0 0 0 -23.829777061474552 17.152379365697975 0 17.152379365697975 14.768805873319863 0 0 0 0 -51.722801146519487 17.788015991897396 0 17.788015991897396 11.610528287756836 0 0 0 0 -104.23462947233202 -85.16632398015372 0 -85.16632398015372 -53.299750620837131 0 0 0 0 -169.03441225924689 14.964366768743957 0 14.964366768743957 175.2305409340006 0 0 0 0 1.3682505610030518 2.9371641668803292 0 2.9371641668803292 0.71090802894211791 0 0 0 0 -59.773862175767135 -7.5475735896429796 0 -7.5475735896429796 37.877749677436896 0 0 0 0 -19.163500894946992 -6.1200016905800112 0 -6.1200016905800112 6.3402345736278676 0 0 0 0 -64.517860913299955 0.17829004849704688 0 0.17829004849704688 59.701363192173176 0 0 0 0 -498.1300907326804 72.745418321681882 0 72.745418321681882 -15.544645300440152 0 0 0 0 -0.94482803215489852 -0.78211257454309902 0 -0.78211257454309902 4.5955774875444551 0 0 0 0 -227.72497660150111 -62.968141635142274 0 -62.968141635142274 -30.625534548946604 0 0 0 0 -312.98422078418662 11.567571947743545 0 11.567571947743545 -27.18692232176744 0 0 0 0 -299.2212366042213 -37.616150531193568 0 -37.616150531193568 -18.58360413993978 0 0 0 0 -199.43314055273368 -46.205057675907938 0 -46.205057675907938 -51.599536890833406 0 0 0 0 -247.1814610229776 -64.993645559305151 0 -64.993645559305151 10.8749840363771 0 0 0 0 -228.35557436191448 15.561023904991998 0 15.561023904991998 -34.385618076679748 0 0 0 0 -323.74489376256179 110.4675118575897 0 110.4675118575897 -120.93771311522687 0 0 0 0 -153.35304266857565 -32.13606772046478 0 -32.13606772046478 -196.68390997016604 0 0 0 0 -40.583744491977335 19.175070728529995 0 19.175070728529995 38.361549134066763 0 0 0 0 -152.39671643434849 -55.384892010328031 0 -55.384892010328031 -10.057193762421321 0 0 0 0 -194.68923441268998 -66.425665806468714 0 -66.425665806468714 1.1727626475149009 0 0 0 0 -208.51353236889918 -42.461712880908635 0 -42.461712880908635 -35.202926321167979 0 0 0 0 -174.1953137439632 -73.054763679254393 0 -73.054763679254393 -28.677922062754078 0 0 0 0 -181.29454104825709 -71.717361770866773 0 -71.717361770866773 -31.359534625724336 0 0 0 0 -204.9486208696926 -66.723789199011321 0 -66.723789199011321 -12.621020099255475 0 0 0 0 -174.80800338069093 -54.016716339375307 0 -54.016716339375307 -7.2852292587886041 0 0 0 0 -177.77453816696652 -73.88073520931448 0 -73.88073520931448 -17.326345220168605 0 0 0 0 -181.21439075535454 -69.993297292399802 0 -69.993297292399802 -18.856903503075955 0 0 0 0 -175.85029836833655 -78.821143183650975 0 -78.821143183650975 -21.472572294178462 0 0 0 0 -33.19494317586279 15.564357448617848 0 15.564357448617848 45.387335730641269 0 0 0 0 -164.68107899429015 -40.233778326468382 0 -40.233778326468382 20.355750402128251 0 0 0 0 -163.78856806612748 -73.021362550025515 0 -73.021362550025515 -24.741881966679557 0 0 0 0 -143.9486030146436 -39.46453856662356 0 -39.46453856662356 42.305224369958978 0 0 0 0 -187.4901284248117 -60.844929692319056 0 -60.844929692319056 39.487496620345155 0 0 0 0 -162.30754002324647 -54.122926562109399 0 -54.122926562109399 2.1474870114561782 0 0 0 0 -181.39354492053826 -71.64919064667356 0 -71.64919064667356 8.3959100490446872 0 0 0 0 -186.93088124255883 -9.3178115855794204 0 -9.3178115855794204 97.409161467781814 0 0 0 0 -134.6794656906859 -27.132121691639441 0 -27.132121691639441 73.045950685254638 0 0 0 0 -179.31114881502435 -61.182555436276289 0 -61.182555436276289 59.046865459255059 0 0 0 0 152.15054720587068 193.93441700668336 0 193.93441700668336 89.706680989860615 0 0 0 0 -67.686954188819072 220.71951750114113 0 220.71951750114113 282.64371071480309 0 0 0 0 -157.05059834578424 41.255193423203309 0 41.255193423203309 140.52676646312102 0 0 0 0 -473.4719639340401 -230.45704797459575 0 -230.45704797459575 31.658407045348213 0 0 0 0 -225.15754402825678 -99.14152563361057 0 -99.14152563361057 27.01735274008206 0 0 0 0 -239.06378645011864 74.32851897960245 0 74.32851897960245 323.20229049253203 0 0 0 0 -187.25905927672557 -22.92155266461657 0 -22.92155266461657 37.604691797649139 0 0 0 0 -148.42844833953131 18.065347879601177 0 18.065347879601177 103.34785563549167 0 0 0 0 -220.91253293879709 -46.068289792212454 0 -46.068289792212454 83.685076056875914 0 0 0 0 -168.99313816781796 39.205768127236297 0 39.205768127236297 158.21966138130301 0 0 0 0 -95.891350637619325 46.349031716694299 0 46.349031716694299 96.77889820092787 0 0 0 0 -136.39571510787209 5.7235452774002624 0 5.7235452774002624 80.694463639857531 0 0 0 0 -150.48965852108086 24.47361717977401 0 24.47361717977401 94.713247343181138 0 0 0 0 -619.91412631189087 255.74021202965059 0 255.74021202965059 -83.34904337010812 0 0 0 0 -68.530900166086212 33.591192101120669 0 33.591192101120669 42.128954399515351 0 0 0 0 -0.87273665853896176 1.4023433153229803 0 1.4023433153229803 2.4446192487612031 0 0 0 0 25.732793572620722 75.48471052410332 0 75.48471052410332 59.862222458248652 0 0 0 0 -120.27952291580732 94.943024210200747 0 94.943024210200747 161.39901096466565 0 0 0 0 -235.55385426142311 -330.8854730271687 0 -330.8854730271687 -170.39242442513205 0 0 0 0 -512.11856139093288 -441.15493176493692 0 -441.15493176493692 -157.80702288596535 0 0 0 0 -306.59058822046063 0.68959692278713192 0 0.68959692278713192 99.605233448384752 0 0 0 0 -87.689852404513658 -97.312757147094999 0 -97.312757147094999 -54.497137605327225 0 0 0 0 -90.963626484095585 10.893037478369479 0 10.893037478369479 60.43286871239161 0 0 0 0 -27.405293724506834 -6.6583458856445645 0 -6.6583458856445645 7.0496021082583979 0 0 0 0 -94.722929149902484 8.7013302160912644 0 8.7013302160912644 79.553204681038096 0 0 0 0 -100.72882988458514 14.096606006419279 0 14.096606006419279 75.048783581005409 0 0 0 0 -93.338326041508495 -17.536155863938827 0 -17.536155863938827 2.7549346958161958 0 0 0 0 -114.85351932229241 -18.803968876100271 0 -18.803968876100271 -5.854991359037907 0 0 0 0 -100.09711589409562 -9.6331271469564399 0 -9.6331271469564399 -4.1740837282986831 0 0 0 0 -206.51497301217387 -17.723083689525659 0 -17.723083689525659 5.3839987107385241 0 0 0 0 -25.894665801690611 3.9039494053815815 0 3.9039494053815815 8.0013480589957418 0 0 0 0 -147.60282304645443 -37.857503922155274 0 -37.857503922155274 112.8576241816545 0 0 0 0 -97.075160396772759 -18.577291668386746 0 -18.577291668386746 0.056454075109118561 0 0 0 0 -100.2389339365036 -6.3193618642580986 0 -6.3193618642580986 -22.044347136942154 0 0 0 0 -116.61643464133158 -13.516083065547434 0 -13.516083065547434 -3.8664548323504278 0 0 0 0 -114.52836676939296 -15.236936036542772 0 -15.236936036542772 12.13414801197996 0 0 0 0 -97.880242504274065 -11.649281262925228 0 -11.649281262925228 -3.9912762561566524 0 0 0 0 -87.258235788751335 -19.752989934522702 0 -19.752989934522702 1.2660535781096769 0 0 0 0 -89.13389550242664 3.9326281569662598 0 3.9326281569662598 5.0532406996881036 0 0 0 0 -70.80206438046298 -7.3356404725772109 0 -7.3356404725772109 51.298542238548606 0 0 0 0 -105.84008243975404 -21.514856814807445 0 -21.514856814807445 15.733845022118658 0 0 0 0 -77.012933347577302 -12.502237831431696 0 -12.502237831431696 1.5652515349278879 0 0 0 0 -192.68988773470483 -21.094131817026891 0 -21.094131817026891 2.4566859410842881 0 0 0 0 -190.73003811620765 -14.196654515188925 0 -14.196654515188925 5.073869921194671 0 0 0 0 -22.948483622711784 5.6262507240887203 0 5.6262507240887203 7.8205049718052777 0 0 0 0 -40.059848915636238 40.471232032676212 0 40.471232032676212 21.448318107950147 0 0 0 0 -196.817433101387 -18.467299689369156 0 -18.467299689369156 -11.784492197029977 0 0 0 0 -121.43830859501759 -8.3937619358734992 0 -8.3937619358734992 12.779770350138733 0 0 0 0 -100.6999344953947 -6.520137657448231 0 -6.520137657448231 -4.3891452867768237 0 0 0 0 -108.16824597872619 3.6119939323075414 0 3.6119939323075414 23.630972241392556 0 0 0 0 -114.74014941748464 -10.250437650205527 0 -10.250437650205527 35.46262368160987 0 0 0 0 -89.626575805096735 -0.32265400789772514 0 -0.32265400789772514 5.3449127092395967 0 0 0 0 -127.34446378212306 -11.947507229889538 0 -11.947507229889538 5.5953971611872646 0 0 0 0 -80.635053420580505 13.834731597316704 0 13.834731597316704 25.184324102138891 0 0 0 0 -325.44178147101775 -4.641579692214691 0 -4.641579692214691 36.881399188865089 0 0 0 0 3.8576140618766317 16.565750539849205 0 16.565750539849205 -1.347728436024481 0 0 0 0 -263.96953467914136 -140.2260172080646 0 -140.2260172080646 -92.052040171811996 0 0 0 0 -272.97629498766037 -3.6968637914555984 0 -3.6968637914555984 7.4980074623636028 0 0 0 0 -162.88621799414977 -2.0687237199012998 0 -2.0687237199012998 -77.974504360458013 0 0 0 0 -161.7262764731131 -9.7900448044247241 0 -9.7900448044247241 -26.741584234821858 0 0 0 0 -127.69647812916082 -32.55010180726822 0 -32.55010180726822 -12.493398876194533 0 0 0 0 -103.3074837126187 -5.8175619100466065 0 -5.8175619100466065 -37.084508144434039 0 0 0 0 -125.02132605096267 -22.957346898529067 0 -22.957346898529067 -54.00751985428542 0 0 0 0 -130.41796079200867 -16.248792127839124 0 -16.248792127839124 -30.61861327987026 0 0 0 0 -170.88550600243616 -50.430540131605994 0 -50.430540131605994 -67.659010993031643 0 0 0 0 -162.36720481971861 -28.503108782065283 0 -28.503108782065283 -32.535420950487605 0 0 0 0 -119.28967264707899 32.141024699154514 0 32.141024699154514 -38.80503491347099 0 0 0 0 -86.201137532509165 -2.072980123790785 0 -2.072980123790785 -41.774973779818538 0 0 0 0 -109.92880746923038 -6.2862962336137116 0 -6.2862962336137116 0.1460321703552836 0 0 0 0 -108.16962830210105 -11.243961573563865 0 -11.243961573563865 -38.289011647950247 0 0 0 0 -120.2258348413452 4.5525234084570911 0 4.5525234084570911 -42.845721339207557 0 0 0 0 -138.66262387685128 13.881617878792213 0 13.881617878792213 -30.001762305084412 0 0 0 0 -127.92833312498988 3.2940997198702462 0 3.2940997198702462 -32.338246815039383 0 0 0 0 -154.00648009608267 8.8017400592125341 0 8.8017400592125341 -29.244704103436561 0 0 0 0 -135.53526201022032 -2.3687784937301331 0 -2.3687784937301331 -21.881383205423845 0 0 0 0 -129.40635922393994 -1.1170960734270921 0 -1.1170960734270921 -30.999939885908589 0 0 0 0 -140.39939352037618 -13.803043822133077 0 -13.803043822133077 -34.657240258052752 0 0 0 0 -128.88687630183267 -3.0433841402102644 0 -3.0433841402102644 -24.682439258394879 0 0 0 0 -144.42518439129344 -12.111312765661751 0 -12.111312765661751 -21.165255150444864 0 0 0 0 -157.32252799827256 -0.19123949187360267 0 -0.19123949187360267 1.3838063938437699 0 0 0 0 -138.57357118543587 -21.781754699151861 0 -21.781754699151861 -30.775207722459527 0 0 0 0 -198.2370915406791 -20.23461534289163 0 -20.23461534289163 -8.2938922628800356 0 0 0 0 -52.521901618328471 39.261398860152681 0 39.261398860152681 19.200020463780849 0 0 0 0 -177.32203148328699 -10.073137475690601 0 -10.073137475690601 8.0728854436763413 0 0 0 0 -195.85203254285079 -1.5575054741227632 0 -1.5575054741227632 9.6640030607645713 0 0 0 0 -87.244355305083445 -3.5874523190373111 0 -3.5874523190373111 -9.7402049774091211 0 0 0 0 -130.36256490031519 2.5123912133808517 0 2.5123912133808517 -10.568209205740459 0 0 0 0 -79.774355910210943 12.976854059955826 0 12.976854059955826 27.248391644467119 0 0 0 0 -145.95555164503457 18.987994581693101 0 18.987994581693101 20.69446234750194 0 0 0 0 -98.087919497815477 5.2223301802013822 0 5.2223301802013822 6.5749588031303716 0 0 0 0 -67.125872920363634 22.134150828663842 0 22.134150828663842 28.689383520241705 0 0 0 0 -192.03632648987696 109.60731693238176 0 109.60731693238176 74.817592840441648 0 0 0 0 -197.73567341966555 37.310771165798542 0 37.310771165798542 90.020134876300062 0 0 0 0 -99.951908763538981 4.7854583579204846 0 4.7854583579204846 12.854954372230464 0 0 0 0 -62.818792516372923 -15.895620528602421 0 -15.895620528602421 -7.6340842431454803 0 0 0 0 -35.051466366189175 -7.3015661993192023 0 -7.3015661993192023 -13.098461545492315 0 0 0 0 -54.350637682873639 -9.5655454430379905 0 -9.5655454430379905 -6.0893955351330078 0 0 0 0 -34.837354287358878 -3.6606493115963303 0 -3.6606493115963303 3.8619463256213571 0 0 0 0 -74.258163515027263 -0.2455300235874347 0 -0.2455300235874347 27.673669117852569 0 0 0 0 -62.939084006589837 4.9351578462601537 0 4.9351578462601537 23.683277661710235 0 0 0 0 -60.12904461332073 -7.8038441125504505 0 -7.8038441125504505 9.2180542210026033 0 0 0 0 -88.96232435919228 -19.974584370709636 0 -19.974584370709636 9.9113475543749203 0 0 0 0 -71.889310559626807 -7.4957528323463478 0 -7.4957528323463478 -1.8960624249880673 0 0 0 0 -87.583537854938186 -22.686463479959912 0 -22.686463479959912 43.041099430317445 0 0 0 0 -91.31847611842386 -28.010530075168845 0 -28.010530075168845 -2.1236012819872485 0 0 0 0 -107.98671469412511 -25.902272477296719 0 -25.902272477296719 -13.695364430651352 0 0 0 0 -89.311886468436569 -18.280467637641777 0 -18.280467637641777 -11.000992765393676 0 0 0 0 -89.562216227214321 -30.534819585973565 0 -30.534819585973565 -11.995488295477116 0 0 0 0 -65.277240627678111 -19.702112940014558 0 -19.702112940014558 -7.69415322435907 0 0 0 0 -20.07902283015963 -11.78198315286653 0 -11.78198315286653 -8.7006517339452891 0 0 0 0 -34.853141263973825 7.9310398345200213 0 7.9310398345200213 1.4603956940708009 0 0 0 0 -4.6899432054740089 1.6820783146638689 0 1.6820783146638689 -2.3361216501892788 0 0 0 0 -37.84010793134803 -1.7314176478355421 0 -1.7314176478355421 0.99549668270265101 0 0 0 0 -104.66894068892907 -12.309738149233283 0 -12.309738149233283 -3.511787665225711 0 0 0 0 -84.749575672336505 -26.221054135755367 0 -26.221054135755367 -21.22513775661082 0 0 0 0 -3.7095198021431344 3.5264410571787153 0 3.5264410571787153 0.50225067336003448 0 0 0 0 -103.91026491465163 -11.001836965095663 0 -11.001836965095663 -20.912709199074015 0 0 0 0 -85.580895680337562 -33.154436476212595 0 -33.154436476212595 -30.756589953223738 0 0 0 0 -100.46203045669245 -22.903717654064167 0 -22.903717654064167 -19.039595273330633 0 0 0 0 -101.67215185667737 -40.438307051643278 0 -40.438307051643278 -26.695034503931311 0 0 0 0 -137.5434464289574 -41.487048995435089 0 -41.487048995435089 -26.123388981468224 0 0 0 0 -165.73139211587841 -5.0629063867954756 0 -5.0629063867954756 -20.725034307066608 0 0 0 0 -120.89454485761235 -13.601917228989805 0 -13.601917228989805 -19.11244381967299 0 0 0 0 -129.35731725371443 -27.694585613576237 0 -27.694585613576237 -17.90919586518703 0 0 0 0 -8.6161751791678398 2.0447786613560197 0 2.0447786613560197 14.114773412369686 0 0 0 0 -237.79169992652896 -34.236331390734222 0 -34.236331390734222 1.8181342527252582 0 0 0 0 -1.4375261534318327 1.6825666231808896 0 1.6825666231808896 0.17673677978943481 0 0 0 0 0.052447856425715145 4.115121773661599 0 4.115121773661599 -1.7621831772612495 0 0 0 0 -213.55340844047896 49.094365671010337 0 49.094365671010337 15.470604848532275 0 0 0 0 -19.821646242914234 -0.32936423434128415 0 -0.32936423434128415 1.2636881651543508 0 0 0 0 -96.405917890573619 -24.008538627133021 0 -24.008538627133021 -37.468618663398047 0 0 0 0 -100.56297455799358 -19.897226552322877 0 -19.897226552322877 -0.2228485452374116 0 0 0 0 -81.402913848782646 -9.3908775816019094 0 -9.3908775816019094 1.2325927237467766 0 0 0 0 -151.16671761609905 -79.680091813365834 0 -79.680091813365834 -93.900511557234495 0 0 0 0 -41.997366687064641 -11.459643963768485 0 -11.459643963768485 -172.04557920707157 0 0 0 0 -25.619120729269639 -3.3007301990152484 0 -3.3007301990152484 -1.6227361602953714 0 0 0 0 -79.272396970438422 -8.9688738324721271 0 -8.9688738324721271 -111.90971572493891 0 0 0 0 -244.02913582127076 57.204811552964657 0 57.204811552964657 116.33875284645956 0 0 0 0 -136.97414392631981 6.9293394698125894 0 6.9293394698125894 -35.657164187782655 0 0 0 0 -92.944904033749765 -12.402668363897233 0 -12.402668363897233 1.1015371971185999 0 0 0 0 -72.668633474691887 100.05167704946621 0 100.05167704946621 -57.2923520015961 0 0 0 0 -95.335938253439963 -11.426943983031379 0 -11.426943983031379 -45.490087022741136 0 0 0 0 -98.128846735850459 -13.834212120807202 0 -13.834212120807202 1.1807767793863282 0 0 0 0 -143.77959686683607 -10.82194781764349 0 -10.82194781764349 131.7617286099719 0 0 0 0 -29.209829245941364 -16.849213029028306 0 -16.849213029028306 -28.082346436987791 0 0 0 0 -73.197954274153744 -58.855538876973242 0 -58.855538876973242 38.527627177571958 0 0 0 0 -144.86261669301166 -37.995063181404248 0 -37.995063181404248 14.549515773524945 0 0 0 0 -130.89947159185249 18.624939078687703 0 18.624939078687703 28.210891173679556 0 0 0 0 -135.77313324194984 -36.539875157079223 0 -36.539875157079223 -50.955781945828676 0 0 0 0 -144.69743508921238 -42.454258126628702 0 -42.454258126628702 -52.562895794185351 0 0 0 0 -166.02506699725927 -61.764397372312942 0 -61.764397372312942 -31.954774833817282 0 0 0 0 -91.652816080197226 -63.389907099186303 0 -63.389907099186303 -55.060798149970651 0 0 0 0 -125.87634981665542 -82.719909900484041 0 -82.719909900484041 -56.635851582364921 0 0 0 0 -124.87934287337703 -52.799511841950334 0 -52.799511841950334 -49.984769446839096 0 0 0 0 -40.726975647470681 -66.32705453655467 0 -66.32705453655467 -64.331114397282192 0 0 0 0 -41.827634788292471 6.5319024367287923 0 6.5319024367287923 -0.11377849134227216 0 0 0 0 -90.656827737489948 -5.7720007813061329 0 -5.7720007813061329 64.083503730474433 0 0 0 0 -53.321923692420228 10.473088482848759 0 10.473088482848759 -1.4373925331561346 0 0 0 0 -113.45933259573212 45.808596601524187 0 45.808596601524187 108.63635539825464 0 0 0 0 -91.507811949994448 73.260322466949361 0 73.260322466949361 -16.946931789238079 0 0 0 0 -99.501674742408795 -77.947446150699136 0 -77.947446150699136 -44.106140461535347 0 0 0 0 -55.943308886373416 -49.639679846946365 0 -49.639679846946365 -116.29806719580955 0 0 0 0 -69.392339623911539 1.4849685961556816 0 1.4849685961556816 12.242800203867603 0 0 0 0 -47.466587988485117 4.4388912035637986 0 4.4388912035637986 -15.916959401595477 0 0 0 0 -66.579669673065155 -2.6398948689310799 0 -2.6398948689310799 4.9431557772621577 0 0 0 0 -77.079259073667345 11.486110702023495 0 11.486110702023495 15.456730445516428 0 0 0 0 -106.98939928534674 -19.272645409834013 0 -19.272645409834013 23.017661281148548 0 0 0 0 -79.188485485501587 11.523519457665316 0 11.523519457665316 71.435204472681789 0 0 0 0 -63.100143170078013 -1.2170480055786896 0 -1.2170480055786896 4.1706849054448556 0 0 0 0 -71.695205901174688 -13.768620519813005 0 -13.768620519813005 1.0101362063651105 0 0 0 0 -108.33792444987921 -19.946027500159403 0 -19.946027500159403 36.013257032132984 0 0 0 0 -95.825186947651673 -36.379888855915198 0 -36.379888855915198 55.800128043780205 0 0 0 0 -98.588377108128043 -42.457477963596375 0 -42.457477963596375 24.36910752055428 0 0 0 0 -99.186317923478782 -34.460726257530951 0 -34.460726257530951 27.226045017917158 0 0 0 0 -113.48722681682557 -36.716125488413809 0 -36.716125488413809 27.090734417781846 0 0 0 0 -7.4840344908214007 -3.1516221735313934 0 -3.1516221735313934 -0.76229787578525787 0 0 0 0 -272.88639428987517 -75.486748571268436 0 -75.486748571268436 4.9709730538634176 0 0 0 0 -97.98895465064561 -37.352630598258202 0 -37.352630598258202 13.760552298561379 0 0 0 0 -71.680662314116489 -12.374769404188953 0 -12.374769404188953 14.746908949935914 0 0 0 0 -102.82484003998979 -47.638165809580642 0 -47.638165809580642 -64.30067984901325 0 0 0 0 -54.158756010694638 -6.9764812962320093 0 -6.9764812962320093 21.574763069992848 0 0 0 0 -13.64956742393781 12.963424026385553 0 12.963424026385553 12.589365265177594 0 0 0 0 -102.34096074203262 -27.888033679513455 0 -27.888033679513455 37.824816500859697 0 0 0 0 -105.02142604417168 -33.139784884472192 0 -33.139784884472192 28.223413489135964 0 0 0 0 -107.77281251015665 -5.5265407787567824 0 -5.5265407787567824 20.007360041630989 0 0 0 0 -103.20472867420176 -14.194355680398189 0 -14.194355680398189 -3.4897585287753827 0 0 0 0 -64.935073033889182 -6.5686595639719201 0 -6.5686595639719201 9.6486131516735458 0 0 0 0 -65.132653108883972 -7.328304175461569 0 -7.328304175461569 4.9381441806109976 0 0 0 0 -37.82804254378425 -9.6333407806628202 0 -9.6333407806628202 26.740617849013006 0 0 0 0 -66.992246242937853 5.8829234876961607 0 5.8829234876961607 9.4995169098184604 0 0 0 0 -73.166160881525414 -12.01866324542425 0 -12.01866324542425 7.9039742736425254 0 0 0 0 -74.422281457576901 -13.080433227840786 0 -13.080433227840786 -2.3161753890744876 0 0 0 0 -54.561614019891579 19.151399977619995 0 19.151399977619995 10.834700397005617 0 0 0 0 -214.84856430787477 -56.617896003968781 0 -56.617896003968781 58.964599243170255 0 0 0 0 -126.98317826601851 -16.423496110772248 0 -16.423496110772248 -0.35290782293304801 0 0 0 0 -34.216531033326447 -0.5348792296693432 0 -0.5348792296693432 3.2799284464979852 0 0 0 0 -184.25808293878799 -12.836769706564155 0 -12.836769706564155 0.049162051370103654 0 0 0 0 -197.79296000495378 -45.802101303000882 0 -45.802101303000882 21.882793398378453 0 0 0 0 -42.872737342813977 -2.5083991388300433 0 -2.5083991388300433 7.1163557751935453 0 0 0 0 -101.00572129965519 -9.1990639187718752 0 -9.1990639187718752 5.8781232778840158 0 0 0 0 -197.83454154286301 87.724502300543463 0 87.724502300543463 21.054410848817497 0 0 0 0 -225.23755027534207 -43.136970577379543 0 -43.136970577379543 -22.352442204131876 0 0 0 0 -259.9569984266418 -23.556528934504968 0 -23.556528934504968 -14.076077726752374 0 0 0 0 -274.88242001418257 -78.851233720389246 0 -78.851233720389246 -0.088969768667084281 0 0 0 0 -185.69888334459392 -36.215445510638347 0 -36.215445510638347 -18.831716838160901 0 0 0 0 -224.47880588725093 -83.0457440000921 0 -83.0457440000921 7.2424407250891818 0 0 0 0 -195.22714537760476 -71.844195847737183 0 -71.844195847737183 -35.299653472033015 0 0 0 0 -239.98473417438754 -81.736769628718463 0 -81.736769628718463 -0.19329351941087225 0 0 0 0 -239.38634737810935 -48.402588655760155 0 -48.402588655760155 -16.481889586909347 0 0 0 0 -199.85758932877798 -64.451397879868182 0 -64.451397879868182 -10.124625351767463 0 0 0 0 -150.52489763147605 -74.547104481700629 0 -74.547104481700629 -39.008111698433282 0 0 0 0 -164.12918161225389 -122.63176657010796 0 -122.63176657010796 -78.299086196601365 0 0 0 0 -400.72774944565026 97.301229408270814 0 97.301229408270814 -173.31769322789989 0 0 0 0 -214.75596165873867 1.7518931088846728 0 1.7518931088846728 60.644759741526286 0 0 0 0 -274.05940949979413 -102.44800271986514 0 -102.44800271986514 0.20896604586869216 0 0 0 0 -1.1914353407390763 0.12940331732843902 0 0.12940331732843902 8.4422954128939907 0 0 0 0 -7.4541332695979463 -3.387638181609816 0 -3.387638181609816 16.766928598259536 0 0 0 0 -339.39888142506243 -22.835059749206607 0 -22.835059749206607 60.552152484711542 0 0 0 0 -211.79704973171465 -90.924693739381837 0 -90.924693739381837 -5.7502714255533647 0 0 0 0 -231.78512628201861 -76.468740130836522 0 -76.468740130836522 3.1609631071833064 0 0 0 0 -114.50133514869958 -53.636799864828447 0 -53.636799864828447 48.181990411714196 0 0 0 0 -99.559702998834837 -48.555327417460376 0 -48.555327417460376 35.749083875247834 0 0 0 0 -124.16280647322128 -47.728779395679226 0 -47.728779395679226 44.76230247485114 0 0 0 0 -86.366490501342923 -4.4499077558857039 0 -4.4499077558857039 -25.437330834522982 0 0 0 0 -147.11765122052748 -13.585339957955739 0 -13.585339957955739 35.700320317222477 0 0 0 0 -78.446273291992838 14.457936624234236 0 14.457936624234236 -32.857921109649737 0 0 0 0 -153.56001682886563 119.74066638353665 0 119.74066638353665 -86.853464273597524 0 0 0 0 -349.01495232823436 -172.95172635465221 0 -172.95172635465221 11.041143944920123 0 0 0 0 -1.3138819990408592 0.69256859505171064 0 0.69256859505171064 -0.0086890403247942283 0 0 0 0 7.9685608233849052 46.980905798627973 0 46.980905798627973 -88.582539402844006 0 0 0 0 -10.911533536185743 -25.328333638763198 0 -25.328333638763198 -44.194203735404642 0 0 0 0 -27.878412587713683 16.521778156733092 0 16.521778156733092 -72.896187141124415 0 0 0 0 -7.5171752011810895 -18.372729497269948 0 -18.372729497269948 -46.118581118745553 0 0 0 0 -38.848755934595829 -29.574665736940915 0 -29.574665736940915 -48.287065455166271 0 0 0 0 -118.97898288445322 -43.944090650395218 0 -43.944090650395218 -28.16305052667235 0 0 0 0 -88.636191033321666 -7.085561695882177 0 -7.085561695882177 14.225959152786558 0 0 0 0 -3.619988814501653 1.3683484297259838 0 1.3683484297259838 1.2531840425823957 0 0 0 0 -6.4409249680147695 -7.1872586799868117 0 -7.1872586799868117 -2.0823879237202334 0 0 0 0 6.0428306903777411 5.0728507638591278 0 5.0728507638591278 -9.1563448142932486 0 0 0 0 -27.1962802206981 -3.3536274676003295 0 -3.3536274676003295 1.0546973480654191 0 0 0 0 -22.533681161956338 2.8233386455223446 0 2.8233386455223446 19.163926203051062 0 0 0 0 -1.3590658195340382 0.42974232415352276 0 0.42974232415352276 -0.07733582624737656 0 0 0 0 -3.7060562889382709 6.2280164725614284 0 6.2280164725614284 14.657212812873212 0 0 0 0 -125.10323137928208 593.31003544040414 0 593.31003544040414 -606.19293535713757 0 0 0 0 -439.77607858242118 -232.95904837719911 0 -232.95904837719911 80.808482756912554 0 0 0 0 -1.2548462748823397 0.89363851933680394 0 0.89363851933680394 2.5222012327290786 0 0 0 0 -320.70993950268894 265.55187055485732 0 265.55187055485732 129.89907064564375 0 0 0 0 -2.6898460255323471 1.1175290497852188 0 1.1175290497852188 -0.6747174158733853 0 0 0 0 -2.3555161205154036 -1.7237271469621476 0 -1.7237271469621476 -1.1939416429622098 0 0 0 0 -91.891365607269108 -86.667761989136892 0 -86.667761989136892 111.66199428295974 0 0 0 0 -697.70024442940485 -315.86946303070295 0 -315.86946303070295 212.81019894817723 0 0 0 0 -100.31157807000272 -174.7729591332872 0 -174.7729591332872 -122.29196236555541 0 0 0 0 -238.15565929148579 129.32084621648363 0 129.32084621648363 157.42808011192392 0 0 0 0 -623.01201472053071 183.5042463790561 0 183.5042463790561 214.70280886870057 0 0 0 0 -235.4401587297325 252.87145599137096 0 252.87145599137096 183.21509418341424 0 0 0 0 -10.157566779096442 0.50684647804830973 0 0.50684647804830973 0.28222214630259601 0 0 0 0 -238.32424197017826 -402.07938953858616 0 -402.07938953858616 -425.87473781189249 0 0 0 0 -454.88422098351293 -373.54183882729683 0 -373.54183882729683 182.65163870538612 0 0 0 0 -52.699172587730573 196.79596473426045 0 196.79596473426045 77.958191981839036 0 0 0 0 -151.35811155600459 53.262364316826194 0 53.262364316826194 5.7651137165558168 0 0 0 0 -370.51870728743961 -44.82998963194936 0 -44.82998963194936 -0.1125831272209472 0 0 0 0 -465.17062611220899 149.40067124142871 0 149.40067124142871 96.314784729612313 0 0 0 0 -338.4010957510618 87.509376872339402 0 87.509376872339402 29.046663656006615 0 0 0 0 -371.65192874887725 71.61375550728404 0 71.61375550728404 140.67402644675605 0 0 0 0 -2.6863718523527496 -3.0778008401667813 0 -3.0778008401667813 0.00020660764989950675 0 0 0 0 -4.7341458977025468 -0.29204344905152602 0 -0.29204344905152602 -1.098719381823031 0 0 0 0 -1.2043722894206041 -0.7570228487961117 0 -0.7570228487961117 -0.2360629786511784 0 0 0 0 -6.6048315268126316 -2.6592717449171874 0 -2.6592717449171874 -0.00045440029338390304 0 0 0 0 -6.8934471781903994 -1.3347579106000027 0 -1.3347579106000027 0.47635631053641792 0 0 0 0 -6.829579764715163 -1.6884089260426158 0 -1.6884089260426158 -0.75437350755851185 0 0 0 0 -80.144238494365709 -4.9077499974729051 0 -4.9077499974729051 110.30506548397864 0 0 0 0 -58.317478774813935 10.024949146215928 0 10.024949146215928 37.19927267048763 0 0 0 0 -95.394565940288885 -50.124250878534255 0 -50.124250878534255 37.814151123358883 0 0 0 0 -103.07068130993866 6.632588524603733 0 6.632588524603733 82.186181015546367 0 0 0 0 -50.711941906907668 -10.215680403821288 0 -10.215680403821288 86.715818044935475 0 0 0 0 -59.186242521910572 52.679241838695432 0 52.679241838695432 186.2730085865274 0 0 0 0 -10.213036084242049 1.9697147493938374 0 1.9697147493938374 105.57063066026409 0 0 0 0 -57.065480051649502 64.075167875410727 0 64.075167875410727 268.73628766126114 0 0 0 0 -132.87464928459667 -83.045839472140415 0 -83.045839472140415 -55.007586920361973 0 0 0 0 -27.526713808602608 3.3977856782198756 0 3.3977856782198756 0.38295736738769731 0 0 0 0 -1.750892845890121 -34.719947560835038 0 -34.719947560835038 116.46055742999823 0 0 0 0 -50.53444142184162 -3.3411566343927959 0 -3.3411566343927959 8.6898426418418282 0 0 0 0 -26.616093860310684 -41.137353287410257 0 -41.137353287410257 45.260688740688245 0 0 0 0 -36.829788517919951 47.890080518055598 0 47.890080518055598 40.95388376331023 0 0 0 0 -163.76246284644367 17.704278853414937 0 17.704278853414937 40.153491653025959 0 0 0 0 -67.617214063371648 -22.19444491086745 0 -22.19444491086745 -0.079560063704520317 0 0 0 0 -66.549152991501614 -20.929451951691409 0 -20.929451951691409 -1.8700171963226282 0 0 0 0 -63.999034872933407 -23.259906176511237 0 -23.259906176511237 0.14846406414566776 0 0 0 0 -103.04482207036926 -46.01538645486896 0 -46.01538645486896 -1.730795484225581 0 0 0 0 -50.534441421838501 -38.897588549705567 0 -38.897588549705567 -13.426912583299483 0 0 0 0 -121.79828185621591 -24.746909190575767 0 -24.746909190575767 -0.58401114986470559 0 0 0 0 -230.25948447188421 -105.33798077104242 0 -105.33798077104242 -11.76948064688024 0 0 0 0 5.1931539883080404 6.2232403500031133 0 6.2232403500031133 0.011414744241969239 0 0 0 0 -1.3693371379215478 -0.17412452702913583 0 -0.17412452702913583 0.22727025101531978 0 0 0 0 -174.12255575050949 -204.10958410451266 0 -204.10958410451266 -197.16855242614639 0 0 0 0 -107.93387925377465 -58.109681644510459 0 -58.109681644510459 -112.05450640058984 0 0 0 0 -127.24386188077187 -55.122561841638969 0 -55.122561841638969 -6.7445849632162691 0 0 0 0 -120.56426423223456 -11.359696733399154 0 -11.359696733399154 -18.193217744491818 0 0 0 0 -162.59518650484824 -88.849195188513761 0 -88.849195188513761 5.5902872739434386 0 0 0 0 -130.76760935835773 -43.741818399992667 0 -43.741818399992667 36.862869892143642 0 0 0 0 -109.7268056162502 -99.873206694359524 0 -99.873206694359524 18.850834727856892 0 0 0 0 -95.541340014344314 -35.784498915164988 0 -35.784498915164988 67.177486342505944 0 0 0 0 -104.70346681844967 -58.757392141434991 0 -58.757392141434991 45.477845014158163 0 0 0 0 -80.737966484215576 -7.1624995824614643 0 -7.1624995824614643 1.691978494203056 0 0 0 0 -88.814335252565797 -44.690809568048451 0 -44.690809568048451 1.322238510437785 0 0 0 0 -84.313526382022246 -8.4945392354688778 0 -8.4945392354688778 1.9285991895209236 0 0 0 0 0.3981860560761703 -0.33438725379156153 0 -0.33438725379156153 0.76140312556220591 0 0 0 0 -36.52309906645678 -74.573691924366415 0 -74.573691924366415 17.049687447280469 0 0 0 0 -102.07710538257379 -13.166528552040475 0 -13.166528552040475 13.229755960486415 0 0 0 0 -91.984502064931803 -52.059766997192924 0 -52.059766997192924 -17.737459751590848 0 0 0 0 -15.109270136483246 3.8366685372247247 0 3.8366685372247247 15.036493676048778 0 0 0 0 -2.7094115411382518 10.782039952232644 0 10.782039952232644 6.9152556224542288 0 0 0 0 -2.7776388523443529 1.0791397303403585 0 1.0791397303403585 0.35278404217062115 0 0 0 0 -15.288472535583423 -150.82579146779159 0 -150.82579146779159 -133.52474018675571 0 0 0 0 -3.9707927852286957 12.031786924692479 0 12.031786924692479 10.398363351349103 0 0 0 0 -0.49865832932118792 10.930286792188204 0 10.930286792188204 0.0055134630705074746 0 0 0 0 4.8924311245937133 4.3560215353277334 0 4.3560215353277334 6.9910146761887297 0 0 0 0 -6.9658849514380563 9.0076367214223279 0 9.0076367214223279 7.4449278968418646 0 0 0 0 -24.899293416689034 17.339073532100542 0 17.339073532100542 13.485706874275756 0 0 0 0 -12.359641341114184 15.763144889229892 0 15.763144889229892 -0.0060464418371103199 0 0 0 0 -24.470245195407188 13.568458244191197 0 13.568458244191197 5.7238929786609418 0 0 0 0 -44.660896712201065 26.278069757292691 0 26.278069757292691 0.0543822666405651 0 0 0 0 -30.434568193537416 27.737946711331567 0 27.737946711331567 19.163337112762413 0 0 0 0 -53.408716792793712 9.4185353211751419 0 9.4185353211751419 69.84101490769018 0 0 0 0 -13.76062853159965 -32.533180858804698 0 -32.533180858804698 67.663141421091424 0 0 0 0 1.2132532507575888 0.1320814195071307 0 0.1320814195071307 -1.1567451225971583 0 0 0 0 -28.413183957862202 8.4607414888623964 0 8.4607414888623964 43.620635904904532 0 0 0 0 -9.6717630646890029 -0.72651610573592507 0 -0.72651610573592507 25.221593225099127 0 0 0 0 -29.154601400841784 13.272012078642557 0 13.272012078642557 22.821762814160394 0 0 0 0 -24.833127139601856 12.104506222584789 0 12.104506222584789 16.294813330901171 0 0 0 0 -207.54467627566919 28.466123650206658 0 28.466123650206658 27.558279830035513 0 0 0 0 -130.32966543955627 29.884954161592429 0 29.884954161592429 -0.21392996234516731 0 0 0 0 -106.57142905029468 -10.476069269337927 0 -10.476069269337927 7.2116357415901744 0 0 0 0 -55.165579552616691 29.563411886079237 0 29.563411886079237 11.195339808478854 0 0 0 0 -102.26193786010845 97.461037096625503 0 97.461037096625503 -0.91877824700878818 0 0 0 0 -54.59998538880609 49.735730392961273 0 49.735730392961273 -11.998334644877961 0 0 0 0 -121.66042102141364 -26.716146417268064 0 -26.716146417268064 -3.8100712270399981 0 0 0 0 -65.284799652254151 25.375458051744104 0 25.375458051744104 -5.2441819739991047 0 0 0 0 -86.905584180014557 43.502696718001445 0 43.502696718001445 -3.0351742751315669 0 0 0 0 -128.38569670305878 -32.737067021871432 0 -32.737067021871432 -7.5406067410203832 0 0 0 0 -68.582275863649556 20.290233105631671 0 20.290233105631671 51.922494567771423 0 0 0 0 -11.023530792444944 56.44180051609635 0 56.44180051609635 10.04772332518894 0 0 0 0 73.92470367619535 13.907349932438535 0 13.907349932438535 10.749185850845265 0 0 0 0 -32.760140142578166 20.436950958700436 0 20.436950958700436 -4.7887719704319807 0 0 0 0 14.864880530694791 122.73665377847982 0 122.73665377847982 4.39853577966079 0 0 0 0 138.68140817248786 116.56063642649586 0 116.56063642649586 -24.356380528292107 0 0 0 0 -0.74103540613046448 0.61267044785614644 0 0.61267044785614644 -0.6768311137789802 0 0 0 0 -12.705788639403181 7.7574760322240763 0 7.7574760322240763 38.412875556333006 0 0 0 0 8.7105786897882354 80.928704156127537 0 80.928704156127537 23.884971484074441 0 0 0 0 -59.689311714543635 17.924484599267629 0 17.924484599267629 3.4834276277025098 0 0 0 0 -150.48065814467554 -4.889052097668241 0 -4.889052097668241 34.669546972649414 0 0 0 0 -19.781208068868494 -2.755886679481705 0 -2.755886679481705 -2.5719752630908026 0 0 0 0 -10.578796391600122 -1.2698873637870349 0 -1.2698873637870349 -0.38407854404390662 0 0 0 0 -28.720000614557648 -1.9001152468816613 0 -1.9001152468816613 13.474158287199703 0 0 0 0 -32.725387853104621 4.5034978236785292 0 4.5034978236785292 24.599084005955937 0 0 0 0 -26.721628912360757 12.991680279923095 0 12.991680279923095 14.604280054614378 0 0 0 0 -176.38602701062337 34.844955960311495 0 34.844955960311495 -10.359914649407983 0 0 0 0 -76.795347185747232 229.94283246965074 0 229.94283246965074 -96.49705557074833 0 0 0 0 -399.60144665103871 -12.286721423290771 0 -12.286721423290771 45.761480065342084 0 0 0 0 -9.3933020060552508 5.27943705876595 0 5.27943705876595 2.9083742556318852 0 0 0 0 -5.5424414250883274 -13.605915816234869 0 -13.605915816234869 -20.8630746589929 0 0 0 0 -144.22859128500568 55.358869491991527 0 55.358869491991527 40.748317027685403 0 0 0 0 -65.828998555515 12.817188077596882 0 12.817188077596882 6.3600920679522748 0 0 0 0 -90.544884448463563 94.626362735827115 0 94.626362735827115 30.010588686282631 0 0 0 0 -86.105540085132816 -11.132860331992646 0 -11.132860331992646 -28.81341219687576 0 0 0 0 -159.88385078549618 -77.05856839272883 0 -77.05856839272883 -33.249547549499766 0 0 0 0 -1.8611608219216578 -42.638511965585167 0 -42.638511965585167 -71.346407157710928 0 0 0 0 -42.725410493709205 -39.899480052301485 0 -39.899480052301485 -18.388845320754001 0 0 0 0 -87.558569890083163 -0.50621873137663442 0 -0.50621873137663442 -19.012522479880431 0 0 0 0 -49.468010297181536 -20.001548081381259 0 -20.001548081381259 -5.0490475872696816 0 0 0 0 -71.992264570246334 1.4943163082180604 0 1.4943163082180604 -23.219141960365619 0 0 0 0 -80.072840519918827 -1.0970265875728558 0 -1.0970265875728558 -17.460404628513288 0 0 0 0 -78.675370533237583 -2.3827310821249057 0 -2.3827310821249057 -24.602289279343211 0 0 0 0 -82.667474583664443 -5.1497367759111192 0 -5.1497367759111192 -22.186034871534886 0 0 0 0 -75.875618522419245 0.45477445579876985 0 0.45477445579876985 -19.801970167804598 0 0 0 0 -82.273106867418392 -4.661938975458952 0 -4.661938975458952 -21.757498751791445 0 0 0 0 -75.408401518332539 1.3922505517700756 0 1.3922505517700756 -18.970482118815312 0 0 0 0 -75.874182759573159 1.4143253548074313 0 1.4143253548074313 -14.337953569545789 0 0 0 0 -60.042043344903504 44.860682875157352 0 44.860682875157352 57.242874373519612 0 0 0 0 -46.638725792892558 9.7784356065264006 0 9.7784356065264006 8.1291440451047023 0 0 0 0 -26.405823143066755 9.2878132849423309 0 9.2878132849423309 -10.223845820592576 0 0 0 0 -70.917447923740838 -19.181237298944552 0 -19.181237298944552 -27.364939320882968 0 0 0 0 -98.248014512275404 -11.728487138315529 0 -11.728487138315529 -19.153091554496314 0 0 0 0 -82.711884840565517 -6.8462545722847823 0 -6.8462545722847823 -29.109063461607548 0 0 0 0 -84.853281660034554 -1.3433905993247208 0 -1.3433905993247208 -25.963667637580556 0 0 0 0 -77.65659466625948 -13.037296284256854 0 -13.037296284256854 -19.661212721950847 0 0 0 0 -79.261323121289024 -15.956817397546274 0 -15.956817397546274 -19.557094266572676 0 0 0 0 -67.30850927355641 -15.277707217725492 0 -15.277707217725492 -23.539932393267236 0 0 0 0 -8.6614075538404336 13.020884206668114 0 13.020884206668114 -6.4352597026094296 0 0 0 0 -85.852683566605265 -14.22227394579545 0 -14.22227394579545 -15.92045509930017 0 0 0 0 -62.68586965421855 -11.739279149228196 0 -11.739279149228196 -17.120878441089644 0 0 0 0 -75.410746244400798 -2.436864922433756 0 -2.436864922433756 2.0812423532638604 0 0 0 0 -66.004798565200474 -5.7830945549768034 0 -5.7830945549768034 1.0262412090250181 0 0 0 0 -63.173192588077995 -3.1156185673288146 0 -3.1156185673288146 -1.2497797557328927 0 0 0 0 -74.775564096285962 -12.84503163349973 0 -12.84503163349973 -5.5619319336396984 0 0 0 0 -65.327287211082876 -2.1438184438643475 0 -2.1438184438643475 -15.691111777359964 0 0 0 0 -78.758250885788584 -0.075764617532058764 0 -0.075764617532058764 -15.353872920894673 0 0 0 0 -78.297308692708611 7.8788062710331133 0 7.8788062710331133 -8.8796636776141895 0 0 0 0 -68.096400708305794 -3.0559577038851913 0 -3.0559577038851913 -2.0370253376587266 0 0 0 0 -89.974958340884768 -0.45565918854674692 0 -0.45565918854674692 -12.146357988811133 0 0 0 0 -18.340931189076684 8.7240335198567891 0 8.7240335198567891 -14.683630553410762 0 0 0 0 -76.420430742531607 -9.3334152871511833 0 -9.3334152871511833 -26.227623096054231 0 0 0 0 -72.581907394487644 8.5796585719344876 0 8.5796585719344876 -2.4479182967486395 0 0 0 0 -76.906990232237149 -7.7859272477226114 0 -7.7859272477226114 -17.674560683570235 0 0 0 0 -81.30725146367331 0.95435150747584885 0 0.95435150747584885 -4.0835821589926695 0 0 0 0 -70.571739465784049 -6.4502977557126542 0 -6.4502977557126542 -35.547692800637378 0 0 0 0 -70.781992302654544 -1.8035233865875853 0 -1.8035233865875853 -28.700294011739061 0 0 0 0 -68.394328730542838 -7.9458647966453597 0 -7.9458647966453597 -1.8776162922198725 0 0 0 0 -83.378979286979302 -9.8146727224909682 0 -9.8146727224909682 3.9954352852049908 0 0 0 0 -75.16093112990535 -10.82389099069335 0 -10.82389099069335 1.2537802122721626 0 0 0 0 -62.077011075045448 -4.2037926977659481 0 -4.2037926977659481 -50.113345698733497 0 0 0 0 -67.511018770412193 -18.352348824038927 0 -18.352348824038927 -86.889227521486646 0 0 0 0 -45.925464852904042 20.252419482608275 0 20.252419482608275 -80.005420053397756 0 0 0 0 -73.705417637054779 -8.439858735499115 0 -8.439858735499115 -34.841371675638584 0 0 0 0 -72.418230009221475 -0.33248717228527624 0 -0.33248717228527624 -35.366134862795661 0 0 0 0 -5.0927950034669038 3.6579818554499752 0 3.6579818554499752 -2.4553013203991814 0 0 0 0 -62.557714310702067 56.918246336342008 0 56.918246336342008 9.2132240109294798 0 0 0 0 -65.334249210225778 9.8938311691023344 0 9.8938311691023344 -0.31420421724026393 0 0 0 0 -42.989197642862564 3.2589283609609083 0 3.2589283609609083 -37.085397387235844 0 0 0 0 -39.154620550267282 -3.364935877977814 0 -3.364935877977814 -44.262252551212896 0 0 0 0 -60.723842984814837 -11.348193398888952 0 -11.348193398888952 42.615233087857575 0 0 0 0 -82.244718814647058 27.523893559077408 0 27.523893559077408 136.92134383208034 0 0 0 0 -89.812990096455906 -8.6737839593170634 0 -8.6737839593170634 55.198157966900226 0 0 0 0 -100.28627396449156 -30.347660302716008 0 -30.347660302716008 28.504638777298794 0 0 0 0 -82.161083449725993 -6.2866415755421485 0 -6.2866415755421485 6.4549738064170583 0 0 0 0 -19.080450729702321 -1.2592620128528722 0 -1.2592620128528722 2.949007756894737 0 0 0 0 -68.872445560897177 -7.9048756075815909 0 -7.9048756075815909 -13.838786966556768 0 0 0 0 -85.567476114767487 -15.981916457656098 0 -15.981916457656098 6.5079547775740707 0 0 0 0 -42.762731512398375 -20.460622973358511 0 -20.460622973358511 -6.1141503083843869 0 0 0 0 -78.789633407344809 -1.5868250639542083 0 -1.5868250639542083 -17.347339176940949 0 0 0 0 -17.750963009970206 10.076220842894656 0 10.076220842894656 -9.6040707332812829 0 0 0 0 -89.161793453502469 9.5686208358488329 0 9.5686208358488329 -50.300935346316692 0 0 0 0 -51.131571477766556 54.65995035644579 0 54.65995035644579 -36.665767977809082 0 0 0 0 -130.04188327188604 24.002605963386941 0 24.002605963386941 -5.4296960610741962 0 0 0 0 -111.27153107064078 -48.364366861933377 0 -48.364366861933377 10.595621275721896 0 0 0 0 -7.6229885536386632 -12.445138327084386 0 -12.445138327084386 4.9465640662327157 0 0 0 0 -58.931869057285951 -16.482129837269696 0 -16.482129837269696 2.9454405734878382 0 0 0 0 -4495.9526538114224 -788.74516194885416 0 -788.74516194885416 -3.4670549468352529 0 0 0 0 -4060.3170664511417 -1121.5025383258051 0 -1121.5025383258051 179.20029315906183 0 0 0 0 -2453.9536097835735 -323.81318263600912 0 -323.81318263600912 0.13406061665449892 0 0 0 0 -4442.3240143033145 -597.4724884595405 0 -597.4724884595405 637.29181002880648 0 0 0 0 -1052.5126563307131 -1121.9263561953146 0 -1121.9263561953146 -358.19370978672526 0 0 0 0 -714.49762828792154 -276.93364590743488 0 -276.93364590743488 1052.3196490325092 0 0 0 0 -35.416971837963217 -5.1008422768601029 0 -5.1008422768601029 3.0488906786865257 0 0 0 0 -2100.8675876154884 -2152.0071801820623 0 -2152.0071801820623 -867.74970616290659 0 0 0 0 -460.9228266182181 -182.2004066217529 0 -182.2004066217529 -164.99802241727576 0 0 0 0 -19.914495908544552 -3.1565424643866749 0 -3.1565424643866749 1.441070505546509 0 0 0 0 -2080.4940606740274 956.59026058554878 0 956.59026058554878 1446.1253394804 0 0 0 0 181.32704049020685 -12.52202954080704 0 -12.52202954080704 -172.79483630300251 0 0 0 0 -386.88747365555901 -418.1450413116861 0 -418.1450413116861 716.67229265311653 0 0 0 0 -229.95084151742049 -953.38391621149867 0 -953.38391621149867 -125.22304922950474 0 0 0 0 -301.11952495046717 -686.24611898006651 0 -686.24611898006651 -469.50230460002001 0 0 0 0 -1176.3482905535639 -1435.3831486425324 0 -1435.3831486425324 -1105.6603393715807 0 0 0 0 -692.26219096652494 523.75017042750778 0 523.75017042750778 1119.7870167461992 0 0 0 0 -15.729139391884019 -2.8989099319642264 0 -2.8989099319642264 0.99458946668877568 0 0 0 0 68.461973013181705 -248.14015351003096 0 -248.14015351003096 -8.4254152435592005 0 0 0 0 -864.16164440082139 -267.70344068478948 0 -267.70344068478948 38.762407394457568 0 0 0 0 -626.40355464495951 -189.99431777518583 0 -189.99431777518583 -0.7761768565034185 0 0 0 0 -1054.5293846082204 67.878229647145702 0 67.878229647145702 335.6984836183816 0 0 0 0 -1474.9267757424532 -263.05986771153266 0 -263.05986771153266 337.03891363875664 0 0 0 0 -1504.7670585997839 -623.15884944859715 0 -623.15884944859715 12.570149551666873 0 0 0 0 -1145.1362254707237 -270.5056239540105 0 -270.5056239540105 119.00841444457853 0 0 0 0 -1203.960036706907 -355.72342069262783 0 -355.72342069262783 0.4860361911310323 0 0 0 0 -0.81720943635042431 -1.2253948855423289 0 -1.2253948855423289 -2.1549930909579564 0 0 0 0 -180.18143440698623 4.8836472099114303 0 4.8836472099114303 -11.474390566470648 0 0 0 0 -323.40256535501976 -96.265258399766793 0 -96.265258399766793 -5.1298187937079121 0 0 0 0 0.075851928556573966 -2.0390895659766102 0 -2.0390895659766102 -6.1697339459591731 0 0 0 0 -286.82584800969926 -54.410163050168507 0 -54.410163050168507 31.894956185359092 0 0 0 0 -849.19809518610418 -455.40914889026686 0 -455.40914889026686 -812.20048751935633 0 0 0 0 -2167.1448996844774 -428.56053126593457 0 -428.56053126593457 321.69246543706686 0 0 0 0 -980.07378881578916 -365.67905155271336 0 -365.67905155271336 -41.232305569623094 0 0 0 0 -139.46256610157434 29.466908275825517 0 29.466908275825517 -3.4992499630156289 0 0 0 0 -172.25936851046572 -56.1629322727442 0 -56.1629322727442 -16.993805923801858 0 0 0 0 -31.749319059439586 10.912690629767326 0 10.912690629767326 -27.239989745862204 0 0 0 0 -220.18136139040871 -57.869255922342518 0 -57.869255922342518 40.39224837786287 0 0 0 0 2.5014635730042016 -3.1281642634034483 0 -3.1281642634034483 -5.2523764039414349 0 0 0 0 -81.698450100200716 -24.126532738102355 0 -24.126532738102355 -65.248361381547966 0 0 0 0 -8.0755496442276637 -8.9283151375398973 0 -8.9283151375398973 -0.55034954565985572 0 0 0 0 -147.03518420996261 -32.749076222453823 0 -32.749076222453823 41.259359554004277 0 0 0 0 -54.357229310697846 11.647194152765564 0 11.647194152765564 8.8150384625460987 0 0 0 0 -70.637595423468156 -8.3843720931438384 0 -8.3843720931438384 -19.722940006152498 0 0 0 0 -110.00947940217156 32.432191882665506 0 32.432191882665506 76.219925628473902 0 0 0 0 -75.691376766153553 -9.1367296503707962 0 -9.1367296503707962 -13.948465572962277 0 0 0 0 -72.583052255809889 -8.6115114855051615 0 -8.6115114855051615 -19.748589255168099 0 0 0 0 -25.795421846408516 6.5779376205151436 0 6.5779376205151436 -4.749575506220947 0 0 0 0 -77.074917340993125 0.77632453057003659 0 0.77632453057003659 -10.512854143010372 0 0 0 0 -62.945024376679328 -5.5401025631862 0 -5.5401025631862 -1.0613746249790816 0 0 0 0 -85.879089654132258 -10.911950718977323 0 -10.911950718977323 -13.45128021346784 0 0 0 0 -66.867606735431764 -6.2442085863848007 0 -6.2442085863848007 -16.673069202160093 0 0 0 0 -58.527704063800343 14.350848860897258 0 14.350848860897258 6.7730894178799748 0 0 0 0 -70.833296922806767 -3.8268539322035906 0 -3.8268539322035906 -15.732045433710596 0 0 0 0 -201.98090080043767 -136.23552528198888 0 -136.23552528198888 -180.59009010355635 0 0 0 0 -41.278332167022484 4.5910789354137336 0 4.5910789354137336 9.4337602251541366 0 0 0 0 -69.593771890780772 -13.707518001195979 0 -13.707518001195979 -5.8277181919809209 0 0 0 0 -76.262179372090031 -14.055284791303961 0 -14.055284791303961 -9.0849902064387607 0 0 0 0 -58.851703222546234 -10.206989054753627 0 -10.206989054753627 0.40380782401877174 0 0 0 0 -30.418539916080277 -0.9063228694645602 0 -0.9063228694645602 -4.2597903358113172 0 0 0 0 -230.37087593728211 -156.58948600917256 0 -156.58948600917256 -244.33725070248283 0 0 0 0 -53.697064944089277 -0.60992232456418094 0 -0.60992232456418094 5.7197823241059922 0 0 0 0 -50.974178897558886 -2.9709469990743855 0 -2.9709469990743855 -2.619927155667483 0 0 0 0 -54.390698733307374 -6.3641980769312703 0 -6.3641980769312703 2.7991856272513238 0 0 0 0 -160.86358748277416 -355.29376835339463 0 -355.29376835339463 -645.32095668780266 0 0 0 0 -298.89448198667378 -564.95696404568685 0 -564.95696404568685 -497.44746558103179 0 0 0 0 -333.04111889278283 -583.75112077120502 0 -583.75112077120502 -477.14653905675584 0 0 0 0 -482.23093183267338 -413.01228558855541 0 -413.01228558855541 -325.11564769778067 0 0 0 0 -474.85958438921807 -372.63936608034777 0 -372.63936608034777 -182.46146876677676 0 0 0 0 -693.97331281581864 -937.23155378128695 0 -937.23155378128695 -328.1756803500449 0 0 0 0 -1076.389880231196 -467.99762317450558 0 -467.99762317450558 -102.64253013692996 0 0 0 0 -299.87929084066127 -744.16042924295698 0 -744.16042924295698 -410.95616400119803 0 0 0 0 -320.2509458557488 -602.9039300642612 0 -602.9039300642612 -400.50863232073141 0 0 0 0 -1710.6491670962278 -451.1823822819822 0 -451.1823822819822 -213.10558603244675 0 0 0 0 -522.89604673176655 -676.40304490728226 0 -676.40304490728226 -772.89103235686093 0 0 0 0 -884.02888591813098 -482.37348104543457 0 -482.37348104543457 -623.93865017946405 0 0 0 0 -533.58585667965235 -740.99843332678029 0 -740.99843332678029 -489.64281022825401 0 0 0 0 -294.52627382150968 -541.36739302334718 0 -541.36739302334718 -680.89624959276091 0 0 0 0 -611.21702333558642 -733.52837811403776 0 -733.52837811403776 -670.69982015191772 0 0 0 0 -163.18607384526695 -306.72782778086474 0 -306.72782778086474 -901.05637447488925 0 0 0 0 -642.77556895428279 -526.57798901991441 0 -526.57798901991441 -639.50714361023392 0 0 0 0 -544.6697602528584 -475.45345461245233 0 -475.45345461245233 -1061.1120545356773 0 0 0 0 -1400.2732785651933 -1350.8453267696148 0 -1350.8453267696148 -1247.9006165128576 0 0 0 0 -1941.8204375768182 -2692.3749112274008 0 -2692.3749112274008 -3368.2713320855501 0 0 0 0 -4730.8863859751291 -1937.9919756675349 0 -1937.9919756675349 -418.81977078899399 0 0 0 0 -3145.4075260670215 -1636.163159222401 0 -1636.163159222401 -395.71203419730767 0 0 0 0 -4501.4442134825185 -1102.1815920439665 0 -1102.1815920439665 725.56104980417126 0 0 0 0 -2925.7654841870171 -809.02516412281557 0 -809.02516412281557 -85.093427475193835 0 0 0 0 -4120.5392611215648 -229.84421974019509 0 -229.84421974019509 1135.720362072095 0 0 0 0 -1747.8459513277739 -551.76317550882345 0 -551.76317550882345 -79.894391413870835 0 0 0 0 -1876.1580746807449 2209.4691044040815 0 2209.4691044040815 -2058.1644029877693 0 0 0 0 -20.737542365271736 3.7520575026808123 0 3.7520575026808123 -2.3026260650534338 0 0 0 0 -1003.3706871904724 -720.82359936392163 0 -720.82359936392163 -536.82706056147083 0 0 0 0 151.50669674155506 136.25083007181658 0 136.25083007181658 -545.64333259992668 0 0 0 0 44.616993918345543 -338.17492471858014 0 -338.17492471858014 -305.56366427213317 0 0 0 0 -4469.5795314049083 174.62088143994933 0 174.62088143994933 368.73274020219873 0 0 0 0 -13.290985480132406 1.9135674251012347 0 1.9135674251012347 0.84371630037193679 0 0 0 0 -487.72284557718376 654.77468674069735 0 654.77468674069735 354.72301451906395 0 0 0 0 -4497.0375742226561 -1359.2182709638864 0 -1359.2182709638864 -2103.1002408586783 0 0 0 0 -4493.9146954424486 -1508.6780676706007 0 -1508.6780676706007 334.36019185848829 0 0 0 0 -27.622868524407977 -6.7778547937003264 0 -6.7778547937003264 -2.4778683858732378 0 0 0 0 -1191.8569046781049 812.002016998969 0 812.002016998969 -369.89151496468088 0 0 0 0 -250.92399448569631 -228.91661831801002 0 -228.91661831801002 -178.59620030830365 0 0 0 0 -18.832832104911233 5.9187339357813045 0 5.9187339357813045 1.2775976866048961 0 0 0 0 -29.673066294533783 -76.192097870061517 0 -76.192097870061517 235.99327501418827 0 0 0 0 -26.413589977106312 -50.949995463417956 0 -50.949995463417956 -52.807622157088922 0 0 0 0 -130.8139882653777 -61.642228012857515 0 -61.642228012857515 51.621590122170829 0 0 0 0 -67.147873368226385 -4.8517642097431972 0 -4.8517642097431972 2.1894977836510456 0 0 0 0 -67.682778618051088 -2.7155738515990038 0 -2.7155738515990038 25.08573502956574 0 0 0 0 -25.206064101305856 -5.7162129366922869 0 -5.7162129366922869 1.8949858708111273 0 0 0 0 -64.661648475739639 -40.814278992197615 0 -40.814278992197615 18.237831328361267 0 0 0 0 -52.563176017691148 -11.681646717373326 0 -11.681646717373326 -66.266354653355179 0 0 0 0 87.596448324526136 64.314394248931492 0 64.314394248931492 -82.699888380255061 0 0 0 0 -47.496957987106612 3.6974666866636636 0 3.6974666866636636 -0.050092504957964176 0 0 0 0 -545.44894843014481 73.06151590611023 0 73.06151590611023 439.22469223034324 0 0 0 0 -44.393109044551238 -17.018589505147418 0 -17.018589505147418 -79.070594328779748 0 0 0 0 -55.654626368273682 1.5289554581218345 0 1.5289554581218345 0.34615105004652574 0 0 0 0 -92.515362794350949 -76.988711177894402 0 -76.988711177894402 318.49419930309483 0 0 0 0 -71.828082652777084 -26.799337810459065 0 -26.799337810459065 30.804466693405757 0 0 0 0 -68.16047776301275 -10.851455244351065 0 -10.851455244351065 -40.648342823157996 0 0 0 0 -59.130587309806913 1.9088119585397663 0 1.9088119585397663 -1.2225007871516447 0 0 0 0 -78.085920278950653 -13.127016931653658 0 -13.127016931653658 -24.849683544020735 0 0 0 0 -62.815822590018797 -17.667990628840997 0 -17.667990628840997 -34.884764629908915 0 0 0 0 -78.821453779019066 -26.626100227494987 0 -26.626100227494987 -9.0721130888607604 0 0 0 0 -65.271935141514405 -29.819304166770678 0 -29.819304166770678 -35.551084585976426 0 0 0 0 -74.887948346018675 -16.702985172442709 0 -16.702985172442709 -0.66014003859469028 0 0 0 0 -78.878362018498592 -10.153231798115939 0 -10.153231798115939 -8.3184077092887492 0 0 0 0 -65.573229385117884 -13.055280932449762 0 -13.055280932449762 -12.686439436101637 0 0 0 0 -70.640093903100933 -9.9106769315318388 0 -9.9106769315318388 4.3904862128846815 0 0 0 0 -15.328215544286792 -3.8003335204158759 0 -3.8003335204158759 -0.95511857520790322 0 0 0 0 -79.0315316687213 -17.51136288918336 0 -17.51136288918336 -21.635535912222963 0 0 0 0 -71.889869555147015 -18.226542962569631 0 -18.226542962569631 -25.365156616608651 0 0 0 0 -71.873522617388517 -9.8571851795924204 0 -9.8571851795924204 -14.143388022642966 0 0 0 0 -5.6614676545546843 10.301183540178727 0 10.301183540178727 -9.4285747701908669 0 0 0 0 -67.248749586431586 -22.190544433668322 0 -22.190544433668322 -25.653735652417595 0 0 0 0 -80.59648605727125 -22.04682412970876 0 -22.04682412970876 -23.283733853784561 0 0 0 0 -60.832038697117241 -10.550544711794657 0 -10.550544711794657 -18.30798506129338 0 0 0 0 -80.480289122657268 -9.3223396690133882 0 -9.3223396690133882 -17.102963772608746 0 0 0 0 -22.163680800095079 5.6731142410996256 0 5.6731142410996256 -10.136897708882906 0 0 0 0 -72.782901630693232 -22.214845132010737 0 -22.214845132010737 -11.841482814525882 0 0 0 0 -70.692813091765856 -12.002117415317798 0 -12.002117415317798 -15.011514321907725 0 0 0 0 -63.836157308709517 -6.7032044391648924 0 -6.7032044391648924 -17.175143447712344 0 0 0 0 -57.143779510282911 -11.521111298272672 0 -11.521111298272672 -16.082639078916031 0 0 0 0 -19.780776905600618 7.5223968113733406 0 7.5223968113733406 -9.2403414203821299 0 0 0 0 -56.880112093593198 -6.908521744782206 0 -6.908521744782206 -7.7367413350652896 0 0 0 0 -49.078595250330693 -1.3367377391870985 0 -1.3367377391870985 -1.882752432933064 0 0 0 0 71.665417518815957 -14.962015521694411 0 -14.962015521694411 -214.07976796708076 0 0 0 0 -16.777132128670928 -115.70116369049322 0 -115.70116369049322 -102.85012327029472 0 0 0 0 20.232858168346866 22.537274415995171 0 22.537274415995171 -26.568977756036929 0 0 0 0 -113.10728963501242 -7.7387017775965887 0 -7.7387017775965887 -32.667483643479954 0 0 0 0 102.40875992026122 -90.810139977106815 0 -90.810139977106815 -98.326778178090592 0 0 0 0 -40.727316751122999 -11.959211522105306 0 -11.959211522105306 -58.08208391051312 0 0 0 0 -17.612452145327552 -60.386566614726007 0 -60.386566614726007 -160.79148980878881 0 0 0 0 0.1181849655104088 -0.013189047957041566 0 -0.013189047957041566 1.2991273609915179 0 0 0 0 -11.049503967620694 63.137797045936338 0 63.137797045936338 -7.8440872814217073 0 0 0 0 5.5804949243065494 10.89162202711384 0 10.89162202711384 -106.55176526237756 0 0 0 0 36.944704260742583 -68.382223979409673 0 -68.382223979409673 37.758577797782436 0 0 0 0 -5.6509769689150744 3.4261964239024394 0 3.4261964239024394 2.7912264907364372 0 0 0 0 -38.752414788454189 23.913950776746901 0 23.913950776746901 51.01897695802154 0 0 0 0 -22.73285263874277 -47.388365356540021 0 -47.388365356540021 54.760419824886185 0 0 0 0 -22.202009188737406 -2.6040069854811634 0 -2.6040069854811634 -0.31255192448691016 0 0 0 0 -110.8272959957867 152.3838014623382 0 152.3838014623382 -254.70462607843388 0 0 0 0 -144.42707985906236 192.41444991483766 0 192.41444991483766 -238.34852636002478 0 0 0 0 -89.415163857360312 146.15393358035999 0 146.15393358035999 -223.15374089055774 0 0 0 0 -81.223089450621046 181.79901004289297 0 181.79901004289297 -238.98595492040062 0 0 0 0 -90.227710134640802 141.69552212865392 0 141.69552212865392 -227.75023047602866 0 0 0 0 -92.021685792948119 171.89353599725268 0 171.89353599725268 -235.22540232493969 0 0 0 0 -91.99095525687153 181.70654668783988 0 181.70654668783988 -296.7704078324382 0 0 0 0 -96.427216196767404 128.78502316573264 0 128.78502316573264 -239.01992418212058 0 0 0 0 -83.430633576295804 121.5003666296241 0 121.5003666296241 -296.59005019527751 0 0 0 0 -117.06349484538077 188.64235907335186 0 188.64235907335186 -398.36093759413814 0 0 0 0 -192.76732257576077 238.95314732642638 0 238.95314732642638 -267.10905328148897 0 0 0 0 -277.31735580995155 250.16990280005928 0 250.16990280005928 -267.90967342596349 0 0 0 0 -204.21685553745192 144.3979912775917 0 144.3979912775917 -221.50479584808897 0 0 0 0 -236.6242928235115 300.27710795753933 0 300.27710795753933 -211.64855489571698 0 0 0 0 -183.06708744844946 312.21900919772895 0 312.21900919772895 -284.10974231546464 0 0 0 0 -197.08960691437824 264.21712649383323 0 264.21712649383323 -385.55729978257364 0 0 0 0 -174.9745313197418 223.37778953265726 0 223.37778953265726 -390.06074527492376 0 0 0 0 -182.06095326834475 237.69180174677467 0 237.69180174677467 -386.92376833124996 0 0 0 0 -14.337894530530377 -1.3977406537307573 0 -1.3977406537307573 0.1368045766901087 0 0 0 0 -159.36862672428833 -81.505350930785767 0 -81.505350930785767 43.696588915221355 0 0 0 0 -143.74148112951661 248.45396651866793 0 248.45396651866793 -439.70540343596724 0 0 0 0 -14.841284849712679 -2.2567049924478511 0 -2.2567049924478511 -0.6201645132967144 0 0 0 0 -274.96117508316092 -120.07503184886889 0 -120.07503184886889 -50.743134237271988 0 0 0 0 36.913151026077685 -43.396287282693038 0 -43.396287282693038 -142.28384860511619 0 0 0 0 10.240618922398426 -70.076075867099007 0 -70.076075867099007 -149.8327658136634 0 0 0 0 -5.0684171506241 -0.036358767437448591 0 -0.036358767437448591 -0.41305439066126937 0 0 0 0 -87.91680842655478 -362.67288435332603 0 -362.67288435332603 -121.83818795291177 0 0 0 0 119.10021239307389 -38.664834352358525 0 -38.664834352358525 -368.18028171052538 0 0 0 0 -440.49081038065196 177.88718602516295 0 177.88718602516295 -675.77528751180034 0 0 0 0 -95.44720712238086 364.61275045174841 0 364.61275045174841 -602.56006516193247 0 0 0 0 -562.01606196462672 112.66031092623803 0 112.66031092623803 -523.92393019171232 0 0 0 0 -293.85609220834158 78.277800894926287 0 78.277800894926287 -764.50233016839888 0 0 0 0 -388.64881596696796 216.97573950035778 0 216.97573950035778 -804.8591338804564 0 0 0 0 -171.37296900217916 404.69242554407987 0 404.69242554407987 -660.55914123895309 0 0 0 0 -168.59878089671838 306.23869679787163 0 306.23869679787163 -402.42295778563403 0 0 0 0 -267.96041382826661 224.10679126991573 0 224.10679126991573 232.42997553453529 0 0 0 0 -15.562510827707598 -3.3822884749003563 0 -3.3822884749003563 0.65174961454531077 0 0 0 0 196.22758511320717 313.97816607660639 0 313.97816607660639 -523.24645991152227 0 0 0 0 -10.310686419863089 -1.9639206544115098 0 -1.9639206544115098 0.37675781685996235 0 0 0 0 -880.89591019321961 -826.83147696076151 0 -826.83147696076151 293.14921502975824 0 0 0 0 -3591.0462844883587 -169.51924681636379 0 -169.51924681636379 185.44480248170282 0 0 0 0 -3034.0344952958258 505.12798429119033 0 505.12798429119033 123.4647903520206 0 0 0 0 212.15199013087113 226.07884216898702 0 226.07884216898702 -44.401929326338745 0 0 0 0 -4500.6678589959047 0.90125484004647549 0 0.90125484004647549 179.64888562389183 0 0 0 0 -4085.3567661625348 -601.86417508212958 0 -601.86417508212958 919.51417481234921 0 0 0 0 -3565.1676568664116 259.82667124362365 0 259.82667124362365 242.43470674195964 0 0 0 0 -3110.0308435591214 1190.9411959778126 0 1190.9411959778126 177.80384772140764 0 0 0 0 -4500.7517615329753 650.28473852039519 0 650.28473852039519 654.65481893620597 0 0 0 0 -2741.7835698464478 310.15950876879731 0 310.15950876879731 -139.65395831366575 0 0 0 0 -1301.8251354159875 -26.164420382782168 0 -26.164420382782168 -134.78798859770973 0 0 0 0 -1025.4358720891032 408.87522285829016 0 408.87522285829016 -667.40802083495782 0 0 0 0 -1278.6085416117712 1055.6670731917804 0 1055.6670731917804 -989.33830363226684 0 0 0 0 111.7608779492366 254.02840733656325 0 254.02840733656325 -999.2788929959496 0 0 0 0 -4490.9862091423829 1830.9070155741645 0 1830.9070155741645 -85.276662813188594 0 0 0 0 -77.974752923473716 -1.3146383911475823 0 -1.3146383911475823 -8.7153306119330409 0 0 0 0 -76.577439853292162 -6.8852899188999288 0 -6.8852899188999288 -10.520974262834443 0 0 0 0 -70.01850021414316 -2.1489831246209485 0 -2.1489831246209485 -1.3651756931704795 0 0 0 0 -80.706764119124273 -7.118705493266134 0 -7.118705493266134 -6.5281892222865281 0 0 0 0 -89.24587234124192 25.005574458273259 0 25.005574458273259 7.8742053653493187 0 0 0 0 -48.882397472916637 37.489577392017793 0 37.489577392017793 -41.792830151618546 0 0 0 0 -69.412040410461486 -7.0506513239486139 0 -7.0506513239486139 1.2833653218408472 0 0 0 0 -107.97045908450673 49.292730455598303 0 49.292730455598303 100.16360000450258 0 0 0 0 -83.473024223116226 -2.0626704217879706 0 -2.0626704217879706 -3.32477616271321 0 0 0 0 -81.28182825293004 -4.0584470598488425 0 -4.0584470598488425 0.15353279850641061 0 0 0 0 -1.4571372991704266 40.161128653890501 0 40.161128653890501 -94.579329529726692 0 0 0 0 -11.868806092046725 -31.957889546056322 0 -31.957889546056322 -59.19074580988763 0 0 0 0 -223.80314034748881 -93.707467647206158 0 -93.707467647206158 99.460831722654731 0 0 0 0 -90.373847667913651 -3.1399377646885114 0 -3.1399377646885114 -5.8588745303546261 0 0 0 0 -90.853138772579058 -4.3257899124836836 0 -4.3257899124836836 1.293753891637301 0 0 0 0 -55.118740873360366 -10.688063583201483 0 -10.688063583201483 -1.1694791148074728 0 0 0 0 -23.153156729220527 -15.290589454737145 0 -15.290589454737145 -4.3344803159152754 0 0 0 0 -91.12200518087775 -6.2184546173289164 0 -6.2184546173289164 -5.112751130071274 0 0 0 0 -98.145782369188964 -7.6026909523993709 0 -7.6026909523993709 -5.1717959675925158 0 0 0 0 -85.029901250498369 -5.4612726199611643 0 -5.4612726199611643 -8.5287174082113779 0 0 0 0 -82.400388336187461 -3.6692517860474254 0 -3.6692517860474254 -8.2413752684841484 0 0 0 0 -78.941016460914398 -6.8890387495898722 0 -6.8890387495898722 -9.5222662974715035 0 0 0 0 -89.433788697060663 -13.772093616487837 0 -13.772093616487837 -6.2488352547209161 0 0 0 0 -89.433117451524595 -8.7565305102261846 0 -8.7565305102261846 -9.6417238554195137 0 0 0 0 -80.842328092665412 -10.702592655035915 0 -10.702592655035915 -5.3798334341586269 0 0 0 0 -80.984795471700636 -4.4004226624854255 0 -4.4004226624854255 -8.558680261677182 0 0 0 0 -70.427659042492451 -8.8260434561818784 0 -8.8260434561818784 -8.5953864279717891 0 0 0 0 -79.646594011137495 -5.0803771811297338 0 -5.0803771811297338 -10.42966274268656 0 0 0 0 -81.733568011353782 -4.1568774209832782 0 -4.1568774209832782 -10.737082652319259 0 0 0 0 -80.140964382329003 -2.5331022345696113 0 -2.5331022345696113 -9.6688412238559067 0 0 0 0 -92.397898561190232 -7.4443771442429352 0 -7.4443771442429352 -9.37340542375523 0 0 0 0 -93.598930394204217 -6.8635967848915698 0 -6.8635967848915698 -7.1220151365382662 0 0 0 0 -21.294461519027521 4.8877857022160924 0 4.8877857022160924 -6.9246246110655409 0 0 0 0 -71.676590313451015 -9.0249346682581972 0 -9.0249346682581972 -12.962123007651371 0 0 0 0 -76.518573073641164 -10.384294045230263 0 -10.384294045230263 -11.306638017812276 0 0 0 0 -69.094105614460204 -1.0041818228787633 0 -1.0041818228787633 -14.015497243847676 0 0 0 0 -75.226564075201168 -3.295800686571738 0 -3.295800686571738 -13.78070658490941 0 0 0 0 -90.121479118097341 -8.2773032756770135 0 -8.2773032756770135 -10.492419166596619 0 0 0 0 -76.960675520684163 -0.8839355499001158 0 -0.8839355499001158 -10.479666315071881 0 0 0 0 -1.8824498763015924 8.8825746954983913 0 8.8825746954983913 -6.1060123590337696 0 0 0 0 -68.614160164244822 0.51619461134259836 0 0.51619461134259836 -18.860538649922447 0 0 0 0 -65.370352601072227 -1.9339732002724759 0 -1.9339732002724759 -18.467614340549062 0 0 0 0 -67.132668532147363 -3.0603341081023245 0 -3.0603341081023245 -12.988313823702896 0 0 0 0 -66.465136523918773 -5.3860796749706878 0 -5.3860796749706878 -15.784181175003141 0 0 0 0 -62.600000395483221 1.0369990633707857 0 1.0369990633707857 -17.254857067083549 0 0 0 0 -64.974454157541913 -2.1917589349527589 0 -2.1917589349527589 -11.711256238353144 0 0 0 0 -54.262724667878501 -0.75587824691004357 0 -0.75587824691004357 -14.414231197026766 0 0 0 0 -59.881633273795615 -1.832163043883309 0 -1.832163043883309 0.096275821294804276 0 0 0 0 -24.469317865179619 43.459844066102619 0 43.459844066102619 -197.43214246889431 0 0 0 0 -63.575483451204491 2.4069553806521071 0 2.4069553806521071 -2.4518054360410133 0 0 0 0 -65.76544080014537 2.5405005727425873 0 2.5405005727425873 -14.320352020181417 0 0 0 0 -90.611334674234968 -3.6106366436529242 0 -3.6106366436529242 -8.0298301638811154 0 0 0 0 -20.783679390060712 5.9827958779971766 0 5.9827958779971766 -6.535815178713138 0 0 0 0 -78.3209384911097 4.4310421877651152 0 4.4310421877651152 -6.3586643776693563 0 0 0 0 -78.257430907149683 33.024170830781486 0 33.024170830781486 -117.2473028772292 0 0 0 0 -72.25320622101583 -0.51871132393690722 0 -0.51871132393690722 -0.4323468319797017 0 0 0 0 -22.66836549200417 -2.491007927974664 0 -2.491007927974664 -0.44635016765789359 0 0 0 0 -133.96743899378271 62.866760600814416 0 62.866760600814416 -127.81820497821445 0 0 0 0 -60.364767662711529 -20.90014075430463 0 -20.90014075430463 -85.895017008008836 0 0 0 0 -80.792805332064745 80.784708284048747 0 80.784708284048747 -101.69857174264234 0 0 0 0 -77.550051498168614 63.645404324835454 0 63.645404324835454 -58.90358705958883 0 0 0 0 -120.62241150750197 30.715466475814196 0 30.715466475814196 -36.577475067700561 0 0 0 0 -114.8009111842839 -2.8006063347118584 0 -2.8006063347118584 -116.75161442362651 0 0 0 0 -153.89899260009406 65.440193242950954 0 65.440193242950954 -58.800159130519859 0 0 0 0 -65.117399633272726 43.755625866427636 0 43.755625866427636 -108.51763988517791 0 0 0 0 -73.669283079586421 6.9353049678136074 0 6.9353049678136074 -53.404131815935671 0 0 0 0 -69.74250201068935 38.790205161167364 0 38.790205161167364 -79.141550752995045 0 0 0 0 -72.202790554023522 17.111822657598623 0 17.111822657598623 17.27272537391292 0 0 0 0 -35.518650196238013 12.231363727640428 0 12.231363727640428 -53.654694102023313 0 0 0 0 -49.040035775120487 28.90395459761325 0 28.90395459761325 -39.63855140611021 0 0 0 0 -77.648719485914626 56.176168386635254 0 56.176168386635254 -23.642121673328688 0 0 0 0 -91.747631027610623 71.226459388085459 0 71.226459388085459 -48.917381878625747 0 0 0 0 -61.129639919512556 60.012437448495916 0 60.012437448495916 -48.716452584097169 0 0 0 0 -72.044619331863942 -8.6759787224805223 0 -8.6759787224805223 -68.128119849248833 0 0 0 0 -22.085246856047888 7.284184501197501 0 7.284184501197501 -64.542409169019123 0 0 0 0 -63.793006710879126 -9.930431458705101 0 -9.930431458705101 20.07887299525396 0 0 0 0 12.182684994520969 -15.697618346600692 0 -15.697618346600692 29.437599497705719 0 0 0 0 -60.700404451687064 8.9993914791925249 0 8.9993914791925249 40.384587011726467 0 0 0 0 -39.350281638013257 -39.697206773874342 0 -39.697206773874342 80.296335248664889 0 0 0 0 -27.98262070043711 10.977784748552267 0 10.977784748552267 -40.167388853686361 0 0 0 0 -26.401305120126551 5.1467998896351261 0 5.1467998896351261 5.4512206384186257 0 0 0 0 -9.3549947916306309 -1.9809348060064167 0 -1.9809348060064167 -7.5208850406986052 0 0 0 0 -0.70128147475770675 -19.340685697506444 0 -19.340685697506444 12.68914049475805 0 0 0 0 -28.808931067309459 -39.649242970577276 0 -39.649242970577276 -216.57098737426401 0 0 0 0 -96.146935582895821 -19.257412558907276 0 -19.257412558907276 -15.657364831682372 0 0 0 0 -289.95622972567435 355.36337979806081 0 355.36337979806081 -333.79904243418821 0 0 0 0 -2.4296612909081006 -2.0204245032243904 0 -2.0204245032243904 -1.1831566269381111 0 0 0 0 -42.864805633966171 -9.861768851309904 0 -9.861768851309904 64.269082812933448 0 0 0 0 -40.438466650346527 13.846649658188653 0 13.846649658188653 34.847234951138944 0 0 0 0 -35.502569080133981 17.467466374025264 0 17.467466374025264 -6.6373546181360439 0 0 0 0 -19.646832360042026 20.785665456699022 0 20.785665456699022 -10.354025782877557 0 0 0 0 -31.23185586836189 -4.8575454337633346 0 -4.8575454337633346 5.7484070810612877 0 0 0 0 -46.380217618818278 11.219333605357491 0 11.219333605357491 96.344190265951966 0 0 0 0 -48.345041995926294 -51.102455653069455 0 -51.102455653069455 110.31696229192266 0 0 0 0 31.13201105731423 70.969101653979678 0 70.969101653979678 -13.057362718136545 0 0 0 0 -37.209818448117119 1.6759456161742889 0 1.6759456161742889 8.1122252125658072 0 0 0 0 -153.17539894313086 201.20998353365212 0 201.20998353365212 -94.545136580697203 0 0 0 0 6.0254940395971062 -55.910066794044269 0 -55.910066794044269 47.90544023019504 0 0 0 0 26.476634079834184 -0.51478444167034354 0 -0.51478444167034354 23.96284758209049 0 0 0 0 -43.304659403111145 -51.781364439027584 0 -51.781364439027584 135.46484170847975 0 0 0 0 19.112148304033326 -79.559187141350321 0 -79.559187141350321 12.764575783702782 0 0 0 0 -17.807867484892654 -7.8917882960167738 0 -7.8917882960167738 0.006912358639426408 0 0 0 0 86.650931950454833 14.670816010705494 0 14.670816010705494 -115.27984668251702 0 0 0 0 -485.71308963676893 53.802156642174793 0 53.802156642174793 24.473894585292328 0 0 0 0 -300.98754788193764 247.32088199462686 0 247.32088199462686 -37.242943390975597 0 0 0 0 -38.047316795331426 213.22353932192573 0 213.22353932192573 -175.60681110958762 0 0 0 0 -235.21945794040221 78.935637385409194 0 78.935637385409194 -25.963513157643405 0 0 0 0 -104.95781820249977 93.781708659984247 0 93.781708659984247 -62.559647504919113 0 0 0 0 -80.339246771793114 38.695565529757943 0 38.695565529757943 -62.853917127402724 0 0 0 0 -67.243943242894602 64.696974755696544 0 64.696974755696544 -11.597933875306797 0 0 0 0 -17.821060085763747 13.770999323317838 0 13.770999323317838 -16.892065945461979 0 0 0 0 -64.064204769209027 58.753330797183224 0 58.753330797183224 -25.958193305158034 0 0 0 0 -66.583159846268245 49.904978747123835 0 49.904978747123835 -43.937964355476993 0 0 0 0 -83.318898522571544 79.034578330440695 0 79.034578330440695 -48.490925248318945 0 0 0 0 -98.930862670895294 67.400999670852684 0 67.400999670852684 -47.784549283658578 0 0 0 0 -77.101287367957411 66.583151121935771 0 66.583151121935771 -48.079428587966618 0 0 0 0 -189.12469675588363 76.323362457217513 0 76.323362457217513 -34.744399365816889 0 0 0 0 -102.62307304253045 69.911838849589287 0 69.911838849589287 -37.445041309292264 0 0 0 0 -200.65013723007542 14.472749302278224 0 14.472749302278224 -27.040558656292205 0 0 0 0 -139.22023303386231 18.243649805200107 0 18.243649805200107 -27.04838037238369 0 0 0 0 -156.8801112772635 37.542070407735196 0 37.542070407735196 -34.828534581664826 0 0 0 0 -84.977464710420463 33.8406286623092 0 33.8406286623092 -36.02332823416441 0 0 0 0 -116.95964377761993 26.22457063150739 0 26.22457063150739 -15.196115992473551 0 0 0 0 -79.079643628763733 43.165685358472274 0 43.165685358472274 -33.747644659782509 0 0 0 0 -60.695987678933307 52.928065798488888 0 52.928065798488888 -65.152020208392059 0 0 0 0 -79.343390914422343 72.806219500220323 0 72.806219500220323 -64.622049789503762 0 0 0 0 -97.826060156541644 57.90788664200727 0 57.90788664200727 -43.396229302416941 0 0 0 0 314.2478749067559 213.63686376122064 0 213.63686376122064 29.528860499516213 0 0 0 0 -343.41235716863594 60.527434538269517 0 60.527434538269517 96.124072040199508 0 0 0 0 -124.30982125738228 24.75939676872872 0 24.75939676872872 -32.382413137150252 0 0 0 0 -7.429449659940417 3.9992909062220718 0 3.9992909062220718 -10.869419686225561 0 0 0 0 -40.310313397542274 -5.5053793695730953 0 -5.5053793695730953 0.71425693866953655 0 0 0 0 -29.545057010021992 -171.47095547336721 0 -171.47095547336721 27.350170949197945 0 0 0 0 -66.163551311183255 58.643501391862628 0 58.643501391862628 -54.556929975926323 0 0 0 0 -187.45575341154472 33.324467899410593 0 33.324467899410593 -11.423686709593312 0 0 0 0 -0.90085381205969384 -0.34449126368315142 0 -0.34449126368315142 -5.1760784537468174 0 0 0 0 -232.06811850178929 -38.948433664237996 0 -38.948433664237996 -7.6354143887201644 0 0 0 0 -162.05295415689761 -84.361395708937607 0 -84.361395708937607 -83.620842576863481 0 0 0 0 -88.328022477307968 -17.501229164035237 0 -17.501229164035237 -34.327827749769767 0 0 0 0 -137.49168050159642 -43.297230398988859 0 -43.297230398988859 -19.138175676268588 0 0 0 0 -1.0539844203655662 2.8806267427622032 0 2.8806267427622032 -6.4839361927835659 0 0 0 0 -172.4084559240946 -54.222325752147697 0 -54.222325752147697 -11.779140342432129 0 0 0 0 -280.68273375132412 -50.625477242264722 0 -50.625477242264722 -2.8695143204840576 0 0 0 0 -195.32900810195133 -23.104783952867706 0 -23.104783952867706 -26.5172763507897 0 0 0 0 185.1491917720632 27.582131861636213 0 27.582131861636213 42.86214132544626 0 0 0 0 0.25333368096793762 -0.81310358384898507 0 -0.81310358384898507 -2.1093425424375845 0 0 0 0 -178.05872802677368 -69.707372960170062 0 -69.707372960170062 -9.177354590725372 0 0 0 0 406.76761374651687 141.96807189529966 0 141.96807189529966 -8.2265321440281696 0 0 0 0 -136.50515381290643 -29.822935558124072 0 -29.822935558124072 -64.208863297531025 0 0 0 0 1.053081626512359 0.67822737448592818 0 0.67822737448592818 -5.8281985378833578 0 0 0 0 -210.31366920933942 -2.2247027903681555 0 -2.2247027903681555 10.463017379046846 0 0 0 0 179.82772206215304 45.021584747892689 0 45.021584747892689 18.457234287745337 0 0 0 0 -140.52852629971312 35.350060238541516 0 35.350060238541516 -32.901944246362291 0 0 0 0 -587.68703329116397 -71.137476777363986 0 -71.137476777363986 -7.8875835802439127 0 0 0 0 -222.35240867297398 15.146903016193448 0 15.146903016193448 0.96829878743528752 0 0 0 0 37.451800072874903 7.3618508640707603 0 7.3618508640707603 118.19434519827541 0 0 0 0 0.14185542602044166 0.21689424499882648 0 0.21689424499882648 -2.8814081396554596 0 0 0 0 81.168996280368447 184.00881947513065 0 184.00881947513065 -32.250631451074241 0 0 0 0 156.43074563351547 89.635579021504782 0 89.635579021504782 -195.42156934993272 0 0 0 0 -423.35316029266687 198.04416855954241 0 198.04416855954241 5.0466935687331897 0 0 0 0 -108.41059916362883 -20.034514341946306 0 -20.034514341946306 -28.292104004494377 0 0 0 0 -81.832679246654152 23.868083737821877 0 23.868083737821877 -10.433800809933359 0 0 0 0 -117.06925680529093 6.9712350863913457 0 6.9712350863913457 14.567199857943024 0 0 0 0 -12.524279754581919 2.8842547897476294 0 2.8842547897476294 -8.9119540758707068 0 0 0 0 -69.933423543659359 33.108909471592582 0 33.108909471592582 -0.43824802695926213 0 0 0 0 -86.340985428199929 39.856478775657024 0 39.856478775657024 -16.670986785248715 0 0 0 0 -201.08680566783005 186.67915998478793 0 186.67915998478793 -10.466261214073938 0 0 0 0 -61.143241561854666 -279.55869371446033 0 -279.55869371446033 -375.79925038539841 0 0 0 0 18.794177381368854 8.9710787036663433 0 8.9710787036663433 -14.283539262109134 0 0 0 0 -90.242724923620699 808.1486470683235 0 808.1486470683235 678.61785233483897 0 0 0 0 -752.15619905966741 -44.589133624976967 0 -44.589133624976967 308.61103569561237 0 0 0 0 -499.50792429044668 -222.8483544975411 0 -222.8483544975411 86.81706287675479 0 0 0 0 -326.14735262922477 -116.0917381066165 0 -116.0917381066165 89.529616618606752 0 0 0 0 -25.580394991630893 53.51233069639062 0 53.51233069639062 -10.033752520449035 0 0 0 0 -134.36477738217945 72.442962110207191 0 72.442962110207191 45.859536365813256 0 0 0 0 -211.3376071987077 -30.292118253758503 0 -30.292118253758503 152.72262801575926 0 0 0 0 -223.2266336739267 22.407894855161885 0 22.407894855161885 78.569052176775585 0 0 0 0 -162.38028334532282 150.5791762895069 0 150.5791762895069 185.71371134517722 0 0 0 0 -82.820209966914263 56.547208412134751 0 56.547208412134751 -98.164989708403027 0 0 0 0 -467.06771022922476 104.48691651996251 0 104.48691651996251 344.00944756663603 0 0 0 0 -183.18916426163923 13.349640882817766 0 13.349640882817766 44.39402260242332 0 0 0 0 -93.84755619461248 65.929202667922439 0 65.929202667922439 21.206173290006689 0 0 0 0 -108.0712759401431 56.838010971638653 0 56.838010971638653 76.699468076542871 0 0 0 0 -104.64199668663059 56.680157494100854 0 56.680157494100854 18.25587407363696 0 0 0 0 -94.451279639135464 60.913403396350986 0 60.913403396350986 -3.1270396068632635 0 0 0 0 -116.63113019891898 87.73853154019281 0 87.73853154019281 40.786593284327978 0 0 0 0 -94.130133040447618 97.456410573492036 0 97.456410573492036 36.993360361661075 0 0 0 0 -100.84637728749294 68.142998089621045 0 68.142998089621045 38.2137359201663 0 0 0 0 -62.159681836206801 109.95542635615996 0 109.95542635615996 30.640759719493985 0 0 0 0 -77.572313157033932 137.86991220800618 0 137.86991220800618 -13.267964872995336 0 0 0 0 -57.715022994620085 84.863941235627721 0 84.863941235627721 14.137917522377023 0 0 0 0 -81.995544178322234 72.114811471985945 0 72.114811471985945 17.852052015405434 0 0 0 0 -116.55178523292852 31.151603161611547 0 31.151603161611547 42.509185321639052 0 0 0 0 -134.49831439574336 63.825901466434971 0 63.825901466434971 -16.929191810662815 0 0 0 0 -132.56901120269322 25.071100182193732 0 25.071100182193732 -5.0781512024146878 0 0 0 0 31.149095488144667 89.756340572016342 0 89.756340572016342 -45.564545599749323 0 0 0 0 -140.9090150537013 3.2383398254207805 0 3.2383398254207805 -21.073531346928789 0 0 0 0 -11.906737191807562 55.461227259202822 0 55.461227259202822 -11.144559063578477 0 0 0 0 -12.495649721211521 125.55579077481343 0 125.55579077481343 -61.846646016555894 0 0 0 0 -14.830598111378549 95.931553113084675 0 95.931553113084675 -24.184330249423304 0 0 0 0 -235.45762710517738 -263.61452168925007 0 -263.61452168925007 -385.29039067127269 0 0 0 0 -389.26615219946689 -93.44765822354816 0 -93.44765822354816 49.563807658972109 0 0 0 0 -14.107211867289124 -2.2718390585279225 0 -2.2718390585279225 -1.1021599023288982 0 0 0 0 -733.9497424869769 -325.31573265126258 0 -325.31573265126258 -102.65265941257803 0 0 0 0 -25.217020978087646 -8.6873361087066456 0 -8.6873361087066456 -4.3259988159234677 0 0 0 0 669.07872588338068 -151.29167503937765 0 -151.29167503937765 -369.87331724146452 0 0 0 0 -263.34187547156762 209.77432442843656 0 209.77432442843656 -55.237431591899622 0 0 0 0 903.59550411243981 262.24027547918013 0 262.24027547918013 -1044.9702433401744 0 0 0 0 581.24859733377525 845.78859223321388 0 845.78859223321388 -1242.0369251248849 0 0 0 0 -988.73194336078086 776.17450295556444 0 776.17450295556444 -296.45810626824277 0 0 0 0 -86.112268356315326 42.581229934653038 0 42.581229934653038 -22.996193511988849 0 0 0 0 -1595.5447073088071 -123.02702276629361 0 -123.02702276629361 674.2979440691679 0 0 0 0 -59.501914722401125 -388.51883486676934 0 -388.51883486676934 184.12159110385926 0 0 0 0 -248.18411252683291 415.01343764803187 0 415.01343764803187 -463.60864926539944 0 0 0 0 -104.35015290188858 195.43239012774063 0 195.43239012774063 -24.181919651809949 0 0 0 0 -15.057444562971696 -15.609863638066429 0 -15.609863638066429 -0.91077756610409288 0 0 0 0 -57.479549630421388 -26.070228171773351 0 -26.070228171773351 -6.6106074123181315 0 0 0 0 -93.658808237305493 -41.497263224170183 0 -41.497263224170183 -12.771463502152983 0 0 0 0 -92.999508835317101 -32.99214077506349 0 -32.99214077506349 40.398449266484931 0 0 0 0 -216.01682581625846 -95.030903888869375 0 -95.030903888869375 9.2285907747564124 0 0 0 0 -410.67222412695264 90.86888153241398 0 90.86888153241398 22.915456506694227 0 0 0 0 7.5327213888231199 2.3284479870471841 0 2.3284479870471841 -15.841232877838621 0 0 0 0 -150.4722071860815 -144.20882740749903 0 -144.20882740749903 -96.482238422626324 0 0 0 0 -49.369518878527742 -71.145552406098204 0 -71.145552406098204 -45.357928827798787 0 0 0 0 -8.0043694873036202 -1.0869644530748133 0 -1.0869644530748133 -0.27344647724930127 0 0 0 0 -9.2835615555231925 5.7556122057376342 0 5.7556122057376342 34.530837439796869 0 0 0 0 -18.52747861741048 -5.9717474760909681 0 -5.9717474760909681 11.601048826213727 0 0 0 0 -562.41612785857069 -62.571262862051071 0 -62.571262862051071 146.30404365410095 0 0 0 0 -267.02243950658885 -11.424093354960178 0 -11.424093354960178 -7.5417670503702539 0 0 0 0 -237.27119932959795 359.55837011523369 0 359.55837011523369 -369.59571593178225 0 0 0 0 2.2862803471156568 -1.0973918265356843 0 -1.0973918265356843 -2.5303222498466185 0 0 0 0 213.06520350362553 71.126455928607584 0 71.126455928607584 -113.41102957307407 0 0 0 0 355.24872647461598 245.46783209178852 0 245.46783209178852 -106.35724330545864 0 0 0 0 52.32879408988083 174.32267202635603 0 174.32267202635603 128.0326575308801 0 0 0 0 -322.02145691873739 -48.435266062635037 0 -48.435266062635037 -47.733844222138032 0 0 0 0 -320.63831244478934 169.19324773847916 0 169.19324773847916 147.82872285348253 0 0 0 0 -67.009161542540824 29.847493595251535 0 29.847493595251535 -286.0172813865106 0 0 0 0 -134.66889803743106 330.06396673291169 0 330.06396673291169 -104.11956090374815 0 0 0 0 61.963506617095845 238.23514715921158 0 238.23514715921158 -297.82103920897657 0 0 0 0 -64.653187831514515 182.81298891438973 0 182.81298891438973 127.58939421900641 0 0 0 0 -330.00565350167381 111.3963117825175 0 111.3963117825175 158.27159249326087 0 0 0 0 -78.237031092845427 133.90022137870756 0 133.90022137870756 160.25384564764431 0 0 0 0 -77.428369580815342 8.7524573177888794 0 8.7524573177888794 7.1555904832642874 0 0 0 0 -110.44852906895903 105.69729273606595 0 105.69729273606595 271.4494141340997 0 0 0 0 -59.816534445461002 -101.42873210697428 0 -101.42873210697428 41.644248247990333 0 0 0 0 -67.720273845850897 -60.574222965424042 0 -60.574222965424042 122.62560381555863 0 0 0 0 -75.561065057849646 11.221766490698663 0 11.221766490698663 93.839704036187868 0 0 0 0 -119.56443453599786 118.30144113462848 0 118.30144113462848 -98.501044451752023 0 0 0 0 -137.57777829548104 35.217478706905581 0 35.217478706905581 -15.322551934969852 0 0 0 0 -168.74502052671596 37.398701568590923 0 37.398701568590923 -2.3612236498443053 0 0 0 0 -41.610900288934801 -5.0832812342055131 0 -5.0832812342055131 2.9825895523167834 0 0 0 0 -13.745666137659043 0.19308602002550401 0 0.19308602002550401 -1.4503905495012965 0 0 0 0 -68.037941114795103 -32.82210494414403 0 -32.82210494414403 -26.607355073694634 0 0 0 0 -17.897303587901163 -8.1281253750403977 0 -8.1281253750403977 25.054963581212 0 0 0 0 -71.962912406506803 -26.439236754727744 0 -26.439236754727744 6.2104597313236809 0 0 0 0 -1.2200954447616823 -58.779184241270968 0 -58.779184241270968 -31.309064399706131 0 0 0 0 -7.4349379151681205 -111.89350787016815 0 -111.89350787016815 -296.41196705336824 0 0 0 0 -184.97780337206495 -60.042200483926422 0 -60.042200483926422 275.36038595201524 0 0 0 0 -50.234749069939426 -129.32361664287669 0 -129.32361664287669 -16.643890599652877 0 0 0 0 -83.392088010783482 -90.033086869683871 0 -90.033086869683871 -41.639963940919188 0 0 0 0 -42.564540874729573 -304.81785553828792 0 -304.81785553828792 -313.35090336109806 0 0 0 0 -74.210344602091936 23.310968480670326 0 23.310968480670326 130.22961799573716 0 0 0 0 -120.08540113990603 -49.209208070633508 0 -49.209208070633508 16.690080041399369 0 0 0 0 40.994030143279815 27.246195549307345 0 27.246195549307345 -124.85678007687193 0 0 0 0 -15.058138376157132 -0.32598884785854088 0 -0.32598884785854088 -0.23695902930576662 0 0 0 0 -71.756005046627251 150.43896936304969 0 150.43896936304969 -239.50220815476024 0 0 0 0 39.774752290239121 32.744741069748898 0 32.744741069748898 -145.15509177115905 0 0 0 0 -160.19673430429248 86.230666310917854 0 86.230666310917854 122.46871117000524 0 0 0 0 -225.44383310191552 -139.27132942726143 0 -139.27132942726143 147.8599768297592 0 0 0 0 -278.47146485938902 78.448067021701988 0 78.448067021701988 -19.103149853460479 0 0 0 0 -195.64077327068662 112.68153652583646 0 112.68153652583646 -160.23235413596811 0 0 0 0 9.793496297497768 -92.721453992221996 0 -92.721453992221996 40.053793015443432 0 0 0 0 0.84936823296932573 -2.7351278489053428 0 -2.7351278489053428 7.693674194059076 0 0 0 0 266.27655826446426 -261.55496210134123 0 -261.55496210134123 144.65760756095381 0 0 0 0 -203.82359852680065 -46.520894106128459 0 -46.520894106128459 751.20667915538559 0 0 0 0 -392.68320561031578 -793.20290179972278 0 -793.20290179972278 639.97592480902563 0 0 0 0 -344.46964084434148 104.56686721670295 0 104.56686721670295 -83.610288811202764 0 0 0 0 -254.12783594256325 289.71551976275566 0 289.71551976275566 -9.3613342561853301 0 0 0 0 265.39389946356823 -64.177287635650941 0 -64.177287635650941 -505.75623136335935 0 0 0 0 -338.43878533097063 -466.40165170308751 0 -466.40165170308751 -700.08945587217909 0 0 0 0 150.60584624203329 135.89262525185839 0 135.89262525185839 -1290.2360297882201 0 0 0 0 -160.34450389101403 1187.2118381393316 0 1187.2118381393316 -132.28444774408223 0 0 0 0 -197.76188796724819 -138.35443601411947 0 -138.35443601411947 -344.64723262669889 0 0 0 0 -31.999031425322755 -241.05984688591678 0 -241.05984688591678 -297.08233791595791 0 0 0 0 88.899130493358825 89.511482441365786 0 89.511482441365786 -166.30670651834939 0 0 0 0 -5.7107823582067567 0.66052970149766121 0 0.66052970149766121 -0.081538855056628168 0 0 0 0 -446.06245836497692 279.50353945522829 0 279.50353945522829 -362.55992869780766 0 0 0 0 -536.34530816965707 351.04762516440496 0 351.04762516440496 -251.3284107400475 0 0 0 0 313.58642341391896 90.09523818380967 0 90.09523818380967 -640.10088014789858 0 0 0 0 -446.77757115054192 301.86813584047547 0 301.86813584047547 -159.57041896462397 0 0 0 0 -336.00151251092393 -105.27485525875068 0 -105.27485525875068 52.866224128973045 0 0 0 0 77.128807296510786 59.559678709031914 0 59.559678709031914 -270.53975630977243 0 0 0 0 -0.18681746540377642 -0.31215713241304144 0 -0.31215713241304144 -4.4866004653687819 0 0 0 0 -6.9509326657243946 172.17155914061755 0 172.17155914061755 -292.58047389891101 0 0 0 0 -3.5247039509484637 1.0868336699337053 0 1.0868336699337053 0.11588713061293576 0 0 0 0 -68.272916018826436 -10.753694055092524 0 -10.753694055092524 -77.238563983375343 0 0 0 0 -25.165560688670666 4.5763447904864734 0 4.5763447904864734 -57.375760655148326 0 0 0 0 -218.00936373005243 113.4067502042335 0 113.4067502042335 109.57715970741998 0 0 0 0 -8.9242679163798329 0.65023858492786246 0 0.65023858492786246 0.25062282333058955 0 0 0 0 -101.70502028287592 144.18546115892354 0 144.18546115892354 -102.05013348156626 0 0 0 0 4.9094959450521856 66.387054483380894 0 66.387054483380894 -189.89012353223814 0 0 0 0 -179.74129603745314 36.915806321673927 0 36.915806321673927 -34.612328603097012 0 0 0 0 -8.5106128187326249 19.597922829780316 0 19.597922829780316 -167.9386401169603 0 0 0 0 -137.41087955578769 152.01283288737739 0 152.01283288737739 -95.008187891230079 0 0 0 0 -33.672517332880034 56.625579353060544 0 56.625579353060544 -8.1380009817692098 0 0 0 0 -19.396766236310214 101.79365062763782 0 101.79365062763782 -23.5708004113622 0 0 0 0 -85.166189010295582 44.779646710933839 0 44.779646710933839 -7.4464220980173161 0 0 0 0 -43.585059669882867 24.366930990304176 0 24.366930990304176 1.1887774928669614 0 0 0 0 -60.685865705601827 -19.891379773395013 0 -19.891379773395013 40.363988082512861 0 0 0 0 87.85020633394015 11.938586879304154 0 11.938586879304154 -6.5892026108089112 0 0 0 0 -10.757492148102756 24.150997042457995 0 24.150997042457995 1.524298600321714 0 0 0 0 8.470397711120313 33.357540067818434 0 33.357540067818434 -48.855152691863267 0 0 0 0 -53.03949065204506 -30.647390936064369 0 -30.647390936064369 48.434154901393882 0 0 0 0 -6.0962128884602862 41.675394283656331 0 41.675394283656331 85.402079451639963 0 0 0 0 -9.8133594489495408 6.5324473105886556 0 6.5324473105886556 -9.1942177657245168 0 0 0 0 -28.01922693241977 -9.2094857840574704 0 -9.2094857840574704 57.063374893193441 0 0 0 0 -44.842778780221124 -15.207513847831251 0 -15.207513847831251 66.23143639061027 0 0 0 0 -29.791065120582061 -2.5656742748606121 0 -2.5656742748606121 37.154554759190432 0 0 0 0 -34.729663243405483 23.900466181647705 0 23.900466181647705 0.55480629413403115 0 0 0 0 -29.557135781724355 13.63177820463136 0 13.63177820463136 2.0968446817137192 0 0 0 0 -10.020359862282767 3.8403703671490987 0 3.8403703671490987 1.411561360139737 0 0 0 0 -82.774493772798451 42.346578800189945 0 42.346578800189945 72.073608206578228 0 0 0 0 -65.506135521276519 -28.786705396616814 0 -28.786705396616814 55.296395320454934 0 0 0 0 -37.397674958043353 -96.99566305491652 0 -96.99566305491652 57.486122318210505 0 0 0 0 -6.1208806348498257 3.6497189201589748 0 3.6497189201589748 -1.3762919794451811 0 0 0 0 243.14400332830701 -5.2307247030818189 0 -5.2307247030818189 -41.174019099313909 0 0 0 0 187.84751029879408 79.758724150796411 0 79.758724150796411 6.4461464878879724 0 0 0 0 -64.865658939168497 -232.20974790894462 0 -232.20974790894462 -106.24199191099865 0 0 0 0 37.100434093448712 259.27387727575177 0 259.27387727575177 -266.79838289569511 0 0 0 0 298.97688557494257 9.8372738361850338 0 9.8372738361850338 -117.88726410886068 0 0 0 0 130.48145713169652 -92.259299533347018 0 -92.259299533347018 80.328144888737825 0 0 0 0 1.8112534138233229 7.3695014712925797 0 7.3695014712925797 -4.3489505290404518 0 0 0 0 -7.0204734570543224 190.93149527473537 0 190.93149527473537 -160.69208463136624 0 0 0 0 99.674934784005018 34.627287307463916 0 34.627287307463916 0.79984106948654698 0 0 0 0 -81.546559499114665 144.63372322254438 0 144.63372322254438 -46.776725065535629 0 0 0 0 -29.549430944279734 18.848109349187951 0 18.848109349187951 -1.725241744408752 0 0 0 0 11.274774781464657 95.705463982474157 0 95.705463982474157 204.25251007224551 0 0 0 0 -42.099152407230577 67.154914878697809 0 67.154914878697809 285.47334466349366 0 0 0 0 54.32556274977469 -6.1076793726211065 0 -6.1076793726211065 -13.925745815283221 0 0 0 0 -18.114849496119248 27.484781465055093 0 27.484781465055093 -3.556429469719673 0 0 0 0 -44.824502811330603 20.331997749995807 0 20.331997749995807 1.8176075617353105 0 0 0 0 41.420644060708582 -21.709304469753079 0 -21.709304469753079 303.89958854945235 0 0 0 0 -14.162342861556681 17.664638478456254 0 17.664638478456254 319.55666027730967 0 0 0 0 -67.50988710411184 131.43607821723117 0 131.43607821723117 270.26546961330951 0 0 0 0 -180.3009770788849 199.81206093390733 0 199.81206093390733 229.04378148583987 0 0 0 0 80.547220147287589 4.0613045973453836 0 4.0613045973453836 253.08609629245711 0 0 0 0 56.618203379533952 36.441626731087581 0 36.441626731087581 216.69871346467562 0 0 0 0 66.483826370618772 132.82974019361791 0 132.82974019361791 -37.303124331743163 0 0 0 0 -140.33369871583272 -156.14547749856746 0 -156.14547749856746 60.979891584546394 0 0 0 0 -43.756697881073535 0.65062502407788425 0 0.65062502407788425 0.069226045547256032 0 0 0 0 -188.33818287135728 198.01885251880429 0 198.01885251880429 -44.441576970262986 0 0 0 0 -95.582627718285949 -9.2752324256101559 0 -9.2752324256101559 115.67455399044701 0 0 0 0 -71.408492415098863 1.3021393633887541 0 1.3021393633887541 116.90857893390364 0 0 0 0 -132.08038698815199 -108.19993536695874 0 -108.19993536695874 -3.6982183348802806 0 0 0 0 -67.891877945292322 3.4327363184054676 0 3.4327363184054676 2.5227604081002313 0 0 0 0 -4493.1744646977022 68.493042755595141 0 68.493042755595141 643.30223540777808 0 0 0 0 -2466.2129970087735 -863.4144050746944 0 -863.4144050746944 512.87328426701322 0 0 0 0 -2311.8250324285837 672.25249472028997 0 672.25249472028997 -126.1332921751868 0 0 0 0 -381.39353550093074 667.50270941062013 0 667.50270941062013 -634.90982231244425 0 0 0 0 -1192.0451430746689 868.70921625365577 0 868.70921625365577 -645.84411450686434 0 0 0 0 -1075.899849062931 431.7571961592048 0 431.7571961592048 -352.62959869907206 0 0 0 0 -1867.774180836037 149.734539685697 0 149.734539685697 -420.32814219892532 0 0 0 0 -28.539486883888458 334.45624558736802 0 334.45624558736802 -1281.9050262632713 0 0 0 0 -4491.5704788204166 1289.1044920830204 0 1289.1044920830204 -282.77026791711467 0 0 0 0 -2083.0244964274825 -1658.9306838649636 0 -1658.9306838649636 -192.86695611222717 0 0 0 0 -27.669548916751523 1.3129348600842992 0 1.3129348600842992 -1.5017480771179974 0 0 0 0 -1847.4135965416244 1914.730739321848 0 1914.730739321848 -2178.0514179592296 0 0 0 0 -4489.9726572325526 -1518.6810988153647 0 -1518.6810988153647 842.87712922118033 0 0 0 0 -2325.3204103267635 -658.68802176091174 0 -658.68802176091174 825.20509736488998 0 0 0 0 -2335.1466889831991 -576.84626110633462 0 -576.84626110633462 147.04405823614945 0 0 0 0 464.871326034503 4.3427538786579589 0 4.3427538786579589 -36.286718978158206 0 0 0 0 -63.567316023821832 2.6590583994304176 0 2.6590583994304176 1.8824597483418826 0 0 0 0 -88.617103810865956 118.25898027581019 0 118.25898027581019 1053.2270533363699 0 0 0 0 90.333645560130208 -267.7298007317022 0 -267.7298007317022 409.89487180913795 0 0 0 0 118.57673707868526 -76.879035206314427 0 -76.879035206314427 249.06471937792341 0 0 0 0 96.219691671034525 -51.152546847598245 0 -51.152546847598245 593.77945332085096 0 0 0 0 -71.405153701587551 191.80324986048916 0 191.80324986048916 -541.50802777951367 0 0 0 0 -264.45596253943222 253.83347233064572 0 253.83347233064572 -412.12411959980921 0 0 0 0 -311.62441069927445 536.95227578208141 0 536.95227578208141 -368.42564622597075 0 0 0 0 -89.593741657736246 143.39043042263461 0 143.39043042263461 -196.17085112460808 0 0 0 0 -187.32048211245274 64.76744988774135 0 64.76744988774135 142.81759623027415 0 0 0 0 -154.65914954003892 159.2153031366642 0 159.2153031366642 -121.61452785448319 0 0 0 0 -77.875486893036197 4.4893463893630372 0 4.4893463893630372 3.0954739248575405 0 0 0 0 -123.16206473318744 -198.45508489434224 0 -198.45508489434224 900.02010294520846 0 0 0 0 -160.43290088816138 -333.0823790123211 0 -333.0823790123211 629.6963937446294 0 0 0 0 84.807050675357459 -126.26194759671893 0 -126.26194759671893 347.46605161264188 0 0 0 0 -421.18328316729458 371.65409929339671 0 371.65409929339671 -230.72141104987816 0 0 0 0 -5.9742204220254109 -0.700770781241431 0 -0.700770781241431 0.5758296012543036 0 0 0 0 -67.481214231942431 103.1107848332357 0 103.1107848332357 -126.154412531258 0 0 0 0 -336.97551687407758 92.763241125574879 0 92.763241125574879 -118.75810656003068 0 0 0 0 -330.07712311932664 263.80545421085725 0 263.80545421085725 616.80196273210959 0 0 0 0 -68.568387695322599 -52.586616961067989 0 -52.586616961067989 536.63042053604431 0 0 0 0 20.398855715720856 72.471273034729847 0 72.471273034729847 -42.248780472213014 0 0 0 0 -100.32260269851577 215.56580225476938 0 215.56580225476938 -96.883838210966815 0 0 0 0 -97.574287749732321 183.28523182614674 0 183.28523182614674 229.16631138437242 0 0 0 0 -190.29470801019306 -37.615561096030433 0 -37.615561096030433 554.66624433260768 0 0 0 0 -188.59792197807838 -61.631379139099977 0 -61.631379139099977 263.82080563372915 0 0 0 0 -84.699366420214687 8.5249426324384547 0 8.5249426324384547 3.7620496056898221 0 0 0 0 -373.37412680601847 27.531160411648216 0 27.531160411648216 948.1522594630942 0 0 0 0 -85.394722182073281 6.4511535332131658 0 6.4511535332131658 3.9386851032102861 0 0 0 0 -59.172864680309431 71.458264926279469 0 71.458264926279469 -15.623230771766771 0 0 0 0 -291.35439378126466 184.34742805934434 0 184.34742805934434 -27.9396859036721 0 0 0 0 -238.6043727530996 -36.844888168310149 0 -36.844888168310149 79.716075889441782 0 0 0 0 -248.65422836372454 28.541747477301527 0 28.541747477301527 -98.903585922231628 0 0 0 0 -420.83766136918712 170.19537470656485 0 170.19537470656485 -64.292015664812823 0 0 0 0 -142.96688009138234 112.87708949536977 0 112.87708949536977 -63.620341235588739 0 0 0 0 -254.26737738974771 210.99333256417862 0 210.99333256417862 -168.31621959810101 0 0 0 0 -301.24581224165286 168.44415402478589 0 168.44415402478589 -264.59422527343202 0 0 0 0 -261.68698923016564 261.47331912537493 0 261.47331912537493 -318.09099343508694 0 0 0 0 -713.81502991843081 196.11590213858281 0 196.11590213858281 -152.31615299020427 0 0 0 0 -285.92887231914574 114.63201043513243 0 114.63201043513243 -614.06431655589881 0 0 0 0 -561.27879594902242 -35.868437831525085 0 -35.868437831525085 -201.01324126900681 0 0 0 0 -487.13801081293786 61.9421251597214 0 61.9421251597214 -131.91190313321658 0 0 0 0 -404.86564269137671 112.98425750513854 0 112.98425750513854 -220.60926124261596 0 0 0 0 -472.46286399234668 105.88925758071173 0 105.88925758071173 -0.3255743865298939 0 0 0 0 -286.95795558686223 183.58401639656154 0 183.58401639656154 -248.60682004814663 0 0 0 0 -285.82890992405737 228.74257763405546 0 228.74257763405546 -234.75821601276061 0 0 0 0 -294.97699358046521 231.76539354141073 0 231.76539354141073 -228.64077208553135 0 0 0 0 -293.63099520803553 220.99476120467568 0 220.99476120467568 -217.19502879533957 0 0 0 0 -383.37795182451191 188.86310157317126 0 188.86310157317126 -107.90557469241412 0 0 0 0 -326.19193209213699 246.58235168601095 0 246.58235168601095 -53.922304423513197 0 0 0 0 -284.06023882532463 191.67725798084257 0 191.67725798084257 60.564653667614948 0 0 0 0 -117.33955728026194 7.9728632883975479 0 7.9728632883975479 1.1481977286609624 0 0 0 0 -261.08309245990677 152.16436825282335 0 152.16436825282335 -94.515100425181004 0 0 0 0 -349.68707931707468 239.55865892760949 0 239.55865892760949 -113.2691034682278 0 0 0 0 -349.41440452291135 252.26497028613198 0 252.26497028613198 -211.39499801212651 0 0 0 0 -313.02832874261367 235.13993333105418 0 235.13993333105418 -224.418767656461 0 0 0 0 -324.84794488462649 265.75308148740913 0 265.75308148740913 -215.71813156823737 0 0 0 0 -458.28798528034531 209.82448144418663 0 209.82448144418663 -205.34241336355808 0 0 0 0 -397.5987048292227 269.66585511847643 0 269.66585511847643 -209.48212642963176 0 0 0 0 -291.45146347056198 316.29755566191994 0 316.29755566191994 -197.04279156954499 0 0 0 0 -291.35645637240304 238.17086651496442 0 238.17086651496442 -250.0616359588247 0 0 0 0 -273.03387449456204 249.81764370703903 0 249.81764370703903 -254.33965062330233 0 0 0 0 -231.21714211144717 289.3396576398431 0 289.3396576398431 -218.46450325161999 0 0 0 0 -155.63015268522031 246.67116926276032 0 246.67116926276032 -202.95228710954524 0 0 0 0 -165.57978648836433 163.35076802291465 0 163.35076802291465 -149.43930071064847 0 0 0 0 -243.19712071072718 304.93532616924864 0 304.93532616924864 -192.88767269315042 0 0 0 0 -250.69868560562827 300.04257690141134 0 300.04257690141134 -190.73311023335236 0 0 0 0 -284.50904356378305 423.10273019146069 0 423.10273019146069 -201.37453808029522 0 0 0 0 -424.28140561207238 436.45014680313471 0 436.45014680313471 -122.18793287722974 0 0 0 0 -355.10356159961157 538.59308519904971 0 538.59308519904971 -137.06980023570088 0 0 0 0 -390.68526506695343 514.4796909765488 0 514.4796909765488 -139.34861745163363 0 0 0 0 -420.68105852977169 467.85292108249064 0 467.85292108249064 28.022944968408865 0 0 0 0 762.52936633268109 -240.69865383528628 0 -240.69865383528628 480.15517129875104 0 0 0 0 -443.75305821512302 308.45907642773273 0 308.45907642773273 59.287377777743586 0 0 0 0 -263.33268874885107 225.09536072927904 0 225.09536072927904 -188.10624717100563 0 0 0 0 -473.30072839454806 372.17923264126557 0 372.17923264126557 -174.94312021694964 0 0 0 0 -436.1914073316002 325.69072299109393 0 325.69072299109393 -150.89356321276591 0 0 0 0 -456.73569541756297 352.6442245516846 0 352.6442245516846 -77.522718949602677 0 0 0 0 -446.12908419444284 295.1203748283906 0 295.1203748283906 -185.98470651204934 0 0 0 0 -387.08733915680205 337.06301582340507 0 337.06301582340507 -157.53781255261447 0 0 0 0 -575.78367130449624 590.47743647369475 0 590.47743647369475 -380.72365521689517 0 0 0 0 -5.5548550060131703 -0.41276904313671992 0 -0.41276904313671992 4.2330676209110161 0 0 0 0 -528.41767533373786 339.23226950188609 0 339.23226950188609 -198.83118294685698 0 0 0 0 -488.92271776012785 353.85369827799013 0 353.85369827799013 -189.32115186133524 0 0 0 0 -468.85591471289808 340.44063067359207 0 340.44063067359207 -287.96056656970723 0 0 0 0 -772.52910378148954 467.28619007464067 0 467.28619007464067 -163.14386164074836 0 0 0 0 997.6883828842183 -825.22016686324548 0 -825.22016686324548 692.08416899783253 0 0 0 0 -716.85054190287337 125.92290238462647 0 125.92290238462647 0.76089083121587464 0 0 0 0 -276.91485308996926 -78.92832531059139 0 -78.92832531059139 430.73687388342319 0 0 0 0 -88.955633903140551 30.794647795911487 0 30.794647795911487 -72.866135148290937 0 0 0 0 -273.63417573206243 251.35412941832419 0 251.35412941832419 21.886222524217146 0 0 0 0 480.48522743978538 -1531.5387571029394 0 -1531.5387571029394 1130.6556411563006 0 0 0 0 -421.79745625910437 265.38219461203585 0 265.38219461203585 165.03108584545532 0 0 0 0 -0.094207710456146287 0.69411233502913205 0 0.69411233502913205 8.0182909871664929 0 0 0 0 -348.73662320104268 106.68758056971461 0 106.68758056971461 262.65382428569728 0 0 0 0 -333.5639136122918 388.98162250036057 0 388.98162250036057 -472.86751785271645 0 0 0 0 -54.613102897987119 -563.42277017563629 0 -563.42277017563629 623.14339290472719 0 0 0 0 68.050999077910092 -547.34055104377194 0 -547.34055104377194 -253.9897869828898 0 0 0 0 -17.63177424389869 150.28819974516909 0 150.28819974516909 199.6312117335053 0 0 0 0 -73.766316568264301 175.13458628044046 0 175.13458628044046 228.47744473565422 0 0 0 0 -100.12662651838036 106.48740959981842 0 106.48740959981842 104.01859051835822 0 0 0 0 -185.44981482908042 -33.196788207933878 0 -33.196788207933878 313.17920854101158 0 0 0 0 -223.41753901730408 102.35106900772792 0 102.35106900772792 195.71736953896561 0 0 0 0 -4496.5318090534565 2132.1552236934772 0 2132.1552236934772 -647.47549110035413 0 0 0 0 466.62729734547611 -507.34994210432086 0 -507.34994210432086 1.6009863183425834 0 0 0 0 -15.110930530279887 -7.1730818131841403 0 -7.1730818131841403 -2.671373795464242 0 0 0 0 -2577.9544854718988 -1030.3584919635678 0 -1030.3584919635678 135.24282510097737 0 0 0 0 -782.2312176549367 -789.58764492309399 0 -789.58764492309399 -43.856124161269086 0 0 0 0 -4493.3838041330964 -301.88274390112258 0 -301.88274390112258 1070.5429656598592 0 0 0 0 -111.84945944797801 -65.316542220394609 0 -65.316542220394609 -301.25438843890203 0 0 0 0 -2186.7174885588684 427.57458836923161 0 427.57458836923161 553.62451879244861 0 0 0 0 -452.92442738166574 526.1418909562376 0 526.1418909562376 394.52884540579777 0 0 0 0 -346.51389623823343 111.74553966347196 0 111.74553966347196 277.07483140420868 0 0 0 0 -14.738931083377992 -4.6051753612621908 0 -4.6051753612621908 3.8173725513897185 0 0 0 0 62.121829590840207 386.24597056844539 0 386.24597056844539 -24.252140942223889 0 0 0 0 -988.002331138312 249.97401986413058 0 249.97401986413058 -19.294622330220591 0 0 0 0 -535.49594872453054 -1136.1130054810155 0 -1136.1130054810155 508.07022087644668 0 0 0 0 -12.131552447045976 -3.2853288539242698 0 -3.2853288539242698 1.4502858630906439 0 0 0 0 -4492.0584753010189 820.64106655131104 0 820.64106655131104 500.91265754866095 0 0 0 0 -4557.3231486020268 -593.8866154818943 0 -593.8866154818943 691.41567006622086 0 0 0 0 -279.91311014572057 60.58348336832681 0 60.58348336832681 -17.612485918473965 0 0 0 0 -1910.6785268657513 1681.7553127891251 0 1681.7553127891251 -363.61292297376076 0 0 0 0 -1313.1758246885947 620.04860229461008 0 620.04860229461008 -216.3837853872605 0 0 0 0 -3674.3807227163379 -1400.2994177898754 0 -1400.2994177898754 -93.597035639104746 0 0 0 0 -12.688176615569645 5.1216452005718249 0 5.1216452005718249 -2.37397073313914 0 0 0 0 -4493.2184208702638 26.208552813357777 0 26.208552813357777 -749.34879972602039 0 0 0 0 -4479.8179192490061 543.21820534604944 0 543.21820534604944 502.92504079383588 0 0 0 0 -3335.70584471037 48.360371725614272 0 48.360371725614272 561.84381362604086 0 0 0 0 -4501.1492094024125 797.19438619929247 0 797.19438619929247 700.07224832863039 0 0 0 0 -2785.1328401421852 1242.5341178646268 0 1242.5341178646268 -185.48940445279376 0 0 0 0 108.89419286368502 -272.29082800997037 0 -272.29082800997037 173.72495546737582 0 0 0 0 -2530.7984463403373 300.84287288650188 0 300.84287288650188 173.29691322414209 0 0 0 0 -28.968319702400521 -21.574622228205754 0 -21.574622228205754 -8.1944641613577431 0 0 0 0 -470.15539449978314 -246.06695987544111 0 -246.06695987544111 -492.90656529896131 0 0 0 0 -2986.2375970267885 759.76053985257022 0 759.76053985257022 204.19026495194294 0 0 0 0 -38.651576327435166 -28.328140125078143 0 -28.328140125078143 -7.2286202770445502 0 0 0 0 -66.330207960563712 -76.280219859872659 0 -76.280219859872659 76.686043307526575 0 0 0 0 -93.26039270986621 14.845189130875838 0 14.845189130875838 40.602976829006138 0 0 0 0 -338.73991948974435 22.459517886275762 0 22.459517886275762 110.71518408447059 0 0 0 0 260.96907380601988 -221.92815967154888 0 -221.92815967154888 146.71248217949869 0 0 0 0 -0.16702298477375166 3.6951083097802382 0 3.6951083097802382 19.919404807731745 0 0 0 0 -117.69527559463313 -33.298622035822518 0 -33.298622035822518 134.42259743641057 0 0 0 0 -114.90558895583672 -15.846305762628276 0 -15.846305762628276 54.66711890851002 0 0 0 0 39.504098242916371 -86.584980316831434 0 -86.584980316831434 97.171190567384656 0 0 0 0 -3.656479387280072 4.4020015030276056 0 4.4020015030276056 31.892691027897182 0 0 0 0 9.8219479220133508 -48.550871380949502 0 -48.550871380949502 34.742500213694257 0 0 0 0 -54.807070709661566 -23.713463734276225 0 -23.713463734276225 27.589429317963567 0 0 0 0 10.738370065360868 -48.676161824788437 0 -48.676161824788437 34.526467328287254 0 0 0 0 -24.239713499776798 -24.868540785193808 0 -24.868540785193808 17.76677159461979 0 0 0 0 -408.93061664059132 73.051869288361061 0 73.051869288361061 426.26375788634641 0 0 0 0 -488.92706174345449 -60.798711012639394 0 -60.798711012639394 1.5066268125076476 0 0 0 0 -40.281559520249075 -4.418440490711145 0 -4.418440490711145 4.7084784052834525 0 0 0 0 -398.07706288104237 -8.5952839440383286 0 -8.5952839440383286 141.34359489367068 0 0 0 0 -42.34525695154116 -296.86160449213605 0 -296.86160449213605 159.02186326902631 0 0 0 0 10.363449902706634 -49.380233751897322 0 -49.380233751897322 34.833585942289574 0 0 0 0 -0.0079907734168784827 -0.37857336521393847 0 -0.37857336521393847 -1.8461751750961781 0 0 0 0 80.684693304301618 -70.423632011954851 0 -70.423632011954851 41.040202441584597 0 0 0 0 -389.61678249823308 93.766022260856062 0 93.766022260856062 76.881782694919366 0 0 0 0 -141.71901888795219 -127.35143503693484 0 -127.35143503693484 55.851586468988899 0 0 0 0 -179.44311514331275 -75.43721662073267 0 -75.43721662073267 32.244863869799701 0 0 0 0 -167.4021181532371 -60.188309509221654 0 -60.188309509221654 50.524927149874998 0 0 0 0 -147.62742359469348 -88.164917149695384 0 -88.164917149695384 36.685585568202441 0 0 0 0 -6.7196772018321269 -4.7861899748243104 0 -4.7861899748243104 -1.3537329451180931 0 0 0 0 -169.37011333104965 -41.281638568066001 0 -41.281638568066001 13.079738309470486 0 0 0 0 11.096894508897094 -49.437699100640657 0 -49.437699100640657 34.504507176381594 0 0 0 0 -145.75168534668046 -69.578011091261942 0 -69.578011091261942 -17.470896308661395 0 0 0 0 39.128301531352918 -16.412597818380164 0 -16.412597818380164 47.181598488249165 0 0 0 0 -8.7010720790734126 3.5272794874089151 0 3.5272794874089151 3.4443538872861019 0 0 0 0 -54.30936510616084 3.265818424622239 0 3.265818424622239 155.62698336505582 0 0 0 0 -241.04670309594803 162.66138461723085 0 162.66138461723085 -6.6192041937520116 0 0 0 0 -72.733537948042795 11.716116845067518 0 11.716116845067518 59.058429394574887 0 0 0 0 -524.9080906413983 278.4349905950221 0 278.4349905950221 43.506353966513416 0 0 0 0 -266.19961568715371 140.48263701278347 0 140.48263701278347 -17.431906138839167 0 0 0 0 -185.06922937204217 268.37598269944169 0 268.37598269944169 -67.146928385487627 0 0 0 0 -2.7914420790633301 1.6597927806975505 0 1.6597927806975505 -1.0486731367374507 0 0 0 0 -283.71624415736733 -342.05142532058244 0 -342.05142532058244 -217.58220885657511 0 0 0 0 -396.70066686037899 454.96928221426651 0 454.96928221426651 -116.22908770342974 0 0 0 0 -495.97952962171985 196.84812498128667 0 196.84812498128667 -197.4360872829302 0 0 0 0 -541.01240641180948 124.78297962005126 0 124.78297962005126 -101.87822660728852 0 0 0 0 -611.98615757311927 153.74993159156838 0 153.74993159156838 -10.370554332209281 0 0 0 0 -543.81395019946831 -13.344575222674223 0 -13.344575222674223 132.60106837592321 0 0 0 0 -718.93628726793941 151.29838979871454 0 151.29838979871454 63.371940942972287 0 0 0 0 -1425.8295456923579 -300.66205427284956 0 -300.66205427284956 -90.291057180173084 0 0 0 0 -4.5309571738924674 3.8403821482186942 0 3.8403821482186942 -2.9456332080987799 0 0 0 0 -371.72188844534685 57.653969268365699 0 57.653969268365699 247.73411028050577 0 0 0 0 432.80879956221906 244.88238270108377 0 244.88238270108377 -100.6771315122669 0 0 0 0 108.17491101187625 230.54928039233255 0 230.54928039233255 113.55556758099556 0 0 0 0 -9.5926961779293691 10.678747319775795 0 10.678747319775795 -7.793290942692817 0 0 0 0 -526.64993644412698 -247.50118654859591 0 -247.50118654859591 -33.539529238457362 0 0 0 0 -486.46612147185806 -96.165297806182934 0 -96.165297806182934 -87.91202182260713 0 0 0 0 -491.3617247707225 -120.59385217768113 0 -120.59385217768113 -129.77072856854215 0 0 0 0 -402.71325921726384 -33.76966621775 0 -33.76966621775 213.01958696930387 0 0 0 0 -416.93122781333204 -120.5926299213142 0 -120.5926299213142 358.78751518539502 0 0 0 0 -384.44534242747159 -217.68030830610314 0 -217.68030830610314 21.178654217676922 0 0 0 0 -386.08886569677998 -134.3138349334065 0 -134.3138349334065 -36.947149667711528 0 0 0 0 -285.96913493498141 -34.450317902327697 0 -34.450317902327697 25.347774931961794 0 0 0 0 -444.43653909643763 -130.69473212834555 0 -130.69473212834555 74.397913365096429 0 0 0 0 -318.38358531527047 -27.397262494275765 0 -27.397262494275765 59.229348340166325 0 0 0 0 -551.51840666068165 24.501417364284976 0 24.501417364284976 41.287529574498876 0 0 0 0 -440.10719298808726 -146.89435075358756 0 -146.89435075358756 -54.856229760342103 0 0 0 0 -34.215568822000932 72.11170877230245 0 72.11170877230245 -37.905817051680629 0 0 0 0 -330.29504391377486 5.3347631213727027 0 5.3347631213727027 102.68748897572823 0 0 0 0 -305.36841658841877 -0.96994638950013723 0 -0.96994638950013723 90.650191310982336 0 0 0 0 -237.86154347583579 -1.3415532914265214 0 -1.3415532914265214 26.176239700915403 0 0 0 0 -174.09939422712705 178.71533495911478 0 178.71533495911478 59.032081975087976 0 0 0 0 -110.67380125427367 27.490837874152408 0 27.490837874152408 12.50782552374487 0 0 0 0 -119.62799205167448 18.220551828891075 0 18.220551828891075 26.930144216180452 0 0 0 0 -512.11624096387095 30.233649127349938 0 30.233649127349938 430.66530013967099 0 0 0 0 -122.62166218086691 -12.539994291136281 0 -12.539994291136281 21.766729180397988 0 0 0 0 -220.52054401545593 -31.809631847626122 0 -31.809631847626122 -28.018882967238824 0 0 0 0 -118.4615800332942 3.5820769161663204 0 3.5820769161663204 12.165624610418366 0 0 0 0 -516.56327869668894 -48.336888447241108 0 -48.336888447241108 24.085334256269448 0 0 0 0 -320.89216559520719 108.07851702345988 0 108.07851702345988 -111.71800026760451 0 0 0 0 -621.67097837859183 -82.046043851924651 0 -82.046043851924651 13.281556729179101 0 0 0 0 -523.58496609997746 -189.94903630106637 0 -189.94903630106637 -71.875740424454307 0 0 0 0 -431.97971667595266 -160.66737967538052 0 -160.66737967538052 -62.5208882444648 0 0 0 0 0.95659140248957186 -0.17736157102725514 0 -0.17736157102725514 -3.6028418925541201 0 0 0 0 -3.2664960296298062 -1.9264056152933691 0 -1.9264056152933691 -0.14519203994196461 0 0 0 0 12.645837309617491 -252.13323753204611 0 -252.13323753204611 154.15799714053583 0 0 0 0 53.928349068366515 -60.748374459108049 0 -60.748374459108049 -4.732493898895882 0 0 0 0 -1.2824692487329798 -18.612230499286536 0 -18.612230499286536 2.606304091215156 0 0 0 0 -26.612335326339235 -17.88596640522519 0 -17.88596640522519 0.60273027127777823 0 0 0 0 -6.625477709039842 49.363697181699308 0 49.363697181699308 -182.02161645285696 0 0 0 0 148.63634904177889 -292.99680045596619 0 -292.99680045596619 -289.83877034863167 0 0 0 0 -79.059141997689494 -9.5839002605712267 0 -9.5839002605712267 -5.6290303394075636 0 0 0 0 -110.88041845853749 6.0872703219622508 0 6.0872703219622508 -5.2765967665404787 0 0 0 0 -76.21696882632375 -16.863452092050792 0 -16.863452092050792 3.5173139033612575 0 0 0 0 -427.6962611156232 -161.18154094539454 0 -161.18154094539454 40.405964880839747 0 0 0 0 -422.2020534950716 -18.069870284294211 0 -18.069870284294211 115.13504295952259 0 0 0 0 681.83815637444786 -192.32586633205028 0 -192.32586633205028 -1125.1995403723558 0 0 0 0 -41.615977492064651 -17.926240935723904 0 -17.926240935723904 -3.4914064895185373 0 0 0 0 -51.054614314143691 7.3639798961485212 0 7.3639798961485212 -17.765723794858786 0 0 0 0 -22.376782071643156 -5.0649583203445037 0 -5.0649583203445037 0.77741822889447754 0 0 0 0 204.03106329782895 827.44347616476455 0 827.44347616476455 -705.77578186360734 0 0 0 0 -56.525311651715512 -8.0625721334893683 0 -8.0625721334893683 -4.4248802671225391 0 0 0 0 -78.296528067559848 -46.352196007484736 0 -46.352196007484736 -13.165017526528572 0 0 0 0 -75.397470944666566 -20.348358982259697 0 -20.348358982259697 26.902104015367058 0 0 0 0 -100.89587599362227 -10.453345265673491 0 -10.453345265673491 4.2438852508634906 0 0 0 0 -0.31369025484796609 0.30011981819425237 0 0.30011981819425237 0.22347235254491515 0 0 0 0 6.1576442708174 38.75358046749534 0 38.75358046749534 -4.4166184667446942 0 0 0 0 -32.536135065405688 -20.576797999968676 0 -20.576797999968676 -4.7917605453392298 0 0 0 0 -2.9256081779312808 -19.975754445065377 0 -19.975754445065377 64.906680170259733 0 0 0 0 -10.131460120520991 -31.140590831402658 0 -31.140590831402658 13.454424975354941 0 0 0 0 -6.7807565222154977 -22.808850874245984 0 -22.808850874245984 8.6746392080283883 0 0 0 0 22.847416536733363 -20.857277347777881 0 -20.857277347777881 -4.3761316255931888 0 0 0 0 -33.41193850338955 -15.718173416477301 0 -15.718173416477301 6.9191269830842703 0 0 0 0 0.213603061165486 -47.970968270005415 0 -47.970968270005415 -25.430665796404128 0 0 0 0 147.19070834887134 -64.32280637368649 0 -64.32280637368649 18.045928730667498 0 0 0 0 -45.733834235882462 -30.141578890509852 0 -30.141578890509852 17.070464384167305 0 0 0 0 -16.334219314830989 -46.056410523581235 0 -46.056410523581235 21.052846246931722 0 0 0 0 -298.7476734858501 23.069567899464346 0 23.069567899464346 -41.416698051967387 0 0 0 0 -5.9385555959325345 -6.3941732076100024 0 -6.3941732076100024 -7.6066193796592358 0 0 0 0 -21.767008315432577 13.144431625558617 0 13.144431625558617 -9.7222000128322499 0 0 0 0 -3.8525276456421125 -83.165095538956393 0 -83.165095538956393 -3.3647862358643579 0 0 0 0 -280.32606202449097 165.81001314812602 0 165.81001314812602 -21.560304335954243 0 0 0 0 -69.593529711495648 135.63019796273784 0 135.63019796273784 33.001264003940378 0 0 0 0 -115.20036667233217 -112.00719861837888 0 -112.00719861837888 71.838974485955987 0 0 0 0 86.041679465434754 -95.524533838089951 0 -95.524533838089951 33.304682011055775 0 0 0 0 -48.240265548195794 -27.492887629080442 0 -27.492887629080442 19.586535038026206 0 0 0 0 158.20576183334924 -246.79539263651264 0 -246.79539263651264 80.260541466035647 0 0 0 0 144.65153533143928 -101.27804783243366 0 -101.27804783243366 -220.24176133339802 0 0 0 0 -419.85779731430739 -88.289501209314381 0 -88.289501209314381 -140.98794294286063 0 0 0 0 -1206.3845944630684 166.48768885783477 0 166.48768885783477 -89.193422897074242 0 0 0 0 -385.57123178609118 -181.02622513114898 0 -181.02622513114898 -231.485700674491 0 0 0 0 -369.97156246379745 -105.84710332064992 0 -105.84710332064992 -54.779159153830051 0 0 0 0 -1288.1320104386759 -222.37037972840358 0 -222.37037972840358 -62.60650688105261 0 0 0 0 -345.44774829608195 -229.32624823372356 0 -229.32624823372356 -357.45253568907629 0 0 0 0 -393.29303771550258 -38.241015616441359 0 -38.241015616441359 55.005776768453188 0 0 0 0 139.92191681966563 8.304439416582909 0 8.304439416582909 -143.15680406303159 0 0 0 0 177.25304901761774 -44.702693322989376 0 -44.702693322989376 -241.29795463117193 0 0 0 0 7.6921556493987282 61.894583814668806 0 61.894583814668806 71.154677750262863 0 0 0 0 178.79882504395209 118.27287209428425 0 118.27287209428425 12.944680895210695 0 0 0 0 -66.025327066834507 17.145388769989552 0 17.145388769989552 51.31693592564875 0 0 0 0 -17.279077688327732 8.2079449732803234 0 8.2079449732803234 1.5137380843709076 0 0 0 0 -136.43495379087835 16.150153460277352 0 16.150153460277352 83.875911617631573 0 0 0 0 181.86636790497778 235.42802204621557 0 235.42802204621557 149.79352906345841 0 0 0 0 -82.459635884859523 18.098934000367585 0 18.098934000367585 -1.8931873738513056 0 0 0 0 -64.08575982997354 -8.3077494213905538 0 -8.3077494213905538 -17.518425268352075 0 0 0 0 194.01175434415927 484.47051039560756 0 484.47051039560756 305.11911521447109 0 0 0 0 -1.4300040302066677 2.5222441388870429 0 2.5222441388870429 -4.0556468877206164 0 0 0 0 -244.05891990035889 -54.5234832684705 0 -54.5234832684705 33.475215735058327 0 0 0 0 -59.086621100549564 -42.232554093149929 0 -42.232554093149929 61.859388186846445 0 0 0 0 -48.902681717820087 29.302274005604204 0 29.302274005604204 -59.247319904773804 0 0 0 0 -183.79188917606916 54.831515566551616 0 54.831515566551616 15.241285633117059 0 0 0 0 -245.88369269311261 -71.511713969731545 0 -71.511713969731545 731.4648287624359 0 0 0 0 -893.55197857323219 195.58229327303468 0 195.58229327303468 701.79221350079092 0 0 0 0 -67.5579820563825 15.55140055317872 0 15.55140055317872 -2.6329396123860054 0 0 0 0 87.829364782804987 -45.002975132468464 0 -45.002975132468464 -33.676488839591912 0 0 0 0 42.334440678087049 -99.035572138240695 0 -99.035572138240695 95.231787273403711 0 0 0 0 206.64297027227803 316.34430327064513 0 316.34430327064513 -142.8992400448717 0 0 0 0 26.538501377493958 -294.75690821434762 0 -294.75690821434762 -267.67492846140453 0 0 0 0 -840.45014906716278 36.016281985114233 0 36.016281985114233 -166.76012280564032 0 0 0 0 -1484.3316694377536 -690.55458413798306 0 -690.55458413798306 -86.40150647452856 0 0 0 0 -1908.1925857820661 -102.37353810954517 0 -102.37353810954517 -140.76938964227793 0 0 0 0 -2649.9688186273488 -795.29290245369884 0 -795.29290245369884 10.346637502749218 0 0 0 0 -4424.4894170087045 -1402.3156667105272 0 -1402.3156667105272 123.46313789906549 0 0 0 0 -693.27228325031501 517.33579736132447 0 517.33579736132447 -474.26594777113746 0 0 0 0 -438.57661492387115 -1668.5263714012444 0 -1668.5263714012444 -1584.4560141807203 0 0 0 0 630.39838558870906 -35.434692358282518 0 -35.434692358282518 -793.92336612213478 0 0 0 0 -99.468635215886025 -553.74583362854855 0 -553.74583362854855 291.33418619409122 0 0 0 0 -1059.6459935326245 1500.9872510157509 0 1500.9872510157509 -1556.2207442351855 0 0 0 0 -2018.92256676943 -2631.7322429411947 0 -2631.7322429411947 -2171.4117788782337 0 0 0 0 -29.943421692313873 4.8118241643617692 0 4.8118241643617692 -2.6941979705542174 0 0 0 0 -4493.5322746590064 -2816.3025729012838 0 -2816.3025729012838 425.55547126229351 0 0 0 0 -4852.2330608993316 89.352166375783213 0 89.352166375783213 682.3241826960043 0 0 0 0 -4497.7778935995384 -1435.722713826153 0 -1435.722713826153 950.01885028580955 0 0 0 0 -1978.147923838721 -1857.7945560711446 0 -1857.7945560711446 -200.18709503750503 0 0 0 0 -3423.5985525984443 -2782.687430755162 0 -2782.687430755162 405.42117700803408 0 0 0 0 -6.3853010140609836 -2.8924800340307151 0 -2.8924800340307151 2.8315721610583036 0 0 0 0 -2557.7303851106626 1085.7552443175794 0 1085.7552443175794 302.72422631286753 0 0 0 0 -1832.8331882882594 116.92820860865936 0 116.92820860865936 -182.9816247696981 0 0 0 0 -2054.0195366291082 427.00177271598659 0 427.00177271598659 -509.7715789491217 0 0 0 0 -4166.3043232958298 561.26470698544222 0 561.26470698544222 301.90022023077427 0 0 0 0 -2661.960605512555 850.38611341797036 0 850.38611341797036 -389.58042899021621 0 0 0 0 -2954.3604267736846 -355.8923912380335 0 -355.8923912380335 76.316523407308523 0 0 0 0 -1713.326893426427 -332.59538703428393 0 -332.59538703428393 -211.06635850658631 0 0 0 0 -1426.1211974950802 -3.0269476807937963 0 -3.0269476807937963 -8.5132300846084945 0 0 0 0 -2364.6068033343236 135.80698431014127 0 135.80698431014127 91.140475433150641 0 0 0 0 -1883.0804422279616 -34.183784225025363 0 -34.183784225025363 462.05030537197558 0 0 0 0 -1583.5084415902747 -207.86182561978831 0 -207.86182561978831 23.636346803146381 0 0 0 0 -2544.9044353854206 93.451600103937608 0 93.451600103937608 438.95621727781895 0 0 0 0 -8.6345219343278572 -3.8812208522463898 0 -3.8812208522463898 3.4421888485696117 0 0 0 0 -2090.029879418038 -380.97109785749234 0 -380.97109785749234 664.98341954074897 0 0 0 0 -1547.6156351718282 -364.91006500597109 0 -364.91006500597109 194.0353166951129 0 0 0 0 -4499.5917038036887 1310.4631610102717 0 1310.4631610102717 276.80116588876837 0 0 0 0 -1969.1371565361915 -207.58677279719643 0 -207.58677279719643 190.82984457160936 0 0 0 0 43.64305655898761 208.70023007309317 0 208.70023007309317 112.27752224741425 0 0 0 0 120.58294060907753 320.71213421723763 0 320.71213421723763 -11.834177189464071 0 0 0 0 -131.80300448025082 117.95026482614821 0 117.95026482614821 7.513151163892644 0 0 0 0 -85.634599172231262 48.289857455128683 0 48.289857455128683 -13.948254482720216 0 0 0 0 -19.962188106790336 163.15552130697404 0 163.15552130697404 -47.406748960186803 0 0 0 0 19.713529588698293 74.462708741669985 0 74.462708741669985 -259.28774852634581 0 0 0 0 -11.86685932499131 208.01678399022353 0 208.01678399022353 -105.77773531979255 0 0 0 0 26.519009875309166 130.56145847773064 0 130.56145847773064 -322.19001178553879 0 0 0 0 23.199691767410513 220.2978985811751 0 220.2978985811751 -368.74876282334128 0 0 0 0 -204.902161321319 199.67627525088801 0 199.67627525088801 -9.5833397568485452 0 0 0 0 -65.049179799467311 306.32609801848184 0 306.32609801848184 -338.75456741430116 0 0 0 0 -342.38086779204059 396.99769591573295 0 396.99769591573295 -292.17683731379657 0 0 0 0 -22.438040547781384 139.91782226848329 0 139.91782226848329 -10.20103502784206 0 0 0 0 -155.80680806350847 -0.47477247475859485 0 -0.47477247475859485 28.560887611453381 0 0 0 0 111.47364956408728 219.19639973482913 0 219.19639973482913 -121.25223485136576 0 0 0 0 -64.313695271453525 180.82155709194819 0 180.82155709194819 96.850872215231675 0 0 0 0 3.7418271060530515 97.782371286930186 0 97.782371286930186 173.0922390409562 0 0 0 0 244.41468944737653 194.81215442364578 0 194.81215442364578 48.150777599548292 0 0 0 0 269.26255082131456 485.42981614131179 0 485.42981614131179 111.22941602368974 0 0 0 0 -105.96914887532694 152.67201806726541 0 152.67201806726541 42.371974560113586 0 0 0 0 187.65969030266524 432.21668032567663 0 432.21668032567663 195.649920314067 0 0 0 0 -85.9690114177955 47.760941149654279 0 47.760941149654279 -12.016239288951265 0 0 0 0 -111.76133510883847 99.879018663153815 0 99.879018663153815 -11.986367531109863 0 0 0 0 -110.68361401686343 98.771014198977355 0 98.771014198977355 -10.850879896821311 0 0 0 0 -109.38104750523416 99.576663998468803 0 99.576663998468803 -47.695928593282133 0 0 0 0 -29.830513383301877 96.263685739025732 0 96.263685739025732 -41.498325107233313 0 0 0 0 -118.042363159454 105.36544531520616 0 105.36544531520616 -16.816906955581544 0 0 0 0 -109.24797667015355 127.22517350982844 0 127.22517350982844 -18.761471399000584 0 0 0 0 -52.170366529266175 95.752282129630203 0 95.752282129630203 -51.623554456329941 0 0 0 0 -132.85738456371928 96.911603964016933 0 96.911603964016933 -49.679583465453561 0 0 0 0 -49.070597581121547 101.1772362990198 0 101.1772362990198 -42.573468531103572 0 0 0 0 -0.12717474447446886 1.1986289148801248 0 1.1986289148801248 -9.5080870874995647 0 0 0 0 96.284485223401134 -2.269778633162332 0 -2.269778633162332 -415.54350662091701 0 0 0 0 -0.31087629401649242 1.0930885527208574 0 1.0930885527208574 -5.0565774299790966 0 0 0 0 -1119.7723242369775 401.42217434074064 0 401.42217434074064 205.31678693793583 0 0 0 0 -523.25616090620315 363.88035064896485 0 363.88035064896485 -213.75733623220412 0 0 0 0 143.43572126356958 35.888086646105876 0 35.888086646105876 -125.86178691494842 0 0 0 0 -47.602341901954787 57.007765796649664 0 57.007765796649664 40.697644295129066 0 0 0 0 -29.668757458515756 286.62552816309562 0 286.62552816309562 -390.63672690818703 0 0 0 0 8.2560461419670901 153.56803348092865 0 153.56803348092865 23.18445713238998 0 0 0 0 -629.53541611540822 269.44110371025334 0 269.44110371025334 -286.14761576342789 0 0 0 0 -133.72255127376775 132.20873822192243 0 132.20873822192243 -18.224061552588637 0 0 0 0 -83.401682119609177 145.41101956457226 0 145.41101956457226 -67.189928923904972 0 0 0 0 4.8737677313547465 133.49048059072925 0 133.49048059072925 -68.675258754826189 0 0 0 0 -84.30195785061359 48.390196100261761 0 48.390196100261761 -15.225691460820002 0 0 0 0 -28.295360161815182 183.40781871719614 0 183.40781871719614 23.038416055609332 0 0 0 0 -5.3197977692334462 168.87776316186637 0 168.87776316186637 -149.18708721813687 0 0 0 0 -41.552448387375307 107.70221924944701 0 107.70221924944701 -102.60772880190461 0 0 0 0 -40.965223461789265 78.462558284556593 0 78.462558284556593 -84.79472378621864 0 0 0 0 -26.598330179787606 1.9697531797423822 0 1.9697531797423822 -2.4889902191599829 0 0 0 0 -50.15461790632321 77.677307434629597 0 77.677307434629597 -80.638365678312425 0 0 0 0 -45.210139378156782 47.729298096802474 0 47.729298096802474 -88.542032154563913 0 0 0 0 -90.36996145016019 25.496324314382491 0 25.496324314382491 465.3979065752078 0 0 0 0 -200.56328113018571 210.13653655312476 0 210.13653655312476 370.94556468328028 0 0 0 0 24.736102740345814 -110.00864162672133 0 -110.00864162672133 -238.30810546160262 0 0 0 0 -344.0544215555401 442.30850831070927 0 442.30850831070927 166.71708411655618 0 0 0 0 -166.67877713763301 233.83720507610906 0 233.83720507610906 23.115179496504872 0 0 0 0 -87.219979705854868 47.06144623181234 0 47.06144623181234 -13.114158767377194 0 0 0 0 -45.03391778009518 -11.292240356521916 0 -11.292240356521916 0.58757597830890518 0 0 0 0 -44.002371683421302 107.8683478628399 0 107.8683478628399 -48.162933622861033 0 0 0 0 -198.50564676861904 74.736072540487839 0 74.736072540487839 171.32432744818834 0 0 0 0 1.8738017239930969 -8.127484361188559 0 -8.127484361188559 -1.3253465258206081 0 0 0 0 -107.52652093497454 -135.34677867028267 0 -135.34677867028267 -7.0560322005094349 0 0 0 0 -120.07747363650681 18.958046262805439 0 18.958046262805439 -2.8814669216990456 0 0 0 0 -35.994344904274499 131.44488403954313 0 131.44488403954313 6.4370091641549152 0 0 0 0 80.390236942334013 171.98345764622536 0 171.98345764622536 16.600551917231769 0 0 0 0 -146.91901877550117 63.997963147748123 0 63.997963147748123 -55.429312751295583 0 0 0 0 -36.352381117845255 13.552958407586665 0 13.552958407586665 2.3158544840432853 0 0 0 0 -96.712265840828735 47.791700627381047 0 47.791700627381047 -2.6192692279198209 0 0 0 0 -160.12960013597876 26.410533544326427 0 26.410533544326427 -8.7577535124814858 0 0 0 0 -175.44085274184181 80.7123443901678 0 80.7123443901678 -64.235423512670877 0 0 0 0 -33.938083180409194 -2.6092254718898289 0 -2.6092254718898289 -11.99310780137921 0 0 0 0 -120.16124537839823 42.641490782467372 0 42.641490782467372 -19.544577370241313 0 0 0 0 -203.26689212377096 88.746071643932169 0 88.746071643932169 -44.842064212210971 0 0 0 0 -8.0642924972717083 -49.677052880210113 0 -49.677052880210113 -53.088748328676957 0 0 0 0 -15.294599858080927 5.3115083740853937 0 5.3115083740853937 -8.6344685220037043 0 0 0 0 -1.7572183652510418 0.85683959647174746 0 0.85683959647174746 -0.90570355415161075 0 0 0 0 -1.4219283279129051 -1.9557064453897368 0 -1.9557064453897368 -6.7568036170754944 0 0 0 0 -50.703568239820015 64.096550244622335 0 64.096550244622335 -13.638260240936198 0 0 0 0 -3.7283824823719307 -1.2901817298525149 0 -1.2901817298525149 -7.5268628578061367 0 0 0 0 -16.38225866340872 6.6219904882896117 0 6.6219904882896117 -13.804182837779081 0 0 0 0 -119.87992708073762 31.648367963174223 0 31.648367963174223 -13.835136069803184 0 0 0 0 -124.14706631219951 53.358323764909869 0 53.358323764909869 -32.624847695311473 0 0 0 0 -95.793396509900049 42.84846197545312 0 42.84846197545312 -31.501262622016839 0 0 0 0 -119.03073252016748 11.74080672677735 0 11.74080672677735 -15.776290641512787 0 0 0 0 -128.10056701399844 38.735552415468874 0 38.735552415468874 -19.211178605779423 0 0 0 0 -15.693688341361888 -0.8664966480016485 0 -0.8664966480016485 0.26329554160613478 0 0 0 0 -87.90755115408183 -41.356007697814476 0 -41.356007697814476 67.201864947575075 0 0 0 0 -94.046889380764696 -6.6357319983776506 0 -6.6357319983776506 -15.846135726636874 0 0 0 0 26.491530533885452 -25.326436480396069 0 -25.326436480396069 -20.782738206158911 0 0 0 0 -63.197509815949161 33.864613413014467 0 33.864613413014467 42.280906369152206 0 0 0 0 -14.400409361946004 73.79962575474849 0 73.79962575474849 -2.3581911132087043 0 0 0 0 -56.558880015394607 34.394159408371479 0 34.394159408371479 -28.934046370376564 0 0 0 0 -25.658808633645094 71.645063495536533 0 71.645063495536533 -75.792723491607148 0 0 0 0 -5.6600970255171141 -5.2111498408140733 0 -5.2111498408140733 -7.2854314074395505 0 0 0 0 -20.768079289187881 25.911839420799879 0 25.911839420799879 -108.21747012583182 0 0 0 0 -10.939034763156997 1.4227504052397535 0 1.4227504052397535 -12.092544959476754 0 0 0 0 -86.900521342178763 32.776595611741413 0 32.776595611741413 -28.631213746277353 0 0 0 0 -5.3115183152603009 -1.5634475745956085 0 -1.5634475745956085 -13.046168704704559 0 0 0 0 -14.923814182668139 0.31479602456079192 0 0.31479602456079192 -12.310594291421239 0 0 0 0 -104.19709922772199 56.392784028445249 0 56.392784028445249 -49.804746213563249 0 0 0 0 -122.72740461908325 68.136416447164947 0 68.136416447164947 -51.209246417965005 0 0 0 0 -108.88940001668198 49.246770610178373 0 49.246770610178373 -42.08493993714319 0 0 0 0 -2.0958911760804568 -1.8971435080667707 0 -1.8971435080667707 -1.780484176863752 0 0 0 0 -95.573671634923812 54.5742253807407 0 54.5742253807407 -83.482535719331281 0 0 0 0 -78.700603114261867 21.727811540421726 0 21.727811540421726 -28.768703074233144 0 0 0 0 -66.239025781458622 15.808400583688808 0 15.808400583688808 -74.379043070970965 0 0 0 0 -59.02230868684228 -4.6161552257342464 0 -4.6161552257342464 -47.673178576290411 0 0 0 0 -139.75733820730511 -9.4111240333488695 0 -9.4111240333488695 -19.776828302218973 0 0 0 0 -42.730284352963281 -1.4332668129320609 0 -1.4332668129320609 -19.14849666990699 0 0 0 0 -101.77822519443907 -12.553165732522984 0 -12.553165732522984 27.920734204092696 0 0 0 0 -98.469728893606771 37.004352340361038 0 37.004352340361038 155.72173670886298 0 0 0 0 2.0579213467269462 2.4488971729434739 0 2.4488971729434739 -11.395208869778438 0 0 0 0 40.859214535929141 53.018398925151189 0 53.018398925151189 -94.563897964541638 0 0 0 0 -57.934297720199083 154.32619357964239 0 154.32619357964239 -459.29078952046029 0 0 0 0 -59.749964023444363 -67.834000866903409 0 -67.834000866903409 130.51795696692602 0 0 0 0 -5.2514876017570398 0.079761261921745541 0 0.079761261921745541 -0.45341749753185345 0 0 0 0 -65.180459633631472 -8.8981901118460769 0 -8.8981901118460769 27.937262267939957 0 0 0 0 2.3553128064438624 90.000839767813488 0 90.000839767813488 -235.26630256349449 0 0 0 0 -34.619314559365648 44.46356681289916 0 44.46356681289916 -252.93889577949312 0 0 0 0 -71.353599020174215 90.898967998071043 0 90.898967998071043 -195.75713063275134 0 0 0 0 78.239988126438107 175.41370138878852 0 175.41370138878852 -220.61435637310058 0 0 0 0 -3.1097988959466107 5.6626904736971042 0 5.6626904736971042 -10.213472373998396 0 0 0 0 0.28381955738996112 -253.25078576960061 0 -253.25078576960061 -1103.8702682389157 0 0 0 0 5.2042918131778606 -312.42177939710751 0 -312.42177939710751 -571.78416042026583 0 0 0 0 4.6802675294998153 245.50102145740834 0 245.50102145740834 -846.9047050220629 0 0 0 0 67.605124094644907 109.88338610168398 0 109.88338610168398 -415.16536629722123 0 0 0 0 -83.723392077716198 -135.92037556261425 0 -135.92037556261425 -389.9247199430165 0 0 0 0 -284.00420637392608 182.46216143789377 0 182.46216143789377 -224.92990378054026 0 0 0 0 -354.21278057589552 83.619993698188409 0 83.619993698188409 259.68339593035586 0 0 0 0 -32.951619130585414 -11.91747374814625 0 -11.91747374814625 -169.06807103763617 0 0 0 0 -30.933224878874626 -279.68832348427838 0 -279.68832348427838 -61.206983176268068 0 0 0 0 141.46725522899669 -94.090264223643317 0 -94.090264223643317 25.07200004864535 0 0 0 0 -15.232576162069247 7.7542697804476219 0 7.7542697804476219 -9.8270511867632226 0 0 0 0 207.57537541797956 -242.67045312410448 0 -242.67045312410448 -184.25865399854575 0 0 0 0 -226.9593879976801 396.99243703796378 0 396.99243703796378 -657.69714588968236 0 0 0 0 -9.8091595194793051 13.966860685578613 0 13.966860685578613 -22.978197393115991 0 0 0 0 -16.527607397795538 25.317900541228813 0 25.317900541228813 -36.43328976176997 0 0 0 0 -53.42660883276767 -6.7778837661289799 0 -6.7778837661289799 -53.749577287569991 0 0 0 0 -16.094659093894734 10.06176323886848 0 10.06176323886848 -46.206862664046639 0 0 0 0 -12.865933886707353 -14.281408324870426 0 -14.281408324870426 -84.232058581235833 0 0 0 0 16.110530509342425 6.181552639110123 0 6.181552639110123 -71.026298037806555 0 0 0 0 128.60715993731537 -69.674969070726547 0 -69.674969070726547 -134.04955950551675 0 0 0 0 36.344040697982564 -33.007603697860759 0 -33.007603697860759 -143.17641908495534 0 0 0 0 130.49492499583178 -107.44935660751446 0 -107.44935660751446 -392.37449941886189 0 0 0 0 -19.19135259787129 7.7755670364806129 0 7.7755670364806129 -1.8488529208271363 0 0 0 0 141.50810799807641 195.82567555872083 0 195.82567555872083 -265.57899556094571 0 0 0 0 48.307916777516766 154.18289878703217 0 154.18289878703217 93.728112097602207 0 0 0 0 -955.9348776746956 -2.2066270791283387 0 -2.2066270791283387 -303.32781292964592 0 0 0 0 -931.24264512324794 7.087967318617757 0 7.087967318617757 -764.22705262815725 0 0 0 0 -41.249021922859129 -174.19228488879548 0 -174.19228488879548 -390.75833879101083 0 0 0 0 -1341.1396294383972 588.64482714650785 0 588.64482714650785 -511.85002304960108 0 0 0 0 -1188.2379321159247 111.94495799425795 0 111.94495799425795 299.18896556595519 0 0 0 0 -9.8256851848354057 3.5996290737360184 0 3.5996290737360184 -1.9977108110906521 0 0 0 0 237.02728290217237 297.55425536266375 0 297.55425536266375 -1320.6412382088447 0 0 0 0 -380.17498417337538 637.56570774777265 0 637.56570774777265 -1154.6368231236911 0 0 0 0 -1347.8704643487335 621.4503001406988 0 621.4503001406988 -390.43490600125551 0 0 0 0 -187.57657299873608 674.64365495133006 0 674.64365495133006 -609.32181611552323 0 0 0 0 -60.59642202510031 -239.70523864096504 0 -239.70523864096504 -22.377779788165753 0 0 0 0 205.070570564234 -79.647221613810871 0 -79.647221613810871 -932.22219512456286 0 0 0 0 -582.78056881188968 320.96862203458568 0 320.96862203458568 145.11800632405402 0 0 0 0 224.93799092545396 -184.84598833072732 0 -184.84598833072732 -542.93035352139668 0 0 0 0 144.40980306656456 16.972620863761222 0 16.972620863761222 -945.90843436408932 0 0 0 0 82.77649014007693 82.568042655160298 0 82.568042655160298 -563.6098342306268 0 0 0 0 -263.34519845262457 227.6315431323037 0 227.6315431323037 -572.18027042380561 0 0 0 0 -274.86338723795325 422.04438474492736 0 422.04438474492736 -1329.0014505094841 0 0 0 0 0.31306388732294987 1.8021134508551659 0 1.8021134508551659 -8.3001402159103748 0 0 0 0 -167.30195482416457 705.67315560842235 0 705.67315560842235 -1524.4524150563152 0 0 0 0 -1368.032680865198 1034.1808746988504 0 1034.1808746988504 296.85021104904035 0 0 0 0 -577.97867135196611 -22.23350597579855 0 -22.23350597579855 566.9366309885072 0 0 0 0 -45.808374601593187 -102.00225947514298 0 -102.00225947514298 114.17736184750834 0 0 0 0 0.11913080969116141 1.3175276937680067 0 1.3175276937680067 -11.72052906186682 0 0 0 0 -92.057983972190868 222.22965268176154 0 222.22965268176154 -53.440836028183185 0 0 0 0 -363.42376148957965 265.52664706824453 0 265.52664706824453 48.691391327869496 0 0 0 0 -102.67260406527294 -79.266982999527045 0 -79.266982999527045 2.3648292116567973 0 0 0 0 -563.20935717176462 284.07457079953747 0 284.07457079953747 -135.81582656916908 0 0 0 0 -562.86821058268197 287.9382976736897 0 287.9382976736897 -283.82929422960842 0 0 0 0 -362.17002154300212 263.22508534358559 0 263.22508534358559 -148.67565863883829 0 0 0 0 -822.12954303007768 389.10579192591422 0 389.10579192591422 -87.048292248390226 0 0 0 0 -1068.1405932311372 59.822567177108567 0 59.822567177108567 146.62055965985837 0 0 0 0 -605.3434110862953 28.451019329943961 0 28.451019329943961 132.69104437766964 0 0 0 0 -601.47652335138923 220.40323865681739 0 220.40323865681739 40.698276624324535 0 0 0 0 -465.62976657903528 238.57545111035711 0 238.57545111035711 42.314300158353689 0 0 0 0 -661.33074132376157 117.18254050020141 0 117.18254050020141 163.52334754488629 0 0 0 0 -459.89236416409443 48.980919709354112 0 48.980919709354112 153.69678193191353 0 0 0 0 -424.76647270771923 7.5179435613679857 0 7.5179435613679857 200.92962783630225 0 0 0 0 -369.62230179993298 105.11488738929162 0 105.11488738929162 3.195922672040183 0 0 0 0 -514.29883351084436 217.97976148472753 0 217.97976148472753 8.8215637699985336 0 0 0 0 -212.43032227967251 104.39315143732739 0 104.39315143732739 -49.491540818948309 0 0 0 0 -0.15985457611890386 1.2499187870034039 0 1.2499187870034039 -3.7365066987407642 0 0 0 0 -18.089542637336308 145.37852353554786 0 145.37852353554786 95.463151321577925 0 0 0 0 -407.54065737198061 119.41232660729622 0 119.41232660729622 49.178235223440424 0 0 0 0 -420.24602272463881 184.72592123820652 0 184.72592123820652 2.2083081109226441 0 0 0 0 -1842.1932227735579 -252.67423783746588 0 -252.67423783746588 48.659192961608539 0 0 0 0 -3.4410750265199557 -12.687978540728567 0 -12.687978540728567 -0.12286802284658194 0 0 0 0 137.11788739858821 -201.14654025708649 0 -201.14654025708649 67.688975387121815 0 0 0 0 -252.15657066238691 -163.07509004774602 0 -163.07509004774602 229.60923068172059 0 0 0 0 -275.9727843261403 -294.48710516951735 0 -294.48710516951735 231.63534946926782 0 0 0 0 -468.71963200808506 -130.22766364065905 0 -130.22766364065905 230.56824958407788 0 0 0 0 -352.40518869219113 -82.796169098647567 0 -82.796169098647567 197.12957274722913 0 0 0 0 -705.27392942734957 -30.801958227373234 0 -30.801958227373234 252.45357655489994 0 0 0 0 -487.359351109491 -347.46050176565177 0 -347.46050176565177 233.89683438889097 0 0 0 0 -781.50329365137361 -13.037980172077141 0 -13.037980172077141 -239.72305566885916 0 0 0 0 -1001.3471175499569 -18.426829123224252 0 -18.426829123224252 178.98670503268977 0 0 0 0 -737.65594251869425 -824.80014840246849 0 -824.80014840246849 15.684543540185587 0 0 0 0 1009.8245654293214 -679.78590839373942 0 -679.78590839373942 -101.4674322243045 0 0 0 0 -2.1000155364670752 -3.5932671821391011 0 -3.5932671821391011 -0.21933900701390741 0 0 0 0 -3200.1838819379605 -544.36437251206337 0 -544.36437251206337 138.21981582260969 0 0 0 0 -1598.3457752464947 -976.38728617829202 0 -976.38728617829202 -203.05113349542535 0 0 0 0 -1143.1242126996653 -840.2240540684079 0 -840.2240540684079 -167.47865951255699 0 0 0 0 -1243.9194611600906 -796.9031938417811 0 -796.9031938417811 -180.2631246893875 0 0 0 0 -1343.4607075361782 -824.98268894957619 0 -824.98268894957619 -183.36113123996984 0 0 0 0 -1468.7501371810699 -560.75138144153243 0 -560.75138144153243 -139.81800548170213 0 0 0 0 -1195.2230828809409 -554.24565031305428 0 -554.24565031305428 -140.16845694009498 0 0 0 0 -1414.580193737276 -580.47286493057345 0 -580.47286493057345 -233.53992990429106 0 0 0 0 -1495.2601158939342 -794.62870455615666 0 -794.62870455615666 -269.17028866042165 0 0 0 0 -1162.3171848925813 -754.03613103513999 0 -754.03613103513999 -283.00761076914432 0 0 0 0 -1373.5719444546912 -156.36968921989558 0 -156.36968921989558 -270.24851071646845 0 0 0 0 -1307.8126764605579 135.01176599252085 0 135.01176599252085 -666.45083475451793 0 0 0 0 -1678.7581336466756 337.37573488159524 0 337.37573488159524 -547.67031278525928 0 0 0 0 -2331.2824515669536 489.20915571527894 0 489.20915571527894 -474.38844874325878 0 0 0 0 -2193.4417949962981 -371.73645650914091 0 -371.73645650914091 -382.2802676627507 0 0 0 0 -1864.3187282444533 -137.3437049709828 0 -137.3437049709828 -862.60579658718052 0 0 0 0 -2218.7860640651679 -77.770686895152267 0 -77.770686895152267 -2707.0240673069966 0 0 0 0 -2123.3026853097726 288.94427843906305 0 288.94427843906305 -1562.8922299572314 0 0 0 0 -1566.5110119560186 143.50471043525977 0 143.50471043525977 -305.73133247582791 0 0 0 0 -1626.5765411968823 404.69214238426139 0 404.69214238426139 -1003.5347994392541 0 0 0 0 -1331.8676950872984 -929.96067329930156 0 -929.96067329930156 -477.22187075793408 0 0 0 0 -1084.2984260551448 -721.65351651251649 0 -721.65351651251649 -439.91024553555326 0 0 0 0 -1064.0722693578646 -769.33731362633171 0 -769.33731362633171 -365.35098142379138 0 0 0 0 -2009.6841104264809 -291.63972924941663 0 -291.63972924941663 -363.79935510765154 0 0 0 0 -2536.8023031246689 -1101.2715526167813 0 -1101.2715526167813 -471.16108978735519 0 0 0 0 -1713.5435285286235 -996.11979797694403 0 -996.11979797694403 -294.45682716815645 0 0 0 0 -5010.1723254031422 288.33307659176353 0 288.33307659176353 -683.78208593030899 0 0 0 0 -2287.3893393361504 -161.79792415220982 0 -161.79792415220982 -659.0734041897922 0 0 0 0 -2536.3417303245474 -1479.5802354743209 0 -1479.5802354743209 -1009.890715751917 0 0 0 0 -799.72934760233056 -1015.749760467912 0 -1015.749760467912 -992.93526734259467 0 0 0 0 -868.32764257560484 -937.18209200175625 0 -937.18209200175625 -945.43786268742406 0 0 0 0 297.86292561783466 -61.811455410192139 0 -61.811455410192139 -865.51931338177383 0 0 0 0 -183.42268696090105 -208.12403682334843 0 -208.12403682334843 -560.18402993809286 0 0 0 0 -268.83796839171919 -234.09061986606957 0 -234.09061986606957 -457.54400242534393 0 0 0 0 -210.91074295674525 52.57659344084766 0 52.57659344084766 44.538626372625004 0 0 0 0 -589.94563890407153 -692.04915611612887 0 -692.04915611612887 -641.07626026750222 0 0 0 0 -343.88414677288711 -345.4933859014609 0 -345.4933859014609 -443.98106285928588 0 0 0 0 -851.54372718329978 -536.86046878546404 0 -536.86046878546404 -243.61959502095397 0 0 0 0 -770.62030884899286 -645.36691457458346 0 -645.36691457458346 -364.50975369824118 0 0 0 0 -171.49872496945318 62.646198994328188 0 62.646198994328188 37.342542742891965 0 0 0 0 -108.40149957431095 -111.37607352597297 0 -111.37607352597297 -333.46873070547736 0 0 0 0 -15.421455141103097 3.6310820434812108 0 3.6310820434812108 2.4621179362944687 0 0 0 0 -99.211454612552188 -77.147619781986577 0 -77.147619781986577 -265.24124365934404 0 0 0 0 -7.9629834665569277 5.831936284790995 0 5.831936284790995 -5.0974974009732819 0 0 0 0 -199.83171172544462 -280.85175334195264 0 -280.85175334195264 -352.22047458028464 0 0 0 0 -527.87576918325249 -212.78933234572014 0 -212.78933234572014 86.310681072784064 0 0 0 0 53.215876450110954 16.442088494612108 0 16.442088494612108 -271.58396059587722 0 0 0 0 -110.18146084139585 41.889735396395963 0 41.889735396395963 -30.404476532577974 0 0 0 0 -14.477990471574667 34.55911556961297 0 34.55911556961297 -17.183077840715271 0 0 0 0 -50.415984654442532 -19.194677942497005 0 -19.194677942497005 19.509788365428498 0 0 0 0 -76.401586724765366 -137.66600212987896 0 -137.66600212987896 66.102299857421713 0 0 0 0 -138.59438652141034 57.241507833923606 0 57.241507833923606 42.850288985547991 0 0 0 0 -373.43522706602926 -78.367931248130844 0 -78.367931248130844 139.0010970780495 0 0 0 0 -183.79894719976528 -217.95463130742519 0 -217.95463130742519 194.43463216647615 0 0 0 0 -265.45535367687808 -13.907129896252172 0 -13.907129896252172 98.067977776472617 0 0 0 0 152.8175424548208 -77.986433911595213 0 -77.986433911595213 -8.4548802816279931 0 0 0 0 -84.855807867945259 -41.491279436549121 0 -41.491279436549121 -56.449494886932371 0 0 0 0 -85.065113771606775 -37.163899841239981 0 -37.163899841239981 -0.4489596514031291 0 0 0 0 -9.701816923669341 3.2651610197975174 0 3.2651610197975174 -2.2607721032428216 0 0 0 0 -13.164764107801119 -4.6142894646537833 0 -4.6142894646537833 26.0811633812582 0 0 0 0 -176.8483229520898 18.283276082267548 0 18.283276082267548 -24.807828621483168 0 0 0 0 -379.65316154988614 -123.54380150304041 0 -123.54380150304041 19.724931737819134 0 0 0 0 -170.97001006664323 -21.858076910232967 0 -21.858076910232967 195.55908042745432 0 0 0 0 60.021569833146714 -3.7282414840865385 0 -3.7282414840865385 -70.450399309193017 0 0 0 0 -518.56766143005916 40.953460117921622 0 40.953460117921622 212.12624823071019 0 0 0 0 -259.06644221359602 26.234345924076479 0 26.234345924076479 124.30176128413859 0 0 0 0 -362.04176510017714 -127.80169496063991 0 -127.80169496063991 259.05428870376454 0 0 0 0 -395.28864982357845 268.51088838561827 0 268.51088838561827 -1158.2502938988264 0 0 0 0 -390.66755911050495 176.33025935428941 0 176.33025935428941 427.1240397797219 0 0 0 0 -1563.0076548704237 -170.07476094147205 0 -170.07476094147205 121.31517722132685 0 0 0 0 -330.82827594634364 -128.39185699097879 0 -128.39185699097879 -9.2515254296831699 0 0 0 0 2.4412587800977938 -4.8057669816027371 0 -4.8057669816027371 7.8043169555483409 0 0 0 0 516.53178225251759 -221.32332090840691 0 -221.32332090840691 -551.02082314328618 0 0 0 0 -205.35365711903796 -261.66385949065989 0 -261.66385949065989 -230.76544063003166 0 0 0 0 -889.52417975387834 -192.08813500497672 0 -192.08813500497672 36.272268657481618 0 0 0 0 -891.97568648246488 -520.48711260584741 0 -520.48711260584741 -209.86664637228432 0 0 0 0 -1040.7804252645728 -521.03452299929086 0 -521.03452299929086 -156.30013368308391 0 0 0 0 -1264.3437139047801 -646.14553247572894 0 -646.14553247572894 -118.74372568900981 0 0 0 0 -1029.8248328524387 -682.31365728756555 0 -682.31365728756555 -216.8860231136623 0 0 0 0 -951.98089847298252 -615.66801698036124 0 -615.66801698036124 -200.36854114324888 0 0 0 0 -1154.7533729253355 -773.24676822192077 0 -773.24676822192077 -245.0146885735885 0 0 0 0 -716.94788281396541 -446.71361058306684 0 -446.71361058306684 -182.67385067155192 0 0 0 0 -706.19173051229882 -452.05847220785563 0 -452.05847220785563 -223.46399208412186 0 0 0 0 -543.90174291672156 -105.06103220266505 0 -105.06103220266505 101.11143646712299 0 0 0 0 -100.11516705492977 -170.34550965350718 0 -170.34550965350718 20.614373989104934 0 0 0 0 -1.3352746243518698 0.98547079113668445 0 0.98547079113668445 -0.039166569826683428 0 0 0 0 -1019.5720809077102 -438.03766654829087 0 -438.03766654829087 -59.63075809338261 0 0 0 0 -979.42975100361218 -603.34798443708678 0 -603.34798443708678 -167.19043404237755 0 0 0 0 -852.6783947424301 -512.27708002677718 0 -512.27708002677718 -190.59278204378279 0 0 0 0 -116.56669160532419 25.097836110808515 0 25.097836110808515 -5.3246389577975037 0 0 0 0 -180.78977363199124 52.812442927890743 0 52.812442927890743 17.727638244724858 0 0 0 0 1.3305434212513585 -1.0757814681490616 0 -1.0757814681490616 14.289389735754009 0 0 0 0 -288.36754546129646 101.16696820546872 0 101.16696820546872 30.243544382581604 0 0 0 0 -271.19045938403906 72.48995043737068 0 72.48995043737068 57.126895186603178 0 0 0 0 -185.7354573495256 -26.698817958546755 0 -26.698817958546755 52.699272553710216 0 0 0 0 -110.35548596596345 6.9051275996571349 0 6.9051275996571349 -67.95537770305009 0 0 0 0 -4.5178549135166648 1.5679113932350361 0 1.5679113932350361 14.19083981450466 0 0 0 0 -146.44667539520924 27.46415905325955 0 27.46415905325955 14.359505567441374 0 0 0 0 9.3457244358969902 20.070977279210279 0 20.070977279210279 13.754273765070156 0 0 0 0 -649.21292678642476 14.84235085584919 0 14.84235085584919 152.4778068961914 0 0 0 0 54.53851020500224 -159.20689658216452 0 -159.20689658216452 -189.61339369512825 0 0 0 0 -0.36719676375995292 -2.7688217981214862 0 -2.7688217981214862 4.3521703231308635 0 0 0 0 85.424594470074226 228.10338288669936 0 228.10338288669936 232.28087354099443 0 0 0 0 -72.277260607603239 44.261787448020186 0 44.261787448020186 25.816710079436234 0 0 0 0 -28.938703817127532 1.8238633029616125 0 1.8238633029616125 14.59876870239445 0 0 0 0 -117.32989071677389 12.523700109702617 0 12.523700109702617 47.164388992052409 0 0 0 0 -385.78329249850867 202.52626323529694 0 202.52626323529694 -36.702346197980205 0 0 0 0 -25.725877964852657 7.3870567052318528 0 7.3870567052318528 0.53286156228368498 0 0 0 0 -302.96404109527793 61.98595789789897 0 61.98595789789897 -11.728626954558422 0 0 0 0 -667.6618370037686 379.98321572821897 0 379.98321572821897 -114.67782604727586 0 0 0 0 -0.73915895395462883 -0.29206017767479153 0 -0.29206017767479153 -0.72010796823497003 0 0 0 0 -29.015135966680646 -105.00724792143296 0 -105.00724792143296 376.23518711643555 0 0 0 0 -497.58120160205726 -71.811329183320595 0 -71.811329183320595 378.42213715551463 0 0 0 0 -994.29389752556017 -3.3342551642053877 0 -3.3342551642053877 208.25136552468484 0 0 0 0 -538.52773093011456 17.412648991642072 0 17.412648991642072 205.98224760360972 0 0 0 0 -886.31440571580333 769.77073560552981 0 769.77073560552981 -783.56149531227857 0 0 0 0 -306.97572425834369 -379.99219269333935 0 -379.99219269333935 -315.09366780468645 0 0 0 0 -8.7338302518866726 -2.6905596557722191 0 -2.6905596557722191 -1.5722537927169071 0 0 0 0 -280.89554422779474 209.37914906943524 0 209.37914906943524 -376.88229929058616 0 0 0 0 -27.221090544780793 -4.2874567778245734 0 -4.2874567778245734 1.6284002567905027 0 0 0 0 -48.675473316267016 1.7259868218661722 0 1.7259868218661722 88.295057057620397 0 0 0 0 -83.908908754321601 238.99459582140935 0 238.99459582140935 -451.26013839438383 0 0 0 0 -86.462369044966181 2.1021584009813523 0 2.1021584009813523 89.658444807007982 0 0 0 0 -250.18398370001523 125.4435552308646 0 125.4435552308646 -147.63626762318745 0 0 0 0 -7.8975350031032576 73.212530393495626 0 73.212530393495626 -291.0067442748641 0 0 0 0 -304.92838160883002 258.86580173802281 0 258.86580173802281 373.49404176668577 0 0 0 0 -128.8237681757164 -69.658040120168152 0 -69.658040120168152 12.621118304929951 0 0 0 0 -15.514482274727495 19.520204906605009 0 19.520204906605009 8.5475858426849367 0 0 0 0 -135.21358694792087 27.861757432155315 0 27.861757432155315 16.010728133868724 0 0 0 0 -102.80170911311689 16.644181655433385 0 16.644181655433385 5.7036686185156213 0 0 0 0 -103.553815715979 19.885873355626472 0 19.885873355626472 15.65450162745401 0 0 0 0 -478.461739015489 505.5909741167352 0 505.5909741167352 311.99121241292505 0 0 0 0 -8.1368360994611617 4.6522621971625213 0 4.6522621971625213 12.376251205506811 0 0 0 0 -94.577751471380907 12.151754587268897 0 12.151754587268897 -22.322997851595574 0 0 0 0 -113.86648475885158 50.97158833532194 0 50.97158833532194 101.78534687471256 0 0 0 0 -17.594110861244701 3.5291797968016567 0 3.5291797968016567 51.449350969004584 0 0 0 0 -55.361958802288342 -4.0117082850176793 0 -4.0117082850176793 21.686537432218394 0 0 0 0 -12.820376257381874 -2.4089978934014908 0 -2.4089978934014908 1.3819218682360059 0 0 0 0 -103.93804152185839 44.42983709873215 0 44.42983709873215 8.7851231443955839 0 0 0 0 -28.975609116256411 3.4336784545855181 0 3.4336784545855181 -0.19635205412809853 0 0 0 0 -210.67917148351989 -69.806715622336469 0 -69.806715622336469 194.73021979779242 0 0 0 0 -235.94082239398222 4.6039267539840694 0 4.6039267539840694 81.191159464324301 0 0 0 0 -25.738052045293973 4.9161607872674598 0 4.9161607872674598 32.65923642973565 0 0 0 0 -99.370392827289976 11.47852618976026 0 11.47852618976026 29.341872051189402 0 0 0 0 -7.3596963218624296 -264.07649484396825 0 -264.07649484396825 419.13333765159132 0 0 0 0 -46.283818258834344 -80.891393288106428 0 -80.891393288106428 80.495504392076327 0 0 0 0 -164.49172781379411 -25.985073980944037 0 -25.985073980944037 39.91970157554897 0 0 0 0 -115.94826886209194 -39.299856821400454 0 -39.299856821400454 -10.051181220965645 0 0 0 0 -149.39604307143964 -30.529561781030452 0 -30.529561781030452 213.13410319553532 0 0 0 0 46.79065457242541 257.33905551076657 0 257.33905551076657 320.56628016854017 0 0 0 0 2.8787566335179839 -0.1385937022323489 0 -0.1385937022323489 18.568742257797766 0 0 0 0 540.26381419427707 -619.80742070450776 0 -619.80742070450776 484.00597862355204 0 0 0 0 -130.80419913795413 -55.589582280987088 0 -55.589582280987088 -12.019751890034968 0 0 0 0 -151.37140240473536 50.023732696011677 0 50.023732696011677 273.65606590652169 0 0 0 0 -116.25170221402118 -61.708326291206731 0 -61.708326291206731 -13.582500214843094 0 0 0 0 -0.18629971874906914 -86.353996572908954 0 -86.353996572908954 -127.67834594810847 0 0 0 0 -592.12662551494213 -0.99823743119731034 0 -0.99823743119731034 301.04812682246029 0 0 0 0 -1377.7908199410667 -266.27564399840367 0 -266.27564399840367 212.57024435568383 0 0 0 0 -511.64811442289647 -277.05603535648879 0 -277.05603535648879 -22.479924369872833 0 0 0 0 -608.95274901023367 -71.441636962557595 0 -71.441636962557595 567.41557653016753 0 0 0 0 -611.52633631696517 -115.14821263717477 0 -115.14821263717477 393.5154224107082 0 0 0 0 -726.81447445458616 -604.99978661563648 0 -604.99978661563648 943.72113962933554 0 0 0 0 -375.96134893714407 -1122.7167795969981 0 -1122.7167795969981 898.53680931049666 0 0 0 0 -394.30944654160157 -806.54967868708536 0 -806.54967868708536 20.607471821437684 0 0 0 0 -605.71993303133058 -271.75298306592964 0 -271.75298306592964 364.40837281167018 0 0 0 0 -556.20203702373783 14.293828435321693 0 14.293828435321693 1829.7898380912304 0 0 0 0 212.26175156250974 482.48196959796888 0 482.48196959796888 626.7847761675057 0 0 0 0 -298.38768297543174 -470.91138146974845 0 -470.91138146974845 1417.0656058023158 0 0 0 0 -1255.5796645326227 -397.26143411614339 0 -397.26143411614339 -306.31980557701479 0 0 0 0 -1093.4826717491069 -528.04868846220143 0 -528.04868846220143 -275.08274564677413 0 0 0 0 -1688.2643871317987 -501.51629017321471 0 -501.51629017321471 -109.42175821826186 0 0 0 0 -1193.7462468436006 -648.50209350171281 0 -648.50209350171281 -152.53788043789427 0 0 0 0 -1214.9682165126301 -414.39267674940686 0 -414.39267674940686 -136.33334113889214 0 0 0 0 -0.82108267510125188 0.58824495203766247 0 0.58824495203766247 0.62459527669332715 0 0 0 0 -1051.7673371058881 -395.90215340255236 0 -395.90215340255236 -190.71695950932371 0 0 0 0 356.34060566686458 219.02389287431834 0 219.02389287431834 -240.41946818883662 0 0 0 0 -483.25943394686692 -218.27469289677094 0 -218.27469289677094 80.689704327350228 0 0 0 0 -1059.5429506493938 -425.42702109049475 0 -425.42702109049475 -124.7679966764772 0 0 0 0 -857.70445560373082 -579.94097476521438 0 -579.94097476521438 -202.10068714425432 0 0 0 0 -833.9463785839489 -411.91700438756902 0 -411.91700438756902 356.42603155136374 0 0 0 0 -699.40021954586518 -612.1843505416864 0 -612.1843505416864 29.84547354112928 0 0 0 0 -1088.4447633785821 -713.61137354340019 0 -713.61137354340019 1.2653840569134012 0 0 0 0 -1341.7137831984364 -443.68467661104853 0 -443.68467661104853 -50.885911262464276 0 0 0 0 -1141.1809672034069 -470.94157698112724 0 -470.94157698112724 -47.404292063738694 0 0 0 0 -1323.0383977537058 -688.18248221116642 0 -688.18248221116642 -250.37723237070369 0 0 0 0 -1760.4032641440244 -297.70215752567799 0 -297.70215752567799 -142.18162016038991 0 0 0 0 -1400.2325351305772 -489.12539363883786 0 -489.12539363883786 -72.877396188863088 0 0 0 0 -1102.5542557138751 -574.85889101019404 0 -574.85889101019404 8.5687080298019112 0 0 0 0 -1031.473399653014 -571.78742465271625 0 -571.78742465271625 -11.848766276256924 0 0 0 0 -863.29148942279244 -584.62933470038945 0 -584.62933470038945 -52.622619855516234 0 0 0 0 -791.42344061457516 -728.02523253957202 0 -728.02523253957202 165.75058048470498 0 0 0 0 -649.99549962711899 -472.56622250337421 0 -472.56622250337421 -30.565973862224382 0 0 0 0 -1008.6535585557904 -643.36085946846663 0 -643.36085946846663 -13.367386841384928 0 0 0 0 -1274.5191615561816 -578.17049719195006 0 -578.17049719195006 -22.373678310202976 0 0 0 0 -627.01319565887206 163.82304278675235 0 163.82304278675235 681.31337579996853 0 0 0 0 -10.465229298231904 -5.1852353819220127 0 -5.1852353819220127 -0.015175417850569639 0 0 0 0 -911.86358987713174 -733.2220640581786 0 -733.2220640581786 -493.40748589347277 0 0 0 0 -650.22380064849312 -326.86191685110407 0 -326.86191685110407 -45.702643786473345 0 0 0 0 -634.87784540868961 -468.52437872801647 0 -468.52437872801647 -315.88971896076953 0 0 0 0 -840.29750450345273 -559.70682866651782 0 -559.70682866651782 -89.612683959535843 0 0 0 0 -817.78481900287352 -526.20995055603589 0 -526.20995055603589 -65.615654623920818 0 0 0 0 -538.86332612486513 -1668.677119717323 0 -1668.677119717323 -104.63041547425223 0 0 0 0 -14.419566802230861 -6.8716941565901237 0 -6.8716941565901237 -2.74328378228725 0 0 0 0 -257.54360006762317 -128.26480553819854 0 -128.26480553819854 118.0526023026021 0 0 0 0 -1448.3207681517597 495.50597396406749 0 495.50597396406749 -187.1851565053623 0 0 0 0 -950.03297016605984 -1333.3361814771472 0 -1333.3361814771472 -653.63876441775938 0 0 0 0 -184.18876855882263 -665.00269525827616 0 -665.00269525827616 -1298.2031649733485 0 0 0 0 -629.08757796248392 -817.24417791330734 0 -817.24417791330734 26.749538411349334 0 0 0 0 -509.75009984251665 -916.8037578295706 0 -916.8037578295706 -294.86524609765524 0 0 0 0 -507.73828806769961 -593.52275399416703 0 -593.52275399416703 -442.12763709996199 0 0 0 0 -708.13323914204739 -62.403084826781651 0 -62.403084826781651 -438.10421669136781 0 0 0 0 -0.34382221038868011 -173.10911151171206 0 -173.10911151171206 -519.00217398355062 0 0 0 0 -247.33769535075044 -461.16212617750216 0 -461.16212617750216 -416.88997605941904 0 0 0 0 -444.22706539477986 -543.80520570958015 0 -543.80520570958015 335.47954199870128 0 0 0 0 -21.939267563564783 -8.5043347100347724 0 -8.5043347100347724 0.51846468543094726 0 0 0 0 -815.15790304357211 -1213.0631135722206 0 -1213.0631135722206 -619.09383646022366 0 0 0 0 -1011.0847984742722 -1697.7016211480563 0 -1697.7016211480563 -1420.4851212331789 0 0 0 0 -11.600631069809793 -5.8038906097959337 0 -5.8038906097959337 -0.20094331494301704 0 0 0 0 -982.23018193491589 -106.14267926196271 0 -106.14267926196271 -985.5089494114909 0 0 0 0 -1321.9491857146495 87.490016473563173 0 87.490016473563173 679.98234361967866 0 0 0 0 117.28861469337789 23.739534248452401 0 23.739534248452401 -591.23867021320257 0 0 0 0 -267.57920629493856 -163.38013635099765 0 -163.38013635099765 -729.54388538607236 0 0 0 0 -938.01114617766871 35.234391338521164 0 35.234391338521164 -566.61709168823836 0 0 0 0 -514.46274047892075 -438.15546043010272 0 -438.15546043010272 -518.62130228900924 0 0 0 0 -275.10009568097303 -526.70505851313692 0 -526.70505851313692 29.057322291265308 0 0 0 0 -251.01584149544942 -305.99190792000263 0 -305.99190792000263 -477.60938109312519 0 0 0 0 -288.08789587504657 -573.45259749534648 0 -573.45259749534648 -606.11010105988044 0 0 0 0 -487.61826434018985 -489.65074499792718 0 -489.65074499792718 -429.36999382678005 0 0 0 0 -659.95441678467614 -318.07195672371063 0 -318.07195672371063 -432.36885948868894 0 0 0 0 -714.61805581874069 -238.01049581155326 0 -238.01049581155326 -166.97448453428296 0 0 0 0 -718.40919081112952 -262.30086127003415 0 -262.30086127003415 -322.43724156310236 0 0 0 0 -726.45259360593082 -90.960115207456965 0 -90.960115207456965 -504.47204898174277 0 0 0 0 -687.40330866379009 -280.19480247196998 0 -280.19480247196998 -312.18697271911242 0 0 0 0 -938.10410274441529 22.959197782090087 0 22.959197782090087 -561.99723345345728 0 0 0 0 -1131.0045951820721 -1.4402939416268055 0 -1.4402939416268055 -225.32312854229758 0 0 0 0 -1137.9349842761803 35.560551302550266 0 35.560551302550266 -258.34529873304336 0 0 0 0 -1435.7143129073593 255.31856051916111 0 255.31856051916111 -418.78189161110822 0 0 0 0 -1507.5823773567317 67.675579669471517 0 67.675579669471517 -217.48056756676579 0 0 0 0 -1429.9764361812558 477.82403112498923 0 477.82403112498923 -891.88566188276525 0 0 0 0 -923.89051705510792 51.797352402985325 0 51.797352402985325 -580.94132184544469 0 0 0 0 -508.64899668765293 -171.9521864463083 0 -171.9521864463083 -233.45375603487082 0 0 0 0 -762.83122008315331 -236.46703563242227 0 -236.46703563242227 -96.580838538829994 0 0 0 0 -519.42705677315826 -143.54199906184249 0 -143.54199906184249 -22.080542098208753 0 0 0 0 -263.24854280248474 -142.16091157102528 0 -142.16091157102528 -105.48888092516881 0 0 0 0 -297.77760809195024 -90.661184859998684 0 -90.661184859998684 -118.79669160349385 0 0 0 0 -546.6271588501213 -240.97964342548357 0 -240.97964342548357 -103.27912878002371 0 0 0 0 -546.27264453988755 -226.79028779043529 0 -226.79028779043529 -198.36183708412182 0 0 0 0 -339.98391559234369 -153.74945434650181 0 -153.74945434650181 -135.16923071946803 0 0 0 0 -723.04457935790197 -371.38024852736544 0 -371.38024852736544 -201.53452121114697 0 0 0 0 -1303.7621042893516 -379.08271919405843 0 -379.08271919405843 -203.63520731176141 0 0 0 0 -788.1885248950457 -228.8326792078401 0 -228.8326792078401 -502.42202738218975 0 0 0 0 -1003.6668277381432 -1189.6272594385127 0 -1189.6272594385127 -1135.3468389788611 0 0 0 0 -750.37041839610902 -688.38899307795873 0 -688.38899307795873 -519.74012458369816 0 0 0 0 -962.57898388568356 -399.1694904648657 0 -399.1694904648657 -138.5311751299223 0 0 0 0 -724.2671009040605 -327.49301804123934 0 -327.49301804123934 -230.89261175782826 0 0 0 0 -580.84043164203467 -306.13508039170665 0 -306.13508039170665 -213.67595469263415 0 0 0 0 -685.27650983638887 -370.22737763795431 0 -370.22737763795431 -292.92697811036851 0 0 0 0 -679.10098073126119 -289.37206996036048 0 -289.37206996036048 -105.27953420218364 0 0 0 0 -393.67083288831054 -92.366361902741119 0 -92.366361902741119 -81.501961277788723 0 0 0 0 -647.16645602033259 -220.96484416848784 0 -220.96484416848784 -40.904208335188741 0 0 0 0 -403.58048059845532 -139.97502193976379 0 -139.97502193976379 -142.31563536680073 0 0 0 0 -421.89532457041332 -45.969068733308973 0 -45.969068733308973 -1.7545133228286431 0 0 0 0 -127.89067526702638 -97.149241756118499 0 -97.149241756118499 -61.737109000787768 0 0 0 0 -267.3234617047608 36.761911176680883 0 36.761911176680883 12.261698376116328 0 0 0 0 79.195585926732747 113.22497056036309 0 113.22497056036309 19.86132268034271 0 0 0 0 -135.94330578122026 -5.266064560059931 0 -5.266064560059931 53.209296284009497 0 0 0 0 -27.35920437236388 -4.387523644701524 0 -4.387523644701524 0.97484250229130609 0 0 0 0 -212.88360963988725 -40.377053629242653 0 -40.377053629242653 -39.137240406077581 0 0 0 0 -218.42913881498487 21.074330610168602 0 21.074330610168602 31.441644416579948 0 0 0 0 -18.454299050321431 -17.255810233589031 0 -17.255810233589031 16.312204521995547 0 0 0 0 -54.992486420167864 41.643798768157424 0 41.643798768157424 17.298050820524811 0 0 0 0 112.24633037008061 14.935845933022392 0 14.935845933022392 -54.512164759671577 0 0 0 0 -199.28046921638816 -94.284625690844223 0 -94.284625690844223 69.163980000909419 0 0 0 0 -187.97208820165179 9.6064265537315805 0 9.6064265537315805 73.822953891194629 0 0 0 0 -162.29890303153479 -1.5948788722853351 0 -1.5948788722853351 -19.191081960678275 0 0 0 0 -229.64437546857152 -162.01052015108598 0 -162.01052015108598 -80.390809779878055 0 0 0 0 -100.16868186205465 -0.43345710400080861 0 -0.43345710400080861 -21.615868380133634 0 0 0 0 -163.77530613218551 -34.949605360034184 0 -34.949605360034184 14.709867595094693 0 0 0 0 118.79556781441715 -58.577808928618424 0 -58.577808928618424 -149.16860815161908 0 0 0 0 -242.06345605587376 -14.938755672691514 0 -14.938755672691514 76.441883168949062 0 0 0 0 -199.09094040657601 -82.552599662270495 0 -82.552599662270495 55.663004172340152 0 0 0 0 -0.44939375173445528 -17.160300732862325 0 -17.160300732862325 4.8093201836665749 0 0 0 0 -503.78951246279394 155.1254291998298 0 155.1254291998298 35.217664201718435 0 0 0 0 16.266265133977868 -133.39574168042509 0 -133.39574168042509 -87.591219774634737 0 0 0 0 -107.84802137106999 34.466244391756845 0 34.466244391756845 9.4590710990769367 0 0 0 0 -343.98287761050597 -137.85618116950991 0 -137.85618116950991 -12.901142186164179 0 0 0 0 -57.676833962282331 31.108910360064261 0 31.108910360064261 17.489179108137233 0 0 0 0 -265.06801288239512 -96.174554904235492 0 -96.174554904235492 -192.97992802019371 0 0 0 0 -324.38758827073616 -163.03979748324045 0 -163.03979748324045 -109.92903807028698 0 0 0 0 15.492509545789289 34.937140164671746 0 34.937140164671746 -94.161852026620181 0 0 0 0 -197.75266610861581 18.188783326074372 0 18.188783326074372 96.356164961982358 0 0 0 0 -172.27538346920664 70.37297751713686 0 70.37297751713686 91.215086768827405 0 0 0 0 -218.58119116832495 55.956908709748859 0 55.956908709748859 91.640587527926982 0 0 0 0 -56.92830226388287 88.642992026879256 0 88.642992026879256 23.564387078495201 0 0 0 0 -49.067922852422306 38.231311652622558 0 38.231311652622558 16.954624522389057 0 0 0 0 -192.64488689177597 -230.09472260438577 0 -230.09472260438577 -41.689300406564371 0 0 0 0 -399.93708650839471 -229.5061756474966 0 -229.5061756474966 5.7989215138156851 0 0 0 0 -281.2002480713727 -101.66917266360211 0 -101.66917266360211 -88.651922652301209 0 0 0 0 -284.05586272502842 -165.37244981291809 0 -165.37244981291809 3.8069915269036354 0 0 0 0 -316.17578713581679 -66.093172814906552 0 -66.093172814906552 115.05156633791034 0 0 0 0 -197.25943322548846 -183.83685806839685 0 -183.83685806839685 173.20237753018125 0 0 0 0 -452.16767887620517 -82.882356918882124 0 -82.882356918882124 10.432819058647112 0 0 0 0 -400.22049533853715 23.143948272341731 0 23.143948272341731 -13.660676339721249 0 0 0 0 -415.27405044545594 -12.377777138895908 0 -12.377777138895908 29.357475140205679 0 0 0 0 -397.06375063921814 96.97646785860556 0 96.97646785860556 -67.594191658306954 0 0 0 0 -331.82969904387573 -63.074740973958569 0 -63.074740973958569 11.634946817548098 0 0 0 0 -655.04887770081223 77.445436215218251 0 77.445436215218251 57.190684843877079 0 0 0 0 118.27549645943691 -158.9191669266576 0 -158.9191669266576 84.409212994863537 0 0 0 0 -0.32932087221976047 0.40255849789350151 0 0.40255849789350151 1.4109873973161493 0 0 0 0 -79.560023794441804 -8.7824757095766586 0 -8.7824757095766586 157.02843195294918 0 0 0 0 -53.934728530330176 -16.112421427915251 0 -16.112421427915251 62.341630062013564 0 0 0 0 -79.765959952499543 9.9063601300745745 0 9.9063601300745745 62.191528414156437 0 0 0 0 2.096670230563177 75.686070835754776 0 75.686070835754776 107.37048373432299 0 0 0 0 -177.2400786675571 81.931591646509219 0 81.931591646509219 163.49179200226456 0 0 0 0 -136.71609699266264 52.551894716746006 0 52.551894716746006 104.25174188793335 0 0 0 0 -239.29951566887758 35.627109425221704 0 35.627109425221704 119.78650057862029 0 0 0 0 -151.74243531431966 11.552753337246429 0 11.552753337246429 124.97306198535762 0 0 0 0 -139.81976725980712 -9.3960134958526851 0 -9.3960134958526851 110.80100924822148 0 0 0 0 -197.01087924219246 -4.8315013510959943 0 -4.8315013510959943 158.04775121784314 0 0 0 0 -23.324317219022877 0.11280261775271327 0 0.11280261775271327 3.2311408483012123 0 0 0 0 -129.7301885240413 20.578982759046539 0 20.578982759046539 2.5065335917595348 0 0 0 0 -81.434184045526308 17.878614200843401 0 17.878614200843401 -18.509223063754234 0 0 0 0 -0.30236513961065015 1.1470087039617809 0 1.1470087039617809 1.0023489139752977 0 0 0 0 -55.852861684509776 7.014878050345331 0 7.014878050345331 -20.56920854801092 0 0 0 0 -207.63703372352393 -22.565388771320784 0 -22.565388771320784 60.338067755466 0 0 0 0 30.578436466101266 200.55534972341911 0 200.55534972341911 146.65827008913197 0 0 0 0 -110.69116958293307 78.363730087705449 0 78.363730087705449 193.89013076910737 0 0 0 0 -127.26483404255123 130.57223797818239 0 130.57223797818239 85.530883990675875 0 0 0 0 -77.25587047461886 91.91612762273661 0 91.91612762273661 161.73836519422096 0 0 0 0 -217.06459195152866 27.047657577467259 0 27.047657577467259 89.386694177427444 0 0 0 0 -0.34758167687339991 0.90065398024095344 0 0.90065398024095344 1.1275281955239636 0 0 0 0 56.432621482937975 181.99384726893743 0 181.99384726893743 93.514225419575268 0 0 0 0 -122.73506086268026 131.87631415717772 0 131.87631415717772 163.26958784403649 0 0 0 0 -138.34487203288154 6.9342965819980691 0 6.9342965819980691 -5.5206290003139884 0 0 0 0 -93.440923613248742 105.64582013481422 0 105.64582013481422 17.093593580289465 0 0 0 0 -11.930645968895988 146.92592580101518 0 146.92592580101518 35.867438080176044 0 0 0 0 -5.3507066481033689 74.188182185568877 0 74.188182185568877 18.597171520181746 0 0 0 0 -45.733575912017841 82.242572137854481 0 82.242572137854481 -47.684569490197717 0 0 0 0 -61.914129510980274 95.545345812472846 0 95.545345812472846 11.474490678586832 0 0 0 0 -46.927799312841671 90.82734673658571 0 90.82734673658571 -73.31763489524343 0 0 0 0 -72.73566758315792 75.180074457675971 0 75.180074457675971 60.868216573347127 0 0 0 0 -56.360498461217503 77.425715026345415 0 77.425715026345415 33.955858777511594 0 0 0 0 -137.90559422714796 88.373477683447192 0 88.373477683447192 33.5560673481815 0 0 0 0 -100.29646659284845 92.340323267820821 0 92.340323267820821 -147.13908508293719 0 0 0 0 -70.913265563904133 41.252514495773383 0 41.252514495773383 -75.783876484350387 0 0 0 0 -62.696817809347522 76.711772249089535 0 76.711772249089535 -42.698522788964318 0 0 0 0 -142.05519536760403 5.3815100520995998 0 5.3815100520995998 -97.127560940092792 0 0 0 0 -125.06030840652966 151.7132811526499 0 151.7132811526499 -42.624817749564443 0 0 0 0 -279.72576637544989 -50.490730459203874 0 -50.490730459203874 -30.55675555983219 0 0 0 0 -307.70234405380324 -22.934400577099641 0 -22.934400577099641 54.209748312706715 0 0 0 0 -222.07411679661163 -64.521442674165485 0 -64.521442674165485 73.880088037903306 0 0 0 0 -232.32689059451513 7.0566774235858247 0 7.0566774235858247 59.254522811796164 0 0 0 0 -243.50854492525104 110.44985227341323 0 110.44985227341323 75.406145600929619 0 0 0 0 -122.41696474865603 74.507626594324392 0 74.507626594324392 -29.529046720666543 0 0 0 0 -254.27962539765576 163.05226645828751 0 163.05226645828751 -88.924381393385929 0 0 0 0 -369.3688224269863 25.917396384843755 0 25.917396384843755 62.904140004631365 0 0 0 0 -124.606051966839 58.773516611395166 0 58.773516611395166 -111.06200845290087 0 0 0 0 -381.1965609543513 269.84521219749405 0 269.84521219749405 -267.74184027004185 0 0 0 0 -632.93131310414901 -75.685599511382634 0 -75.685599511382634 -19.830634782622155 0 0 0 0 -337.34044367935348 -204.18905469933839 0 -204.18905469933839 -239.44713375760932 0 0 0 0 -347.16972101486181 17.790220822762876 0 17.790220822762876 30.050145010446613 0 0 0 0 -273.08435639659729 -126.64629875327955 0 -126.64629875327955 -302.24632274562163 0 0 0 0 -810.97107681355919 57.724952754940887 0 57.724952754940887 -12.471503130675273 0 0 0 0 -100.77057101935355 -1.7348395385084543 0 -1.7348395385084543 8.1638368547452664 0 0 0 0 -666.35739059929983 70.595121423553792 0 70.595121423553792 88.140828384046472 0 0 0 0 -25.411600581552193 15.591941157523479 0 15.591941157523479 -348.26724484462909 0 0 0 0 -19.449921071014586 -6.2239936120458452 0 -6.2239936120458452 2.0862795061431347 0 0 0 0 -354.79759990941409 10.524019713321422 0 10.524019713321422 196.03474602376548 0 0 0 0 -313.80928436859233 65.329886114585065 0 65.329886114585065 75.964043345557911 0 0 0 0 -352.6318242344737 30.376611096538397 0 30.376611096538397 133.23264282099626 0 0 0 0 -390.44419603989718 -6.8960018780587689 0 -6.8960018780587689 102.08718246212925 0 0 0 0 -275.61924882112271 -103.26830305792568 0 -103.26830305792568 -99.715102078720861 0 0 0 0 -4.1690732402610706 -1.1446364800819198 0 -1.1446364800819198 0.0032250349027683756 0 0 0 0 -29.98509599895624 -20.152568987895961 0 -20.152568987895961 -99.190178659670778 0 0 0 0 -101.23317188960209 194.70995241261755 0 194.70995241261755 -260.91301687677583 0 0 0 0 -407.10086793844675 247.92212730130512 0 247.92212730130512 -55.188077547387593 0 0 0 0 -88.349783198711521 -4.5801388050111598 0 -4.5801388050111598 -60.581753423887562 0 0 0 0 -17.140797139451024 10.954724061942102 0 10.954724061942102 -180.39164649929444 0 0 0 0 -9.8167960782294443 10.837842503620831 0 10.837842503620831 -0.55588647405872993 0 0 0 0 -313.07323634901041 55.08550338419937 0 55.08550338419937 216.50352919106695 0 0 0 0 12.519219610621803 97.393183072831548 0 97.393183072831548 -178.55387529028633 0 0 0 0 3.2713786046406312 100.88933460445548 0 100.88933460445548 10.315751172364688 0 0 0 0 -79.758587578777139 25.030025825844653 0 25.030025825844653 6.2402058562620768 0 0 0 0 -210.92046961504821 9.4456808136277743 0 9.4456808136277743 110.68440577275064 0 0 0 0 -383.74238600175886 158.23647221728586 0 158.23647221728586 -16.32775216139791 0 0 0 0 -356.10303895838297 -148.54386357825805 0 -148.54386357825805 107.66461013600798 0 0 0 0 -79.769992220014146 39.593669050396556 0 39.593669050396556 0.043284377462110335 0 0 0 0 -114.52576211623818 52.086900879963736 0 52.086900879963736 119.88975288033087 0 0 0 0 -128.21262106250924 381.41840783075855 0 381.41840783075855 421.808361172302 0 0 0 0 -291.78237332966455 -30.625369707396572 0 -30.625369707396572 220.83582700325479 0 0 0 0 -67.944820115714208 155.80140549211626 0 155.80140549211626 235.69463855999498 0 0 0 0 -334.68858204874505 23.88787496743322 0 23.88787496743322 183.83856292715996 0 0 0 0 -321.90496904643351 151.22000691399444 0 151.22000691399444 418.19720252000644 0 0 0 0 -327.52548846813625 -12.831420097834098 0 -12.831420097834098 191.78829252373384 0 0 0 0 -303.98697916269259 10.30182463131473 0 10.30182463131473 176.96175612428135 0 0 0 0 -371.2940670042168 22.017016945036815 0 22.017016945036815 204.82040702796246 0 0 0 0 -404.2851603112797 -35.55627039404672 0 -35.55627039404672 190.39466192516772 0 0 0 0 -255.44975786295572 -82.359055276214264 0 -82.359055276214264 154.19805624294628 0 0 0 0 -350.53166827034238 -90.603219449285902 0 -90.603219449285902 198.33376320390477 0 0 0 0 -328.49050452537017 -22.14982978168041 0 -22.14982978168041 104.81371239243504 0 0 0 0 -209.97042301920192 -70.659507108761545 0 -70.659507108761545 83.29070311730402 0 0 0 0 -253.14472561138973 -82.213563086196004 0 -82.213563086196004 83.238594435380264 0 0 0 0 -186.93174537751747 -115.60382392520694 0 -115.60382392520694 50.69064636417005 0 0 0 0 -1216.3891588111401 -218.18450066921514 0 -218.18450066921514 30.64558780930939 0 0 0 0 -966.08373018541351 -281.98592017638089 0 -281.98592017638089 3.2771215248208136 0 0 0 0 -194.02295402594291 -39.619200103800381 0 -39.619200103800381 53.473899652272394 0 0 0 0 -110.3927241270444 -86.381217289466917 0 -86.381217289466917 34.897859532336042 0 0 0 0 -3.3087472097180624 -16.662389386862163 0 -16.662389386862163 -0.6517414546248852 0 0 0 0 -348.95567835831298 -40.86435677988834 0 -40.86435677988834 83.657661822299815 0 0 0 0 -3.3167231315635632 -18.13799820231467 0 -18.13799820231467 -0.61928179291577123 0 0 0 0 -396.03609136429804 -209.39317271431537 0 -209.39317271431537 -102.36825717162878 0 0 0 0 -883.46720838689225 -234.65132216894187 0 -234.65132216894187 29.788286342055926 0 0 0 0 -398.89412975400046 -229.07475000169757 0 -229.07475000169757 -14.466735851590784 0 0 0 0 -150.29811703527139 136.8413023952931 0 136.8413023952931 -236.11522531727496 0 0 0 0 -506.80238280635785 -180.11348673566772 0 -180.11348673566772 213.55980828426254 0 0 0 0 -3.5766124677403894 -2.3169633427381378 0 -2.3169633427381378 0.32180614942092123 0 0 0 0 -170.44766826215982 209.43876389053412 0 209.43876389053412 -234.96853712304892 0 0 0 0 -139.90574521133931 -147.86141216008809 0 -147.86141216008809 12.084394830855672 0 0 0 0 -256.78103046381329 -144.95127125859881 0 -144.95127125859881 67.757700599339387 0 0 0 0 18.083727673964859 -39.383647769742993 0 -39.383647769742993 -6.7677035876467926 0 0 0 0 -7.1390629567065922 10.102313894749701 0 10.102313894749701 0.70794946449237695 0 0 0 0 -144.67611824328196 45.655033134130463 0 45.655033134130463 161.90167817987856 0 0 0 0 23.993421975312913 64.105445847200826 0 64.105445847200826 -10.419937235960788 0 0 0 0 -16.373967771165294 0.30040633227416347 0 0.30040633227416347 5.4482606843877264 0 0 0 0 100.2139823219577 136.75045216176386 0 136.75045216176386 -20.003786913468502 0 0 0 0 -120.5925619218242 100.6966265755359 0 100.6966265755359 76.30617458402503 0 0 0 0 -223.8843999162973 34.539187775977098 0 34.539187775977098 71.426594909309642 0 0 0 0 -366.69351860887218 171.3561714313737 0 171.3561714313737 82.176184497184749 0 0 0 0 -200.16765493627179 7.196891700056085 0 7.196891700056085 92.652035381584938 0 0 0 0 -223.87968992698461 -44.795194282126147 0 -44.795194282126147 41.549830234727324 0 0 0 0 -128.4006545977918 -31.766565441639614 0 -31.766565441639614 43.008458067050924 0 0 0 0 
</DataArray>
<DataArray type="Float64" Name="cross_section_updated" format="ascii">
1 1 1 1 1 1 0.0087951794831241884 1 1 0.0069484698193314591 1 1 1 0.010106524670516264 1 1 0.0049371850507778509 1 0.006763360050226673 1 1 0.0072673933481351653 1 1 1 1 0.0029116696269146022 1 1 0.0079369741217110417 1 1 1 0.010335820852949408 1 0.010041032511189204 1 1 1 1 1 1 0.0047005447356487928 1 1 1 1 1 0.0078503590276917321 1 1 1 1 1 1 0.0095066107774372105 1 1 1 0.0095219147703973807 1 1 1 1 1 1 1 1 1 0.0092520925429216451 1 1 1 1 1 1 1 1 1 0.0099914129390042683 1 1 1 1 1 1 0.010124269767040181 1 1 1 1 1 0.010571308179749496 1 1 1 1 1 1 1 0.01191934096303956 1 1 1 1 1 1 1 1 1 1 0.010264213358385371 1 1 1 1 1 1 0.0099558361111519271 1 1 1 1 1 0.0073005866519005938 1 0.0066541350776889666 1 1 1 1 1 1 1 0.0095943639607602976 1 1 0.0093494850212909597 1 1 1 1 0.0087606390050746392 1 1 1 1 0.010277796906760747 0.0068393237365942279 1 1 1 1 1 1 1 0.0060884640485512394 1 1 0.0096470866357300476 1 1 0.0099520150717408145 1 1 0.0099737460214172641 0.0098522995838260553 1 1 1 1 1 1 1 1 0.0099428811332525208 1 1 1 0.0099749740156034484 1 1 1 0.0099980607330520249 0.010000088600725229 1 1 1 1 1 1 0.010117439383117936 1 1 1 1 1 1 1 0.011032835368822207 1 1 1 1 0.0099929300436908432 1 1 1 1 0.010483809198437371 1 1 1 1 1 1 1 1 1 1 1 1 1 0.0097171626849229462 1 1 1 1 1 0.0092240208366553209 1 1 1 1 1 1 1 1 1 1 1 1 1 1 1 1 1 1 1 1 1 1 1 1 1 1 1 1 1 0.0092124672720286325 1 1 1 1 0.008503587644621783 1 1 1 1 1 1 0.0078062909096136262 1 1 1 0.010022358471614635 1 1 1 1 0.0067889133347779212 0.0092885714823640036 1 1 1 1 1 1 1 1 1 0.0099915846331396496 1 1 1 1 1 1 1 0.0052930606297482141 1 1 1 1 1 0.0097984820516049641 1 1 1 1 1 1 1 1 1 1 1 1 1 1 1 1 0.0097620700499417082 0.0095950132324120196 1 1 1 1 1 0.0026990617496949823 1 1 1 1 1 0.0010224717387080848 1 1 1 1 1 1 0.0098204164869183704 1 1 1 1 1 0.010001439171192726 1 0.0095449103054070696 1 1 0.010122617670548941 1 1 0.0097440939091510449 1 0.0045936847784720791 1 1 1 0.011555063922330536 1 1 1 0.0098068394016170915 1 1 1 1 1 1 0.0087226914956549592 0.012142316990066047 1 1 1 1 1 1 0.0065326617632627468 0.011747455110260615 1 1 1 1 1 1 0.0077977029187028882 1 0.0031861531104759797 1 1 1 0.0026334488705003559 1 1 1 1 1 1 1 1 1 1 1 1 1 1 0.0099398838289390598 1 1 1 1 1 0.0092212695781953569 0.0092800658051650411 1 1 1 1 1 1 1 0.007121269073328669 1 1 1 1 1 1 1 1 1 1 0.0096638911878633785 1 1 1 1 1 1 1 0.0031012859425012494 1 1 1 1 1 1 1 1 1 1 1 1 1 1 1 1 1 1 1 1 1 1 1 1 1 1 1 1 1 1 1 1 1 1 1 1 1 1 1 1 1 1 1 1 1 1 1 0.0096613948952784072 1 0.0098882992273629858 1 1 1 1 1 1 0.008162495682138355 1 1 1 1 1 1 1 1 1 1 0.0082569151458707531 1 1 1 0.0055553089587732207 0.0028329533014939626 1 1 0.0070421836005037618 1 1 1 0.007748129004637682 1 1 1 0.0090667760601611871 1 1 1 1 1 1 0.0091797866989650218 1 1 1 1 1 1 1 1 1 1 1 1 1 0.010131356530349463 1 1 1 0.0052995992294177785 1 1 0.008219311586214334 1 1 1 1 0.013703795937324802 1 0.0062454567933835428 1 1 1 0.012989112725947469 1 1 1 0.012017802862689069 1 1 1 1 1 1 1 1 1 1 1 1 0.0090998477359613902 1 1 1 1 0.0045084604560321831 1 0.010203965414592051 1 1 1 1 1 1 1 1 1 1 1 1 0.0011187716337407744 1 1 1 1 1 1 1 -9.3052701204132671e-09 1 1 0.0080758492670296549 1 1 0.0016007541958601903 1 1 1 1 1 1 1 1 1 1 1 1 1 1 1 1 1 1 1 1 0.0089334072378011876 1 1 1 1 0.0089378843236768476 1 1 1 1 0.0028565243594716044 1 1 1 1 0.0071737648317734583 1 1 1 1 1 1 1 1 1 1 1 1 1 1 1 1 1 1 1 1 1 0.007117898946587457 1 1 0.011482431832153134 0.0082103007290703425 1 1 1 1 1 1 1 1 1 1 1 1 1 1 1 1 1 1 1 1 1 1 1 1 1 0.0097735985648061598 1 1 1 0.0027577774845949643 1 0.0096382846059058069 1 1 0.014193887068229728 1 1 0.0051764559837078963 1 1 0.0028197267891941005 1 0.004726050434311891 1 1 1 1 0.00079156162073604208 1 -4.9548745245653336e-09 1 1 1 1 1 0.0026956787028972473 1 1 1 1 1 1 1 1 1 1 1 1 1 1 1 1 1 1 1 1 1 1 1 1 1 1 1 1 0.0078990628667328089 1 1 1 1 1 1 1 1 1 0.0090187669380158743 1 0.0081994506690344325 1 1 1 1 1 0.0089287256999512933 1 1 1 0.009773095667915432 1 1 1 1 1 1 1 1 1 1 1 1 1 1 1 1 1 1 1 1 1 1 0.008970337166781514 1 1 1 1 1 1 1 1 1 1 9.1694732709535209e-10 1 1 1 0.0013424827117143531 1 1 1 0.0041814437932125581 1 1 1 1 1 1 0.0048350289142385459 1 1 1 1 0.007602419380645993 1 1 1 1 1 0.007804886300354601 1 1 1 1 1 1 1 0.007932392971610339 1 1 1 1 1 0.0064283337618491945 1 1 1 0.0067113694088729303 1 1 1 1 0.0080692743680140545 1 0.007890524679889304 0.007728573236960334 1 1 1 1 1 1 0.0093970221807523121 1 0.0081233015938365401 1 0.0099740282119523439 0.010389588257658145 0.0074759388316946937 0.0080709190353699771 1 1 1 0.0086979758323792091 1 1 1 0.0095203528487429762 1 1 1 1 0.0084906231963703151 0.0098196518119325893 1 1 1 0.0099982024730956368 0.0091370617514810598 1 1 1 1 0.0083302547698530238 1 1 1 1 1 0.0090866593570124443 1 1 1 1 1 1 1 0.0031416004879668584 1 1 1 1 1 1 1 1 1 0.010162231895283614 1 1 1 1 0.002767515665477378 1 1 1 1 1 1 1 -2.3980119409280909e-10 1 1 0.01004750925427322 0.0098977114763189478 1 1 0.0098076088698092027 1 1 1 1 1 1 1 1 1 1 0.0075548362404055172 0.0041156879022244373 0.0069174080478637441 1 1 0.0083725807781824136 0.00554065767098304 1 0.0098589296449163172 1 1 1 1 1 0.0048613103112279017 0.0060912195842627052 1 1 1 0.0067677008480728218 1 1 0.002819417284469803 0.0098904172377857376 1 1 1 0.0050955129658979866 1 0.0065809025437472586 0.010001787546853864 1 1 1 1 1 0.010031260552818376 0.0094979475699694307 1 1 1 1 1 0.0050388925517905279 1 1 1 0.0097241125357708375 1 1 1 1 1 0.0046155293884038934 1 1 1 1 1 1 1 1 1 1 1 1 1 1 0.010280134173964303 1 1 0.0090422802003305713 1 1 1 1 1 1 1 1 0.0087431925542546494 0.0097903240220109863 1 1 1 1 0.0088654073148795223 1 1 1 0.0055744598027856786 1 1 0.0067951936449303363 0.011209241844565867 1 0.0087159311179643966 1 1 1 0.0091482442576469002 0.007913918317766281 1 0.0063863315518810802 0.0090940798859197435 1 1 0.0013833546211467272 1 1 1 0.0099812734952562134 1 1 1 1 1 -3.1626696788810554e-09 1 0.0010486408300803887 1 1 0.010005785658683812 1 1 1 1 1 1 1 1 1 1 1 1 1 1 0.010716021411201584 1 1 1 1 1 1 1 1 1 1 0.0042805864815046342 1 1 1 0.0073176262249229542 1 1 1 1 1 0.0084249140316823654 1 1 1 1 1 1 1 1 1 1 1 1 1 1 1 1 1 1 1 1 1 1 1 1 1 0.0091854862018259653 1 1 1 1 1 1 0.0048142948603546185 1 0.0078095100025559637 1 0.0027647085708094928 0.0054772380141693139 1 1 0.0099697490298072799 1 1 0.010439721697125761 1 1 0.0090025258737062627 1 1 1 1 1 1 1 0.0095805674959502235 1 1 1 1 1 0.0061556910507677403 1 1 1 1 1 0.0084489642632816046 1 1 1 1 1 1 1 1 1 1 1 1 1 1 1 1 1 1 1 1 1 1 1 1 0.0097712259341346634 1 1 1 1 1 1 0.0098037950826083322 1 1 1 1 1 1 1 1 1 1 1 1 1 1 1 1 1 1 1 0.009337401105057215 1 1 1 1 1 1 1 1 0.0097174611746035384 0.0099916606488971854 1 0.0089018052610825519 1 1 1 1 1 1 1 1 1 1 1 1 1 1 1 1 1 1 1 1 1 1 1 1 1 0.010415106020043825 1 0.0068108505878043575 1 1 0.0089309303947717258 1 1 1 1 1 1 1 1 1 1 1 1 1 1 1 1 1 1 1 1 0.0084743551331255135 1 1 0.0077510458180672578 1 1 1 1 1 1 0.018720953070328523 1 1 1.5843476686844271e-09 1 1 1 1 1 1 1 1 1 1 1 1 1 1 0.0049500234550812067 1 1 1 1 1 1 1 1 0.010189954354125173 1 1 1 1 1 0.0066478631933145453 1 1 0.012628612182532835 1 1 1 1 1 1 1 1 1 1 1 1 1 1 1 1 1 1 1 1 1 1 0.013115244418418657 1 1 1 1 1 1 0.012493608462623929 1 0.010720228256820157 1 1 1 1 1 1 1 1 1 1 1 1 0.010019789185810722 1 1 1 1 0.017452528109527243 1 0.0056468721459378909 1 1 1 1 0.003696739781695174 1 0.0022372208373317819 0.0051862020158455584 1 0.0028111520073059535 1 0.012860272650590423 1 0.0053619228131595639 1 0.011877916735607561 0.01188631826535792 1 1 1 0.0035111110976031009 0.010118768483166386 0.0058888545375690229 3.2062920416877499e-05 1 0.0054743025738492931 0.0096295983405320189 1 1 1 1 0.003067513583831713 1 0.0094203790173406163 0.010132907190631835 1 0.010151885157333135 -4.9539341379079005e-10 1 1 1 0.0065570803912650567 1 1 1 1 0.0098595843668684621 1 1 0.0023387369096236049 1 1 0.0097839696794033721 1 1 1 1 1 0.010386681133870956 1 0.01000630130316655 1 1 1 1 0.01372298355691187 1 1 0.0044235164653581866 1 1 1 1 1 0.013556988922641728 1 1 0.010041645998904825 1 0.010221905396684973 1 1 1 1 1 1 0.0057895589963789778 1 1 0.0069272013536398292 1 0.0069141440699988753 1 1 0.0035684688636858928 1 1 1 0.0088029640524222054 1 1 0.0079445797980495364 1 1 0.0096215675911930053 0.0029220865991448543 1 1 1 0.010403451348286009 1 1 0.011270886495425209 1 0.0087814150311782968 1 1 1 1 1 -2.785842147245976e-10 1 1 0.010612822790576491 1 1 1 1 0.0056317297393942249 0.004182270557247094 1 1 1 1 1 1 1 1 0.0035961972562017514 0.0036742121996647184 1 1 1 0.0099756130959047871 1 0.0019753088328727927 1 1 0.0068783183494216336 1 1 1 0.010075472115998949 1 1 1 1 1 1 1 1 1 1 1 1 1 1 1 1 1 1 1 1 1 1 1 1 1 1 1 1 1 1 1 1 1 0.010210428269626671 1 1 1 1 1 1 1 0.010133494211705221 1 1 1 1 1 1 1 1 1 1 1 1 1 0.0097098950680610634 1 1 1 0.0075910171068674301 1 1 0.009868675560996085 0.0036527882431503247 1 1 1 1 1 1 0.0099823510157007293 0.0013528558014071542 1 1 1 1 1 1 1 1 1 1 1 1 1 1 1 1 1 1 1 1 0.0065430884389172453 1 1 1 1 1 1 1 1 1 0.010099320366944275 1 1 0.012788604779161401 1 1 1 1 1 1 1 1 1 1 1 1 1 1 1 1 1 1 1 1 1 1 1 1 6.4881864464405581e-10 1 1 0.0015967060806932939 1 1 1 1 1 1 1 1 1 1 1 1 1 1 1 0.0010719143513490473 1 1 1 1 1 1 1 1 1 1 0.0027629016151887974 1 1 1 1 1 1 1 1 1 1 1 1 1 1 1 1 1 1 1 0.0015250190722463624 1 1 1 1 1 1 0.0080743863655630202 1 1 1 1 1 1 1 1 1 1 1 1 1 1 1 1 1 -5.6323038594152663e-10 1 1 1 1 1 -1.695110975197256e-09 1 1 1 0.0087201415416016202 1 1 1 1 1 1 1 1 1 1 1 1 1 0.010849163646486148 1 1 1 1 1 1 0.010558752552283583 1 1 1 1 1 0.0008802780231263168 1 9.7997469340749266e-10 1 0.0066050622158069956 1 0.011907757436301576 1 1 1 1 1 1 1 1 1 1 1 1 1 1 1 1 1 1 1 1 0.010486625379772135 1 1 1 1 0.010181030102907083 1 1 1 1 1 1 1 1 1 1 1 1 1 1 1 1 1 1 0.010189354390736665 1 1 1 0.0078726819926308606 1 0.012306577739497665 1 1 1 1 1 0.0038368455421893717 1 1 1 1 1 1 1 1 1 1 0.00091418700463974031 1 1 1 1 1 1 0.0065425504636617109 1 1 1 1 1 1 1 1 1 1 0.017622980099261658 1 0.0092151067128248242 1 0.014674964348391375 1 1 1 1 1 0.0094010270816835672 1 1 1 1 1 0.0064339939119502651 1 1 1 1 1 1 1 0.0070153155814672687 1 1 1 1 1 1 1 0.0082305060669741036 1 1 1 1 0.0092646258233052871 1 0.008401353122989761 1 1 1 1 1 1 1 1 1 1 0.0078324219712035438 1 1 1 1 1 0.0091700018426306689 1 1 1 1 1 1 1 0.0085809721794679848 1 1 1 1 0.0088233309882996078 1 1 0.0069151599128995664 1 1 1 0.0094442448797835161 1 1 1 1 1 1 1 0.0067125640075324025 1 1 1 1 1 1 1 1 1 1 0.0090126281099623951 1 1 1 1 0.0062638070847562191 1 1 1 1 1 1 1 1 1 1 1 1 1 1 1 1 1 1 1 1 1 1 1 1 1 1 1 1 1 1 0.010581392006406936 1 1 1 0.010284121017371466 1 1 1 1 1 1 1 1 1 1 1 1 1 1 1 0.002919919489793317 1 1 1 1 1 0.0066561124050370998 1 1 1 1 1 1 1 1 1 1 0.0035003319163706068 1 1 1 1 1 1 1 0.0073987599945488439 1 1 1 1 1 1 1 1 0.0086897434445196015 1 1 1 0.0094278877573330221 1 1 1 1 1 1 1 1 1 1 1 1 -2.2460973012061736e-09 0.0086037781284079573 1 1 1 1 0.0092865038336940459 1 1 1 1 1 0.006350532813262498 1 1 1 1 0.0014037235808373044 1 1 1 1 1 1 1 1 1 1 1 1 1 1 1 1 1 1 0.0095113450248506502 1 1 1 1 0.0099807750100395186 1 0.0093632781366851294 1 1 1 1 1 1 1 1 1 1 1 1 1 1 1 0.010141232187953875 1 1 1 1 0.010644216296628749 1 1 1 1 1 1 1 1 1 0.0098519331118344655 1 1 1 1 1 1 1 1 1 1 1 1 1 1 1 1 1 1 1 1 1 1 1 1 1 1 1 1 1 1 1 1 1 1 1 1 1 1 1 0.011365616755786758 1 1 1 1 1 1 0.0086115450986978745 1 1 1 1 1 1 1 1 1 1 1 1 1 1 1 0.0018683059826354355 1 1 1 1 1 1 1 1 1 1 1 1 1 1 0.0090883248592816511 1 1 1 1 1 1 1 0.010990609158997281 1 1 1 0.012155903494086732 1 1 1 0.0044852396941507458 1 1 1 1 0.010331947661265828 1 1 1 1 0.01099886226570587 1 1 1 1 1 1 1 1 1 1 1 1 1 1 0.010166738300409619 1 1 1 0.010404501896229455 1 1 1 -2.0784379772820216e-10 1 1 1 0.0099031042260339479 1 0.0097104953526089381 1 1 1 1 1 1 1 1 1 1 1 1 1 1 1 1 1 1 1 1 1 1 1 1 1 1 1 1 1 1 -1.7893570791738256e-09 1 1 1 1.1698434096429899e-09 1 1 1 1 0.0048731145204088649 1 1 1 1 0.0073490703271729095 1 1 1 1 1 1 0.010109108846893707 1 1 1 1 1 1 1 1 1 1 1 1 1 0.0081962146841821452 1 1 1 0.0080931123642807128 1 1 1 1 1 0.0092625160154287591 1 1 0.0074748483023405528 1 1 0.010184854112032966 1 1 0.0088610985796783066 1 1 0.01144190266541617 1 1 1 0.01000562223454061 1 1 0.0093874480655392872 0.0016790162465293856 1 1 0.0066313044635549351 0.010484476547011838 1 1 0.0014999917671282698 1 1 1 1 1 1 1 0.010120812730119316 1 1 1 1 1 1 0.0092423186445519945 1 1 1 1 0.0099882923230463754 1 0.0089409097540666983 1 1 1 0.0099587442581257086 1 1 1 1 1 1 1 1 0.0066967475647589231 1 1 1 1 0.0092223276163109352 1 0.010038055364448151 1 1 1 0.0098602110049855612 1 1 1 1 1 1 1 0.0096732244746779439 1 1 1 1 1 1 1 1 1 1 1 1 1 1 1 1 1 1 1 1 1 1 1 1 1 1 1 1 1 1 1 1 1 1 1 1 1 1 1 0.010276735646566646 1 1 1 1 0.0099257881678830144 1 1 1 1 1 1 1 0.010093328248260234 1 1 1 1 0.010035777727362796 1 1 0.009971091468475031 1 0.0099372631538745555 1 1 1 1 0.009888542292612882 1 1 1 1 0.0097096750328272644 1 1 1 1 1 1 1 1 1 1 1 1 1 1 1 1 1 1 1 1 1 1 1 1 1 1 1 1 1 0.0087847892578726532 1 1 1 1 1 1 1 1 1 1 1 1 1 1 1 1 0.0095229335706860686 1 1 1 1 1 1 1 1 1 1 1 1 1 0.0086553156956724747 1 1 1 1 1 1 1 1 1 1 1 1 1 1 1 1 1 1 1 1 1 0.0095869818374627117 1 1 1 1 1 1 1 1 1 1 1 1 1 1 1 0.0089257382314341244 1 0.010093753109894315 1 0.008517720453659075 1 1 1 1 0.009590694154694674 1 1 1 1 1 1 0.0090713821383292328 1 1 1 1 1 1 1 1 1 0.009864384678980518 0.0095793844520125297 1 1 1 1 0.009151213333472491 1 1 1 1 1 1 1 1 1 1 1 1 1 0.0096601578100011295 0.0091346532942976622 1 1 1 0.010122057303834838 1 1 1 0.010087543807268133 1 1 1 1 1 1 1 1 1 1 0.0082858666277701581 1 1 1 1 1 1 0.010241634540333637 1 1 1 1 0.010097113200807578 1 1 1 1 1 1 1 1 0.0094356623852599672 1 1 1 1 1 1 1 1 1 1 0.0099948466741545429 1 1 1 1 1 1 1 0.0098931399744386916 1 0.0098004162858522786 1 1 1 1 1 1 1 1 1 1 1 1 1 1 1 1 1 1 1 1 1 1 1 0.0099728707112991671 1 1 1 1 1 0.009880147022712775 1 1 1 1 1 1 1 1 1 0.0059779012996213701 1 1 0.011354582801520404 1 0.0062603680393474234 1 1 1 0.0091602624633439211 0.010243335562116564 1 1 0.010020743689910752 1 1 1 0.0028815188406229458 1 1 1 1 1 1 1 1 1 1 1 1 1 1 1 1 1 1 1 1 1 1 1 0.0097505264639440106 1 1 1 1 0.010274768449724671 1 1 1 1 1 1 1 1 1 1 1 1 1 1 1 1 1 1 1 1 1 1 1 1 0.0020987302722789702 1 1 1 0.007987346762842476 1 1 1 1 1 1 1 1 1 0.0041375526767294529 1 1 1 1 0.0099328884209305846 1 0.0098329776364538164 1 1 1 1 1 0.0054063931038700261 1 1 1 0.010151500221336138 1 1 1 1 1 1 1 1 0.00015193307997127953 1 1 1 1 1 1 1 1 1 1 1 1 1 0.0093380470267790967 1 1 1 1 0.0087596162643681467 1 1 1 0.0091734545493773502 1 1 1 1 0.0090980168807320017 1 1 1 1 1 1 1 1 1 1 1 1 1 1 1 1 0.0098924879118608804 0.010195824315894143 1 1 1 1 1 1 1 1 1 1 1 1 1 1 1 1 1 1 0.010939798729332423 1 1 1 1 1 1 1 1 0.013023790453608564 1 1 1 0.0087712005071619061 1 1 1 1 1 1 1 1 1 0.010395118988774944 1 1 1 1 0.010236801406735082 1 1 1 1 1 1 1 1 1 1 1 0.015369721335864447 1 1 1 1 1 1 1 0.013198029782759734 1 1 1 0.01095503443460131 1 1 1 1 1 1 1 0.0086726672898097962 1 1 1 1 1 1 1 1 1 1 1 1 1 1 1 1 1 1 1 1 1 1 0.0068564475025704435 1 1 1 0.0096515180586330164 1 1 1 1 1 1 1 1 1 1 1 1 1 1 1 1 1 1 1 1 0.0087833690719156914 1 1 1 1 1 1 0.0068734796287088576 1 1 1 1 0.001879217642225213 1 0.0098821231054997058 0.014370117270282749 0.0097458288045407359 1 1 1 1 1 0.0095989674899172629 1 1 1 1 1 1 1 1 1 1 1 1 1 1 1 1 1 1 1 1 1 1 1 1 1 0.010767823391696543 1 1 1 1 1 1 1 1 0.010738511031089013 1 0.0088708529287996225 1 1 1 1 1 1 0.0090211492311768043 1 1 1 1 1 1 1 1 1 1 1 1 1 1 1 1 1 1 1 1 1 1 1 1 1 1 1 1 1 1 1 1 1 1 1 1 1 0.0080465552119584269 1 1 1 0.0050174629127618595 0.0033715546013583786 1 1 1 1 1 1 0.012085888802256313 1 0.0035159805722619064 1 1 1 1 1 0.010590886980890045 1 1 1 1 1 0.01013961772365809 1 1 1 1 1 1 1 1 0.007510645613172752 1 1 1 1 1 1 1 1 1 1 1 1 1 1 1 1 1 1 1 1 1 1 1 1 1 1 0.0037439359959222616 1 1 1 1 -9.0193995327947363e-10 1 1 1 1 0.010301291192651132 1 1 1 1 1 1 -6.8929829205588433e-10 1 1 -2.9824332933858777e-10 1 1 0.011517065873912203 1 1 0.010417948559026585 1 1 1 1 1 1 1 1 1 1 1 1 1 1 1 1 1 1 1 1 1 1 1 1 1 1 1 1 1 1 1 1 1 1 1 1 1 1 1 1 1 1 1 1 1 1 1 1 1 1 1 1 1 1 1 1 1 1 1 1 1 1 1 1 1 1 1 1 1 1 1 1 1 1 1 1 1 0.0072098581862047526 1 1 1 1 1 1 1 1 1 1 1 1 1 1 1 1 1 1 0.00050617068432925669 1 1 1 0.013650512758355868 1 1 1 0.0012780048010474013 1 1 0.008479786867559562 1 1 0.0096928008517008155 1 1 1 1 1 1 1 1 1 1 1 1 1 1 1 1 1 1 1 1 1 1 1 1 1 1 1 0.010285493459341509 1 0.010921859385373926 1 1 1 1 0.012449069094433846 1 1 1 1 1 1 1 1 1 1 1 1 1 1 1 0.00078534053352458805 1 1 1 1 1 1 1 1 1 1 1 1 1 0.0072455519865350718 1 1 1 1 1 1 1 1 0.002665644776735171 1 1 1 1 1 0.0073663841289470372 1 1 0.0026466128106094958 1 0.015346484644403417 1 1 0.01213264150577564 1 1 1 1 1 1 1 1 1 1 1 1 0.0049222634843702727 1 1 1 1 1 1 0.010346433377851081 1 1 1 1 1 0.0072497687902163526 1 1 1 0.0029881290674764853 1 1 1 1 1 1 1 1 1 1 1 1 1 1 1 1 1 1 1 1 1 1 1 0.010999404247106999 1 1 1 1 1 1 1 1 1 1 1 1 0.010750348194345354 1 1 0.010251134267214886 1 1 1 1 1 1 1 1 1 1 1 1 1 1 0.0077967491021554373 1 1 1 1 1 0.0070180431633724673 1 1 1 1 1 1 1 1 1 1 1 1 0.0086699011632768094 1 1 1 1 1 1 0.0075086550144138967 1 1 1 1 0.0032452503449500111 1 1 1 1 1 1 1 1 1 0.010501279276865795 1 1 1 1 1 1 1 1 1 1 1 1 1 1 1 1 0.0099991312157552813 1 1 1 1 0.010045233852617158 1 1 0.0039319730328003805 1 0.00024304757524384879 1 1 1 1 1 1 1 1 1 0.012318895951258121 1 1 1 0.01051027094409158 -2.5038441112124055e-10 1 1 1 1 1 1 1 1 1 1 1 0.0020579187933345931 1 1 1 1 1 1 0.011339701285103931 1 1 0.010332398093131467 1 1 1 1 1 1 1 1 1 1 0.0078840589343423095 1 1 1 1 1 1 0.0053804207966959214 1 1 1 1 1 1 1 1 1 0.0074685464202339947 1 1 0.0067292122188417382 0.0075343518931082687 1 1 1 1 1 1 1 1 1 1 1 1 0.007974530783840212 1 0.0074985274429610581 1 1 0.0055544871858169212 1 1 1 1 1 1 0.0067542093838813232 1 1 1 1 1 1 1 1 1 0.0093327041110151613 1 2.6305248188029928e-09 0.0081632214192532693 1 1 0.0081735193495802889 1 0.0085070161158111134 1 1 1 1 1 0.0090033970877433853 1 1 1 1 1 0.0085239103999982229 1 0.0039519389905649654 1 1 0.0098032471771371983 1 1 0.011110922214713707 1 1 1 1 1 1 1 1 1 1 1 1 1 1 1 1 1 1 1 1 1 1 1 1 1 1 1 1 1 0.0119573578868853 2.6340315258804869e-09 1 1 1 1 1 1 1 0.0015067456745567753 1 1 1 8.4734002279984733e-09 0.0057865946303501531 1 0.010007869015908775 1 1 1 1 1 1 0.0056941147650544279 1 1 1 1 0.009984423117419575 1 1 1 1 1 1 1 1 1 1 1 1 0.0096082371088334062 0.0092822030006882942 1 1 1 1 1 1 0.0092467094954833233 1 1 1 1 0.008907036316902376 1 0.0042444171214293946 0.008077778088962595 1 1 0.0058334172519182211 1 1 1 1 0.0013490933733395181 1 0.01098799047459839 0.0013608489371640022 1 1 1 1 1 0.0041574569296523745 1 1 1 1 1 0.006573462514919518 1 1 1 1 0.010269917377178386 1 1 0.0031777443964502161 1 0.0042233942826676724 1 1 1 0.0091861829833969587 0.0077424714209332422 1 1 1 0.0094448038032547907 1 0.012094806065997502 1 1 0.011315688285685306 1 1 1 1 1 1 0.010442031989068276 1 1 1 1 1 1 1 1 1 1 1 1 1 1 0.009832806019836559 1 1 1 1 1 1 0.0091724478799046355 1 1 1 1 1 1 1 0.0087677064160713476 1 0.0096741049084363897 1 1 0.0090686724829955601 1 0.0094369414047065035 1 1 1 0.0094785363877039723 1 1 1 1 0.0080117361228433902 1 1 0.0088314745779149786 1 1 1 1 1 1 1 1 1 1 0.010009677040228173 1 0.0060744035524135671 1 1 1 1 1 0.0089896197963819577 1 1 0.0089289545543798973 1 1 1 1 1 1 1 1 1 1 1 1 1 1 0.0095545414072328444 1 1 1 1 1 1 1 1 1 0.0050060524394938827 1 1 1 1 1 1 1 1 1 1 0.009034593306654664 1 1 1 1 1 0.0098903626874668853 1 1 1 1 1 0.0071890607704746161 0.0057279652516536057 1 1 1 1 0.0097292730996396265 1 1 1 1 1 1 1 0.0085836874807772284 1 1 0.0080829116189701129 1 1 1 0.0054660745411733679 1 1 1 1 1 1 1 1 1 1 1 1 1 1 1 1 1 1 1 1 1 1 1 1 1 1 1 1 1 1 1 1 1 1 1 1 1 1 1 1 1 1 1 1 1 1 1 1 0.0093514146975992724 1 1 1 1 1 0.0086418911017682662 1 1 1 1 1 1 1 0.0074612234350438711 1 1 1 0.0091473964972713269 1 0.0085501117548611137 1 1 1 1 1 0.0091040679284299791 1 1 1 1 1 1 0.0090265011856737309 1 1 1 1 1 1 1 1 1 1 0.0098685404227780143 1 1 1 1 1 1 0.0078620438061629255 1 1 1 1 1 1 1 1 1 0.0087116091420168136 1 1 1 1 1 1 1 0.010013853041343987 1 1 1 1 1 1 1 1 1 1 1 1 1 1 1 1 1 1 1 0.0059075064335061432 0.0079344509768112838 0.0099062616360538931 1 1 1 0.0099039369159211778 1 0.0083860994062848072 1 1 1 1 1 1 1 1 1 1 1 1 1 1 1 1 1 1 1 1 1 1 1 1 1 1 1 1 1 1 1 1 1 1 1 1 1 1 1 0.0083455964579657732 1 1 1 1 0.0051150080356393238 0.00011386911308430489 1 1 0.0091824753939962894 0.0054821569031253126 1 1 1 1 1 1 1 0.0049925803110184991 1 1 1 0.018024802408672616 1 1 1 1 1 1 1 1 0.001606700905194991 0.0094961648045349626 0.0031548962534136867 0.010116471504810038 1 1 0.0016568685182372644 1 1 0.014666495621748758 1 0.0069866491038708539 1 1 0.0039276044659445376 0.012548948825015727 1 1 -1.8141805384341847e-09 0.010203005979731897 1 1 1 1 4.2486816929226956e-10 1 1 1 1 1 1 1 1 1 1 1 1 0.0097293060105700067 1 0.013693517047815422 1 0.0048341249918332063 1 0.009142392552602574 1 1.7340585183045487e-09 1 1 1 1 1 1 0.009761482689548226 1 0.0016749690421980993 1 0.011468174563867253 0.0099167669445567978 1 1 1 1 1 1 1 1 1 1 1 1 1 1 1 1 1 1 1 1 1 1 1 1 1 1 1 1 1 1 1 1 1 1 1 0.0084110676777878757 1 1 1 1 1 1 1 1 1 1 0.0073722830275574271 1 1 1 1 1 0.0073305107926266849 1 1 1 1 1 1 0.0085428040422669115 1 1 1 1 1 1 1 1 1 0.0035943115126885819 1 0.01492313466535921 1 1 1 1 1 0.0058934689524453299 1 1 0.010154183626668041 1 1 0.00126631158622292 1 1 1 0.0090417653417454551 1 1 1 1 1 1 1 1 1 0.0069729666724008578 1 1 1 1 0.012104970396053235 1 1 1 1 1 1 1 1 1 1 1 1 1 1 1 1 1 1 1 1 1 1 1 1 1 1 1 1 1 1 1 1 1 0.0082788003635465915 1 1 1 1 1 1 1 1 1 1 1 1 1 1 1 0.0098624456962599395 1 1 1 1 1 1 1 1 1 1 1 0.01505745251725852 1 1 1 1 1 1 0.012432846906745952 1 1 1 1 1 1 1 1 1 -2.6522963686437251e-09 1 1 1 0.0099095634026982807 1 1 1 1 1 1 1 1 1 1 1 1 1 1 1 1 1 1 1 1 1 1 1 1 0.010319008766992275 1 1 1 1 1 1 1 1 1 0.011527821840724348 1 1 1 0.0091926575296003704 1 1 1 1 1 0.0083310746782381054 1 1 1 1 0.0086160679152014197 1 1 1 1 1 1 1 1 1 1 1 0.0054332191657240382 1 0.013995238284730378 1 1 0.0067863580851338888 1 1 1 1 1 1 1 1 1 0.0087511288076493558 1 1 1 1 1 1 1 1 1 1 1 1 0.012227697443182408 1 1 1 1 1 1 1 1 1 1 0.010474898048472233 -6.1750560914619612e-10 1 1 1 1 0.010316214965198188 1 1 1 5.8340940412016096e-10 1 0.010189217256966553 1 1 1 1 1 1 -3.9562396171588521e-09 1 0.010619552351845906 1 1 0.0095861408996355136 1 1 -1.523876729664364e-09 1 1 1 1 1 1 1 1 0.0097517955364463029 1 1 0.0087619939003100149 -2.181932873962511e-09 1 1 1 1 1 1 1 1 0.0032747812475644143 1 1 0.0056695004423807076 1 0.0046605589349002705 1 1 0.0096434225127639654 0.0034814233135816337 1 1 0.011273081932299547 0.006937536479390681 0.0099922844433592492 0.0087104323973772636 1 0.0095399266016356378 1 1 1 1 5.5504482711354886e-09 1 1 1 1 1 3.2308351376186817e-09 0.0093251633698336802 0.00055479030473125704 1 1 0.0058026860380746993 0.0028298421318291899 1 1 1 0.0051701695781285265 1 1 1 1 1 0.0012433335789177775 0.0022009682366986947 1 1 1 1 1 1 1 1 1 1 1 1 1 1 1 1 0.0067216776507959715 1 1 1 0.0057526215881395617 1 0.0073708514963314901 1 1 1 1 1 1 1 0.0094145814422993499 1 1 1 1 0.0084719262438415054 1 1 1 0.0077807328640963815 1 0.010030825233955591 1 1 1 1 1 1 1 1 1 1 1 1 1 1 1 1 1 1 1 1 1 1 1 1 0.0085904689713600067 1 1 1 1 0.0067516537667375569 1 1 1 1 1 1 1 1 1 1 1 1 1 0.0083080116229828534 1 1 1 1 1 1 1 1 1 1 1 1 1 1 1 1 1 1 1 0.010123839619235952 1 1 1 1 1 1 0.0060215701095675464 0.0080894264579144202 1 1 1 1 1 1 1 1 1 1 1 1 1 1 1 1 1 1 0.0072950867210762795 1 1 0.006672007457968779 1 1 0.0099595521221364225 1 1 1 1 1 1 1 1 1 1 1 1 1 1 1 1 0.0092790409315103191 1 0.008656745548241215 1 1 1 1 1 1 1 0.0093777046167308961 1 1 1 1 1 1 1 0.0091316994563652581 1 1 1 1 1 1 0.0078678806876327535 1 1 1 0.0072113109111948334 1 1 0.010223303653952588 1 1 1 1 1 1 1 1 1 1 1 1 1 1 1 1 1 1 1 1 1 1 1 1 1 1 1 1 1 1 1 1 1 1 1 1 1 1 1 1 1 1 1 1 1 1 0.0088727968295204442 1 1 1 1 1 1 1 1 0.0097381024839529387 1 1 1 1 1 1 1 1 1 0.0093408238159630678 0.0081055693727284019 1 1 1 1 1 1 0.0097948962686317427 1 1 1 0.010666196057927478 0.011635300954399247 1 0.0057728520124234834 0.0081057114895476193 1 0.011152596156353008 1 0.0088045251710226445 1 0.0046607227586115694 1 1 1 1 1 1 1 1 1 0.0065468535544969588 1 1 0.010064193090052399 1 1 1 0.001685594448841924 0.0061528989796323704 1 1 1 1 1 1 1 1 1 1 1 1 -1.2905841464960766e-09 1 0.0078483275430932531 1 1 1 1 1 0.0071872349606722456 0.0077800919027801027 1 1 1 1 1 1 1 1 1 1 1 1 1 1 1 1 1 1 1 0.010192907159843015 1 1 1 0.010562385705682041 1 1 1 1 1 1 1 1 1 1 0.0076287872936111941 1 0.0099580537336796462 1 1 1 1 1 1 1 1 1 1 1 1 1 1 1 1 0.0092214521020611527 1 1 1 1 1 1 1 1 1 1 1 1 1 1 1 1 1 1 1 1 1 1 1 1 1 0.0018175838774455114 0.010956901163158232 1 1 1 1 1 1 1 1 0.010483447357810396 1 1 0.010235736444639976 1 1 1 1 1 -1.2428257481315874e-09 0.00070911580241825767 1 1 1 1 1 1 1 1 1 1 1 1 1 1 1 1 1 1 1 1 1 1 1 1 1 1 1 0.010695807702180479 1 1 1 1 0.0042110759179887873 1 1 1 1 1 1 0.0049234515293685947 1 1 1 1 0.0048348191759429379 1 1 1 1 1 1 1 1 1 1 1 1 0.0042319887212864064 1 1 1 1 1 1 1 1 1 0.0060868324194180519 1 1 1 1 1 1 1 1 1 1 1 1 1 1 1 1 0.0086421637766149646 1 1 1 1 1 1 0.0081317605996333829 1 1 1 1 1 1 1 1 1 0.0063515979691625268 1 1 1 1 1 1 1 1 1 1 1 0.0059400498067335595 1 1 1 1 1 0.0027206756943068148 0.010009898000937951 0.0099218680003626651 1 1 1 1 1 1 1 1 1 1 1 1 1 1 1 1 1 1 1 1 1 1 1 1 1 1 1 1 1 1 1 1 1 1 1 1 1 1 1 1 1 1 1 1 1 1 1 1 1 1 1 1 1 1 1 1 1 1 1 0.0065317401239141691 1 1 1 1 1 1 1 1 1 1 1 1 1 1 1 1 1 1 1 1 1 1 1 1 1 1 1 1 1 0.0099652768535124954 1 1 1 0.0082117094426732255 1 1 0.011929073933687133 0.010081358498875623 1 1 -1.9187211403037807e-09 1 1 0.010493350933870035 1 1 0.0084358494506855484 1 1 1 0.0085450902802014107 1 1 1 1 1 1 1 1 1 1 1 1 1 1 1 -4.4629864040524048e-10 1 1 1 1 1.7434712840103117e-09 1 0.0052911992419879808 1 1 1 1 0.0095106436671760809 1 1 1 1 1 1 1 1 1 0.010100401319064247 1 1 1 1 1 1 1 1 1 1 1 1 1 1 1 1 1 1 1 1 1 0.01010079915215188 1 0.00378374611397233 1 1 0.0043249347997606699 1 1 1 1 0.0096471425158961965 1 1 -4.2059187556342525e-10 1 0.010333523776395164 1 1 1 1 1 1 1 1 1 1 0.0012166160668133793 1 1 1 1 1 1 1 1 0.0096243008709612204 0.010031092400409204 1 1 0.005781809130788516 1 1 0.0077571989994181158 1 1 1 1 0.0092795427187554076 0.0073594084970894334 1 1 1 1 1 1 1 0.0084995184480931921 1 1 1 1 0.010822209640815436 0.006878436677364274 0.013141503953500796 1 1 1 1 1 1 0.0099922846941604693 1 1 0.0074264724158433094 0.0094644539707476171 1 1 1 0.010081521559942122 0.010016283789491794 1 1 1 1 1 0.0093690117653971242 1 0.0096231046576510677 1 1 1 1 1 1 1 1 1 1 1 0.0055658318779428393 1 1 1 0.0093479262758716722 1 1 1 1 1 1 1 0.0099925599336633201 1 0.0097086126016684132 1 0.01001783422170752 1 1 1 1 0.0069750838785227216 1 1 1 1 1 0.0064849922769586637 1 1 1 1 1 1 1 1 1 1 1 0.0084164283668558479 1 1 1 1 1 1 1 1 0.007906853451867684 1 1 1 1 1 1 1 1 1 0.007990718013176884 1 1 1 1 1 0.0074991065662903499 0.0092278668979788314 1 1 1 1 1 1 1 0.0079171129322442354 1 1 1 0.0040461695463658853 1 1 1 1 1 1 1 1 0.010042756247443612 1 1 1 8.1660819079010238e-10 1 1 1 0.00014051983139397838 1 0.010711954777918515 1 0.0048052121187580257 0.0028648525921656145 1 1 0.0089100895671950127 1 0.00012840482547624849 1 1 0.0056215984605912789 0.011390031271944479 1 1 0.0092413113044834336 1 1 1 1 1 1 1 0.011019600885668878 1 1 1 0.0080179312249430059 1 1 0.0071054863782332176 1 1 1 0.0099161480001015677 1 0.0099876454479957376 1 1 1 1 0.002350428166239777 1 0.010485331809145354 1 1 1 1 1 0.0088546182655659927 1 1 1 1 0.0099962468977965561 1 0.010010944254114846 1 1 0.0096251508288371472 1 0.010933405493799668 1 1 1 1 0.010210905977014375 1 1 0.0056895884002536035 1 0.0095971229133625206 1 1 0.010356683009283576 1 0.0075159540779407112 1 0.0093181438082571288 1 1 1 1 1 0.0090496793239716322 1 1 1 1 1 0.0030971023334848136 1 1 1 1 1 1 0.0086036598139560168 1 1 1 1 1 1 1 1 1 1 1 1 1 1 1 1 1 1 1 1 1 1 1 1 1 0.010086797561299593 1 1 1 1 0.0049453451178064489 0.0079269391862807487 1 1 1 1 1 1 1 1 1 1 1 1 1 1 1 1 1 1 1 1 1 1 1 1 1 1 0.0070707417317990243 1 1 1 1 1 1 1 1 1 1 1 1 1 1 1 1 1 1 1 1 0.0058384256416892742 1 1 1 1 1 1 1 1 1 1 1 1 1 1 0.0081256836343667985 1 1 1 1 1 1 1 1 1 1 1 0.0067988313520662095 1 1 0.0077159606544454397 1 1 0.0065867937798050492 0.0068783842663917381 1 1 0.0094028827621035465 1 1 1 1 1 1 1 1 1 1 0.0066550425446418341 1 1 1 1 1 1 1 1 1 1 1 1 1 1 1 1 1 1 1 1 1 1 1 1 1 1 0.006623438492031967 1 1 1 0.0094668239424061662 1 1 1 1 1 1 1 0.0085844347467905029 1 1 1 1 1 1 1 1 1 1 1 1 0.0082373390857471643 1 1 1 1 1 1 1 1 0.0073480022913387979 0.0090245453020389443 1 1 1 1 1 1 1 1 1 1 0.0073750190862504799 1 1 1 1 1 1 1 1 1 0.0081428105296964155 1 1 1 1 1 1 1 1 1 1 1 1 1 1 1 1 1 1 1 1 1 0.0078788458290440337 1 1 1 0.0090637444740477892 1 1 1 1 1 1 1 1 1 1 1 1 1 1 1 1 1 1 1 1 0.0099794812702310321 1 1 1 1 1 1 1 1 1 1 1 1 1 1 1 0.0088949906866136064 0.003959353704564135 1 0.010079114208516215 1 1 1 1 1 1 1 1 1 1 1 1 1 1 1 1 1 1 1 1 1 1 0.0074792334525947196 1 1 1 1 1 1 1 1 1 1 1 1 1 1 1 1 1 1 0.0090387426012664401 1 1 1 1 1 1 1 1 1 0.0098834963745150807 1 1 1 1 1 1 1 1 1 1 1 1 1 1 1 1 1 1 1 1 0.010022991787472638 1 1 1 1 0.0099388803257664336 1 1 1 1 0.0096136196798457824 1 1 1 1 1 1 1 1 1 1 1 1.2089820203980972e-10 1 1 1 1 1 1 0.0013502679054427256 1 0.0035225731139550747 1 1 1 1 1 1 1 1 1 1 1 1 1 1 1 1 1 0.0094179756870723663 1 1 0.0092386731825519208 1 1 1 1 1 1 1 1 1 1 1 1 1 1 1 1 1 1 1 1 1 1 1 1 1 1 1 1 1 1 1 1 1 1 1 1 1 1 1 1 1 1 1 1 1 1 1 1 0.0080085971794043309 1 1 1 1 1 1 1 1 1 1 1 1 1 1 1 1 1 1 1 1 1 1 1 1 1 1 1 1 1 1 1 1 1 1 1 1 1 1 1 1 1 1 1 1 1 1 1 1 1 1 0.0099704793204709024 1 1 1 1 1 0.00018656552336694665 1 1 1 -1.6251393668287317e-09 1 1 1 1 1 0.0035219253427998662 1 1 1 0.0012943799314710028 1 1 1 1 1 1 1 1 1 1 1 1 0.010719378121108 1 1 1 1 1 1 0.0079965957083035309 1 1 1 1 1 1 1 1 1 1 1 1 1 1 1 1 1 1 1 1 1 1 1 1 1 1 1 1 1 1 1 1 1 1 1 1 1 1 1 1 1 1 1 1 1 1 1 1 1 1 1 1 1 1 1 1 1 1 1 1 0.0099748887613897008 0.009434547123376406 1 1 1 1 1 0.0099220268538148196 0.0083178339175872095 1 1 1 1 1 1 1 1 1 1 1 1 0.0098761411488987472 1 0.0079972691978004336 1 1 1 1 0.010384293339395397 1 1 1 1 1 1 0.010759433161744669 1 1 1 1 1 1 0.0042093144857737238 1 1 0.009974835205193747 1 1 0.0059596316377847555 1 1 1 0.0074961481205048919 0.0074295931301389794 1 1 0.0072020369576629457 0.0090758551810195889 1 1 1 1 0.0099588307119036872 1 1 1 1 1 1 1 0.001569800286796633 1 1 1 1 1 1 1 0.0015234330141195955 1 1 1 0.0090716528311626382 1 1 1 1 1 1 0.0060641730675690718 1 -1.5002303462019473e-09 0.0007233851522124423 1 1 0.0098484697443263543 1 1 1 1 0.0098252246143919822 1 1 1 1 1 1 1 1 1 1 1 1 1 1 1 1 1 1 0.010032097568157582 1 1 1 0.010007743631877227 0.012848048953167147 1 1 1 1 1 1 1 1 1 1 0.011020884770396385 1 0.011668468341929111 1 1 1 1 1 1 0.007194170408593898 1 0.0090744471600404785 1 0.012407170147500139 1 1 1 1 1 1 1 1 1 1 1 1 1 1 1 1 1 1 1 1 1 1 0.0091378882971432616 1 1 1 1 1 1 1 1 1 1 1 0.010633352605737161 1 1 0.0078078596874582486 1 1 1 1 1 0.010181447318870211 1 1 1 1 0.010091244289714321 1 1 1 1 1 1 0.0096406720557323574 1 1 1 1 1 1 1 1 1 1 1 1 1 1 1 1 1 1 1 1 1 1 1 1 1 1 1 1 1 1 1 1 0.010258381157044761 1 0.0087739933188421045 1 1 1 1 1 1 1 1 1 1 1 1 1 1 1 1 1 1 1 1 0.0091171660106496178 1 1 1 0.0091193761751182933 1 1 1 1 1 1 1 1 1 1 1 1 1 1 1 1 0.0098682740947275242 1 0.0018439248435489584 1 1 1 1 1 1 1 1 1 1 1 1 1 0.0088780487365523186 1 1 1 1 1 1 0.0082810884901024576 1 1 1 1 1 1 1 1 1 0.0078812245620975864 1 0.0086798315210383451 1 0.0061011246950721972 1 1 1 0.0066668166084023848 1 1 1 1 1 0.0079459332196358864 1 1 0.0048922186366336766 1 1 1 1 0.0099972233146018493 1 1 1 1 0.0064588710703337888 1 1 1 -3.7104559702516582e-10 0.011154074999893697 1 1 1 1 1 1 0.0082139215711824164 1 1 1 1 1 1 1 1 1 1 1 1 0.0088751706921928117 1 1 1 1 1 1 1 1 0.00099560204924642806 1 1 0.0099173472484886463 1 1 1 1 1 1 1 1 1 1 0.00095344701538777749 1 0.0006371183685654723 1 1 0.0097885328751153612 0.0075752515266368295 1 1 1 0.0074427411024897486 1 1 1 1 0.0081632873231959995 1 1 0.0041333334520422885 1 1 1 1 1 1 1 1 0.0055860330324276966 1 1 1 1 1 1 1 1 1 1 1 0.0077230361743916565 1 1 1 1 1 0.0088134259031698824 1 1 1 1 1 1 1 1 1 1 0.010028659819837929 1 1 1 1 1 1 1 1 0.010208797889606422 1 1 1 1 1 1 1 1 1.362858527420574e-09 1 1 0.0093521067511181735 1 -1.330286311662654e-09 1 0.010661723738976342 1 1 1 1 0.009856666666117694 1 1 0.0033441773153824149 0.0090076811163398805 1 1 1 0.0041656826026817625 1 1 1 1 1 1 0.009871185626626729 1 1 -1.2358622042407674e-09 1 1 1 1 1 1 1 1 1 0.0060175485895986418 1 1 1 1 0.010023291959080489 1 1 1 1 0.010077508741594726 1 1 1 0.0041276682211245919 0.0061856134065752313 1 1 0.0029552076463279266 0.011092518647589577 1 0.0078105480555891293 1 0.0074509724534964732 1 1 1 1 0.0079734807779489811 1 1 0.010150177566124215 0.010427503126607287 0.011082164500164676 1 1 1 1 1 0.01026962828649048 1 1 0.0054131775099781031 1 1 1 1 1 0.0052406687225503411 0.0070275029730222163 1 1 1 0.010071784152974349 1 1 1 1 1 1 1 1 0.0082401292811739024 1 1 1 1 1 1 1 1 1 1 0.0090024533383138618 1 1 1 1 0.0022092029188860805 1 1 1 1 1 1 1 0.00025220574502054713 1 1 1 1 1 1 1 1 1 1 1 1 1 1 1 1 1 1 1 1 1 1 0.00042065147452687718 1 1 1 1 1 4.8350054238088802e-09 0.003896499488949965 1 1 1 1 0.0081348590375849034 1 1 0.0087181782897167281 1 0.0054046561637185464 3.898051499640065e-10 1 1 1 0.010568618951481933 1 1 0.0099390810981612159 1 1 1 1 1 1 1 1 1 1 1 1 1 1 1 1 1 1 1 1 1 1 1 1 1 1 1 1 1 1 1 1 1 1 1 1 1 1 1 1 1 1 1 1 1 1 1 1 1 1 0.0051365183321093119 1 1 1 1 1 1 0.0064023038374253494 1 1 1 1 1 1 1 1 1 0.0078077683750639587 1 0.0092674515410266015 1 1 1 1 1 1 1 1 1 1 1 1 1 1 1 1 1 0.0089593813634652603 1 1 1 1 1 1 1 1 1 1 1 1 1 0.0095646920272833211 1 1 1 1 1 1 1 0.010044598954608084 1 1 1 1 1 0.0099538444165537185 1 1 1 1 1 1 1 1 1 0.015340730140213501 1 0.0098438013595188931 1 1 1 1 0.011441318496444385 1 0.007787368930586222 1 1 1 0.0043496263380474465 1 1 1 1 0.0076227870251950117 1 1 1 1 1 1 1 1 1 1 1 1 1 1 1 1 1 1 1 1 0.012311139991788704 0.0090298989952301914 1 1 1 1 1 1 1 1 1 1 1 1 1 1 1 1 1 1 1 1 1 1 1 1 1 0.010062828174648229 1 1 0.010041151121130512 1 1 1 1 1 1 1 0.0080957651935212593 1 1 1 1 1 1 1 1 1 1 1 0.0056754231432749741 1 0.0075737077054936139 1 1 1 1 1 1 1 1 1 1 1 1 1 1 1 1 1 1 1 1 1 1 1 1 1 1 6.1486562941137635e-06 1 0.00069546857820452362 1 1 1 1 1 1 1 1 1 1 1 1 0.0097767129423599816 0.0094029574327429526 1 1 0.0097107916995215308 1 1 1 1 1 1 1 1 1 1 1 1 1 1 1 1 1 0.0023110372241608862 1 1 1 1 1 1 -5.5956081088104348e-10 1 1 1 1 1 1 -3.3929399012588846e-09 -5.3454713849765412e-09 1 1 1 1 1 1 1 1 1 1 1 1 1 1 1 1 1 1 1 1 1 1 1 1 1 1 1 1 1 1 1 1 1 1 1 1 1 1 1 1 1 1 1 1 0.0095171996994619073 1 1 1 1 1 1 1 1 1 1 1 1 1 1 1 0.0062095645456301685 1 1 0.005641250034366059 1 1 1 0.0061071444814939403 1 1 1 1 1 1 1 1 1 0.0064048080470345339 1 0.0098126509345394797 1 1 0.0070702635021425092 0.0078502379469920381 1 1 1 0.006590678595739221 1 1 1 1 1 1 0.0079928295461236028 1 1 1 1 1 1 1 0.0066853351222830194 0.007093492556762216 1 1 1 1 0.0071966416491839082 0.0069348676440510824 1 0.01390649984372371 0.011506329105057053 1 1 1 1 1 0.01385500105770883 0.012565101410168575 1 1 1 1 1 1 1 1 1 1 1 1 1 1 1 1 1 0.013503863957207932 1 1 0.010486323721623943 1 1 1 1 1 1 1 0.0099126839886611272 1 1 1 0.0002146749080794777 1 1 1 1 1 1 2.465582167513608e-05 1 1 1 1 1 1 1 1 0.0099229903924079807 1 1 1 1 1 1 1 0.0066866804721536516 1 1 1 1 1 1 1 0.01286071654235859 0.002504837414355145 1 0.0017760876042923375 1 1 0.0037379755612136217 0.0099616924837499371 1 1 1.5266800879043529e-09 1 -1.6944013137010216e-09 1 1 1 1 1 1 1 1 1 1 1 1 1 1 1 1 1 1 1 1 1 0.0078838237697113379 1 0.011631353342868212 1 1 1 1 1 1 1 1 1 1 1 1 1 0.010529248675031527 1 1 1 1 1 0.0092571536383775285 1 1 1 1 1 1 1 1 1 1 0.0098333647346416295 1 0.0048471869389894312 1 1 1 1 1 1 1 1 1 1 1 0.008016361899674633 0.010160114336216738 1 1 0.0099649679456989652 1 1 1 1 1 1 1 1 1 1 1 1 1 0.0033332731738682231 0.0098338413722152129 1 1 1 1 1 0.009583939677111103 1 1 1 1 1 0.0036425561968229311 1 1 0.0041034580189900083 0.0098512704967070389 1 1 0.010118136782925755 1 1 1 1 1 1 1 1 1 1 1 1 1 1 1 1 1 1 1 1 1 1 0.0062045186416097506 1 1 0.0086282518771624642 1 1 1 1 1 1 1 1 1 1 1 1 1 1 1 1 1 1 1 1 1 1 0.0043355393739778481 0.0098085764587973676 1 1 0.010137291554264615 1 1 1 0.0088194190520318721 1 1 1 0.0084260204311727548 1 1 1 1 1 1 1 1 1 1 1 1 1 1 1 1 0.0043609014989003936 1 0.0092459950493820799 1 1 1 1 1 1 1 1 1 1 1 1 1 1 1 1 0.0063166682758744527 1 1 1 1 1 0.0073319408056700293 1 1 1 1 1 1 1 1 1 1 1 1 1 1 1 1 1 1 1 1 1 1 1 1 1 1 1 0.0093591861914827865 1 1 1 1 1 1 1 0.009967204849559751 1 1 1 1 1 1 1 0.009949113493631704 1 1 0.0099672572773981134 1 1 1 1 1 1 1 0.0072803631035587915 1 0.0081707859566793328 1 1 0.0099990965034774774 1 1 0.0099188828219208096 1 1 1 1 1 0.010017362292365602 1 1 1 1 1 1 1 1 1 1 1 1 1 1 0.010077277152774313 1 0.0097816372434042179 1 1 0.0099289108342792629 1 1 0.010207862642873201 1 1 1 1 1 1 1 1 1 1 1 1 1 1 1 -2.4259068157062025e-09 0.0084938088666822922 1 0.0068415455046600734 1 1 0.01008200090070617 1 1 1 1 1 1 0.0096573928261174252 0.011447144500052643 1 1 2.6792357013527557e-09 1 0.010391733803033914 1 1 1 0.0028434698546612458 1 1 0.0060430497953159051 1 1 1 0.002853187023457146 1 1 1 1 1 1 1 1 1 1 1 0.010000489344108425 1 0.0098032735787073593 1 0.008866389604010946 1 1 0.0076417953725962384 1 1 1 1 1 1 1 1 1 1 1 1 0.0083852937283839177 0.0060147914331537891 1 1 0.0091103280343446183 1 1 0.0058231627183927374 0.0094005855884274833 0.0096540830052721446 1 1 1 1.4766809580679663e-09 1 1 1 1 1 1 0.0092428720704907374 1 0.0083005964607816111 0.0034212766066337649 1 -3.145971691487226e-09 1 1 1 1 0.006083538275989453 1 1 1 0.0059943689482864319 1 1 1 1 1 1 1 1 1 1 1.5422804700016002e-09 1 4.2129045182970337e-09 1 1 1 1 1 1 0.0042331235261195725 1 0.0052651488177769892 1 1 0.009368742881892874 1 1 1 1 0.0092337617524070898 1 1 0.0065164721149323646 1 1 0.0077397962391019745 1 0.0099483296649084813 1 1 1 1 0.006266764824072301 1 1 1 1 0.0080497161644545664 0.0095969510445752804 0.0099909638965326852 1 1 1 1 0.0023556216541495388 1 0.0050726908229608431 1 0.0018931535681867492 1 1 1 1 1 1 1 1 1 0.0084395512337283509 0.0082574282058905622 1 1 1 1 0.0021159975685530723 -1.9271917603425059e-09 1 1 1 1 1 1 -1.7106154947404972e-09 1 1 2.950889152822378e-09 0.010194302140447085 1 1 1 1 1 1 1 1 1 0.010071872869713496 1 1 1 0.013590734988912435 1 1 1 1 0.012383030755112382 1 1 1 1 1 1 1 1 1 1 1 1 1 1 1 1 1 1 1 1 1 1 1 1 1 1 1 1 1 1 1 1 1 1 1 1 1 1 1 1 1 1 1 1 0.010363085530233261 1 1 1 1 1 1 1 1 1 1 0.0099027614398597193 0.010024176674505191 1 1 0.0085938226146584744 1 1 0.010664911914840359 0.0042302931040631847 1 0.0034704145572088188 1 1 1 1 0.010018827945526988 0.0055102319696779534 1 1 0.01000135462131806 1 0.0110425518117989 1 1 1 1 1 0.0060347378483986761 1 1 0.01080593872824631 1 1 1 0.0027270735388084701 1 1 0.0052693843908567309 0.010000186744893893 1 1 1 0.0099986830426077762 1 1 1 0.0098470437717685048 1 1 1 1 0.010399701174537522 1 1 1 1 1 1 1 1 0.010190548584512224 1 1 1 1 1 1 1 1 1 1 0.011215408005405332 1 1 1 1 1 1 1 1 1 1 1 1 1 1 1 1 1 1 1 1 1 1 1 1 0.010198229769203383 1 1 1 1 1 1 1 0.010822768259776794 1 1 0.00068526081925937912 1 1 1 0.0106214740953908 1 0.0003126975421478724 1 1 1 1 1 1 1 1 0.0027226528925007598 1 1 0.010561197088454698 0.0089750835936414503 1 1 1 1 1 0.0011888171632077373 1 0.001758842231050918 1 0.0099735819334880876 1 1 1 1 1 1 1 1 1 1 1 1 1 1 1 1 1 1 1 1 1 1 1 1 1 1 0.0087153453625764873 1 1 1 1 1 1 0.0001859056145576965 0.01046646406047573 1 1 -1.0926754188955723e-09 1 0.0065027513525479606 1 0.010411546726205824 1 1 1 1 0.002819313588093942 1 1 1 1 1 1 0.0094357748946736313 0.0089089328379350369 0.0095974830924357539 1 1 1 0.0099435920045751972 1 1 1 1 1 1 1 1 1 1 0.0098616580072825553 1 1 0.010093771476863238 1 1 0.0019573329309642493 1 1 0.0098821784335877735 1 1 1 0.00083156928684045839 1 1 0.00032666014062252002 1 1 1 1 1 1 1 1 1 1 1 1 0.0057809872091070108 1 0.0045008824682457524 1 1 1 1 1 1 0.0042592198621706212 1 1 1 0.0046442613855960518 0.0029643855112367612 1 1 1 1 1 0.0099989532541293474 1 1 1 1 0.012200629061705966 0.0099797917486876414 1 1 1 1 0.0041867777824722147 0.0035639808667567927 1 0.0091574430327427524 0.010964807087268869 1 0.0043892971860714086 1 1 0.0099577418804783682 1 1 0.010681047681472947 -2.30782283561215e-09 1 1 1 1 1 1 1 1 1 1 1 1 1 1 1 0.010732567885778296 0.011626049574461721 1 1 1 1 1 1 1 1 1 1 1 0.0098852563002114202 1 1 1 1 1 1 1 0.0098171901105203428 1 1 1 1 0.0099992110115651196 1 1 1 0.010156206260978674 1 0.0097520747535626735 0.0097100004232900036 1 1 1 1 1 1 0.0090336835417764855 1 1 1 1 1 1 1 1 1 1 0.0098910904051064154 1 1 1 1 1 1 1 1 1 1 1 1 0.0072735278970209524 1 1 1 1 1 1 1 1 1 1 1 1 1 0.0099287147777816012 1 1 1 1 1 1 1 1 1 1 1 1 0.01008848619391485 1 1 1 1 1 0.0097195213899084337 1 1 1 1 1 1 1 1 1 1 1 1 0.010023633304780261 1 1 1 1 1 1 1 1 1 1 1 1 1 1 1 1 1 1 1 1 0.0098851178541434371 1 1 0.0043327529555091081 1 0.0096564191278691123 0.0093759255399957775 1 1 1 1 1 1 0.010163013284018613 1 1 0.0044710689567225986 1 1 1 1 1 1 0.005135190271906457 1 1 1 1 1 1 1 1 1 0.006130712340744332 0.0080024865130624775 1 1 1 1 1 1 1 0.0083386602862526426 1 1 1 0.0034627135050051827 0.0037216415403334667 1 1 1 1 0.0032295881897730708 1 0.0081490407398465085 1 1 1 1 1 1 0.0032425214275136685 1 0.0025928420258130372 1 1 1 1 1 0.00997914688057739 1 0.0034249898852854316 1 1 1 1 1 1 1 0.010246219987162828 1 1 0.0053963934669509078 1 0.0085796266740450766 1 1 1 1 0.0099745037621907714 0.0053567492452945946 1 1 1 1 1 1 0.0066404345043173177 1 1 0.0081175730103599936 1 1 1 1 1 1 1 0.0085228614939573261 1 1 1 1 1 1 1 1 0.0098638728215639949 1 1 0.0095489901915881553 1 1 1 1 1 1 1 1 0.0097139600570920331 1 0.010377661032814104 1 0.005446727805171428 1 1 1 1 0.0086708036023615959 1 0.0037655917687407364 1 1 0.0048455777406810306 1 1 0.0070208516070255321 1 1 0.004215117605474987 0.0094038527670078902 1 0.0065302646961867689 1 0.0046273163445167721 1 1 1 1 1 1 1 1 1 1 1 1 1 1 1 1 1 1 1 1 1 1 1 1 1 1 1 0.0079222727611085939 1 1 1 1 0.0089324169972001127 1 1 1 0.0073016034357475182 1 1 0.0081930806164629173 1 1 1 0.0033407242632847445 1 0.0088491340560486464 1 1 1 0.0052464732892262105 1 1 0.0044330579506436339 1 1 1 0.0040850597495644819 1 1 1 1 1 1 1 1 0.0099944962065741435 1 1 1 0.0083462895712869394 1 1 1 1 0.0083541144324331996 1 1 1 1 0.0083299847073263922 1 0.0050937106902567524 1 1 1 1 1 1 1 0.010098349688930712 1 1 1 0.010361360161857432 1 1 0.0078435490599688251 1 1 1 1 1 1 1 1 1 1 1 1 1 1 1 1 1 1 0.008627880880971649 1 1 0.0098650442582702939 1 1 1 0.0095378642415313106 1 1 1 1 1 1 1 1 1 1 0.0084695442318917843 1 0.0090060681556150216 1 1 1 1 1 1 1 1 1 1 1 1 1 1 1 1 1 0.0030006535238762851 1 1 1 1 1 1 0.0018764064250660975 1 1 1 1 0.00091959307369923055 1 0.010399049101161082 1 1 1 1 1 1 1 1 1 1 1 1 1 1 1 0.0090364282987030736 1 1 1 1 1 1 0.009036457530997145 1 1 1 1 1 1 1 0.0040139752878771799 1 1 1 1 0.0090299634831604823 1 1 0.0027754427113790697 0.009957437379586551 1 1 1 1 1 1 1 1 1 1 1 1 1 1 1 1 1 1 1 1 1 1 1 0.0079905380684426545 0.0090274463379835315 1 1 1 1 0.0096728967530962176 1 1 1 1 1 1 1 1 0.0068387657671446448 1 1 1 1 1 0.0079237920085652187 1 1 1 1 1 1 1 1 1 1 1 1 1 1 1 1 1 1 1 1 1 1 1 1 1 1 1 1 0.0086694119113452182 0.0059131208396775662 1 1 1 0.0099032356241559646 1 1 1 1 0.0092277109780402149 1 1 1 1 0.0098179637826536527 1 1 1 0.0094123729969474539 1 1 1 1 1 1 0.0097482259789280594 1 1 1 1 1 1 0.0090166924716288555 0.0020680714938559053 1 1 1 0.010053828136374099 1 1 1 1 0.0073998567327667741 1 1 1 1 1 1 1 1 1 1 1 1 1 1 1 1 1 1 1 1 1 1 1 0.0072640867126189321 1 1 1 1 0.0085536354697958172 1 0.0082231075007846988 1 1 1 1 1 1 1 1 1 1 0.0081319529411591936 1 1 1 1 1 1 1 1 0.0092120088517806138 1 0.009805604175154017 1 1 1 0.0098676866486164406 1 1 1 1 1 1 1 1 1 1 1 0.0025944660455756389 1 1 1 1 1 1 1 0.0057821635679886647 0.0097092118652112834 1 0.012544461434051368 1 1 1 1 1 1 1 1 1 1 0.0085000885041161614 1 1 1 1 1 1 1 0.010865238523658817 1 1 1 1 1 1 1 1 1 1 1 1 0.0094589589603765577 1 1 1 1 1 1 0.0095547951423611676 1 0.009685551864526647 1 1 1 0.0091445108249032063 1 1 1 1 1 1 1 0.00068221312802428397 1 1 1 1 1 1 1 1 1 1 1 0.0063199631324155608 1 0.010004073169212969 1 1 1 0.010058036700108042 1 1 1 1 1 1 0.010113849443506495 1 1 1 0.0092163431914017695 1 1 1 0.011695776741920908 1 1 1 1 1 1 1 1 1 0.0056273154625818972 1 1 1 1 0.0031942156481504311 1 1 1 1 1 1 1 1 1 1 0.00730365763196608 1 1 1 1 1 0.0038047682260098584 1 1 1 1 1 1 1 1 1 1 0.0024412697271544055 1 1 1 1 0.0094634760762767473 1 1 1 1 1 1 1 1 1 0.001867620293902833 1 0.0017492167643178257 1 1 1 1 1 1 1 1 1 1 1 1 1 1 1 1 1 1 1 1 1 1 1 1 1 1 1 1 1 1 1 1 1 1 1 1 1 1 1 1 1 1 1 1 1 1 1 1 1 1 1 1 0.0098171822604829536 1 1 1 1 1 1 1 1 1 1 1 0.010722730673878904 1 1 1 1 1 1 1 1 1 1 1 0.0086368680455785295 1 1 1 1 1 1 1 0.0088549923995257136 1 1 1 0.0090359929919694767 1 1 1 1 1 1 0.0085297231142777812 1 1 1 1 1 1 1 0.006443623790219323 1 1 0.0055440560567484518 1 1 1 1 0.011941115873907351 1 1 1 0.012942473623516504 1 0.0077479898741763305 1 0.0094079891808780559 1 1 0.0066452469041445271 1 1 1 0.0098170678769911052 1 1 1 1 1 1 0.0094274427316846758 1 1 1 1 0.0090378930707478138 1 1 1 1 1 1 0.0096407361109041405 1 1 1 1 1 1 1 1 0.0093208000397041763 1 1 1 0.0082219644402008966 1 1 1 1 1 1 1 1 1 1 1 1 1 1 1 1 1 0.0020043299481413671 1 1 1 1 -2.3747798527456142e-10 1 1 1 1 1 0.0097762598085624659 0.0098168004113148438 1 1 0.011005587608345854 1 1 1 1 1 0.0022525436489000401 1 1 1 0.0062629709202195131 1 0.0098995973371276882 1 0.0065520501281410267 1 1 0.0084995336949564432 0.009994988770196736 1 1 1 0.013474946516864244 0.012476629747873199 1 0.0079719232197039674 1 1 0.006747489510442288 1 1 0.0086912780552251268 0.0075315828202196181 1 1 1 1 1 0.0070804832579139595 1 1 1 1 1 1 1 1 1 1 1 1 1 1 0.010165960336121119 1 1 0.0014610618335776171 1 1 0.0094454834499316815 1 1 1 1 1 1 0.0029511813169770668 1 1 1 1 1 1 1 1 1 1 1 1 1 1 1 0.0069802825499546192 1 1 1 1 1 0.010099559195800622 1 1 1 1 1 1 1 1 1 1 1 1 0.010099475043271982 1 1 1 1 1 1 1 9.0979760183906855e-10 1 1 1 1 1 1 1 1 1 1 1 1 1 1 1 1 1 0.00012638836265714158 1 1 1 1 1 1 1 1 1 0.0090406621953978278 1 0.0094858670530366587 1 1 1 1 1 1 1 1 1 1 8.7543284069385024e-10 1 1 1 1 0.0074208011162164196 1 1 1 1 1 1 1 7.8359604449434339e-05 1 1 1 0.0099908842559872039 1 0.0083211202054597963 1 1 1 0.010413496037658065 -2.8030509641912074e-09 1 1 1 1 1 1 0.0094292914035030637 0.0099484077876426484 0.0092916827562947724 1 0.0093256380349686311 1 1 1 1 1 1 0.0084327399183427559 1 1 1 1 1 1 1 0.0088409113705356472 1 1 1 0.0087597503708595741 1 1 1 1 0.0099785111069256478 1 1 1 1 1 1 1 1 0.0099313546055415092 1 1 1 0.0094835232950368845 1 1 1 1 1 0.0086698033102173659 1 1 1 1 1 1 1 1 1 1 0.0080709802207703327 1 1 0.0068165345521919076 0.0046383591225477262 1 1 1 1 1 1 1 0.0077890336327896999 1 1 1 1 1 1 1 0.0088803953359561337 1 1 1 1 1 1 1 1 1 1 1 1 0.0092096117641509677 1 1 1 1 0.0088614740886975504 1 1 1 1 1 1 1 1 1 1 1 1 1 1 1 1 1 0.0096518623245465847 1 1 1 1 0.0098107122887472475 1 1 1 1 1 1 1 1 1 1 1 0.009927487237357497 1 1 1 1 1 1 1 1 1 1 1 1 1 1 1 1 1 1 1 1 1 1 1 1 1 1 1 1 1 1 1 1 1 1 1 1 1 1 1 1 1 0.010113198437971049 1 0.0099277496000267241 1 1 1 1 0.0073438172901500245 0.0064876896088022435 1 1 1 1 1 1 1 1 0.0098915806212483467 0.012658656789812733 1 1 1 1 1 1 1 1 1 1 1 0.010860673021053126 1 1 1 1 1 1 1 1 1 1 1 1 1 0.009966733731239635 1 1 1 1 1 0.011405382207099485 1 1 1 1 0.011416830033568193 1 0.011543402085859404 1 1 0.010457638082303131 1 1 0.011436867202105301 1 1 0.009641122278527172 1 1 0.0098981931474477654 1 1 1 1 1 1 0.0090407142587424268 1 0.0072528357730584775 1 1 1 1 1 1 1 0.011014622857931852 1 1 1 1 0.011334612395906392 1 1 0.01516238427396527 0.004761378164527038 0.010014435532968234 1 0.010015643557449144 1 1 0.013306651473127746 0.0014508670625481834 1 1 1 1 1 1 0.011852931085670601 1 1 1 1 1 1 1 1 1 1 1 1 1 1 1 1 1 1 1 1 1 1 0.010051003666813567 1 1 1 1 1 1 1 1 1 1 1 1 1 1 1 1 1 1 1 1 1 0.0089806600330759358 1 1 1 1 1 1 0.0082519916301637807 1 1 1 1 1 1 1 1 1 1 1 0.0078510036960336618 1 1 0.0088703436629577279 1 1 1 1 1 1 1 1 1 1 1 1 1 1 1 1 1 1 1 1 1 1 1 1 1 1 1 1 1 1 1 1 1 1 1 1 1 1 1 1 1 1 1 1 1 1 1 1 0.010023224417513769 1 1 0.011375971811271555 0.0063025574881409637 1 1 1 1 1 1 1 1 1 1 0.010241170829601376 1 1 1 1 0.0071631723924828247 1 1 1 1 1 1 1 0.0067215917089082297 1 1 1 1 1 1 1 1 1 1 1 1 1 0.010149956652523206 1 1 1 1 1 1 1 1 1 1 0.010320613682051881 1 1 0.010015117609814484 1 1 1 1 1 1 1 0.010107834012081767 1 1 1 1 1 1 1 1 1 1 1 1 1 1 1 1 1 1 1 1 1 1 1 1 1 1 1 1 1 1 1 1 -1.9190602735391638e-09 1 1 0.009693366280683624 1 1 1 1 1 0.0096010384246397219 1 1 1 1 1 0.0088720975353566139 1 1 1 0.0035858076780546652 1 1 1 0.0018384817801437765 1 1 1 1 1 1 1 1 1 1 1 1 1 1 1 1 1 1 1 1 0.0097031972652133983 1 0.0096860239337592975 1 1 1 1 1 0.0096764550490404718 1 1 1 1 0.0091494129078692615 1 1 0.0099707606399721677 1 1 1 1 1 1 1 
</DataArray>
</CellData>
</Piece>
</UnstructuredGrid>
</VTKFile>
